8
Lattice="18.723252 0.0 0.0 0.0 20.66365 0.0 0.0 0.0 29.087903999999998" Properties=species:S:1:pos:R:3:spacegroup_kinds:I:1:forces:R:3 spacegroup="P 1" unit_cell=conventional occupancy="_JSON {\"0\": {\"S\": 1.0}, \"1\": {\"S\": 1.0}, \"2\": {\"S\": 1.0}, \"3\": {\"S\": 1.0}, \"4\": {\"S\": 1.0}, \"5\": {\"S\": 1.0}, \"6\": {\"Li\": 1.0}, \"7\": {\"Li\": 1.0}}" energy=-2363.4022222779977 free_energy=-2363.4022222779977 pbc="T T T"
S        9.53033692       8.44512010      11.15529158        0       0.00777296       0.00740375      -0.01480338
S        9.41339635      12.17970145      11.01314129        1      -0.00823679      -0.00578832      -0.01069142
S        9.50428932      12.58806911       8.98176532        2       0.00663113      -0.01166278      -0.00846741
S        8.58787750      11.03765788       8.01073253        3      -0.01262746       0.01782597      -0.00237827
S       10.06579234       9.36795541       8.01175831        4       0.01300695      -0.01905547      -0.00131281
S        9.24439092       7.89722033       9.17522638        5      -0.00662702       0.00836586      -0.01023633
Li      10.79187519      10.32941583      10.41975944        6      -0.00338974       0.00454263       0.02273575
Li       8.09888851      10.24699989      10.53879886        7       0.00347048      -0.00163188       0.02515387
