10
Lattice="20.822066 0.0 0.0 0.0 20.917495 0.0 0.0 0.0 28.34466" Properties=species:S:1:pos:R:3:spacegroup_kinds:I:1:forces:R:3 spacegroup="P 1" unit_cell=conventional occupancy="_JSON {\"0\": {\"S\": 1.0}, \"1\": {\"S\": 1.0}, \"2\": {\"S\": 1.0}, \"3\": {\"S\": 1.0}, \"4\": {\"S\": 1.0}, \"5\": {\"S\": 1.0}, \"6\": {\"S\": 1.0}, \"7\": {\"S\": 1.0}, \"8\": {\"Li\": 1.0}, \"9\": {\"Li\": 1.0}}" energy=-3019.1160469258903 free_energy=-3019.1160469258903 pbc="T T T"
S        8.11959358      12.13653747       9.69365368        0       0.01072510      -0.01402717      -0.00173112
S       11.87583703      12.26744188       9.39793685        1       0.00957839      -0.00500594       0.00387851
S       12.92064374      10.86674931       8.25239373        2      -0.00513629      -0.00765777      -0.00273051
S       12.91979836       9.12111909       9.31992710        3      -0.00609480       0.02348754       0.01365127
S       11.34308635       7.90741700       8.73389464        4      -0.02440645       0.00465550      -0.00443875
S        9.64666245       8.47086696       9.90570126        5       0.00710087      -0.00490027      -0.01469643
S        7.99764894       8.91161322       8.70946561        6       0.00955988      -0.00171930       0.02145174
S        8.05019551      10.88314360       8.05879923        7       0.00005091       0.00082867      -0.01394618
Li       9.92377979      12.50754648       8.21111274        8      -0.00255953       0.00630049       0.00158303
Li      10.16134436      10.94714549      10.35387525        9       0.00118219      -0.00196227      -0.00302207
