4
Lattice="15.999999926084083 0.0 0.0 0.0 19.892991908099454 0.0 0.0 0.0 28.200655869720165" Properties=species:S:1:pos:R:3:forces:R:3 energy=-1050.515464565111 free_energy=-1050.515464565111 pbc="T T T"
S        8.07028208       9.92613179      10.18367856       0.00118605       0.00020209      -0.00998025
S        8.20165150       9.96276046       7.98297162       0.00004345       0.00001286       0.01011446
Li       8.19513556      11.86484398       9.11881516      -0.00033656       0.00101250       0.00006042
Li       8.07137247       8.02426876       9.04752101      -0.00089294      -0.00122719      -0.00019463
