8
Lattice="18.72325167571308 0.0 0.0 0.0 20.66365458637728 0.0 0.0 0.0 29.087900829089246" Properties=species:S:1:pos:R:3:forces:R:3 energy=-2363.402199556492 free_energy=-2363.402199556492 pbc="T T T"
S        9.52988820       8.43857006      11.15582596       0.00778119       0.00724177      -0.01474271
S        9.41323765      12.18634514      11.01328518      -0.00829901      -0.00562249      -0.01059757
S        9.50241053      12.58325779       8.98136512       0.00617245      -0.01199445      -0.00842088
S        8.59919923      11.03022708       8.00389597      -0.01137687       0.01814967      -0.00281896
S       10.05407107       9.37390922       8.00359875       0.01193609      -0.01953447      -0.00151284
S        9.24716248       7.90223122       9.17410751      -0.00620073       0.00887853      -0.01022682
Li      10.79291556      10.33030702      10.42712817      -0.00336043       0.00456422       0.02290056
Li       8.09796234      10.24729247      10.54726705       0.00334732      -0.00168279       0.02541947
