3
Lattice="19.907557676489223 0.0 0.0 0.0 16.746098164558997 0.0 0.0 0.0 26.000006905128952" Properties=species:S:1:pos:R:3:forces:R:3 energy=-721.7496399782832 free_energy=-721.7496399782832 pbc="T T T"
S       10.12657843       8.98049834       8.12802885      -0.00061989      -0.02176645      -0.00790486
Li      11.87768702       7.85271131       7.94894644      -0.00219212       0.00814423       0.00589734
Li       8.32801221       7.93670727       7.91244394       0.00281202       0.01362222       0.00200777
