10
Lattice="20.822065852649562 0.0 0.0 0.0 20.917493380452253 0.0 0.0 0.0 28.344661803894798" Properties=species:S:1:pos:R:3:forces:R:3 energy=-3019.116027469751 free_energy=-3019.116027469751 pbc="T T T"
S        8.11656664      12.13405104       9.69205108       0.01152857      -0.01289511      -0.00153649
S       11.88821945      12.28722296       9.38784500       0.00884511      -0.00483110       0.00513346
S       12.93642746      10.87441185       8.26753562      -0.00438682      -0.00757884      -0.00467272
S       12.89695901       9.11750701       9.31043720      -0.00670004       0.02290853       0.01488437
S       11.31452798       7.90474665       8.72461674      -0.02208500       0.00319999      -0.00663345
S        9.63633837       8.44006907       9.91089571       0.00932051      -0.00445109      -0.00836354
S        8.01386723       8.89121006       8.70904122       0.00681908      -0.00051525       0.01747630
S        8.06506882      10.87208891       8.06479891      -0.00172572       0.00096262      -0.01484272
Li       9.92082413      12.52426565       8.20729442      -0.00235179       0.00599453       0.00184682
Li      10.16979102      10.97400730      10.36224419       0.00073611      -0.00279402      -0.00329178
