6
Lattice="18.953278128880655 0.0 0.0 0.0 19.570870696710234 0.0 0.0 0.0 28.177080463081715" Properties=species:S:1:pos:R:3:forces:R:3 energy=-1707.4150036318954 free_energy=-1707.4150036318954 pbc="T T T"
S        9.71081793      11.62238876       8.38596780       0.00160385      -0.02059248       0.00855997
S        9.45148389       7.89612592       8.09710830      -0.00093177       0.01925602       0.01010572
S        9.98191310       8.68205005       9.96278162       0.00152338      -0.00828564       0.01429276
S        9.03239759      10.57153273      10.06392954      -0.00415439       0.00720732       0.01527467
Li       8.19212829       9.90084683       7.94111414      -0.00137837      -0.00285495      -0.02375005
Li      10.99188203       9.65555039       8.04163863       0.00333729       0.00526948      -0.02448307
