8
Lattice="20.726555716668244 0.0 0.0 0.0 20.72707388056116 0.0 0.0 0.0 27.00554141169859" Properties=species:S:1:pos:R:3:forces:R:3 energy=-2622.868950678913 free_energy=-2622.868950678913 pbc="T T T"
S        8.02263819      10.25250559       8.99085006       0.00737495       0.00088472      -0.01570867
S        8.73724698       8.60129779       7.96932241      -0.00172752      -0.00092200       0.02370583
S       10.44297714       7.90562650       8.91151097       0.00088677      -0.00281382      -0.02470393
S       12.10882932       8.63460335       7.92438222      -0.00371473       0.00379058       0.01662218
S       12.80777379      10.31325123       8.91108409      -0.00759067      -0.00071965      -0.01517079
S       12.06028845      12.00842306       7.99025427       0.00174964       0.00080758       0.02379042
S       10.38794455      12.65938646       9.02033921      -0.00108809       0.00403560      -0.02476847
S        8.68905892      11.97473236       8.05819688       0.00410991      -0.00506327       0.01623343
