 ANIMSTEPS   5
 CRYSTAL 
 PRIMVEC 
 13.4292962070  0.0000000000  0.0000000000
  0.0000000000 13.4292962070  0.0000000000
  0.0000000000  0.0000000000 26.7146437880
 PRIMCOORD   1
  145  1
Sc    0.0000000000    0.0000000000   10.0000000000   -0.0000000000   -0.0000000000    0.0000000000
Sc    2.2382160900    0.0000000000   12.2382160900   -0.0000000000   -0.0000000000   -0.0000000000
Sc    0.0000000000    2.2382160900   12.2382160900   -0.0000000000   -0.0000000000   -0.0000000000
Sc    2.2382160900    2.2382160900   10.0000000000   -0.0000000000   -0.0000000000    0.0000000000
Sc   -0.0021907890   -0.0021469690   14.4728046670   -0.0001049631   -0.0001049631   -0.0002220935
Sc    2.2313420940   -0.0079252800   16.6595184670   -0.0001689222   -0.0002828613   -0.0004256568
Sc   -0.0079355400    2.2313391840   16.6596165370   -0.0002828613   -0.0001689222   -0.0004256568
Sc    2.2316782680    2.2317020980   14.4715570740    0.0001536135    0.0001536135    0.0000314231
Sc    0.0000000000    4.4764321800   10.0000000000   -0.0000000000    0.0000000000    0.0000000000
Sc    2.2382160900    4.4764321800   12.2382160900   -0.0000000000    0.0000000000   -0.0000000000
Sc    0.0000000000    6.7146482700   12.2382160900   -0.0000000000    0.0000000000   -0.0000000000
Sc    2.2382160900    6.7146482700   10.0000000000   -0.0000000000    0.0000000000    0.0000000000
Sc   -0.0125277240    4.4763954800   14.4661032690    0.0002204815    0.0000000000    0.0001980477
Sc    2.1937963780    4.4764321000   16.6356193270   -0.0006248185    0.0000000000    0.0000076623
Sc   -0.0079306600    6.7215170160   16.6594781580   -0.0002828613    0.0001689222   -0.0004256568
Sc    2.2317071680    6.7211644420   14.4715349440    0.0001536135   -0.0001536135    0.0000314231
Sc    0.0000000000    8.9528643500   10.0000000000   -0.0000000000    0.0000000000    0.0000000000
Sc    2.2382160900    8.9528643500   12.2382160900   -0.0000000000    0.0000000000   -0.0000000000
Sc    0.0000000000   11.1910804400   12.2382160900   -0.0000000000   -0.0000000000   -0.0000000000
Sc    2.2382160900   11.1910804400   10.0000000000   -0.0000000000    0.0000000000    0.0000000000
Sc   -0.0021914790    8.9550484290   14.4727912770   -0.0001049631    0.0001049631   -0.0002220935
Sc    2.2313299740    8.9607909100   16.6595465680   -0.0001689222    0.0002828613   -0.0004256568
Sc   -0.0034167610   11.1910923600   16.6599171510   -0.0002340725    0.0000000000   -0.0000788062
Sc    2.2343383480   11.1910778500   14.4731075940   -0.0000805315   -0.0000000000   -0.0002072317
Sc    4.4764321800    0.0000000000   10.0000000000    0.0000000000   -0.0000000000    0.0000000000
Sc    6.7146482700    0.0000000000   12.2382160900    0.0000000000   -0.0000000000   -0.0000000000
Sc    4.4764321800    2.2382160900   12.2382160900    0.0000000000   -0.0000000000   -0.0000000000
Sc    6.7146482700    2.2382160900   10.0000000000    0.0000000000   -0.0000000000    0.0000000000
Sc    4.4764348900   -0.0125189140   14.4661073290    0.0000000000    0.0002204815    0.0001980477
Sc    6.7215213460   -0.0079249700   16.6595353670    0.0001689222   -0.0002828613   -0.0004256568
Sc    4.4764323100    2.1937893380   16.6356414370    0.0000000000   -0.0006248185    0.0000076623
Sc    6.7211844520    2.2316979680   14.4715569840   -0.0001536135    0.0001536135    0.0000314231
Sc    4.4764321800    4.4764321800   10.0000000000    0.0000000000    0.0000000000    0.0000000000
Sc    6.7146482700    4.4764321800   12.2382160900    0.0000000000   -0.0000000000   -0.0000000000
Sc    4.4764321800    6.7146482700   12.2382160900    0.0000000000    0.0000000000   -0.0000000000
Sc    6.7146482700    6.7146482700   10.0000000000    0.0000000000    0.0000000000    0.0000000000
Sc    4.4764301000    4.4764253600   14.4402454030    0.0000000000    0.0000000000   -0.0005659977
Sc    6.7590701720    4.4764310800   16.6355955670    0.0006248185    0.0000000000    0.0000076623
Sc    4.4764311400    6.7590685120   16.6356826370    0.0000000000    0.0006248185    0.0000076623
Sc    6.7211579620    6.7211672620   14.4715319040   -0.0001536135   -0.0001536135    0.0000314231
Sc    4.4764321800    8.9528643500   10.0000000000    0.0000000000    0.0000000000    0.0000000000
Sc    6.7146482700    8.9528643500   12.2382160900    0.0000000000    0.0000000000   -0.0000000000
Sc    4.4764321800   11.1910804400   12.2382160900    0.0000000000    0.0000000000   -0.0000000000
Sc    6.7146482700   11.1910804400   10.0000000000    0.0000000000    0.0000000000    0.0000000000
Sc    4.4764324400    8.9653899240   14.4661360290    0.0000000000   -0.0002204815    0.0001980477
Sc    6.7215328660    8.9607899500   16.6595470680    0.0001689222    0.0002828613   -0.0004256568
Sc    4.4764327100   11.1910871200   16.6613204140    0.0000000000    0.0000000000   -0.0002030337
Sc    6.7185270620   11.1910800400   14.4731100040    0.0000805315   -0.0000000000   -0.0002072317
Sc    8.9528643500    0.0000000000   10.0000000000    0.0000000000   -0.0000000000    0.0000000000
Sc   11.1910804400    0.0000000000   12.2382160900   -0.0000000000   -0.0000000000   -0.0000000000
Sc    8.9528643500    2.2382160900   12.2382160900    0.0000000000   -0.0000000000   -0.0000000000
Sc   11.1910804400    2.2382160900   10.0000000000    0.0000000000   -0.0000000000    0.0000000000
Sc    8.9550518890   -0.0021491890   14.4728057270    0.0001049631   -0.0001049631   -0.0002220935
Sc   11.1910813800   -0.0034223410   16.6599558010    0.0000000000   -0.0002340725   -0.0000788062
Sc    8.9608004800    2.2313381140   16.6596120970    0.0002828613   -0.0001689222   -0.0004256568
Sc   11.1910805600    2.2343298480   14.4731688840    0.0000000000   -0.0000805315   -0.0002072317
Sc    8.9528643500    4.4764321800   10.0000000000    0.0000000000    0.0000000000    0.0000000000
Sc   11.1910804400    4.4764321800   12.2382160900    0.0000000000    0.0000000000   -0.0000000000
Sc    8.9528643500    6.7146482700   12.2382160900    0.0000000000    0.0000000000   -0.0000000000
Sc   11.1910804400    6.7146482700   10.0000000000    0.0000000000    0.0000000000    0.0000000000
Sc    8.9653953940    4.4763965000   14.4661013190   -0.0002204815   -0.0000000000    0.0001980477
Sc   11.1910818400    4.4764427700   16.6612245040    0.0000000000    0.0000000000   -0.0002030337
Sc    8.9607945600    6.7215153360   16.6594922080    0.0002828613    0.0001689222   -0.0004256568
Sc   11.1910808600    6.7185399320   14.4730932440    0.0000000000    0.0000805315   -0.0002072317
Sc    8.9528643500    8.9528643500   10.0000000000    0.0000000000    0.0000000000    0.0000000000
Sc   11.1910804400    8.9528643500   12.2382160900    0.0000000000    0.0000000000   -0.0000000000
Sc    8.9528643500   11.1910804400   12.2382160900    0.0000000000   -0.0000000000   -0.0000000000
Sc   11.1910804400   11.1910804400   10.0000000000    0.0000000000    0.0000000000    0.0000000000
Sc    8.9550555990    8.9550494490   14.4727913270    0.0001049631    0.0001049631   -0.0002220935
Sc   11.1910806400    8.9562777110   16.6599890110    0.0000000000    0.0002340725   -0.0000788062
Sc    8.9562820800   11.1910913000   16.6599489910    0.0002340725   -0.0000000000   -0.0000788062
Sc   11.1910796900   11.1910753700   14.4727606780    0.0000000000    0.0000000000   -0.0001004492
 N    0.0000000000    2.2382160900   10.0000000000    0.0000000000    0.0000000000    0.0000000000
 N    2.2382160900    0.0000000000   10.0000000000    0.0000000000    0.0000000000    0.0000000000
 N    0.0000000000    0.0000000000   12.2382160900    0.0000000000    0.0000000000   -0.0000000000
 N    2.2382160900    2.2382160900   12.2382160900    0.0000000000    0.0000000000   -0.0000000000
 N    0.0011339070    2.2395545210   14.4888582020   -0.0001065854   -0.0000265187   -0.0000561607
 N    2.2395785710    0.0011682770   14.4888039220   -0.0000265187   -0.0001065854   -0.0000561607
 N    0.0012147780    0.0012384680   16.6822946200   -0.0001112919   -0.0001112919   -0.0000275333
 N    2.2411180010    2.2411521710   16.6876614290    0.0000346851    0.0000346851   -0.0003476988
 N    0.0000000000    6.7146482700   10.0000000000    0.0000000000   -0.0000000000    0.0000000000
 N    2.2382160900    4.4764321800   10.0000000000    0.0000000000    0.0000000000    0.0000000000
 N    0.0000000000    4.4764321800   12.2382160900    0.0000000000   -0.0000000000   -0.0000000000
 N    2.2382160900    6.7146482700   12.2382160900    0.0000000000   -0.0000000000   -0.0000000000
 N    0.0011439270    6.7133080690   14.4887886920   -0.0001065854    0.0000265187   -0.0000561607
 N    2.2524428770    4.4764253900   14.4961958930    0.0002615224    0.0000000000    0.0010751621
 N    0.0020748240    4.4764150400   16.6816184310    0.0004451776    0.0000000000    0.0002494743
 N    2.2411275210    6.7117032090   16.6876459990    0.0000346851   -0.0000346851   -0.0003476988
 N    0.0000000000   11.1910804400   10.0000000000    0.0000000000    0.0000000000    0.0000000000
 N    2.2382160900    8.9528643500   10.0000000000    0.0000000000   -0.0000000000    0.0000000000
 N    0.0000000000    8.9528643500   12.2382160900    0.0000000000   -0.0000000000   -0.0000000000
 N    2.2382160900   11.1910804400   12.2382160900    0.0000000000    0.0000000000   -0.0000000000
 N    0.0005030130   11.1910825500   14.4887941570   -0.0001002984    0.0000000000   -0.0001043135
 N    2.2395840810    8.9517040130   14.4888201020   -0.0000265187    0.0001065854   -0.0000561607
 N    0.0012131780    8.9516407120   16.6822936600   -0.0001112919    0.0001112919   -0.0000275333
 N    2.2396448620   11.1910888500   16.6813394810   -0.0000851321    0.0000000000   -0.0000355974
 N    4.4764321800    2.2382160900   10.0000000000    0.0000000000    0.0000000000    0.0000000000
 N    6.7146482700    0.0000000000   10.0000000000   -0.0000000000    0.0000000000    0.0000000000
 N    4.4764321800    0.0000000000   12.2382160900    0.0000000000    0.0000000000   -0.0000000000
 N    6.7146482700    2.2382160900   12.2382160900   -0.0000000000    0.0000000000   -0.0000000000
 N    4.4764324400    2.2524194070   14.4962228630   -0.0000000000    0.0002615224    0.0010751621
 N    6.7132874690    0.0011663770   14.4888074420    0.0000265187   -0.0001065854   -0.0000561607
 N    4.4764319700    0.0020915040   16.6817858010    0.0000000000    0.0004451776    0.0002494743
 N    6.7117455490    2.2411510510   16.6876600690   -0.0000346851    0.0000346851   -0.0003476988
 N    4.4764321800    6.7146482700   10.0000000000    0.0000000000   -0.0000000000    0.0000000000
 N    6.7146482700    4.4764321800   10.0000000000   -0.0000000000    0.0000000000    0.0000000000
 N    4.4764321800    4.4764321800   12.2382160900    0.0000000000    0.0000000000    0.0000000000
 N    6.7146482700    6.7146482700   12.2382160900   -0.0000000000   -0.0000000000   -0.0000000000
 N    4.4764310300    6.7004434530   14.4962433230    0.0000000000   -0.0002615224    0.0010751621
 N    6.7004207230    4.4764234300   14.4961943130   -0.0002615224   -0.0000000000    0.0010751621
 N    4.4764316100    4.4764229900   16.9062470120    0.0000000000    0.0000000000   -0.0014346922
 N    6.7117378290    6.7117037490   16.6876261790   -0.0000346851   -0.0000346851   -0.0003476988
 N    4.4764321800   11.1910804400   10.0000000000    0.0000000000    0.0000000000    0.0000000000
 N    6.7146482700    8.9528643500   10.0000000000   -0.0000000000   -0.0000000000    0.0000000000
 N    4.4764321800    8.9528643500   12.2382160900    0.0000000000   -0.0000000000   -0.0000000000
 N    6.7146482700   11.1910804400   12.2382160900   -0.0000000000    0.0000000000   -0.0000000000
 N    4.4764330700   11.1910819900   14.4893359290    0.0000000000    0.0000000000    0.0001064433
 N    6.7132799390    8.9517064030   14.4888200320    0.0000265187    0.0001065854   -0.0000561607
 N    4.4764329900    8.9507814360   16.6818187210    0.0000000000   -0.0004451776    0.0002494743
 N    6.7132193980   11.1910902400   16.6813649010    0.0000851321   -0.0000000000   -0.0000355974
 N    8.9528643500    2.2382160900   10.0000000000   -0.0000000000    0.0000000000    0.0000000000
 N   11.1910804400    0.0000000000   10.0000000000   -0.0000000000    0.0000000000    0.0000000000
 N    8.9528643500    0.0000000000   12.2382160900   -0.0000000000    0.0000000000   -0.0000000000
 N   11.1910804400    2.2382160900   12.2382160900    0.0000000000    0.0000000000   -0.0000000000
 N    8.9517311330    2.2395535710   14.4888588520    0.0001065854   -0.0000265187   -0.0000561607
 N   11.1910809200    0.0005427130   14.4888012970    0.0000000000   -0.0001002984   -0.0001043135
 N    8.9516485020    0.0012378580   16.6822810200    0.0001112919   -0.0001112919   -0.0000275333
 N   11.1910794100    2.2396681520   16.6815130910   -0.0000000000   -0.0000851321   -0.0000355974
 N    8.9528643500    6.7146482700   10.0000000000   -0.0000000000   -0.0000000000    0.0000000000
 N   11.1910804400    4.4764321800   10.0000000000    0.0000000000    0.0000000000    0.0000000000
 N    8.9528643500    4.4764321800   12.2382160900   -0.0000000000   -0.0000000000   -0.0000000000
 N   11.1910804400    6.7146482700   12.2382160900    0.0000000000   -0.0000000000   -0.0000000000
 N    8.9517210530    6.7133078390   14.4887890320    0.0001065854    0.0000265187   -0.0000561607
 N   11.1910789200    4.4764086800   14.4892747790    0.0000000000    0.0000000000    0.0001064433
 N    8.9507894360    4.4764161100   16.6816179710   -0.0004451776   -0.0000000000    0.0002494743
 N   11.1910803400    6.7131862780   16.6813889110    0.0000000000    0.0000851321   -0.0000355974
 N    8.9528643500   11.1910804400   10.0000000000   -0.0000000000    0.0000000000    0.0000000000
 N   11.1910804400    8.9528643500   10.0000000000    0.0000000000   -0.0000000000    0.0000000000
 N    8.9528643500    8.9528643500   12.2382160900   -0.0000000000   -0.0000000000   -0.0000000000
 N   11.1910804400   11.1910804400   12.2382160900    0.0000000000    0.0000000000   -0.0000000000
 N    8.9523605370   11.1910835100   14.4887954970    0.0001002984    0.0000000000   -0.0001043135
 N   11.1910809700    8.9523454470   14.4888162470    0.0000000000    0.0001002984   -0.0001043135
 N    8.9516515520    8.9516398720   16.6822652800    0.0001112919    0.0001112919   -0.0000275333
 N   11.1910796900   11.1910888200   16.6807820750    0.0000000000    0.0000000000   -0.0000772612
Li    4.4764316100    4.4764229900   18.7385016740    0.0000000000    0.0000000000   -0.0003960506
 PRIMCOORD   2
  145  1
Sc    0.0000000000    0.0000000000   10.0000000000   -0.0000000000   -0.0000000000    0.0000000000
Sc    2.2382160900    0.0000000000   12.2382160900   -0.0000000000    0.0000000000   -0.0000000000
Sc    0.0000000000    2.2382160900   12.2382160900    0.0000000000   -0.0000000000   -0.0000000000
Sc    2.2382160900    2.2382160900   10.0000000000   -0.0000000000   -0.0000000000    0.0000000000
Sc   -0.0000078036    0.0000360164   14.4714609991    0.0000840974    0.0000840974   -0.0000128925
Sc    2.2340962334   -0.0004719168   16.6595421786    0.0000835576    0.0000970651   -0.0000060893
Sc   -0.0004821768    2.2340933234   16.6596402486    0.0000970651    0.0000835576   -0.0000060893
Sc    2.2387100957    2.2387339257   14.4814674918   -0.0001191235   -0.0001191235   -0.0001229279
Sc    0.0000000000    4.4764321800   10.0000000000   -0.0000000000   -0.0000000000    0.0000000000
Sc    2.2382160900    4.4764321800   12.2382160900   -0.0000000000   -0.0000000000   -0.0000000000
Sc    0.0000000000    6.7146482700   12.2382160900   -0.0000000000    0.0000000000   -0.0000000000
Sc    2.2382160900    6.7146482700   10.0000000000   -0.0000000000    0.0000000000    0.0000000000
Sc   -0.0030099047    4.4753088293   14.4732020221    0.0000191274   -0.0000324214   -0.0000461909
Sc    2.2186076131    4.4818062308   16.6711071312   -0.0002581873   -0.0000236977   -0.0002464540
Sc   -0.0057224509    6.7216671028   16.6593261545    0.0000262605   -0.0000877689    0.0000174512
Sc    2.2239485990    6.7191754249   14.4672516644    0.0002320687    0.0000770294    0.0000782422
Sc    0.0000000000    8.9528643500   10.0000000000   -0.0000000000    0.0000000000    0.0000000000
Sc    2.2382160900    8.9528643500   12.2382160900   -0.0000000000    0.0000000000   -0.0000000000
Sc    0.0000000000   11.1910804400   12.2382160900   -0.0000000000    0.0000000000   -0.0000000000
Sc    2.2382160900   11.1910804400   10.0000000000   -0.0000000000    0.0000000000    0.0000000000
Sc   -0.0032818537    8.9575034228   14.4707081820    0.0000009151    0.0000356682   -0.0000624640
Sc    2.2251732275    8.9685642291   16.6529346508    0.0002295179   -0.0000741737    0.0000191979
Sc   -0.0034605746   11.1949259872   16.6585232476    0.0000330191    0.0000806790   -0.0000284395
Sc    2.2336218312   11.1957993636   14.4712607702   -0.0000038707    0.0000610398   -0.0000555683
Sc    4.4764321800    0.0000000000   10.0000000000   -0.0000000000   -0.0000000000    0.0000000000
Sc    6.7146482700    0.0000000000   12.2382160900    0.0000000000   -0.0000000000   -0.0000000000
Sc    4.4764321800    2.2382160900   12.2382160900   -0.0000000000   -0.0000000000   -0.0000000000
Sc    6.7146482700    2.2382160900   10.0000000000    0.0000000000   -0.0000000000    0.0000000000
Sc    4.4753482393   -0.0030010947   14.4732060821   -0.0000324214    0.0000191274   -0.0000461909
Sc    6.7216714328   -0.0057167609   16.6593833639   -0.0000877689    0.0000262605    0.0000174512
Sc    4.4818064408    2.2186005731   16.6711292412   -0.0000236977   -0.0002581873   -0.0002464540
Sc    6.7191954349    2.2239393994   14.4672737044    0.0000770294    0.0002320687    0.0000782422
Sc    4.4764321800    4.4764321800   10.0000000000   -0.0000000000   -0.0000000000    0.0000000000
Sc    6.7146482700    4.4764321800   12.2382160900    0.0000000000   -0.0000000000   -0.0000000000
Sc    4.4764321800    6.7146482700   12.2382160900   -0.0000000000    0.0000000000   -0.0000000000
Sc    6.7146482700    6.7146482700   10.0000000000    0.0000000000    0.0000000000    0.0000000000
Sc    4.4727656704    4.4727609304   14.4432369301    0.0001155998    0.0001155998    0.0000445280
Sc    6.7814615823    4.4577046134   16.5886115783    0.0001303558    0.0005721849    0.0002111277
Sc    4.4577046734    6.7814599223   16.5886986483    0.0005721849    0.0001303558    0.0002111277
Sc    6.7237469786    6.7237562786   14.4627229030   -0.0000514612   -0.0000514612    0.0001922687
Sc    4.4764321800    8.9528643500   10.0000000000   -0.0000000000    0.0000000000    0.0000000000
Sc    6.7146482700    8.9528643500   12.2382160900    0.0000000000    0.0000000000   -0.0000000000
Sc    4.4764321800   11.1910804400   12.2382160900   -0.0000000000    0.0000000000   -0.0000000000
Sc    6.7146482700   11.1910804400   10.0000000000    0.0000000000    0.0000000000    0.0000000000
Sc    4.4745880443    8.9758258531   14.4595007775   -0.0000033372   -0.0001020269    0.0000656006
Sc    6.7179543946    8.9660445498   16.6670899231    0.0000182072    0.0001268141   -0.0002440974
Sc    4.4738785806   11.1973642107   16.6603335583    0.0000820577    0.0000522225    0.0000352234
Sc    6.7183790162   11.1935049335   14.4734854849    0.0000453342    0.0000414612   -0.0000937324
Sc    8.9528643500    0.0000000000   10.0000000000    0.0000000000   -0.0000000000    0.0000000000
Sc   11.1910804400    0.0000000000   12.2382160900    0.0000000000   -0.0000000000   -0.0000000000
Sc    8.9528643500    2.2382160900   12.2382160900    0.0000000000   -0.0000000000   -0.0000000000
Sc   11.1910804400    2.2382160900   10.0000000000    0.0000000000   -0.0000000000    0.0000000000
Sc    8.9575068828   -0.0032395637   14.4707226320    0.0000356682    0.0000009151   -0.0000624640
Sc   11.1949150072   -0.0034661546   16.6585618976    0.0000806790    0.0000330191   -0.0000284395
Sc    8.9685737991    2.2251813675   16.6530001801   -0.0000741737    0.0002295179    0.0000191979
Sc   11.1958020736    2.2336133312   14.4713220602    0.0000610398   -0.0000038707   -0.0000555683
Sc    8.9528643500    4.4764321800   10.0000000000    0.0000000000   -0.0000000000    0.0000000000
Sc   11.1910804400    4.4764321800   12.2382160900    0.0000000000   -0.0000000000   -0.0000000000
Sc    8.9528643500    6.7146482700   12.2382160900    0.0000000000    0.0000000000   -0.0000000000
Sc   11.1910804400    6.7146482700   10.0000000000    0.0000000000    0.0000000000    0.0000000000
Sc    8.9758313231    4.4745521043   14.4594660675   -0.0001020269   -0.0000033372    0.0000656006
Sc   11.1973589307    4.4738886406   16.6602376483    0.0000522225    0.0000820577    0.0000352234
Sc    8.9660491598    6.7179368646   16.6670350631    0.0001268141    0.0000182072   -0.0002440974
Sc   11.1935057538    6.7183918862   14.4734687249    0.0000414612    0.0000453342   -0.0000937324
Sc    8.9528643500    8.9528643500   10.0000000000    0.0000000000    0.0000000000    0.0000000000
Sc   11.1910804400    8.9528643500   12.2382160900   -0.0000000000    0.0000000000   -0.0000000000
Sc    8.9528643500   11.1910804400   12.2382160900    0.0000000000   -0.0000000000   -0.0000000000
Sc   11.1910804400   11.1910804400   10.0000000000    0.0000000000    0.0000000000    0.0000000000
Sc    8.9543079669    8.9543018169   14.4764588147    0.0001306816    0.0001306816   -0.0002283991
Sc   11.1920330840    8.9576630818   16.6594396443    0.0000558496   -0.0000075375   -0.0000160890
Sc    8.9576674511   11.1920437440   16.6593996243   -0.0000075375    0.0000558496   -0.0000160890
Sc   11.1915201637   11.1915158437   14.4713948355   -0.0000065027   -0.0000065027   -0.0000482236
 N    0.0000000000    2.2382160900   10.0000000000    0.0000000000    0.0000000000    0.0000000000
 N    2.2382160900    0.0000000000   10.0000000000    0.0000000000    0.0000000000    0.0000000000
 N    0.0000000000    0.0000000000   12.2382160900    0.0000000000    0.0000000000   -0.0000000000
 N    2.2382160900    2.2382160900   12.2382160900    0.0000000000    0.0000000000   -0.0000000000
 N    0.0030261620    2.2416777086   14.4889134134    0.0000225728    0.0000252383   -0.0000426056
 N    2.2417017586    0.0030605320   14.4888591334    0.0000252383    0.0000225728   -0.0000426056
 N    0.0017744590    0.0017981490   16.6806498677    0.0000002193    0.0000002193   -0.0000180677
 N    2.2433074913    2.2433416609   16.6828862538   -0.0000167640   -0.0000167640   -0.0000885093
 N    0.0000000000    6.7146482700   10.0000000000    0.0000000000   -0.0000000000    0.0000000000
 N    2.2382160900    4.4764321800   10.0000000000    0.0000000000    0.0000000000    0.0000000000
 N    0.0000000000    4.4764321800   12.2382160900    0.0000000000    0.0000000000   -0.0000000000
 N    2.2382160900    6.7146482700   12.2382160900    0.0000000000   -0.0000000000   -0.0000000000
 N    0.0002461710    6.7135216249   14.4888157721    0.0000462581    0.0000550888   -0.0000442170
 N    2.2590866324    4.4798823648   14.5058313284   -0.0000476023    0.0000312271   -0.0001535306
 N    0.0091749136    4.4792484225   16.6876219104    0.0000096550    0.0000543477   -0.0000941056
 N    2.2400757772    6.7217864363   16.6770059237    0.0001692033    0.0000370612    0.0000509092
 N    0.0000000000   11.1910804400   10.0000000000    0.0000000000   -0.0000000000    0.0000000000
 N    2.2382160900    8.9528643500   10.0000000000    0.0000000000   -0.0000000000    0.0000000000
 N    0.0000000000    8.9528643500   12.2382160900    0.0000000000   -0.0000000000   -0.0000000000
 N    2.2382160900   11.1910804400   12.2382160900    0.0000000000    0.0000000000   -0.0000000000
 N   -0.0002713387   11.1926008262   14.4872662244    0.0000290424    0.0000166789   -0.0000211245
 N    2.2372347127    8.9559169014   14.4839256802    0.0000193579    0.0000611561   -0.0000326613
 N   -0.0010619244    8.9540358642   16.6800418051    0.0000539366    0.0000616454   -0.0000079635
 N    2.2386229161   11.1944151947   16.6792581966    0.0000259637    0.0000129277   -0.0000334221
 N    4.4764321800    2.2382160900   10.0000000000    0.0000000000    0.0000000000    0.0000000000
 N    6.7146482700    0.0000000000   10.0000000000   -0.0000000000    0.0000000000    0.0000000000
 N    4.4764321800    0.0000000000   12.2382160900    0.0000000000    0.0000000000   -0.0000000000
 N    6.7146482700    2.2382160900   12.2382160900   -0.0000000000    0.0000000000   -0.0000000000
 N    4.4798894148    2.2590631624   14.5058582984    0.0000312271   -0.0000476023   -0.0001535306
 N    6.7135010249    0.0002686210   14.4888345221    0.0000550888    0.0000462581   -0.0000442170
 N    4.4792653525    0.0091915936   16.6877892804    0.0000543477    0.0000096550   -0.0000941056
 N    6.7218287763    2.2400993072   16.6770199937    0.0000370612    0.0001692033    0.0000509092
 N    4.4764321800    6.7146482700   10.0000000000    0.0000000000   -0.0000000000    0.0000000000
 N    6.7146482700    4.4764321800   10.0000000000   -0.0000000000    0.0000000000    0.0000000000
 N    4.4764321800    4.4764321800   12.2382160900    0.0000000000    0.0000000000    0.0000000000
 N    6.7146482700    6.7146482700   12.2382160900   -0.0000000000   -0.0000000000   -0.0000000000
 N    4.4797720741    6.7071446500   14.4852960810   -0.0000151394    0.0000656083   -0.0000864503
 N    6.7071219200    4.4797644741   14.4852470710    0.0000656083   -0.0000151394   -0.0000864503
 N    4.4968357727    4.4968271527   16.9087664806   -0.0003920428   -0.0003920428   -0.0005986682
 N    6.6943394860    6.6943054060   16.7491628723    0.0002993823    0.0002993823   -0.0018524565
 N    4.4764321800   11.1910804400   10.0000000000    0.0000000000   -0.0000000000    0.0000000000
 N    6.7146482700    8.9528643500   10.0000000000   -0.0000000000   -0.0000000000    0.0000000000
 N    4.4764321800    8.9528643500   12.2382160900    0.0000000000   -0.0000000000   -0.0000000000
 N    6.7146482700   11.1910804400   12.2382160900   -0.0000000000   -0.0000000000   -0.0000000000
 N    4.4773207627   11.1947842177   14.4889080648    0.0000107248    0.0000320980   -0.0000617442
 N    6.7132467767    8.9455067388   14.4952420143    0.0000772473    0.0002257357   -0.0001885207
 N    4.4731290770    8.9596178243   16.6730773068    0.0001108336    0.0000467179   -0.0000270428
 N    6.7134590150   11.1887677787   16.6828965492    0.0000696270    0.0000897171   -0.0000989220
 N    8.9528643500    2.2382160900   10.0000000000   -0.0000000000    0.0000000000    0.0000000000
 N   11.1910804400    0.0000000000   10.0000000000   -0.0000000000    0.0000000000    0.0000000000
 N    8.9528643500    0.0000000000   12.2382160900   -0.0000000000    0.0000000000   -0.0000000000
 N   11.1910804400    2.2382160900   12.2382160900    0.0000000000    0.0000000000   -0.0000000000
 N    8.9559440214    2.2372042027   14.4839644302    0.0000611561    0.0000193579   -0.0000326613
 N   11.1925991962   -0.0002316387   14.4872733644    0.0000166789    0.0000290424   -0.0000211245
 N    8.9540436542   -0.0010372444   16.6800291651    0.0000616454    0.0000539366   -0.0000079635
 N   11.1944057543    2.2386462061   16.6794318066    0.0000129277    0.0000259637   -0.0000334221
 N    8.9528643500    6.7146482700   10.0000000000   -0.0000000000   -0.0000000000    0.0000000000
 N   11.1910804400    4.4764321800   10.0000000000   -0.0000000000    0.0000000000    0.0000000000
 N    8.9528643500    4.4764321800   12.2382160900   -0.0000000000    0.0000000000   -0.0000000000
 N   11.1910804400    6.7146482700   12.2382160900   -0.0000000000   -0.0000000000   -0.0000000000
 N    8.9455213892    6.7132746767   14.4952110143    0.0002257357    0.0000772473   -0.0001885207
 N   11.1947811477    4.4772963727   14.4888469148    0.0000320980    0.0000107248   -0.0000617442
 N    8.9596258243    4.4731121970   16.6728765568    0.0000467179    0.0001108336   -0.0000270428
 N   11.1887578787    6.7134258950   16.6829205592    0.0000897171    0.0000696270   -0.0000989220
 N    8.9528643500   11.1910804400   10.0000000000   -0.0000000000   -0.0000000000    0.0000000000
 N   11.1910804400    8.9528643500   10.0000000000   -0.0000000000   -0.0000000000    0.0000000000
 N    8.9528643500    8.9528643500   12.2382160900   -0.0000000000   -0.0000000000   -0.0000000000
 N   11.1910804400   11.1910804400   12.2382160900   -0.0000000000   -0.0000000000   -0.0000000000
 N    8.9518243915   11.1902154858   14.4883640547    0.0000380641    0.0000292412   -0.0000230214
 N   11.1902129458    8.9518093015   14.4883848047    0.0000292412    0.0000380641   -0.0000230214
 N    8.9491488707    8.9491371907   16.6833355554    0.0000736857    0.0000736857   -0.0000181160
 N   11.1905332275   11.1905423575   16.6796715138    0.0000500738    0.0000500738   -0.0000116978
Li    5.0428787819    5.0428617933   18.6315732494   -0.0067819706   -0.0067819706    0.0013272861
 PRIMCOORD   3
  145  1
Sc    0.0000000000    0.0000000000   10.0000000000   -0.0000000000   -0.0000000000    0.0000000000
Sc    2.2382160900    0.0000000000   12.2382160900   -0.0000000000    0.0000000000   -0.0000000000
Sc    0.0000000000    2.2382160900   12.2382160900    0.0000000000   -0.0000000000   -0.0000000000
Sc    2.2382160900    2.2382160900   10.0000000000   -0.0000000000   -0.0000000000    0.0000000000
Sc    0.0008913425    0.0009351625   14.4720847733    0.0000367881    0.0000367881    0.0000598914
Sc    2.2359716934    0.0022744939   16.6611473724    0.0000703739    0.0000992516    0.0000693869
Sc    0.0022642339    2.2359687834   16.6612454424    0.0000992516    0.0000703739    0.0000693869
Sc    2.2414390265    2.2414628565   14.4846317914   -0.0000238844   -0.0000238844    0.0000474261
Sc    0.0000000000    4.4764321800   10.0000000000   -0.0000000000   -0.0000000000    0.0000000000
Sc    2.2382160900    4.4764321800   12.2382160900   -0.0000000000   -0.0000000000   -0.0000000000
Sc    0.0000000000    6.7146482700   12.2382160900   -0.0000000000    0.0000000000   -0.0000000000
Sc    2.2382160900    6.7146482700   10.0000000000   -0.0000000000    0.0000000000    0.0000000000
Sc   -0.0005577275    4.4738294836   14.4764885094    0.0000516278   -0.0000519873    0.0000971566
Sc    2.2316113013    4.4842802118   16.6853767614   -0.0000936482    0.0000643791   -0.0000370681
Sc   -0.0071499775    6.7197996395   16.6608799508   -0.0000604562   -0.0000638905    0.0000840275
Sc    2.2134929412    6.7182858451   14.4600975933    0.0000627097    0.0000791447   -0.0000131015
Sc    0.0000000000    8.9528643500   10.0000000000   -0.0000000000    0.0000000000    0.0000000000
Sc    2.2382160900    8.9528643500   12.2382160900   -0.0000000000    0.0000000000   -0.0000000000
Sc    0.0000000000   11.1910804400   12.2382160900   -0.0000000000    0.0000000000   -0.0000000000
Sc    2.2382160900   11.1910804400   10.0000000000   -0.0000000000    0.0000000000    0.0000000000
Sc   -0.0060285364    8.9583730375   14.4706558244   -0.0000450919    0.0000685713    0.0000075864
Sc    2.2180715015    8.9729993165   16.6500208033   -0.0000466346    0.0000466346   -0.0000192886
Sc   -0.0050545563   11.1961411074   16.6586750035   -0.0000810782    0.0000810782    0.0000456937
Sc    2.2327053336   11.1970953141   14.4706411454   -0.0000685713    0.0000450919    0.0000075864
Sc    4.4764321800    0.0000000000   10.0000000000   -0.0000000000   -0.0000000000    0.0000000000
Sc    6.7146482700    0.0000000000   12.2382160900    0.0000000000   -0.0000000000   -0.0000000000
Sc    4.4764321800    2.2382160900   12.2382160900   -0.0000000000   -0.0000000000   -0.0000000000
Sc    6.7146482700    2.2382160900   10.0000000000    0.0000000000   -0.0000000000    0.0000000000
Sc    4.4738688936   -0.0005489175   14.4764925694   -0.0000519873    0.0000516278    0.0000971566
Sc    6.7198039695   -0.0071442875   16.6609371603   -0.0000638905   -0.0000604562    0.0000840275
Sc    4.4842804218    2.2316042613   16.6853988714    0.0000643791   -0.0000936482   -0.0000370681
Sc    6.7183058551    2.2134837417   14.4601196333    0.0000791447    0.0000627097   -0.0000131015
Sc    4.4764321800    4.4764321800   10.0000000000   -0.0000000000   -0.0000000000    0.0000000000
Sc    6.7146482700    4.4764321800   12.2382160900    0.0000000000   -0.0000000000   -0.0000000000
Sc    4.4764321800    6.7146482700   12.2382160900   -0.0000000000    0.0000000000   -0.0000000000
Sc    6.7146482700    6.7146482700   10.0000000000    0.0000000000    0.0000000000    0.0000000000
Sc    4.4712456744    4.4712409344   14.4504041477    0.0001048879    0.0001048879   -0.0000185832
Sc    6.7776342075    4.4134454114   16.5648102884    0.0003025738   -0.0003025738   -0.0005035070
Sc    4.4134454714    6.7776325475   16.5648973584   -0.0003025738    0.0003025738   -0.0005035070
Sc    6.7198269867    6.7198362867   14.4503989853   -0.0001048879   -0.0001048879   -0.0000185832
Sc    4.4764321800    8.9528643500   10.0000000000   -0.0000000000    0.0000000000    0.0000000000
Sc    6.7146482700    8.9528643500   12.2382160900    0.0000000000    0.0000000000   -0.0000000000
Sc    4.4764321800   11.1910804400   12.2382160900   -0.0000000000    0.0000000000   -0.0000000000
Sc    6.7146482700   11.1910804400   10.0000000000    0.0000000000    0.0000000000    0.0000000000
Sc    4.4727955455    8.9775888102   14.4601200971   -0.0000791447   -0.0000627097   -0.0000131015
Sc    6.7068119737    8.9594747425   16.6854048785   -0.0000643791    0.0000936482   -0.0000370681
Sc    4.4712770585   11.1982296820   16.6609434444    0.0000638905    0.0000604562    0.0000840275
Sc    6.7172211261   11.1916412026   14.4764908140    0.0000519873   -0.0000516278    0.0000971566
Sc    8.9528643500    0.0000000000   10.0000000000    0.0000000000   -0.0000000000    0.0000000000
Sc   11.1910804400    0.0000000000   12.2382160900    0.0000000000   -0.0000000000   -0.0000000000
Sc    8.9528643500    2.2382160900   12.2382160900    0.0000000000   -0.0000000000   -0.0000000000
Sc   11.1910804400    2.2382160900   10.0000000000    0.0000000000   -0.0000000000    0.0000000000
Sc    8.9583764975   -0.0059862464   14.4706702744    0.0000685713   -0.0000450919    0.0000075864
Sc   11.1961301274   -0.0050601363   16.6587136535    0.0000810782   -0.0000810782    0.0000456937
Sc    8.9730088865    2.2180796415   16.6500863328    0.0000466346   -0.0000466346   -0.0000192886
Sc   11.1970980241    2.2326968336   14.4707024354    0.0000450919   -0.0000685713    0.0000075864
Sc    8.9528643500    4.4764321800   10.0000000000    0.0000000000   -0.0000000000    0.0000000000
Sc   11.1910804400    4.4764321800   12.2382160900    0.0000000000   -0.0000000000   -0.0000000000
Sc    8.9528643500    6.7146482700   12.2382160900    0.0000000000    0.0000000000   -0.0000000000
Sc   11.1910804400    6.7146482700   10.0000000000    0.0000000000    0.0000000000    0.0000000000
Sc    8.9775942802    4.4727596055   14.4600853871   -0.0000627097   -0.0000791447   -0.0000131015
Sc   11.1982244020    4.4712871185   16.6608475344    0.0000604562    0.0000638905    0.0000840275
Sc    8.9594793525    6.7067944437   16.6853500185    0.0000936482   -0.0000643791   -0.0000370681
Sc   11.1916420231    6.7172339961   14.4764740540   -0.0000516278    0.0000519873    0.0000971566
Sc    8.9528643500    8.9528643500   10.0000000000    0.0000000000    0.0000000000    0.0000000000
Sc   11.1910804400    8.9528643500   12.2382160900   -0.0000000000    0.0000000000   -0.0000000000
Sc    8.9528643500   11.1910804400   12.2382160900    0.0000000000   -0.0000000000   -0.0000000000
Sc   11.1910804400   11.1910804400   10.0000000000    0.0000000000    0.0000000000    0.0000000000
Sc    8.9496301210    8.9496239710   14.4846142279    0.0000238844    0.0000238844    0.0000474261
Sc   11.1888040164    8.9551102796   16.6612059217   -0.0000992516   -0.0000703739    0.0000693869
Sc    8.9551146491   11.1888146764   16.6611659017   -0.0000703739   -0.0000992516    0.0000693869
Sc   11.1901779255   11.1901736055   14.4720626146   -0.0000367881   -0.0000367881    0.0000598914
 N    0.0000000000    2.2382160900   10.0000000000    0.0000000000    0.0000000000    0.0000000000
 N    2.2382160900    0.0000000000   10.0000000000    0.0000000000    0.0000000000    0.0000000000
 N    0.0000000000    0.0000000000   12.2382160900    0.0000000000    0.0000000000   -0.0000000000
 N    2.2382160900    2.2382160900   12.2382160900    0.0000000000    0.0000000000   -0.0000000000
 N    0.0037435681    2.2420342520   14.4897580556    0.0000478926    0.0000165490   -0.0000101120
 N    2.2420583020    0.0037779381   14.4897037756    0.0000165490    0.0000478926   -0.0000101120
 N    0.0022890842    0.0023127742   16.6802711257    0.0000035261    0.0000035261   -0.0000152169
 N    2.2476311763    2.2476653458   16.6848896158    0.0000676568    0.0000676568   -0.0000128424
 N    0.0000000000    6.7146482700   10.0000000000    0.0000000000   -0.0000000000    0.0000000000
 N    2.2382160900    4.4764321800   10.0000000000    0.0000000000    0.0000000000    0.0000000000
 N    0.0000000000    4.4764321800   12.2382160900    0.0000000000    0.0000000000   -0.0000000000
 N    2.2382160900    6.7146482700   12.2382160900    0.0000000000   -0.0000000000   -0.0000000000
 N   -0.0037226028    6.7132464706   14.4886668056   -0.0000408684    0.0000302013   -0.0000611263
 N    2.2594481358    4.4807349674   14.5069378385   -0.0000379968    0.0000276329   -0.0000936513
 N    0.0099190588    4.4798602787   16.6881237436    0.0000329916    0.0000270925   -0.0000531784
 N    2.2294661855    6.7259719668   16.6666854450   -0.0000236762    0.0000945316   -0.0001373482
 N    0.0000000000   11.1910804400   10.0000000000    0.0000000000   -0.0000000000    0.0000000000
 N    2.2382160900    8.9528643500   10.0000000000    0.0000000000   -0.0000000000    0.0000000000
 N    0.0000000000    8.9528643500   12.2382160900   -0.0000000000   -0.0000000000   -0.0000000000
 N    2.2382160900   11.1910804400   12.2382160900    0.0000000000    0.0000000000   -0.0000000000
 N   -0.0015966980   11.1926635962   14.4872457051   -0.0000228571    0.0000228571   -0.0000306399
 N    2.2337511084    8.9573230194   14.4809246571   -0.0000943532    0.0000943532   -0.0000817024
 N   -0.0046279770    8.9542286699   16.6789598409   -0.0000542717    0.0000585879   -0.0000267507
 N    2.2368401191   11.1957029284   16.6788555352   -0.0000585879    0.0000542717   -0.0000267507
 N    4.4764321800    2.2382160900   10.0000000000    0.0000000000    0.0000000000    0.0000000000
 N    6.7146482700    0.0000000000   10.0000000000   -0.0000000000    0.0000000000    0.0000000000
 N    4.4764321800    0.0000000000   12.2382160900    0.0000000000    0.0000000000   -0.0000000000
 N    6.7146482700    2.2382160900   12.2382160900   -0.0000000000    0.0000000000   -0.0000000000
 N    4.4807420174    2.2594246658   14.5069648085    0.0000276329   -0.0000379968   -0.0000936513
 N    6.7132258706   -0.0037001528   14.4886855556    0.0000302013   -0.0000408684   -0.0000611263
 N    4.4798772087    0.0099357388   16.6882911136    0.0000270925    0.0000329916   -0.0000531784
 N    6.7260143068    2.2294897155   16.6666995150    0.0000945316   -0.0000236762   -0.0001373482
 N    4.4764321800    6.7146482700   10.0000000000    0.0000000000   -0.0000000000    0.0000000000
 N    6.7146482700    4.4764321800   10.0000000000   -0.0000000000    0.0000000000    0.0000000000
 N    4.4764321800    4.4764321800   12.2382160900    0.0000000000    0.0000000000   -0.0000000000
 N    6.7146482700    6.7146482700   12.2382160900   -0.0000000000   -0.0000000000   -0.0000000000
 N    4.4816469588    6.7094361990   14.4777431301   -0.0000861194    0.0000861194   -0.0001299808
 N    6.7094134690    4.4816393588   14.4776941201    0.0000861194   -0.0000861194   -0.0001299808
 N    4.5242782542    4.5242696342   16.8950143476    0.0000619475    0.0000619475   -0.0006322693
 N    6.6668218081    6.6667877281   16.8949815336   -0.0000619475   -0.0000619475   -0.0006322693
 N    4.4764321800   11.1910804400   10.0000000000    0.0000000000   -0.0000000000    0.0000000000
 N    6.7146482700    8.9528643500   10.0000000000   -0.0000000000   -0.0000000000    0.0000000000
 N    4.4764321800    8.9528643500   12.2382160900    0.0000000000   -0.0000000000   -0.0000000000
 N    6.7146482700   11.1910804400   12.2382160900   -0.0000000000   -0.0000000000   -0.0000000000
 N    4.4778612104   11.1947960796   14.4886972654   -0.0000302013    0.0000408684   -0.0000611263
 N    6.7103369899    8.9316453546   14.5069577570   -0.0000276329    0.0000379968   -0.0000936513
 N    4.4650950336    8.9615949944   16.6667480039   -0.0000945316    0.0000236762   -0.0001373482
 N    6.7112181179   11.1811635745   16.6882183741   -0.0000270925   -0.0000329916   -0.0000531784
 N    8.9528643500    2.2382160900   10.0000000000   -0.0000000000    0.0000000000    0.0000000000
 N   11.1910804400    0.0000000000   10.0000000000   -0.0000000000    0.0000000000    0.0000000000
 N    8.9528643500    0.0000000000   12.2382160900   -0.0000000000   -0.0000000000   -0.0000000000
 N   11.1910804400    2.2382160900   12.2382160900    0.0000000000    0.0000000000   -0.0000000000
 N    8.9573501394    2.2337205984   14.4809634071    0.0000943532   -0.0000943532   -0.0000817024
 N   11.1926619662   -0.0015569980   14.4872528451    0.0000228571   -0.0000228571   -0.0000306399
 N    8.9542364599   -0.0046032970   16.6789472009    0.0000585879   -0.0000542717   -0.0000267507
 N   11.1956934879    2.2368634091   16.6790291452    0.0000542717   -0.0000585879   -0.0000267507
 N    8.9528643500    6.7146482700   10.0000000000   -0.0000000000   -0.0000000000    0.0000000000
 N   11.1910804400    4.4764321800   10.0000000000   -0.0000000000    0.0000000000    0.0000000000
 N    8.9528643500    4.4764321800   12.2382160900   -0.0000000000    0.0000000000   -0.0000000000
 N   11.1910804400    6.7146482700   12.2382160900   -0.0000000000   -0.0000000000   -0.0000000000
 N    8.9316600051    6.7103648899   14.5069267570    0.0000379968   -0.0000276329   -0.0000936513
 N   11.1947930096    4.4778368204   14.4886361154    0.0000408684   -0.0000302013   -0.0000611263
 N    8.9616029944    4.4650781536   16.6665472539    0.0000236762   -0.0000945316   -0.0001373482
 N   11.1811536745    6.7111849979   16.6882423841   -0.0000329916   -0.0000270925   -0.0000531784
 N    8.9528643500   11.1910804400   10.0000000000   -0.0000000000   -0.0000000000    0.0000000000
 N   11.1910804400    8.9528643500   10.0000000000   -0.0000000000   -0.0000000000    0.0000000000
 N    8.9528643500    8.9528643500   12.2382160900   -0.0000000000   -0.0000000000   -0.0000000000
 N   11.1910804400   11.1910804400   12.2382160900   -0.0000000000   -0.0000000000   -0.0000000000
 N    8.9490329547   11.1873213955   14.4897071164   -0.0000165490   -0.0000478926   -0.0000101120
 N   11.1873188555    8.9490178647   14.4897278664   -0.0000478926   -0.0000165490   -0.0000101120
 N    8.9434348479    8.9434231679   16.6848818623   -0.0000676568   -0.0000676568   -0.0000128424
 N   11.1887782786   11.1887874086   16.6802157071   -0.0000035261   -0.0000035261   -0.0000152169
Li    5.5955289622    5.5955076124   18.4604482442    0.0000000000    0.0000000000   -0.0018323730
 PRIMCOORD   4
  145  1
Sc    0.0000000000    0.0000000000   10.0000000000   -0.0000000000   -0.0000000000    0.0000000000
Sc    2.2382160900    0.0000000000   12.2382160900   -0.0000000000    0.0000000000   -0.0000000000
Sc    0.0000000000    2.2382160900   12.2382160900    0.0000000000   -0.0000000000   -0.0000000000
Sc    2.2382160900    2.2382160900   10.0000000000   -0.0000000000   -0.0000000000    0.0000000000
Sc   -0.0004510100   -0.0004071900   14.4713299559    0.0000151698    0.0000151698    0.0000924541
Sc    2.2334548741   -0.0009946806   16.6594425438    0.0000175347    0.0000127206   -0.0000020074
Sc   -0.0010049406    2.2334519641   16.6595406138    0.0000127206    0.0000175347   -0.0000020074
Sc    2.2367899310    2.2368137610   14.4763483435   -0.0001891972   -0.0001891972   -0.0000551711
Sc    0.0000000000    4.4764321800   10.0000000000   -0.0000000000   -0.0000000000    0.0000000000
Sc    2.2382160900    4.4764321800   12.2382160900   -0.0000000000   -0.0000000000   -0.0000000000
Sc    0.0000000000    6.7146482700   12.2382160900   -0.0000000000    0.0000000000   -0.0000000000
Sc    2.2382160900    6.7146482700   10.0000000000   -0.0000000000    0.0000000000    0.0000000000
Sc   -0.0024590407    4.4727468730   14.4733990566   -0.0000219886   -0.0001209376    0.0001082149
Sc    2.2252641505    4.4732676338   16.6670931836   -0.0003911040   -0.0001244181   -0.0001927720
Sc   -0.0062770516    6.7172722368   16.6603909918   -0.0001031024   -0.0002098328    0.0000855829
Sc    2.2153276410    6.7164619856   14.4596088893    0.0001426234    0.0000745912    0.0000100027
Sc    0.0000000000    8.9528643500   10.0000000000   -0.0000000000    0.0000000000    0.0000000000
Sc    2.2382160900    8.9528643500   12.2382160900   -0.0000000000    0.0000000000   -0.0000000000
Sc    0.0000000000   11.1910804400   12.2382160900   -0.0000000000    0.0000000000   -0.0000000000
Sc    2.2382160900   11.1910804400   10.0000000000   -0.0000000000    0.0000000000    0.0000000000
Sc   -0.0048126103    8.9574181931   14.4713304588    0.0000160035    0.0000560177   -0.0000665384
Sc    2.2226456195    8.9657796056   16.6530466146    0.0000090195   -0.0001741534   -0.0000326165
Sc   -0.0038661919   11.1944730918   16.6585506486   -0.0000561340    0.0000613101   -0.0000109536
Sc    2.2336287305   11.1943608705   14.4706820342   -0.0000848212   -0.0000188232   -0.0000057985
Sc    4.4764321800    0.0000000000   10.0000000000   -0.0000000000   -0.0000000000    0.0000000000
Sc    6.7146482700    0.0000000000   12.2382160900    0.0000000000   -0.0000000000   -0.0000000000
Sc    4.4764321800    2.2382160900   12.2382160900   -0.0000000000   -0.0000000000   -0.0000000000
Sc    6.7146482700    2.2382160900   10.0000000000    0.0000000000   -0.0000000000    0.0000000000
Sc    4.4727862830   -0.0024502307   14.4734031166   -0.0001209376   -0.0000219886    0.0001082149
Sc    6.7172765668   -0.0062713616   16.6604482015   -0.0002098328   -0.0001031024    0.0000855829
Sc    4.4732678438    2.2252571105   16.6671152936   -0.0001244181   -0.0003911040   -0.0001927720
Sc    6.7164819956    2.2153184417   14.4596309293    0.0000745912    0.0001426234    0.0000100027
Sc    4.4764321800    4.4764321800   10.0000000000   -0.0000000000   -0.0000000000    0.0000000000
Sc    6.7146482700    4.4764321800   12.2382160900    0.0000000000   -0.0000000000   -0.0000000000
Sc    4.4764321800    6.7146482700   12.2382160900   -0.0000000000    0.0000000000   -0.0000000000
Sc    6.7146482700    6.7146482700   10.0000000000    0.0000000000    0.0000000000    0.0000000000
Sc    4.4674112023    4.4674064623   14.4630463884    0.0000562488    0.0000562488   -0.0001034383
Sc    6.7332313050    4.4100257493   16.5889890106   -0.0004171040   -0.0004555394   -0.0000899443
Sc    4.4100258093    6.7332296450   16.5890760806   -0.0004555394   -0.0004171040   -0.0000899443
Sc    6.7182990622    6.7183083622   14.4435473306   -0.0001409414   -0.0001409414   -0.0001514354
Sc    4.4764321800    8.9528643500   10.0000000000   -0.0000000000    0.0000000000    0.0000000000
Sc    6.7146482700    8.9528643500   12.2382160900    0.0000000000    0.0000000000   -0.0000000000
Sc    4.4764321800   11.1910804400   12.2382160900   -0.0000000000    0.0000000000   -0.0000000000
Sc    6.7146482700   11.1910804400   10.0000000000    0.0000000000    0.0000000000    0.0000000000
Sc    4.4720281795    8.9670515249   14.4674928503   -0.0002099411   -0.0002446949   -0.0000806346
Sc    6.7092418240    8.9722253505   16.6712899585    0.0001195993    0.0004947596   -0.0002692042
Sc    4.4694926794   11.1967162590   16.6595084504    0.0000952772    0.0001321206    0.0000757962
Sc    6.7157785284   11.1940751923   14.4732032599    0.0000351090   -0.0000066166    0.0000865327
Sc    8.9528643500    0.0000000000   10.0000000000    0.0000000000   -0.0000000000    0.0000000000
Sc   11.1910804400    0.0000000000   12.2382160900    0.0000000000   -0.0000000000   -0.0000000000
Sc    8.9528643500    2.2382160900   12.2382160900    0.0000000000   -0.0000000000   -0.0000000000
Sc   11.1910804400    2.2382160900   10.0000000000    0.0000000000   -0.0000000000    0.0000000000
Sc    8.9574216531   -0.0047703203   14.4713449088    0.0000560177    0.0000160035   -0.0000665384
Sc   11.1944621118   -0.0038717719   16.6585892986    0.0000613101   -0.0000561340   -0.0000109536
Sc    8.9657891756    2.2226537595   16.6531121443   -0.0001741534    0.0000090195   -0.0000326165
Sc   11.1943635805    2.2336202305   14.4707433242   -0.0000188232   -0.0000848212   -0.0000057985
Sc    8.9528643500    4.4764321800   10.0000000000    0.0000000000   -0.0000000000    0.0000000000
Sc   11.1910804400    4.4764321800   12.2382160900    0.0000000000   -0.0000000000   -0.0000000000
Sc    8.9528643500    6.7146482700   12.2382160900    0.0000000000    0.0000000000   -0.0000000000
Sc   11.1910804400    6.7146482700   10.0000000000    0.0000000000    0.0000000000    0.0000000000
Sc    8.9670569949    4.4719922395   14.4674581403   -0.0002446949   -0.0002099411   -0.0000806346
Sc   11.1967109790    4.4695027394   16.6594125404    0.0001321206    0.0000952772    0.0000757962
Sc    8.9722299605    6.7092242940   16.6712350985    0.0004947596    0.0001195993   -0.0002692042
Sc   11.1940760130    6.7157913984   14.4731864999   -0.0000066166    0.0000351090    0.0000865327
Sc    8.9528643500    8.9528643500   10.0000000000    0.0000000000    0.0000000000    0.0000000000
Sc   11.1910804400    8.9528643500   12.2382160900   -0.0000000000    0.0000000000   -0.0000000000
Sc    8.9528643500   11.1910804400   12.2382160900    0.0000000000   -0.0000000000   -0.0000000000
Sc   11.1910804400   11.1910804400   10.0000000000    0.0000000000    0.0000000000    0.0000000000
Sc    8.9523430921    8.9523369421   14.4814807530    0.0001736630    0.0001736630   -0.0000270201
Sc   11.1915457211    8.9569751977   16.6597432287   -0.0001666775   -0.0001154194    0.0000188019
Sc    8.9569795673   11.1915563811   16.6597032087   -0.0001154194   -0.0001666775    0.0000188019
Sc   11.1909955609   11.1909912409   14.4714748232   -0.0000373306   -0.0000373306    0.0000358774
 N    0.0000000000    2.2382160900   10.0000000000    0.0000000000    0.0000000000    0.0000000000
 N    2.2382160900    0.0000000000   10.0000000000    0.0000000000    0.0000000000    0.0000000000
 N    0.0000000000    0.0000000000   12.2382160900    0.0000000000    0.0000000000   -0.0000000000
 N    2.2382160900    2.2382160900   12.2382160900    0.0000000000    0.0000000000   -0.0000000000
 N    0.0008494879    2.2392455934   14.4883901399   -0.0000381590   -0.0000182372   -0.0000637418
 N    2.2392696434    0.0008838579   14.4883358599   -0.0000182372   -0.0000381590   -0.0000637418
 N    0.0005316901    0.0005553801   16.6796455254   -0.0000747827   -0.0000747827   -0.0000212067
 N    2.2418876875    2.2419218568   16.6833169259   -0.0000017559   -0.0000017559   -0.0000348071
 N    0.0000000000    6.7146482700   10.0000000000    0.0000000000   -0.0000000000    0.0000000000
 N    2.2382160900    4.4764321800   10.0000000000    0.0000000000    0.0000000000    0.0000000000
 N    0.0000000000    4.4764321800   12.2382160900    0.0000000000    0.0000000000   -0.0000000000
 N    2.2382160900    6.7146482700   12.2382160900    0.0000000000   -0.0000000000   -0.0000000000
 N   -0.0037089468    6.7137725762   14.4888507979   -0.0000456583   -0.0000043725   -0.0000520692
 N    2.2455451020    4.4778111760   14.4951618877   -0.0001687000   -0.0000537591   -0.0001551339
 N    0.0023025618    4.4776296066   16.6828144599   -0.0000886310   -0.0000326206   -0.0001197254
 N    2.2313351953    6.7179350109   16.6729119471    0.0001338101   -0.0001086894    0.0000084050
 N    0.0000000000   11.1910804400   10.0000000000    0.0000000000   -0.0000000000    0.0000000000
 N    2.2382160900    8.9528643500   10.0000000000    0.0000000000   -0.0000000000    0.0000000000
 N    0.0000000000    8.9528643500   12.2382160900   -0.0000000000   -0.0000000000   -0.0000000000
 N    2.2382160900   11.1910804400   12.2382160900    0.0000000000   -0.0000000000   -0.0000000000
 N   -0.0015435236   11.1913336484   14.4872381880   -0.0000248190   -0.0000539652   -0.0000260760
 N    2.2351351249    8.9538425721   14.4838555901   -0.0000329902   -0.0000338348    0.0000351516
 N   -0.0033571510    8.9524321908   16.6793151276   -0.0000066453   -0.0000374389   -0.0000159388
 N    2.2370150703   11.1921587954   16.6799087028   -0.0000435840   -0.0001171495   -0.0000030602
 N    4.4764321800    2.2382160900   10.0000000000    0.0000000000    0.0000000000    0.0000000000
 N    6.7146482700    0.0000000000   10.0000000000   -0.0000000000    0.0000000000    0.0000000000
 N    4.4764321800    0.0000000000   12.2382160900    0.0000000000    0.0000000000   -0.0000000000
 N    6.7146482700    2.2382160900   12.2382160900   -0.0000000000    0.0000000000   -0.0000000000
 N    4.4778182260    2.2455216320   14.4951888577   -0.0000537591   -0.0001687000   -0.0001551339
 N    6.7137519762   -0.0036864968   14.4888695479   -0.0000043725   -0.0000456583   -0.0000520692
 N    4.4776465366    0.0023192418   16.6829818299   -0.0000326206   -0.0000886310   -0.0001197254
 N    6.7179773509    2.2313587253   16.6729260171   -0.0001086894    0.0001338101    0.0000084050
 N    4.4764321800    6.7146482700   10.0000000000    0.0000000000   -0.0000000000    0.0000000000
 N    6.7146482700    4.4764321800   10.0000000000   -0.0000000000    0.0000000000    0.0000000000
 N    4.4764321800    4.4764321800   12.2382160900    0.0000000000    0.0000000000   -0.0000000000
 N    6.7146482700    6.7146482700   12.2382160900   -0.0000000000   -0.0000000000    0.0000000000
 N    4.4838836913    6.7113173544   14.4850914197    0.0000182302    0.0000025354    0.0002392194
 N    6.7112946244    4.4838760913   14.4850424097    0.0000025354    0.0000182302    0.0002392194
 N    4.4966859286    4.4966773086   16.7490733916   -0.0001762553   -0.0001762553   -0.0017976009
 N    6.6942790009    6.6942449209   16.9086987444    0.0003520347    0.0003520347   -0.0005743775
 N    4.4764321800   11.1910804400   10.0000000000    0.0000000000   -0.0000000000    0.0000000000
 N    6.7146482700    8.9528643500   10.0000000000   -0.0000000000   -0.0000000000    0.0000000000
 N    4.4764321800    8.9528643500   12.2382160900    0.0000000000   -0.0000000000   -0.0000000000
 N    6.7146482700   11.1910804400   12.2382160900   -0.0000000000   -0.0000000000   -0.0000000000
 N    4.4775738772   11.1908487915   14.4888190834   -0.0000182721   -0.0000736403   -0.0000350459
 N    6.7111763174    8.9320401118   14.5057484551   -0.0000256866   -0.0000379810   -0.0000199560
 N    4.4692103923    8.9510611962   16.6770119525    0.0000606130   -0.0003207758    0.0001070227
 N    6.7118428166   11.1819756744   16.6876703541   -0.0000461306   -0.0000867140   -0.0001019376
 N    8.9528643500    2.2382160900   10.0000000000   -0.0000000000    0.0000000000    0.0000000000
 N   11.1910804400    0.0000000000   10.0000000000   -0.0000000000    0.0000000000    0.0000000000
 N    8.9528643500    0.0000000000   12.2382160900   -0.0000000000   -0.0000000000   -0.0000000000
 N   11.1910804400    2.2382160900   12.2382160900   -0.0000000000    0.0000000000   -0.0000000000
 N    8.9538696921    2.2351046149   14.4838943401   -0.0000338348   -0.0000329902    0.0000351516
 N   11.1913320184   -0.0015038236   14.4872453280   -0.0000539652   -0.0000248190   -0.0000260760
 N    8.9524399808   -0.0033324710   16.6793024876   -0.0000374389   -0.0000066453   -0.0000159388
 N   11.1921493548    2.2370383603   16.6800823128   -0.0001171495   -0.0000435840   -0.0000030602
 N    8.9528643500    6.7146482700   10.0000000000   -0.0000000000   -0.0000000000    0.0000000000
 N   11.1910804400    4.4764321800   10.0000000000   -0.0000000000    0.0000000000    0.0000000000
 N    8.9528643500    4.4764321800   12.2382160900   -0.0000000000    0.0000000000   -0.0000000000
 N   11.1910804400    6.7146482700   12.2382160900   -0.0000000000   -0.0000000000   -0.0000000000
 N    8.9320547625    6.7112042174   14.5057174551   -0.0000379810   -0.0000256866   -0.0000199560
 N   11.1908457215    4.4775494872   14.4887579334   -0.0000736403   -0.0000182721   -0.0000350459
 N    8.9510691962    4.4691935123   16.6768112025   -0.0003207758    0.0000606130    0.0001070227
 N   11.1819657744    6.7118096966   16.6876943641   -0.0000867140   -0.0000461306   -0.0001019376
 N    8.9528643500   11.1910804400   10.0000000000   -0.0000000000   -0.0000000000    0.0000000000
 N   11.1910804400    8.9528643500   10.0000000000   -0.0000000000   -0.0000000000    0.0000000000
 N    8.9528643500    8.9528643500   12.2382160900   -0.0000000000   -0.0000000000   -0.0000000000
 N   11.1910804400   11.1910804400   12.2382160900   -0.0000000000   -0.0000000000   -0.0000000000
 N    8.9493991309   11.1880512215   14.4888472918   -0.0000391275   -0.0000326683   -0.0000332497
 N   11.1880486815    8.9493840409   14.4888680418   -0.0000326683   -0.0000391275   -0.0000332497
 N    8.9478368451    8.9478251651   16.6828303111   -0.0000886420   -0.0000886420   -0.0000812550
 N   11.1892904147   11.1892995447   16.6806025274   -0.0000138844   -0.0000138844   -0.0000138667
Li    6.1481907868    6.1481650755   18.6314736684    0.0068033553    0.0068033553    0.0013877238
 PRIMCOORD   5
  145  1
Sc    0.0000000000    0.0000000000   10.0000000000    0.0000000000    0.0000000000    0.0000000000
Sc    2.2382160900    0.0000000000   12.2382160900   -0.0000000000    0.0000000000   -0.0000000000
Sc    0.0000000000    2.2382160900   12.2382160900    0.0000000000   -0.0000000000   -0.0000000000
Sc    2.2382160900    2.2382160900   10.0000000000   -0.0000000000   -0.0000000000    0.0000000000
Sc   -0.0000043900    0.0000394300   14.4727646400    0.0000000000    0.0000000000   -0.0001421991
Sc    2.2348019740   -0.0000024800   16.6599358640   -0.0002309738    0.0000000000   -0.0001006218
Sc   -0.0000127400    2.2347990640   16.6600339340   -0.0000000000   -0.0002309738   -0.0001006218
Sc    2.2360158230    2.2360396530   14.4728160240   -0.0001014624   -0.0001014624   -0.0002641400
Sc    0.0000000000    4.4764321800   10.0000000000    0.0000000000   -0.0000000000    0.0000000000
Sc    2.2382160900    4.4764321800   12.2382160900   -0.0000000000   -0.0000000000   -0.0000000000
Sc    0.0000000000    6.7146482700   12.2382160900    0.0000000000    0.0000000000   -0.0000000000
Sc    2.2382160900    6.7146482700   10.0000000000   -0.0000000000    0.0000000000    0.0000000000
Sc    0.0000054100    4.4725198540   14.4731066280    0.0000000000   -0.0000783581   -0.0002455972
Sc    2.2302980770    4.4695585970   16.6595211260   -0.0002853955   -0.0001674924   -0.0004531212
Sc   -0.0000078600    6.7146442400   16.6612494770    0.0000000000    0.0000000000   -0.0002297185
Sc    2.2256898450    6.7146525500   14.4661142800    0.0002261010   -0.0000000000    0.0001637555
Sc    0.0000000000    8.9528643500   10.0000000000   -0.0000000000    0.0000000000    0.0000000000
Sc    2.2382160900    8.9528643500   12.2382160900   -0.0000000000    0.0000000000   -0.0000000000
Sc    0.0000000000   11.1910804400   12.2382160900   -0.0000000000    0.0000000000   -0.0000000000
Sc    2.2382160900   11.1910804400   10.0000000000   -0.0000000000    0.0000000000    0.0000000000
Sc   -0.0000050800    8.9567376560   14.4731274280   -0.0000000000    0.0000783581   -0.0002455972
Sc    2.2302792070    8.9597416130   16.6595641760   -0.0002853955    0.0001674924   -0.0004531212
Sc   -0.0000076900   11.1945052560   16.6599103540   -0.0000000000    0.0002309738   -0.0001006218
Sc    2.2360323730   11.1932521870   14.4727817640   -0.0001014624    0.0001014624   -0.0002641400
Sc    4.4764321800    0.0000000000   10.0000000000   -0.0000000000    0.0000000000    0.0000000000
Sc    6.7146482700    0.0000000000   12.2382160900    0.0000000000    0.0000000000   -0.0000000000
Sc    4.4764321800    2.2382160900   12.2382160900   -0.0000000000   -0.0000000000   -0.0000000000
Sc    6.7146482700    2.2382160900   10.0000000000    0.0000000000   -0.0000000000    0.0000000000
Sc    4.4725592640    0.0000142200   14.4731106880   -0.0000783581    0.0000000000   -0.0002455972
Sc    6.7146485700   -0.0000021700   16.6613066870    0.0000000000    0.0000000000   -0.0002297185
Sc    4.4695588070    2.2302910370   16.6595432360   -0.0001674924   -0.0002853955   -0.0004531212
Sc    6.7146725600    2.2256806460   14.4661363200   -0.0000000000    0.0002261010    0.0001637555
Sc    4.4764321800    4.4764321800   10.0000000000   -0.0000000000   -0.0000000000    0.0000000000
Sc    6.7146482700    4.4764321800   12.2382160900    0.0000000000   -0.0000000000   -0.0000000000
Sc    4.4764321800    6.7146482700   12.2382160900   -0.0000000000    0.0000000000   -0.0000000000
Sc    6.7146482700    6.7146482700   10.0000000000    0.0000000000    0.0000000000    0.0000000000
Sc    4.4699108680    4.4699061280   14.4715406020    0.0001621252    0.0001621252    0.0000063339
Sc    6.7146449300    4.4320101940   16.6355826920    0.0000000000   -0.0006055398   -0.0000276435
Sc    4.4320102540    6.7146432700   16.6356697620   -0.0006055398    0.0000000000   -0.0000276435
Sc    6.7146460700    6.7146553700   14.4402426420    0.0000000000    0.0000000000   -0.0005645551
Sc    4.4764321800    8.9528643500   10.0000000000   -0.0000000000    0.0000000000    0.0000000000
Sc    6.7146482700    8.9528643500   12.2382160900    0.0000000000    0.0000000000   -0.0000000000
Sc    4.4764321800   11.1910804400   12.2382160900   -0.0000000000    0.0000000000   -0.0000000000
Sc    6.7146482700   11.1910804400   10.0000000000    0.0000000000    0.0000000000    0.0000000000
Sc    4.4699132080    8.9593760220   14.4715588720    0.0001621252   -0.0001621252    0.0000063339
Sc    6.7146600900    8.9972880360   16.6356500020    0.0000000000    0.0006055398   -0.0000276435
Sc    4.4695592070   11.1990106630   16.6595341660   -0.0001674924    0.0002853955   -0.0004531212
Sc    6.7146587000   11.2036092540   14.4661045600   -0.0000000000   -0.0002261010    0.0001637555
Sc    8.9528643500    0.0000000000   10.0000000000    0.0000000000    0.0000000000    0.0000000000
Sc   11.1910804400    0.0000000000   12.2382160900    0.0000000000   -0.0000000000   -0.0000000000
Sc    8.9528643500    2.2382160900   12.2382160900    0.0000000000   -0.0000000000   -0.0000000000
Sc   11.1910804400    2.2382160900   10.0000000000    0.0000000000   -0.0000000000    0.0000000000
Sc    8.9567411160    0.0000372100   14.4731418780    0.0000783581    0.0000000000   -0.0002455972
Sc   11.1944942760   -0.0000132700   16.6599490040    0.0002309738   -0.0000000000   -0.0001006218
Sc    8.9597511830    2.2302873470   16.6596297060    0.0001674924   -0.0002853955   -0.0004531212
Sc   11.1932548970    2.2360238730   14.4728430540    0.0001014624   -0.0001014624   -0.0002641400
Sc    8.9528643500    4.4764321800   10.0000000000    0.0000000000   -0.0000000000    0.0000000000
Sc   11.1910804400    4.4764321800   12.2382160900    0.0000000000   -0.0000000000   -0.0000000000
Sc    8.9528643500    6.7146482700   12.2382160900    0.0000000000    0.0000000000   -0.0000000000
Sc   11.1910804400    6.7146482700   10.0000000000    0.0000000000   -0.0000000000    0.0000000000
Sc    8.9593814920    4.4698772680   14.4715241620   -0.0001621252    0.0001621252    0.0000063339
Sc   11.1990053830    4.4695692670   16.6594382560    0.0002853955   -0.0001674924   -0.0004531212
Sc    8.9972926460    6.7146425600   16.6355951420    0.0006055398    0.0000000000   -0.0000276435
Sc   11.2036100750    6.7146715700   14.4660878000   -0.0002261010    0.0000000000    0.0001637555
Sc    8.9528643500    8.9528643500   10.0000000000    0.0000000000    0.0000000000    0.0000000000
Sc   11.1910804400    8.9528643500   12.2382160900    0.0000000000    0.0000000000   -0.0000000000
Sc    8.9528643500   11.1910804400   12.2382160900    0.0000000000    0.0000000000   -0.0000000000
Sc   11.1910804400   11.1910804400   10.0000000000    0.0000000000    0.0000000000    0.0000000000
Sc    8.9593884320    8.9593822820   14.4715469620   -0.0001621252   -0.0001621252    0.0000063339
Sc   11.1990041830    8.9597421430   16.6595824260    0.0002853955    0.0001674924   -0.0004531212
Sc    8.9597465130   11.1990148430   16.6595424060    0.0001674924    0.0002853955   -0.0004531212
Sc   11.1932540270   11.1932497070   14.4727642940    0.0001014624    0.0001014624   -0.0002641400
 N    0.0000000000    2.2382160900   10.0000000000   -0.0000000000    0.0000000000    0.0000000000
 N    2.2382160900    0.0000000000   10.0000000000    0.0000000000    0.0000000000    0.0000000000
 N    0.0000000000    0.0000000000   12.2382160900    0.0000000000    0.0000000000   -0.0000000000
 N    2.2382160900    2.2382160900   12.2382160900    0.0000000000    0.0000000000   -0.0000000000
 N   -0.0000169300    2.2387088900   14.4888489070    0.0000000000   -0.0000995144   -0.0000968354
 N    2.2387329400    0.0000174400   14.4887946270   -0.0000995144    0.0000000000   -0.0000968354
 N   -0.0000104900    0.0000132000   16.6808015500    0.0000000000    0.0000000000   -0.0000687301
 N    2.2394185380    2.2394527070   16.6823087300   -0.0001115966   -0.0001115966   -0.0000170087
 N    0.0000000000    6.7146482700   10.0000000000    0.0000000000    0.0000000000    0.0000000000
 N    2.2382160900    4.4764321800   10.0000000000    0.0000000000    0.0000000000    0.0000000000
 N    0.0000000000    4.4764321800   12.2382160900    0.0000000000    0.0000000000   -0.0000000000
 N    2.2382160900    6.7146482700   12.2382160900    0.0000000000    0.0000000000   -0.0000000000
 N   -0.0000069100    6.7146830900   14.4893030340    0.0000000000    0.0000000000    0.0001150663
 N    2.2393940060    4.4777835710   14.4887971100   -0.0001083881   -0.0000272750   -0.0000462484
 N   -0.0000066800    4.4778673080   16.6812451430    0.0000000000   -0.0000851584   -0.0000237331
 N    2.2402826860    6.7146316800   16.6817298690    0.0004427573    0.0000000000    0.0002572438
 N    0.0000000000   11.1910804400   10.0000000000   -0.0000000000   -0.0000000000    0.0000000000
 N    2.2382160900    8.9528643500   10.0000000000    0.0000000000   -0.0000000000    0.0000000000
 N    0.0000000000    8.9528643500   12.2382160900    0.0000000000   -0.0000000000   -0.0000000000
 N    2.2382160900   11.1910804400   12.2382160900    0.0000000000   -0.0000000000   -0.0000000000
 N   -0.0000049500   11.1905531600   14.4887888170    0.0000000000    0.0000995144   -0.0000968354
 N    2.2393633360    8.9514966690   14.4888304900   -0.0001083881    0.0000272750   -0.0000462484
 N   -0.0000120900    8.9514137120   16.6814807230   -0.0000000000    0.0000851584   -0.0000237331
 N    2.2394381770   11.1898598430   16.6822263500   -0.0001115966    0.0001115966   -0.0000170087
 N    4.4764321800    2.2382160900   10.0000000000    0.0000000000    0.0000000000    0.0000000000
 N    6.7146482700    0.0000000000   10.0000000000    0.0000000000    0.0000000000    0.0000000000
 N    4.4764321800    0.0000000000   12.2382160900    0.0000000000    0.0000000000   -0.0000000000
 N    6.7146482700    2.2382160900   12.2382160900   -0.0000000000    0.0000000000   -0.0000000000
 N    4.4777906210    2.2393705360   14.4888240800   -0.0000272750   -0.0001083881   -0.0000462484
 N    6.7146624900    0.0000155400   14.4893217840    0.0000000000    0.0000000000    0.0001150663
 N    4.4778842380    0.0000100000   16.6814125130   -0.0000851584   -0.0000000000   -0.0000237331
 N    6.7146740200    2.2403062160   16.6817439390   -0.0000000000    0.0004427573    0.0002572438
 N    4.4764321800    6.7146482700   10.0000000000    0.0000000000    0.0000000000    0.0000000000
 N    6.7146482700    4.4764321800   10.0000000000    0.0000000000    0.0000000000    0.0000000000
 N    4.4764321800    4.4764321800   12.2382160900    0.0000000000    0.0000000000   -0.0000000000
 N    6.7146482700    6.7146482700   12.2382160900    0.0000000000    0.0000000000    0.0000000000
 N    4.4906454950    6.7146466000   14.4962276010    0.0002599813    0.0000000000    0.0010826589
 N    6.7146238700    4.4906378950   14.4961785910   -0.0000000000    0.0002599813    0.0010826589
 N    4.4793644190    4.4793557990   16.6876906240    0.0000296333    0.0000296333   -0.0003377561
 N    6.7146663000    6.7146322200   16.9062576110    0.0000000000    0.0000000000   -0.0014135487
 N    4.4764321800   11.1910804400   10.0000000000    0.0000000000   -0.0000000000    0.0000000000
 N    6.7146482700    8.9528643500   10.0000000000    0.0000000000   -0.0000000000    0.0000000000
 N    4.4764321800    8.9528643500   12.2382160900    0.0000000000   -0.0000000000   -0.0000000000
 N    6.7146482700   11.1910804400   12.2382160900    0.0000000000   -0.0000000000   -0.0000000000
 N    4.4777912510   11.1899277140   14.4888166100   -0.0000272750    0.0001083881   -0.0000462484
 N    6.7146549600    8.9386427740   14.4962134810    0.0000000000   -0.0002599813    0.0010826589
 N    4.4793657990    8.9499301310   16.6876824840    0.0000296333   -0.0000296333   -0.0003377561
 N    6.7146550900   11.1890066040   16.6816883390    0.0000000000   -0.0004427573    0.0002572438
 N    8.9528643500    2.2382160900   10.0000000000   -0.0000000000    0.0000000000    0.0000000000
 N   11.1910804400    0.0000000000   10.0000000000   -0.0000000000    0.0000000000    0.0000000000
 N    8.9528643500    0.0000000000   12.2382160900   -0.0000000000    0.0000000000   -0.0000000000
 N   11.1910804400    2.2382160900   12.2382160900   -0.0000000000    0.0000000000   -0.0000000000
 N    8.9515237890    2.2393328260   14.4888692400    0.0000272750   -0.0001083881   -0.0000462484
 N   11.1905515300    0.0000347500   14.4887959570    0.0000995144    0.0000000000   -0.0000968354
 N    8.9514215020    0.0000125900   16.6814680830    0.0000851584    0.0000000000   -0.0000237331
 N   11.1898504020    2.2394614670   16.6823999600    0.0001115966   -0.0001115966   -0.0000170087
 N    8.9528643500    6.7146482700   10.0000000000   -0.0000000000    0.0000000000    0.0000000000
 N   11.1910804400    4.4764321800   10.0000000000   -0.0000000000    0.0000000000    0.0000000000
 N    8.9528643500    4.4764321800   12.2382160900   -0.0000000000    0.0000000000   -0.0000000000
 N   11.1910804400    6.7146482700   12.2382160900   -0.0000000000   -0.0000000000   -0.0000000000
 N    8.9386574250    6.7146828600   14.4961824810   -0.0002599813    0.0000000000    0.0010826589
 N   11.1899246440    4.4777668610   14.4887554600    0.0001083881   -0.0000272750   -0.0000462484
 N    8.9499381310    4.4793489190   16.6874817340   -0.0000296333    0.0000296333   -0.0003377561
 N   11.1889967040    6.7146219700   16.6817123490   -0.0004427573   -0.0000000000    0.0002572438
 N    8.9528643500   11.1910804400   10.0000000000   -0.0000000000   -0.0000000000    0.0000000000
 N   11.1910804400    8.9528643500   10.0000000000   -0.0000000000   -0.0000000000    0.0000000000
 N    8.9528643500    8.9528643500   12.2382160900   -0.0000000000   -0.0000000000   -0.0000000000
 N   11.1910804400   11.1910804400   12.2382160900   -0.0000000000   -0.0000000000   -0.0000000000
 N    8.9515103190   11.1899292340   14.4888098400    0.0000272750    0.0001083881   -0.0000462484
 N   11.1899266940    8.9514952290   14.4888305900    0.0001083881    0.0000272750   -0.0000462484
 N    8.9499440110    8.9499323310   16.6876893940   -0.0000296333   -0.0000296333   -0.0003377561
 N   11.1898506820   11.1898598120   16.6822032700    0.0001115966    0.0001115966   -0.0000170087
Li    6.7146663000    6.7146322200   18.7385504360    0.0000000000    0.0000000000   -0.0004019653
