 ANIMSTEPS   5
 CRYSTAL 
 PRIMVEC 
 12.6417492850  0.0000000000  0.0000000000
  0.0000000000 12.6417492850  0.0000000000
  0.0000000000  0.0000000000 26.3208805164
 PRIMCOORD   1
  145  1
Ti    0.0000000000    0.0000000000   10.0000000000   -0.0000000000   -0.0000000000    0.0000000000
Ti    2.1069582300    0.0000000000   12.1069582300    0.0000000000    0.0000000000    0.0000000000
Ti    0.0000000000    2.1069582300   12.1069582300    0.0000000000    0.0000000000    0.0000000000
Ti    2.1069582300    2.1069582300   10.0000000000    0.0000000000    0.0000000000    0.0000000000
Ti   -0.0013794680   -0.0013794180   14.2036991500   -0.0000013785   -0.0000013785    0.0000637908
Ti    2.1013200020   -0.0006694040   16.2195962790   -0.0002886457   -0.0001200142   -0.0001988305
Ti   -0.0006695840    2.1013201320   16.2195969390   -0.0001200142   -0.0002886457   -0.0001988305
Ti    2.1077776710    2.1077776810   14.2042673610   -0.0001784984   -0.0001784984   -0.0001274173
Ti    0.0000000000    4.2139164700   10.0000000000   -0.0000000000    0.0000000000    0.0000000000
Ti    2.1069582300    4.2139164700   12.1069582300    0.0000000000    0.0000000000    0.0000000000
Ti    0.0000000000    6.3208747000   12.1069582300    0.0000000000   -0.0000000000    0.0000000000
Ti    2.1069582300    6.3208747000   10.0000000000    0.0000000000   -0.0000000000    0.0000000000
Ti    0.0006449810    4.2139179100   14.2038056980   -0.0002338516   -0.0000000000   -0.0003285559
Ti    2.0691974260    4.2139122300   16.2321338300    0.0008254791    0.0000000000   -0.0009830951
Ti   -0.0006698140    6.3265069780   16.2196023190   -0.0001200142    0.0002886457   -0.0001988305
Ti    2.1077839010    6.3200576890   14.2042732510   -0.0001784984    0.0001784984   -0.0001274173
Ti    0.0000000000    8.4278329400   10.0000000000   -0.0000000000    0.0000000000    0.0000000000
Ti    2.1069582300    8.4278329400   12.1069582300    0.0000000000   -0.0000000000    0.0000000000
Ti    0.0000000000   10.5347911700   12.1069582300    0.0000000000    0.0000000000    0.0000000000
Ti    2.1069582300   10.5347911700   10.0000000000   -0.0000000000    0.0000000000    0.0000000000
Ti   -0.0013793880    8.4292108580   14.2037002800   -0.0000013785    0.0000013785    0.0000637908
Ti    2.1013246520    8.4285062740   16.2196042890   -0.0002886457    0.0001200142   -0.0001988305
Ti    0.0000908180   10.5347970200   16.2183116660    0.0003358488    0.0000000000    0.0000641138
Ti    2.1060087550   10.5347882500   14.2059603850    0.0000287924   -0.0000000000    0.0000596415
Ti    4.2139164700    0.0000000000   10.0000000000    0.0000000000   -0.0000000000    0.0000000000
Ti    6.3208747000    0.0000000000   12.1069582300   -0.0000000000    0.0000000000    0.0000000000
Ti    4.2139164700    2.1069582300   12.1069582300    0.0000000000    0.0000000000    0.0000000000
Ti    6.3208747000    2.1069582300   10.0000000000   -0.0000000000    0.0000000000    0.0000000000
Ti    4.2139177500    0.0006448310   14.2038053780   -0.0000000000   -0.0002338516   -0.0003285559
Ti    6.3265068480   -0.0006695540   16.2196012890    0.0002886457   -0.0001200142   -0.0001988305
Ti    4.2139122900    2.0691974860   16.2321347900    0.0000000000    0.0008254791   -0.0009830951
Ti    6.3200578190    2.1077840410   14.2042733310    0.0001784984   -0.0001784984   -0.0001274173
Ti    4.2139164700    4.2139164700   10.0000000000    0.0000000000    0.0000000000    0.0000000000
Ti    6.3208747000    4.2139164700   12.1069582300   -0.0000000000    0.0000000000    0.0000000000
Ti    4.2139164700    6.3208747000   12.1069582300    0.0000000000   -0.0000000000    0.0000000000
Ti    6.3208747000    6.3208747000   10.0000000000   -0.0000000000   -0.0000000000    0.0000000000
Ti    4.2139245500    4.2139244300   14.2579361200    0.0000000000    0.0000000000   -0.0004698514
Ti    6.3586343540    4.2139170700   16.2321444900   -0.0008254791   -0.0000000000   -0.0009830951
Ti    4.2139170400    6.3586344040   16.2321448300    0.0000000000   -0.0008254791   -0.0009830951
Ti    6.3200578290    6.3200576990   14.2042818110    0.0001784984    0.0001784984   -0.0001274173
Ti    4.2139164700    8.4278329400   10.0000000000    0.0000000000    0.0000000000    0.0000000000
Ti    6.3208747000    8.4278329400   12.1069582300   -0.0000000000   -0.0000000000    0.0000000000
Ti    4.2139164700   10.5347911700   12.1069582300    0.0000000000    0.0000000000    0.0000000000
Ti    6.3208747000   10.5347911700   10.0000000000    0.0000000000    0.0000000000    0.0000000000
Ti    4.2139245000    8.4271799090   14.2038158580    0.0000000000    0.0002338516   -0.0003285559
Ti    6.3265072580    8.4285014740   16.2196142990    0.0002886457    0.0001200142   -0.0001988305
Ti    4.2139122400   10.5347922000   16.2177929970    0.0000000000    0.0000000000    0.0000803822
Ti    6.3218267750   10.5347820200   14.2059666550   -0.0000287924   -0.0000000000    0.0000596415
Ti    8.4278329400    0.0000000000   10.0000000000    0.0000000000   -0.0000000000    0.0000000000
Ti   10.5347911700    0.0000000000   12.1069582300    0.0000000000    0.0000000000    0.0000000000
Ti    8.4278329400    2.1069582300   12.1069582300   -0.0000000000    0.0000000000    0.0000000000
Ti   10.5347911700    2.1069582300   10.0000000000    0.0000000000   -0.0000000000    0.0000000000
Ti    8.4292106780   -0.0013792280   14.2037007000    0.0000013785   -0.0000013785    0.0000637908
Ti   10.5347970700    0.0000906880   16.2183120560    0.0000000000    0.0003358488    0.0000641138
Ti    8.4285064440    2.1013245920   16.2196044690    0.0001200142   -0.0002886457   -0.0001988305
Ti   10.5347882600    2.1060085850   14.2059599950   -0.0000000000    0.0000287924    0.0000596415
Ti    8.4278329400    4.2139164700   10.0000000000    0.0000000000    0.0000000000    0.0000000000
Ti   10.5347911700    4.2139164700   12.1069582300    0.0000000000    0.0000000000    0.0000000000
Ti    8.4278329400    6.3208747000   12.1069582300   -0.0000000000   -0.0000000000    0.0000000000
Ti   10.5347911700    6.3208747000   10.0000000000    0.0000000000    0.0000000000    0.0000000000
Ti    8.4271795890    4.2139243900   14.2038161380    0.0002338516    0.0000000000   -0.0003285559
Ti   10.5347926300    4.2139121100   16.2177939370    0.0000000000    0.0000000000    0.0000803822
Ti    8.4285018640    6.3265068780   16.2196151490    0.0001200142    0.0002886457   -0.0001988305
Ti   10.5347823700    6.3218269850   14.2059663750    0.0000000000   -0.0000287924    0.0000596415
Ti    8.4278329400    8.4278329400   10.0000000000    0.0000000000    0.0000000000    0.0000000000
Ti   10.5347911700    8.4278329400   12.1069582300    0.0000000000   -0.0000000000    0.0000000000
Ti    8.4278329400   10.5347911700   12.1069582300   -0.0000000000    0.0000000000    0.0000000000
Ti   10.5347911700   10.5347911700   10.0000000000    0.0000000000    0.0000000000    0.0000000000
Ti    8.4292035980    8.4292041280   14.2037109200    0.0000013785    0.0000013785    0.0000637908
Ti   10.5347925200    8.4277460420   16.2183187060    0.0000000000   -0.0003358488    0.0000641138
Ti    8.4277460220   10.5347923800   16.2183193960   -0.0003358488    0.0000000000    0.0000641138
Ti   10.5347884800   10.5347883300   14.2053640510    0.0000000000    0.0000000000    0.0001017246
 N    0.0000000000    2.1069582300   10.0000000000   -0.0000000000    0.0000000000   -0.0000000000
 N    2.1069582300    0.0000000000   10.0000000000    0.0000000000   -0.0000000000   -0.0000000000
 N    0.0000000000    0.0000000000   12.1069582300    0.0000000000    0.0000000000   -0.0000000000
 N    2.1069582300    2.1069582300   12.1069582300    0.0000000000    0.0000000000   -0.0000000000
 N   -0.0011835270    2.1062280180   14.2275482370   -0.0000860199    0.0000505221    0.0000218348
 N    2.1062278780   -0.0011831870   14.2275478170    0.0000505221   -0.0000860199    0.0000218348
 N   -0.0020109920   -0.0020110720   16.3884078040    0.0000335440    0.0000335440   -0.0000072848
 N    2.0999891550    2.0999892450   16.3982528750    0.0002707257    0.0002707257   -0.0001606822
 N    0.0000000000    6.3208747000   10.0000000000   -0.0000000000   -0.0000000000   -0.0000000000
 N    2.1069582300    4.2139164700   10.0000000000    0.0000000000    0.0000000000   -0.0000000000
 N    0.0000000000    4.2139164700   12.1069582300    0.0000000000    0.0000000000   -0.0000000000
 N    2.1069582300    6.3208747000   12.1069582300    0.0000000000   -0.0000000000   -0.0000000000
 N   -0.0011835770    6.3216075920   14.2275545070   -0.0000860199   -0.0000505221    0.0000218348
 N    2.1064595130    4.2139187600   14.2383929150   -0.0001550885    0.0000000000   -0.0002133016
 N   -0.0037175440    4.2139137000   16.3896737720    0.0000484808    0.0000000000    0.0001836027
 N    2.0999888950    6.3278420250   16.3982656960    0.0002707257   -0.0002707257   -0.0001606822
 N    0.0000000000   10.5347911700   10.0000000000   -0.0000000000    0.0000000000   -0.0000000000
 N    2.1069582300    8.4278329400   10.0000000000    0.0000000000    0.0000000000   -0.0000000000
 N    0.0000000000    8.4278329400   12.1069582300    0.0000000000   -0.0000000000   -0.0000000000
 N    2.1069582300   10.5347911700   12.1069582300   -0.0000000000    0.0000000000   -0.0000000000
 N   -0.0004264480   10.5347881900   14.2278056790    0.0000360131   -0.0000000000    0.0000284572
 N    2.1062293380    8.4290130770   14.2275553170    0.0000505221    0.0000860199    0.0000218348
 N   -0.0020114820    8.4298464920   16.3884170430    0.0000335440   -0.0000335440   -0.0000072848
 N    2.1054761640   10.5347926800   16.3871361170    0.0000224698    0.0000000000    0.0000093678
 N    4.2139164700    2.1069582300   10.0000000000    0.0000000000    0.0000000000   -0.0000000000
 N    6.3208747000    0.0000000000   10.0000000000   -0.0000000000   -0.0000000000   -0.0000000000
 N    4.2139164700    0.0000000000   12.1069582300    0.0000000000    0.0000000000   -0.0000000000
 N    6.3208747000    2.1069582300   12.1069582300   -0.0000000000    0.0000000000   -0.0000000000
 N    4.2139190200    2.1064595830   14.2383928450   -0.0000000000   -0.0001550885   -0.0002133016
 N    6.3216078520   -0.0011834370   14.2275544370   -0.0000505221   -0.0000860199    0.0000218348
 N    4.2139136300   -0.0037179840   16.3896741020    0.0000000000    0.0000484808    0.0001836027
 N    6.3278419850    2.0999889150   16.3982661550   -0.0002707257    0.0002707257   -0.0001606822
 N    4.2139164700    6.3208747000   10.0000000000    0.0000000000   -0.0000000000   -0.0000000000
 N    6.3208747000    4.2139164700   10.0000000000   -0.0000000000    0.0000000000   -0.0000000000
 N    4.2139164700    4.2139164700   12.1069582300    0.0000000000    0.0000000000   -0.0000000000
 N    6.3208747000    6.3208747000   12.1069582300   -0.0000000000   -0.0000000000   -0.0000000000
 N    4.2139200800    6.3213774470   14.2383987950    0.0000000000    0.0001550885   -0.0002133016
 N    6.3213774670    4.2139198500   14.2383988450    0.0001550885    0.0000000000   -0.0002133016
 N    4.2139139900    4.2139140800   16.4421630240    0.0000000000    0.0000000000    0.0003580794
 N    6.3278418350    6.3278421850   16.3982892160   -0.0002707257   -0.0002707257   -0.0001606822
 N    4.2139164700   10.5347911700   10.0000000000    0.0000000000    0.0000000000   -0.0000000000
 N    6.3208747000    8.4278329400   10.0000000000   -0.0000000000    0.0000000000   -0.0000000000
 N    4.2139164700    8.4278329400   12.1069582300    0.0000000000   -0.0000000000   -0.0000000000
 N    6.3208747000   10.5347911700   12.1069582300    0.0000000000    0.0000000000   -0.0000000000
 N    4.2139189100   10.5347869400   14.2283318030    0.0000000000    0.0000000000   -0.0000931924
 N    6.3216076020    8.4290124370   14.2275611370   -0.0000505221    0.0000860199    0.0000218348
 N    4.2139141000    8.4315530140   16.3896923820    0.0000000000   -0.0000484808    0.0001836027
 N    6.3223549060   10.5347930200   16.3871492170   -0.0000224698   -0.0000000000    0.0000093678
 N    8.4278329400    2.1069582300   10.0000000000    0.0000000000    0.0000000000   -0.0000000000
 N   10.5347911700    0.0000000000   10.0000000000    0.0000000000   -0.0000000000   -0.0000000000
 N    8.4278329400    0.0000000000   12.1069582300   -0.0000000000    0.0000000000   -0.0000000000
 N   10.5347911700    2.1069582300   12.1069582300    0.0000000000   -0.0000000000   -0.0000000000
 N    8.4290137270    2.1062293080   14.2275549870    0.0000860199    0.0000505221    0.0000218348
 N   10.5347884900   -0.0004264180   14.2278063590    0.0000000000    0.0000360131    0.0000284572
 N    8.4298468320   -0.0020111020   16.3884178530   -0.0000335440    0.0000335440   -0.0000072848
 N   10.5347925400    2.1054762740   16.3871365770    0.0000000000    0.0000224698    0.0000093678
 N    8.4278329400    6.3208747000   10.0000000000    0.0000000000   -0.0000000000   -0.0000000000
 N   10.5347911700    4.2139164700   10.0000000000    0.0000000000    0.0000000000   -0.0000000000
 N    8.4278329400    4.2139164700   12.1069582300   -0.0000000000    0.0000000000   -0.0000000000
 N   10.5347911700    6.3208747000   12.1069582300   -0.0000000000    0.0000000000   -0.0000000000
 N    8.4290124470    6.3216077920   14.2275611170    0.0000860199   -0.0000505221    0.0000218348
 N   10.5347867600    4.2139190000   14.2283320230    0.0000000000    0.0000000000   -0.0000931924
 N    8.4315531740    4.2139140100   16.3896924920   -0.0000484808    0.0000000000    0.0001836027
 N   10.5347929600    6.3223549560   16.3871492970    0.0000000000   -0.0000224698    0.0000093678
 N    8.4278329400   10.5347911700   10.0000000000    0.0000000000    0.0000000000   -0.0000000000
 N   10.5347911700    8.4278329400   10.0000000000    0.0000000000    0.0000000000   -0.0000000000
 N    8.4278329400    8.4278329400   12.1069582300   -0.0000000000   -0.0000000000   -0.0000000000
 N   10.5347911700   10.5347911700   12.1069582300    0.0000000000    0.0000000000   -0.0000000000
 N    8.4282569980   10.5347869000   14.2278127390   -0.0000360131    0.0000000000    0.0000284572
 N   10.5347867900    8.4282568880   14.2278127590    0.0000000000   -0.0000360131    0.0000284572
 N    8.4298463520    8.4298462420   16.3884354630   -0.0000335440   -0.0000335440   -0.0000072848
 N   10.5347930000   10.5347929100   16.3876603710    0.0000000000    0.0000000000   -0.0001098406
Li    4.2139139900    4.2139140800   18.3285756450    0.0000000000    0.0000000000   -0.0006284140
 PRIMCOORD   2
  145  1
Ti    0.0000000000    0.0000000000   10.0000000000   -0.0000000000   -0.0000000000    0.0000000000
Ti    2.1069582300    0.0000000000   12.1069582300    0.0000000000    0.0000000000    0.0000000000
Ti    0.0000000000    2.1069582300   12.1069582300    0.0000000000    0.0000000000    0.0000000000
Ti    2.1069582300    2.1069582300   10.0000000000    0.0000000000    0.0000000000    0.0000000000
Ti    0.0008885719    0.0008886219   14.2050746071   -0.0000030950   -0.0000030950    0.0000063688
Ti    2.1076393638    0.0033024216   16.2199481360    0.0000226303    0.0000455647    0.0000072932
Ti    0.0033022416    2.1076394938   16.2199487960    0.0000455647    0.0000226303    0.0000072932
Ti    2.1109772030    2.1109772130   14.2068248287   -0.0000093859   -0.0000093859   -0.0000188593
Ti    0.0000000000    4.2139164700   10.0000000000   -0.0000000000   -0.0000000000    0.0000000000
Ti    2.1069582300    4.2139164700   12.1069582300    0.0000000000   -0.0000000000    0.0000000000
Ti    0.0000000000    6.3208747000   12.1069582300    0.0000000000   -0.0000000000    0.0000000000
Ti    2.1069582300    6.3208747000   10.0000000000    0.0000000000   -0.0000000000    0.0000000000
Ti    0.0042862482    4.2147228417   14.2058111304    0.0000054495    0.0000100444   -0.0000089699
Ti    2.0956201192    4.2210834999   16.2335651772   -0.0001678187    0.0000785611   -0.0000152825
Ti    0.0019761260    6.3265099154   16.2178628661    0.0001471250   -0.0000301550    0.0000381312
Ti    2.1031564998    6.3226465568   14.1981840474    0.0000132098    0.0000387493    0.0000348578
Ti    0.0000000000    8.4278329400   10.0000000000   -0.0000000000    0.0000000000    0.0000000000
Ti    2.1069582300    8.4278329400   12.1069582300   -0.0000000000    0.0000000000    0.0000000000
Ti    0.0000000000   10.5347911700   12.1069582300    0.0000000000    0.0000000000    0.0000000000
Ti    2.1069582300   10.5347911700   10.0000000000   -0.0000000000   -0.0000000000    0.0000000000
Ti   -0.0036705820    8.4311512655   14.2032030622   -0.0000096138    0.0000144184    0.0000035679
Ti    2.0954987237    8.4389631693   16.2155216416    0.0000522302    0.0000315525    0.0000217832
Ti    0.0004560236   10.5373794429   16.2188754408   -0.0000197145    0.0001239478    0.0000108796
Ti    2.1050050596   10.5394329536   14.2045370185    0.0000359636    0.0000197364    0.0000397766
Ti    4.2139164700    0.0000000000   10.0000000000   -0.0000000000   -0.0000000000    0.0000000000
Ti    6.3208747000    0.0000000000   12.1069582300   -0.0000000000    0.0000000000    0.0000000000
Ti    4.2139164700    2.1069582300   12.1069582300   -0.0000000000    0.0000000000    0.0000000000
Ti    6.3208747000    2.1069582300   10.0000000000   -0.0000000000    0.0000000000    0.0000000000
Ti    4.2147226817    0.0042860982   14.2058108104    0.0000100444    0.0000054495   -0.0000089699
Ti    6.3265097854    0.0019763860   16.2178618361   -0.0000301550    0.0001471250    0.0000381312
Ti    4.2210835596    2.0956201795   16.2335661372    0.0000785611   -0.0001678187   -0.0000152825
Ti    6.3226466868    2.1031566398   14.1981841274    0.0000387493    0.0000132098    0.0000348578
Ti    4.2139164700    4.2139164700   10.0000000000    0.0000000000    0.0000000000    0.0000000000
Ti    6.3208747000    4.2139164700   12.1069582300   -0.0000000000    0.0000000000    0.0000000000
Ti    4.2139164700    6.3208747000   12.1069582300    0.0000000000   -0.0000000000    0.0000000000
Ti    6.3208747000    6.3208747000   10.0000000000   -0.0000000000   -0.0000000000    0.0000000000
Ti    4.2194501053    4.2194499853   14.2477245201    0.0000486335    0.0000486335    0.0004160366
Ti    6.3829227469    4.1929218437   16.2023111672   -0.0002277601    0.0007062757    0.0002315036
Ti    4.1929218137    6.3829227969   16.2023115072    0.0007062757   -0.0002277601    0.0002315036
Ti    6.3216827141    6.3216825841   14.2100197391    0.0000860498    0.0000860498   -0.0002579015
Ti    4.2139164700    8.4278329400   10.0000000000    0.0000000000    0.0000000000    0.0000000000
Ti    6.3208747000    8.4278329400   12.1069582300    0.0000000000   -0.0000000000    0.0000000000
Ti    4.2139164700   10.5347911700   12.1069582300    0.0000000000    0.0000000000    0.0000000000
Ti    6.3208747000   10.5347911700   10.0000000000    0.0000000000    0.0000000000    0.0000000000
Ti    4.2142991078    8.4341381797   14.1967547199    0.0000275039    0.0000608219    0.0000632936
Ti    6.3248916242    8.4245169594   16.2245830319    0.0001304106    0.0001014222   -0.0001793146
Ti    4.2142118488   10.5375274370   16.2174573654    0.0001500829   -0.0000220594    0.0000535967
Ti    6.3220650803   10.5331698657   14.2074461928    0.0000823357    0.0000746002   -0.0000360791
Ti    8.4278329400    0.0000000000   10.0000000000    0.0000000000   -0.0000000000    0.0000000000
Ti   10.5347911700    0.0000000000   12.1069582300    0.0000000000    0.0000000000    0.0000000000
Ti    8.4278329400    2.1069582300   12.1069582300    0.0000000000   -0.0000000000    0.0000000000
Ti   10.5347911700    2.1069582300   10.0000000000   -0.0000000000   -0.0000000000    0.0000000000
Ti    8.4311510855   -0.0036704220   14.2032034822    0.0000144184   -0.0000096138    0.0000035679
Ti   10.5373794929    0.0004558936   16.2188758308    0.0001239478   -0.0000197145    0.0000108796
Ti    8.4389633397    2.0954986637   16.2155218216    0.0000315525    0.0000522302    0.0000217832
Ti   10.5394329636    2.1050048896   14.2045366285    0.0000197364    0.0000359636    0.0000397766
Ti    8.4278329400    4.2139164700   10.0000000000    0.0000000000    0.0000000000    0.0000000000
Ti   10.5347911700    4.2139164700   12.1069582300    0.0000000000    0.0000000000    0.0000000000
Ti    8.4278329400    6.3208747000   12.1069582300   -0.0000000000    0.0000000000    0.0000000000
Ti   10.5347911700    6.3208747000   10.0000000000    0.0000000000    0.0000000000    0.0000000000
Ti    8.4341378597    4.2142989978   14.1967549999    0.0000608219    0.0000275039    0.0000632936
Ti   10.5375278670    4.2142117188   16.2174583054   -0.0000220594    0.0001500829    0.0000535967
Ti    8.4245173494    6.3248912442   16.2245838819    0.0001014222    0.0001304106   -0.0001793146
Ti   10.5331702157    6.3220652903   14.2074459128    0.0000746002    0.0000823357   -0.0000360791
Ti    8.4278329400    8.4278329400   10.0000000000    0.0000000000    0.0000000000    0.0000000000
Ti   10.5347911700    8.4278329400   12.1069582300   -0.0000000000   -0.0000000000    0.0000000000
Ti    8.4278329400   10.5347911700   12.1069582300   -0.0000000000   -0.0000000000    0.0000000000
Ti   10.5347911700   10.5347911700   10.0000000000    0.0000000000    0.0000000000    0.0000000000
Ti    8.4275591950    8.4275597250   14.2051699959    0.0001421365    0.0001421365   -0.0001029539
Ti   10.5341003448    8.4260960322   16.2191949005    0.0001037477    0.0000783595    0.0000034959
Ti    8.4260960122   10.5341002045   16.2191955905    0.0000783595    0.0001037477    0.0000034959
Ti   10.5348448993   10.5348447493   14.2060334070    0.0000439765    0.0000439765   -0.0000174664
 N    0.0000000000    2.1069582300   10.0000000000   -0.0000000000    0.0000000000   -0.0000000000
 N    2.1069582300    0.0000000000   10.0000000000    0.0000000000   -0.0000000000   -0.0000000000
 N    0.0000000000    0.0000000000   12.1069582300    0.0000000000    0.0000000000   -0.0000000000
 N    2.1069582300    2.1069582300   12.1069582300    0.0000000000    0.0000000000   -0.0000000000
 N    0.0028549034    2.1081584154   14.2289794290   -0.0000005165   -0.0000098695    0.0000015941
 N    2.1081582754    0.0028552434   14.2289790090   -0.0000098695   -0.0000005165    0.0000015941
 N    0.0015838513    0.0015837713   16.3887174544    0.0000337742    0.0000337742   -0.0000254214
 N    2.1108060089    2.1108060989   16.3961104545   -0.0000018332   -0.0000018332   -0.0000656165
 N    0.0000000000    6.3208747000   10.0000000000   -0.0000000000   -0.0000000000   -0.0000000000
 N    2.1069582300    4.2139164700   10.0000000000    0.0000000000    0.0000000000   -0.0000000000
 N    0.0000000000    4.2139164700   12.1069582300    0.0000000000    0.0000000000   -0.0000000000
 N    2.1069582300    6.3208747000   12.1069582300    0.0000000000   -0.0000000000   -0.0000000000
 N   -0.0029747461    6.3225195289   14.2270122050   -0.0000030415    0.0000182312    0.0000212157
 N    2.1100522318    4.2173630468   14.2391451646    0.0000517344    0.0000017727    0.0000349423
 N    0.0061700964    4.2175921986   16.3914580218    0.0000963938    0.0000386506   -0.0000715604
 N    2.1015144225    6.3350506798   16.3891500285    0.0001526668    0.0001277644    0.0000756271
 N    0.0000000000   10.5347911700   10.0000000000   -0.0000000000    0.0000000000   -0.0000000000
 N    2.1069582300    8.4278329400   10.0000000000   -0.0000000000    0.0000000000   -0.0000000000
 N    0.0000000000    8.4278329400   12.1069582300   -0.0000000000    0.0000000000   -0.0000000000
 N    2.1069582300   10.5347911700   12.1069582300   -0.0000000000    0.0000000000   -0.0000000000
 N   -0.0008074255   10.5366832734   14.2283077809    0.0000336847    0.0000117986    0.0000055640
 N    2.1041238232    8.4329812466   14.2251911890    0.0000344765    0.0000008525   -0.0000165058
 N   -0.0039244644    8.4320787600   16.3884076552    0.0000397420    0.0000383685    0.0000250547
 N    2.1054474607   10.5412298984   16.3882203539    0.0000510747    0.0000658214    0.0000164699
 N    4.2139164700    2.1069582300   10.0000000000    0.0000000000    0.0000000000   -0.0000000000
 N    6.3208747000    0.0000000000   10.0000000000   -0.0000000000   -0.0000000000   -0.0000000000
 N    4.2139164700    0.0000000000   12.1069582300    0.0000000000    0.0000000000   -0.0000000000
 N    6.3208747000    2.1069582300   12.1069582300   -0.0000000000    0.0000000000   -0.0000000000
 N    4.2173633068    2.1100523018   14.2391450946    0.0000017727    0.0000517344    0.0000349423
 N    6.3225197889   -0.0029746061   14.2270121350    0.0000182312   -0.0000030415    0.0000212157
 N    4.2175921286    0.0061696564   16.3914583518    0.0000386506    0.0000963938   -0.0000715604
 N    6.3350506398    2.1015144425   16.3891504878    0.0001277644    0.0001526668    0.0000756271
 N    4.2139164700    6.3208747000   10.0000000000    0.0000000000   -0.0000000000   -0.0000000000
 N    6.3208747000    4.2139164700   10.0000000000   -0.0000000000    0.0000000000   -0.0000000000
 N    4.2139164700    4.2139164700   12.1069582300    0.0000000000    0.0000000000   -0.0000000000
 N    6.3208747000    6.3208747000   12.1069582300   -0.0000000000   -0.0000000000   -0.0000000000
 N    4.2129239835    6.3261465737   14.2231847503   -0.0000068200    0.0001269156    0.0000614919
 N    6.3261465937    4.2129237535   14.2231848003    0.0001269156   -0.0000068200    0.0000614919
 N    4.2266144102    4.2266145002   16.4878794480   -0.0002663759   -0.0002663759   -0.0009308913
 N    6.3172883994    6.3172887494   16.4422564472    0.0003357265    0.0003357265   -0.0012290928
 N    4.2139164700   10.5347911700   10.0000000000    0.0000000000    0.0000000000   -0.0000000000
 N    6.3208747000    8.4278329400   10.0000000000   -0.0000000000    0.0000000000   -0.0000000000
 N    4.2139164700    8.4278329400   12.1069582300   -0.0000000000    0.0000000000   -0.0000000000
 N    6.3208747000   10.5347911700   12.1069582300    0.0000000000   -0.0000000000   -0.0000000000
 N    4.2135972682   10.5392805570   14.2276462552    0.0000561314    0.0000590911    0.0000643078
 N    6.3208522194    8.4298221101   14.2294971047    0.0001050819    0.0000654235   -0.0001318070
 N    4.2090235755    8.4400304022   16.3832198411    0.0001203270    0.0000203457    0.0000176189
 N    6.3210369068   10.5339362099   16.3878090419    0.0001014567    0.0000955008   -0.0000509117
 N    8.4278329400    2.1069582300   10.0000000000    0.0000000000   -0.0000000000   -0.0000000000
 N   10.5347911700    0.0000000000   10.0000000000    0.0000000000   -0.0000000000   -0.0000000000
 N    8.4278329400    0.0000000000   12.1069582300    0.0000000000   -0.0000000000   -0.0000000000
 N   10.5347911700    2.1069582300   12.1069582300    0.0000000000   -0.0000000000   -0.0000000000
 N    8.4329818966    2.1041237932   14.2251908590    0.0000008525    0.0000344765   -0.0000165058
 N   10.5366835734   -0.0008073955   14.2283084609    0.0000117986    0.0000336847    0.0000055640
 N    8.4320791000   -0.0039240844   16.3884084652    0.0000383685    0.0000397420    0.0000250547
 N   10.5412297584    2.1054475707   16.3882208139    0.0000658214    0.0000510747    0.0000164699
 N    8.4278329400    6.3208747000   10.0000000000    0.0000000000   -0.0000000000   -0.0000000000
 N   10.5347911700    4.2139164700   10.0000000000    0.0000000000    0.0000000000   -0.0000000000
 N    8.4278329400    4.2139164700   12.1069582300    0.0000000000   -0.0000000000   -0.0000000000
 N   10.5347911700    6.3208747000   12.1069582300   -0.0000000000    0.0000000000   -0.0000000000
 N    8.4298221201    6.3208524094   14.2294970847    0.0000654235    0.0001050819   -0.0001318070
 N   10.5392803770    4.2135973582   14.2276464752    0.0000590911    0.0000561314    0.0000643078
 N    8.4400305622    4.2090234855   16.3832199511    0.0000203457    0.0001203270    0.0000176189
 N   10.5339361499    6.3210369568   16.3878091219    0.0000955008    0.0001014567   -0.0000509117
 N    8.4278329400   10.5347911700   10.0000000000   -0.0000000000    0.0000000000   -0.0000000000
 N   10.5347911700    8.4278329400   10.0000000000    0.0000000000   -0.0000000000   -0.0000000000
 N    8.4278329400    8.4278329400   12.1069582300   -0.0000000000   -0.0000000000   -0.0000000000
 N   10.5347911700   10.5347911700   12.1069582300   -0.0000000000   -0.0000000000   -0.0000000000
 N    8.4281347997   10.5333578018   14.2286191920    0.0000793167    0.0000637939   -0.0000222237
 N   10.5333576918    8.4281346897   14.2286192120    0.0000637939    0.0000793167   -0.0000222237
 N    8.4270319588    8.4270318488   16.3906251915    0.0000995879    0.0000995879   -0.0000106156
 N   10.5347670531   10.5347669631   16.3875339276    0.0000649278    0.0000649278   -0.0000525982
Li    4.7468931289    4.7468933051   18.2875899443   -0.0068390433   -0.0068390433    0.0010971171
 PRIMCOORD   3
  145  1
Ti    0.0000000000    0.0000000000   10.0000000000   -0.0000000000   -0.0000000000    0.0000000000
Ti    2.1069582300    0.0000000000   12.1069582300    0.0000000000    0.0000000000    0.0000000000
Ti    0.0000000000    2.1069582300   12.1069582300    0.0000000000    0.0000000000    0.0000000000
Ti    2.1069582300    2.1069582300   10.0000000000    0.0000000000    0.0000000000    0.0000000000
Ti    0.0012132672    0.0012133172   14.2058801732   -0.0000059439   -0.0000059439   -0.0000392570
Ti    2.1104333690    0.0049381920   16.2203206962    0.0000224849    0.0000476145    0.0000334931
Ti    0.0049380120    2.1104334990   16.2203213562    0.0000476145    0.0000224849    0.0000334931
Ti    2.1128909401    2.1128909501   14.2091418971   -0.0000329592   -0.0000329592   -0.0000143741
Ti    0.0000000000    4.2139164700   10.0000000000   -0.0000000000   -0.0000000000    0.0000000000
Ti    2.1069582300    4.2139164700   12.1069582300    0.0000000000   -0.0000000000    0.0000000000
Ti    0.0000000000    6.3208747000   12.1069582300   -0.0000000000   -0.0000000000    0.0000000000
Ti    2.1069582300    6.3208747000   10.0000000000   -0.0000000000   -0.0000000000    0.0000000000
Ti    0.0063531244    4.2134943042   14.2081488665    0.0000274690   -0.0000469512    0.0000197673
Ti    2.1107666957    4.2196765204   16.2362270819   -0.0000148082    0.0001307142   -0.0000909074
Ti   -0.0016493248    6.3242106489   16.2176601093    0.0000770762   -0.0001019364    0.0000433430
Ti    2.0970712056    6.3215139310   14.1930261898   -0.0001500886    0.0000695989    0.0000111510
Ti    0.0000000000    8.4278329400   10.0000000000   -0.0000000000    0.0000000000    0.0000000000
Ti    2.1069582300    8.4278329400   12.1069582300   -0.0000000000    0.0000000000    0.0000000000
Ti    0.0000000000   10.5347911700   12.1069582300   -0.0000000000    0.0000000000    0.0000000000
Ti    2.1069582300   10.5347911700   10.0000000000   -0.0000000000    0.0000000000    0.0000000000
Ti   -0.0066933924    8.4317600970   14.2027073774   -0.0000714059    0.0000017080    0.0000001796
Ti    2.0887500905    8.4460349659   16.2116265985   -0.0000933445    0.0000933445   -0.0000782619
Ti   -0.0020430688   10.5368307395   16.2187394514   -0.0001390315    0.0001390315   -0.0000072546
Ti    2.1030294766   10.5414814777   14.2027054010   -0.0000017080    0.0000714059    0.0000001796
Ti    4.2139164700    0.0000000000   10.0000000000   -0.0000000000   -0.0000000000    0.0000000000
Ti    6.3208747000    0.0000000000   12.1069582300   -0.0000000000   -0.0000000000    0.0000000000
Ti    4.2139164700    2.1069582300   12.1069582300   -0.0000000000    0.0000000000    0.0000000000
Ti    6.3208747000    2.1069582300   10.0000000000   -0.0000000000   -0.0000000000    0.0000000000
Ti    4.2134941442    0.0063529744   14.2081485465   -0.0000469512    0.0000274690    0.0000197673
Ti    6.3242105189   -0.0016490648   16.2176590793   -0.0001019364    0.0000770762    0.0000433430
Ti    4.2196765799    2.1107667562   16.2362280419    0.0001307142   -0.0000148082   -0.0000909074
Ti    6.3215140610    2.0970713456   14.1930262698    0.0000695989   -0.0001500886    0.0000111510
Ti    4.2139164700    4.2139164700   10.0000000000   -0.0000000000   -0.0000000000    0.0000000000
Ti    6.3208747000    4.2139164700   12.1069582300   -0.0000000000    0.0000000000    0.0000000000
Ti    4.2139164700    6.3208747000   12.1069582300    0.0000000000   -0.0000000000    0.0000000000
Ti    6.3208747000    6.3208747000   10.0000000000    0.0000000000    0.0000000000    0.0000000000
Ti    4.2178433766    4.2178432566   14.2322628528    0.0000067160    0.0000067160    0.0000357303
Ti    6.3858413824    4.1489409447   16.1781485770   -0.0002101630    0.0002101630   -0.0001885570
Ti    4.1489409147    6.3858414324   16.1781489170    0.0002101630   -0.0002101630   -0.0001885570
Ti    6.3169526195    6.3169524895   14.2322611400   -0.0000067160   -0.0000067160    0.0000357303
Ti    4.2139164700    8.4278329400   10.0000000000    0.0000000000    0.0000000000    0.0000000000
Ti    6.3208747000    8.4278329400   12.1069582300    0.0000000000   -0.0000000000    0.0000000000
Ti    4.2139164700   10.5347911700   12.1069582300    0.0000000000    0.0000000000    0.0000000000
Ti    6.3208747000   10.5347911700   10.0000000000    0.0000000000    0.0000000000    0.0000000000
Ti    4.2132818939    8.4377156291   14.1930316677   -0.0000695989    0.0001500886    0.0000111510
Ti    6.3151151909    8.4240275689   16.2362345118   -0.0001307142    0.0000148082   -0.0000909074
Ti    4.2105808154   10.5364453425   16.2176588837    0.0001019364   -0.0000770762    0.0000433430
Ti    6.3213012096   10.5284372241   14.2081559973    0.0000469512   -0.0000274690    0.0000197673
Ti    8.4278329400    0.0000000000   10.0000000000    0.0000000000   -0.0000000000    0.0000000000
Ti   10.5347911700    0.0000000000   12.1069582300    0.0000000000   -0.0000000000    0.0000000000
Ti    8.4278329400    2.1069582300   12.1069582300    0.0000000000   -0.0000000000    0.0000000000
Ti   10.5347911700    2.1069582300   10.0000000000    0.0000000000   -0.0000000000    0.0000000000
Ti    8.4317599170   -0.0066932324   14.2027077974    0.0000017080   -0.0000714059    0.0000001796
Ti   10.5368307895   -0.0020431988   16.2187398414    0.0001390315   -0.0001390315   -0.0000072546
Ti    8.4460351364    2.0887500305   16.2116267785    0.0000933445   -0.0000933445   -0.0000782619
Ti   10.5414814877    2.1030293066   14.2027050110    0.0000714059   -0.0000017080    0.0000001796
Ti    8.4278329400    4.2139164700   10.0000000000    0.0000000000    0.0000000000    0.0000000000
Ti   10.5347911700    4.2139164700   12.1069582300    0.0000000000    0.0000000000    0.0000000000
Ti    8.4278329400    6.3208747000   12.1069582300   -0.0000000000    0.0000000000    0.0000000000
Ti   10.5347911700    6.3208747000   10.0000000000    0.0000000000    0.0000000000    0.0000000000
Ti    8.4377153091    4.2132817839   14.1930319478    0.0001500886   -0.0000695989    0.0000111510
Ti   10.5364457725    4.2105806854   16.2176598237   -0.0000770762    0.0001019364    0.0000433430
Ti    8.4240279589    6.3151148109   16.2362353618    0.0000148082   -0.0001307142   -0.0000909074
Ti   10.5284375741    6.3213014196   14.2081557173   -0.0000274690    0.0000469512    0.0000197673
Ti    8.4278329400    8.4278329400   10.0000000000   -0.0000000000   -0.0000000000    0.0000000000
Ti   10.5347911700    8.4278329400   12.1069582300   -0.0000000000   -0.0000000000    0.0000000000
Ti    8.4278329400   10.5347911700   12.1069582300   -0.0000000000   -0.0000000000    0.0000000000
Ti   10.5347911700   10.5347911700   10.0000000000    0.0000000000    0.0000000000    0.0000000000
Ti    8.4218974754    8.4218980054   14.2091565861    0.0000329592    0.0000329592   -0.0000143741
Ti   10.5298585605    8.4243606049   16.2203239517   -0.0000476145   -0.0000224849    0.0000334931
Ti    8.4243605849   10.5298584200   16.2203246417   -0.0000224849   -0.0000476145    0.0000334931
Ti   10.5335749646   10.5335748146   14.2058870069    0.0000059439    0.0000059439   -0.0000392570
 N    0.0000000000    2.1069582300   10.0000000000   -0.0000000000    0.0000000000   -0.0000000000
 N    2.1069582300    0.0000000000   10.0000000000    0.0000000000   -0.0000000000   -0.0000000000
 N    0.0000000000    0.0000000000   12.1069582300    0.0000000000    0.0000000000   -0.0000000000
 N    2.1069582300    2.1069582300   12.1069582300    0.0000000000    0.0000000000   -0.0000000000
 N    0.0045556222    2.1081290191   14.2296793465    0.0000118652   -0.0000503150   -0.0000134153
 N    2.1081288791    0.0045559622   14.2296789265   -0.0000503150    0.0000118652   -0.0000134153
 N    0.0019570612    0.0019569812   16.3876811957    0.0000013614    0.0000013614   -0.0000322162
 N    2.1146982482    2.1146983382   16.3959197396    0.0001026745    0.0001026745   -0.0000006761
 N    0.0000000000    6.3208747000   10.0000000000   -0.0000000000   -0.0000000000   -0.0000000000
 N    2.1069582300    4.2139164700   10.0000000000    0.0000000000    0.0000000000   -0.0000000000
 N    0.0000000000    4.2139164700   12.1069582300    0.0000000000    0.0000000000   -0.0000000000
 N    2.1069582300    6.3208747000   12.1069582300   -0.0000000000    0.0000000000   -0.0000000000
 N   -0.0064464274    6.3223197531   14.2275741924   -0.0001080410   -0.0000186744    0.0000513096
 N    2.1091076961    4.2176680361   14.2382554883    0.0000331902   -0.0000115407   -0.0000348147
 N    0.0082322704    4.2177915499   16.3908689482    0.0001347432    0.0000076517   -0.0000734820
 N    2.0935218846    6.3369833184   16.3818591072    0.0000194431    0.0001455901   -0.0001506537
 N    0.0000000000   10.5347911700   10.0000000000   -0.0000000000    0.0000000000   -0.0000000000
 N    2.1069582300    8.4278329400   10.0000000000   -0.0000000000    0.0000000000   -0.0000000000
 N    0.0000000000    8.4278329400   12.1069582300   -0.0000000000    0.0000000000   -0.0000000000
 N    2.1069582300   10.5347911700   12.1069582300   -0.0000000000    0.0000000000   -0.0000000000
 N   -0.0022168899   10.5370032664   14.2283801544   -0.0000134912    0.0000134912   -0.0000246389
 N    2.1007878145    8.4340004348   14.2230169788   -0.0000440020    0.0000440020   -0.0001031265
 N   -0.0091761204    8.4321886039   16.3881510204   -0.0001302472    0.0000429153    0.0000254629
 N    2.1026007148   10.5439657667   16.3881540691   -0.0000429153    0.0001302472    0.0000254629
 N    4.2139164700    2.1069582300   10.0000000000    0.0000000000    0.0000000000   -0.0000000000
 N    6.3208747000    0.0000000000   10.0000000000   -0.0000000000   -0.0000000000   -0.0000000000
 N    4.2139164700    0.0000000000   12.1069582300    0.0000000000    0.0000000000   -0.0000000000
 N    6.3208747000    2.1069582300   12.1069582300    0.0000000000   -0.0000000000   -0.0000000000
 N    4.2176682961    2.1091077661   14.2382554183   -0.0000115407    0.0000331902   -0.0000348147
 N    6.3223200131   -0.0064462874   14.2275741224   -0.0000186744   -0.0001080410    0.0000513096
 N    4.2177914799    0.0082318304   16.3908692782    0.0000076517    0.0001347432   -0.0000734820
 N    6.3369832784    2.0935219046   16.3818595667    0.0001455901    0.0000194431   -0.0001506537
 N    4.2139164700    6.3208747000   10.0000000000    0.0000000000   -0.0000000000   -0.0000000000
 N    6.3208747000    4.2139164700   10.0000000000   -0.0000000000    0.0000000000   -0.0000000000
 N    4.2139164700    4.2139164700   12.1069582300    0.0000000000    0.0000000000   -0.0000000000
 N    6.3208747000    6.3208747000   12.1069582300   -0.0000000000   -0.0000000000   -0.0000000000
 N    4.2089549181    6.3258355001   14.2110998309   -0.0001499067    0.0001499067   -0.0000129191
 N    6.3258355201    4.2089546881   14.2110998809    0.0001499067   -0.0001499067   -0.0000129191
 N    4.2467642509    4.2467643409   16.5341832054    0.0000213654    0.0000213654   -0.0005252136
 N    6.2880234887    6.2880238387   16.5341835001   -0.0000213654   -0.0000213654   -0.0005252136
 N    4.2139164700   10.5347911700   10.0000000000    0.0000000000    0.0000000000   -0.0000000000
 N    6.3208747000    8.4278329400   10.0000000000   -0.0000000000   -0.0000000000   -0.0000000000
 N    4.2139164700    8.4278329400   12.1069582300   -0.0000000000    0.0000000000   -0.0000000000
 N    6.3208747000   10.5347911700   12.1069582300   -0.0000000000   -0.0000000000   -0.0000000000
 N    4.2124740667   10.5412366520   14.2275753635    0.0000186744    0.0001080410    0.0000513096
 N    6.3171256363    8.4256844953   14.2382636543    0.0000115407   -0.0000331902   -0.0000348147
 N    4.1978047375    8.4412676435   16.3818738588   -0.0001455901   -0.0000194431   -0.0001506537
 N    6.3170019548   10.5265636192   16.3908801553   -0.0000076517   -0.0001347432   -0.0000734820
 N    8.4278329400    2.1069582300   10.0000000000    0.0000000000   -0.0000000000   -0.0000000000
 N   10.5347911700    0.0000000000   10.0000000000    0.0000000000   -0.0000000000   -0.0000000000
 N    8.4278329400    0.0000000000   12.1069582300    0.0000000000   -0.0000000000   -0.0000000000
 N   10.5347911700    2.1069582300   12.1069582300    0.0000000000   -0.0000000000   -0.0000000000
 N    8.4340010848    2.1007877845   14.2230166488    0.0000440020   -0.0000440020   -0.0001031265
 N   10.5370035664   -0.0022168599   14.2283808344    0.0000134912   -0.0000134912   -0.0000246389
 N    8.4321889439   -0.0091757404   16.3881518304    0.0000429153   -0.0001302472    0.0000254629
 N   10.5439656267    2.1026008248   16.3881545291    0.0001302472   -0.0000429153    0.0000254629
 N    8.4278329400    6.3208747000   10.0000000000   -0.0000000000   -0.0000000000   -0.0000000000
 N   10.5347911700    4.2139164700   10.0000000000    0.0000000000    0.0000000000   -0.0000000000
 N    8.4278329400    4.2139164700   12.1069582300    0.0000000000   -0.0000000000   -0.0000000000
 N   10.5347911700    6.3208747000   12.1069582300   -0.0000000000   -0.0000000000   -0.0000000000
 N    8.4256845053    6.3171258263   14.2382636343   -0.0000331902    0.0000115407   -0.0000348147
 N   10.5412364720    4.2124741567   14.2275755835    0.0001080410    0.0000186744    0.0000513096
 N    8.4412678035    4.1978046475   16.3818739688   -0.0000194431   -0.0001455901   -0.0001506537
 N   10.5265635592    6.3170020048   16.3908802353   -0.0001347432   -0.0000076517   -0.0000734820
 N    8.4278329400   10.5347911700   10.0000000000   -0.0000000000    0.0000000000   -0.0000000000
 N   10.5347911700    8.4278329400   10.0000000000    0.0000000000   -0.0000000000   -0.0000000000
 N    8.4278329400    8.4278329400   12.1069582300   -0.0000000000   -0.0000000000   -0.0000000000
 N   10.5347911700   10.5347911700   12.1069582300   -0.0000000000   -0.0000000000   -0.0000000000
 N    8.4266640555   10.5302346105   14.2296843569    0.0000503150   -0.0000118652   -0.0000134153
 N   10.5302345005    8.4266639455   14.2296843769   -0.0000118652    0.0000503150   -0.0000134153
 N    8.4200968651    8.4200967551   16.3959421696   -0.0001026745   -0.0001026745   -0.0000006761
 N   10.5328333968   10.5328333068   16.3876843708   -0.0000013614   -0.0000013614   -0.0000322162
Li    5.2673975046    5.2673977246   18.1526275154    0.0000000000    0.0000000000   -0.0016776365
 PRIMCOORD   4
  145  1
Ti    0.0000000000    0.0000000000   10.0000000000   -0.0000000000   -0.0000000000    0.0000000000
Ti    2.1069582300    0.0000000000   12.1069582300    0.0000000000    0.0000000000    0.0000000000
Ti    0.0000000000    2.1069582300   12.1069582300    0.0000000000    0.0000000000    0.0000000000
Ti    2.1069582300    2.1069582300   10.0000000000   -0.0000000000   -0.0000000000    0.0000000000
Ti   -0.0000543467   -0.0000542967   14.2060047797   -0.0000433271   -0.0000433271   -0.0000160875
Ti    2.1087076497    0.0006852234   16.2191153789   -0.0000814369   -0.0000954102    0.0000118287
Ti    0.0006850434    2.1087077797   16.2191160389   -0.0000954102   -0.0000814369    0.0000118287
Ti    2.1072278292    2.1072278392   14.2051093164   -0.0001454173   -0.0001454173   -0.0000773122
Ti    0.0000000000    4.2139164700   10.0000000000   -0.0000000000   -0.0000000000    0.0000000000
Ti    2.1069582300    4.2139164700   12.1069582300    0.0000000000   -0.0000000000    0.0000000000
Ti    0.0000000000    6.3208747000   12.1069582300   -0.0000000000   -0.0000000000    0.0000000000
Ti    2.1069582300    6.3208747000   10.0000000000   -0.0000000000   -0.0000000000    0.0000000000
Ti    0.0016144314    4.2127347240   14.2073881363   -0.0000778490   -0.0000847225   -0.0000298745
Ti    2.1102768157    4.2099122087   16.2244852170   -0.0000959136   -0.0001450982   -0.0001639463
Ti   -0.0027017401    6.3205696479   16.2173755862    0.0000086715   -0.0001498924    0.0000539150
Ti    2.1006712129    6.3204997511   14.1966993473   -0.0000575192   -0.0000267757    0.0000522311
Ti    0.0000000000    8.4278329400   10.0000000000    0.0000000000    0.0000000000    0.0000000000
Ti    2.1069582300    8.4278329400   12.1069582300   -0.0000000000    0.0000000000    0.0000000000
Ti    0.0000000000   10.5347911700   12.1069582300   -0.0000000000   -0.0000000000    0.0000000000
Ti    2.1069582300   10.5347911700   10.0000000000   -0.0000000000    0.0000000000    0.0000000000
Ti   -0.0046321499    8.4297760586   14.2044919743   -0.0000141371   -0.0000319753    0.0000176576
Ti    2.0958482859    8.4392757200   16.2154406474   -0.0000197155   -0.0000484330    0.0000165050
Ti   -0.0025880920   10.5343443980   16.2187970006   -0.0001082676    0.0000277176    0.0000147783
Ti    2.1036532107   10.5384521647   14.2031664868   -0.0000149292    0.0000092425   -0.0000021166
Ti    4.2139164700    0.0000000000   10.0000000000   -0.0000000000   -0.0000000000    0.0000000000
Ti    6.3208747000    0.0000000000   12.1069582300   -0.0000000000   -0.0000000000    0.0000000000
Ti    4.2139164700    2.1069582300   12.1069582300   -0.0000000000    0.0000000000    0.0000000000
Ti    6.3208747000    2.1069582300   10.0000000000   -0.0000000000   -0.0000000000    0.0000000000
Ti    4.2127345640    0.0016142814   14.2073878163   -0.0000847225   -0.0000778490   -0.0000298745
Ti    6.3205695179   -0.0027014801   16.2173745562   -0.0001498924    0.0000086715    0.0000539150
Ti    4.2099122681    2.1102768763   16.2244861770   -0.0001450982   -0.0000959136   -0.0001639463
Ti    6.3204998811    2.1006713529   14.1966994273   -0.0000267757   -0.0000575192    0.0000522311
Ti    4.2139164700    4.2139164700   10.0000000000    0.0000000000    0.0000000000    0.0000000000
Ti    6.3208747000    4.2139164700   12.1069582300   -0.0000000000    0.0000000000    0.0000000000
Ti    4.2139164700    6.3208747000   12.1069582300    0.0000000000   -0.0000000000    0.0000000000
Ti    6.3208747000    6.3208747000   10.0000000000   -0.0000000000   -0.0000000000    0.0000000000
Ti    4.2131193342    4.2131192142   14.2099370550   -0.0000849807   -0.0000849807   -0.0002495833
Ti    6.3418170641    4.1519519847   16.2022464231   -0.0006770568    0.0001820048    0.0002273455
Ti    4.1519519547    6.3418171141   16.2022467631    0.0001820048   -0.0006770568    0.0002273455
Ti    6.3153486027    6.3153484727   14.2477416444   -0.0000426217   -0.0000426217    0.0003683543
Ti    4.2139164700    8.4278329400   10.0000000000    0.0000000000   -0.0000000000    0.0000000000
Ti    6.3208747000    8.4278329400   12.1069582300    0.0000000000   -0.0000000000    0.0000000000
Ti    4.2139164700   10.5347911700   12.1069582300    0.0000000000   -0.0000000000    0.0000000000
Ti    6.3208747000   10.5347911700   10.0000000000    0.0000000000    0.0000000000    0.0000000000
Ti    4.2121605211    8.4316191314   14.1981349786   -0.0000339276   -0.0000122324    0.0000279445
Ti    6.3137144802    8.4391594054   16.2335412778   -0.0000821226    0.0001591109   -0.0000144106
Ti    4.2083196101   10.5327932245   16.2177867283    0.0000119170   -0.0001341357    0.0000390172
Ti    6.3200735661   10.5304985611   14.2057850510   -0.0000192845   -0.0000100664   -0.0000270528
Ti    8.4278329400    0.0000000000   10.0000000000    0.0000000000    0.0000000000    0.0000000000
Ti   10.5347911700    0.0000000000   12.1069582300   -0.0000000000   -0.0000000000    0.0000000000
Ti    8.4278329400    2.1069582300   12.1069582300    0.0000000000   -0.0000000000    0.0000000000
Ti   10.5347911700    2.1069582300   10.0000000000    0.0000000000   -0.0000000000    0.0000000000
Ti    8.4297758786   -0.0046319899   14.2044923943   -0.0000319753   -0.0000141371    0.0000176576
Ti   10.5343444480   -0.0025882220   16.2187973906    0.0000277176   -0.0001082676    0.0000147783
Ti    8.4392758907    2.0958482259   16.2154408274   -0.0000484330   -0.0000197155    0.0000165050
Ti   10.5384521747    2.1036530407   14.2031660968    0.0000092425   -0.0000149292   -0.0000021166
Ti    8.4278329400    4.2139164700   10.0000000000   -0.0000000000    0.0000000000    0.0000000000
Ti   10.5347911700    4.2139164700   12.1069582300   -0.0000000000    0.0000000000    0.0000000000
Ti    8.4278329400    6.3208747000   12.1069582300   -0.0000000000    0.0000000000    0.0000000000
Ti   10.5347911700    6.3208747000   10.0000000000    0.0000000000    0.0000000000    0.0000000000
Ti    8.4316188114    4.2121604111   14.1981352586   -0.0000122324   -0.0000339276    0.0000279445
Ti   10.5327936545    4.2083194801   16.2177876683   -0.0001341357    0.0000119170    0.0000390172
Ti    8.4391597954    6.3137141002   16.2335421278    0.0001591109   -0.0000821226   -0.0000144106
Ti   10.5304989111    6.3200737761   14.2057847710   -0.0000100664   -0.0000192845   -0.0000270528
Ti    8.4278329400    8.4278329400   10.0000000000   -0.0000000000   -0.0000000000    0.0000000000
Ti   10.5347911700    8.4278329400   12.1069582300   -0.0000000000   -0.0000000000    0.0000000000
Ti    8.4278329400   10.5347911700   12.1069582300   -0.0000000000   -0.0000000000    0.0000000000
Ti   10.5347911700   10.5347911700   10.0000000000    0.0000000000    0.0000000000    0.0000000000
Ti    8.4238011520    8.4238016820   14.2068101251    0.0000039854    0.0000039854   -0.0000414340
Ti   10.5314961274    8.4271437265   16.2198818373   -0.0000432067   -0.0000284179    0.0000004677
Ti    8.4271437065   10.5314959867   16.2198825273   -0.0000284179   -0.0000432067    0.0000004677
Ti   10.5339054209   10.5339052709   14.2050496234    0.0000064311    0.0000064311   -0.0000159208
 N    0.0000000000    2.1069582300   10.0000000000   -0.0000000000    0.0000000000   -0.0000000000
 N    2.1069582300    0.0000000000   10.0000000000    0.0000000000   -0.0000000000   -0.0000000000
 N    0.0000000000    0.0000000000   12.1069582300    0.0000000000    0.0000000000   -0.0000000000
 N    2.1069582300    2.1069582300   12.1069582300    0.0000000000    0.0000000000   -0.0000000000
 N    0.0014271607    2.1066627842   14.2285685527   -0.0000660727   -0.0000825629   -0.0000117435
 N    2.1066626442    0.0014275007   14.2285681327   -0.0000825629   -0.0000660727   -0.0000117435
 N    0.0000256581    0.0000255781   16.3874342344   -0.0000604435   -0.0000604435   -0.0000413872
 N    2.1077604440    2.1077605340   16.3905081595   -0.0001025222   -0.0001025222   -0.0000015884
 N    0.0000000000    6.3208747000   10.0000000000   -0.0000000000   -0.0000000000   -0.0000000000
 N    2.1069582300    4.2139164700   10.0000000000   -0.0000000000    0.0000000000   -0.0000000000
 N    0.0000000000    4.2139164700   12.1069582300    0.0000000000   -0.0000000000   -0.0000000000
 N    2.1069582300    6.3208747000   12.1069582300   -0.0000000000    0.0000000000   -0.0000000000
 N   -0.0044782576    6.3211935875   14.2276002236   -0.0000603957   -0.0000568950    0.0000605128
 N    2.1049772205    4.2139406844   14.2294365260   -0.0000714463   -0.0001048239   -0.0001230937
 N    0.0008559068    4.2137633688   16.3877021306   -0.0000938652   -0.0001070623   -0.0000360872
 N    2.0947964254    6.3257613784   16.3831100046   -0.0000214871   -0.0001219494    0.0000388370
 N    0.0000000000   10.5347911700   10.0000000000   -0.0000000000    0.0000000000   -0.0000000000
 N    2.1069582300    8.4278329400   10.0000000000   -0.0000000000    0.0000000000   -0.0000000000
 N    0.0000000000    8.4278329400   12.1069582300   -0.0000000000    0.0000000000   -0.0000000000
 N    2.1069582300   10.5347911700   12.1069582300   -0.0000000000    0.0000000000   -0.0000000000
 N   -0.0018848600   10.5355937114   14.2282641788   -0.0000087233   -0.0000304807    0.0000052379
 N    2.1018237591    8.4306604693   14.2251425527    0.0000001538   -0.0000315660   -0.0000204194
 N   -0.0064231913    8.4293380892   16.3881222551   -0.0000638553   -0.0000526899    0.0000393361
 N    2.1027232735   10.5387052509   16.3883047458   -0.0000327975   -0.0000354627    0.0000392573
 N    4.2139164700    2.1069582300   10.0000000000    0.0000000000   -0.0000000000   -0.0000000000
 N    6.3208747000    0.0000000000   10.0000000000   -0.0000000000   -0.0000000000   -0.0000000000
 N    4.2139164700    0.0000000000   12.1069582300   -0.0000000000    0.0000000000   -0.0000000000
 N    6.3208747000    2.1069582300   12.1069582300    0.0000000000   -0.0000000000   -0.0000000000
 N    4.2139409444    2.1049772905   14.2294364560   -0.0001048239   -0.0000714463   -0.0001230937
 N    6.3211938475   -0.0044781176   14.2276001536   -0.0000568950   -0.0000603957    0.0000605128
 N    4.2137632988    0.0008554668   16.3877024606   -0.0001070623   -0.0000938652   -0.0000360872
 N    6.3257613384    2.0947964454   16.3831104643   -0.0001219494   -0.0000214871    0.0000388370
 N    4.2139164700    6.3208747000   10.0000000000    0.0000000000   -0.0000000000   -0.0000000000
 N    6.3208747000    4.2139164700   10.0000000000   -0.0000000000    0.0000000000   -0.0000000000
 N    4.2139164700    4.2139164700   12.1069582300    0.0000000000    0.0000000000   -0.0000000000
 N    6.3208747000    6.3208747000   12.1069582300   -0.0000000000   -0.0000000000   -0.0000000000
 N    4.2086591823    6.3218603593   14.2231285196   -0.0001221481    0.0000115771    0.0000680833
 N    6.3218603793    4.2086589523   14.2231285696    0.0000115771   -0.0001221481    0.0000680833
 N    4.2174982975    4.2174983875   16.4421682290   -0.0003352303   -0.0003352303   -0.0012203198
 N    6.3081683855    6.3081687355   16.4878780497    0.0002752610    0.0002752610   -0.0009228948
 N    4.2139164700   10.5347911700   10.0000000000    0.0000000000    0.0000000000   -0.0000000000
 N    6.3208747000    8.4278329400   10.0000000000   -0.0000000000   -0.0000000000   -0.0000000000
 N    4.2139164700    8.4278329400   12.1069582300    0.0000000000   -0.0000000000   -0.0000000000
 N    6.3208747000   10.5347911700   12.1069582300   -0.0000000000   -0.0000000000   -0.0000000000
 N    4.2122786779   10.5377519111   14.2269665885   -0.0000194772    0.0000032667    0.0000227525
 N    6.3174302965    8.4247349643   14.2391240603   -0.0000054224   -0.0000553464    0.0000379006
 N    4.1997582986    8.4332701338   16.3890690433   -0.0001297576   -0.0001510265    0.0000888440
 N    6.3172031530   10.5286272912   16.3913824198   -0.0000424776   -0.0000984200   -0.0000545267
 N    8.4278329400    2.1069582300   10.0000000000    0.0000000000   -0.0000000000   -0.0000000000
 N   10.5347911700    0.0000000000   10.0000000000    0.0000000000   -0.0000000000   -0.0000000000
 N    8.4278329400    0.0000000000   12.1069582300    0.0000000000   -0.0000000000   -0.0000000000
 N   10.5347911700    2.1069582300   12.1069582300    0.0000000000   -0.0000000000   -0.0000000000
 N    8.4306611193    2.1018237291   14.2251422227   -0.0000315660    0.0000001538   -0.0000204194
 N   10.5355940114   -0.0018848300   14.2282648588   -0.0000304807   -0.0000087233    0.0000052379
 N    8.4293384292   -0.0064228113   16.3881230651   -0.0000526899   -0.0000638553    0.0000393361
 N   10.5387051109    2.1027233835   16.3883052058   -0.0000354627   -0.0000327975    0.0000392573
 N    8.4278329400    6.3208747000   10.0000000000   -0.0000000000   -0.0000000000   -0.0000000000
 N   10.5347911700    4.2139164700   10.0000000000    0.0000000000    0.0000000000   -0.0000000000
 N    8.4278329400    4.2139164700   12.1069582300   -0.0000000000    0.0000000000   -0.0000000000
 N   10.5347911700    6.3208747000   12.1069582300   -0.0000000000   -0.0000000000   -0.0000000000
 N    8.4247349743    6.3174304865   14.2391240403   -0.0000553464   -0.0000054224    0.0000379006
 N   10.5377517311    4.2122787679   14.2269668085    0.0000032667   -0.0000194772    0.0000227525
 N    8.4332702938    4.1997582086   16.3890691533   -0.0001510265   -0.0001297576    0.0000888440
 N   10.5286272312    6.3172032030   16.3913824998   -0.0000984200   -0.0000424776   -0.0000545267
 N    8.4278329400   10.5347911700   10.0000000000   -0.0000000000    0.0000000000   -0.0000000000
 N   10.5347911700    8.4278329400   10.0000000000    0.0000000000   -0.0000000000   -0.0000000000
 N    8.4278329400    8.4278329400   12.1069582300   -0.0000000000   -0.0000000000   -0.0000000000
 N   10.5347911700   10.5347911700   12.1069582300   -0.0000000000   -0.0000000000   -0.0000000000
 N    8.4266332981   10.5319348293   14.2289400723    0.0000072955    0.0000055501   -0.0000070509
 N   10.5319347193    8.4266331881   14.2289400923    0.0000055501    0.0000072955   -0.0000070509
 N    8.4239916141    8.4239915041   16.3960528557   -0.0000007602   -0.0000007602   -0.0000471423
 N   10.5332105361   10.5332104461   16.3886207007   -0.0000278496   -0.0000278496   -0.0000003567
Li    5.7878859556    5.7878862194   18.2876234334    0.0068386667    0.0068386667    0.0011032794
 PRIMCOORD   5
  145  1
Ti    0.0000000000    0.0000000000   10.0000000000    0.0000000000    0.0000000000    0.0000000000
Ti    2.1069582300    0.0000000000   12.1069582300    0.0000000000    0.0000000000    0.0000000000
Ti    0.0000000000    2.1069582300   12.1069582300    0.0000000000    0.0000000000    0.0000000000
Ti    2.1069582300    2.1069582300   10.0000000000   -0.0000000000   -0.0000000000    0.0000000000
Ti   -0.0000002800   -0.0000002300   14.2053473410    0.0000000000    0.0000000000    0.0001138265
Ti    2.1070619870    0.0000001400   16.2183095470    0.0003294670    0.0000000000    0.0000651667
Ti   -0.0000000400    2.1070621170   16.2183102070    0.0000000000    0.0003294670    0.0000651667
Ti    2.1055816230    2.1055816330   14.2036967900   -0.0000000256   -0.0000000256    0.0000663402
Ti    0.0000000000    4.2139164700   10.0000000000    0.0000000000   -0.0000000000    0.0000000000
Ti    2.1069582300    4.2139164700   12.1069582300    0.0000000000    0.0000000000    0.0000000000
Ti    0.0000000000    6.3208747000   12.1069582300    0.0000000000    0.0000000000    0.0000000000
Ti    2.1069582300    6.3208747000   10.0000000000   -0.0000000000    0.0000000000    0.0000000000
Ti   -0.0000001400    4.2129718130   14.2059612330    0.0000000000    0.0000329703    0.0000557171
Ti    2.1062792910    4.2082891010   16.2195938990   -0.0001198122   -0.0002909653   -0.0001961133
Ti   -0.0000002700    6.3208746300   16.2177871900    0.0000000000    0.0000000000    0.0000780752
Ti    2.1075952780    6.3208745000   14.2038143470   -0.0002364714    0.0000000000   -0.0003358517
Ti    0.0000000000    8.4278329400   10.0000000000    0.0000000000    0.0000000000    0.0000000000
Ti    2.1069582300    8.4278329400   12.1069582300    0.0000000000   -0.0000000000    0.0000000000
Ti    0.0000000000   10.5347911700   12.1069582300    0.0000000000   -0.0000000000    0.0000000000
Ti    2.1069582300   10.5347911700   10.0000000000   -0.0000000000    0.0000000000    0.0000000000
Ti   -0.0000002000    8.4287777670   14.2059606630   -0.0000000000   -0.0000329703    0.0000557171
Ti    2.1062792810    8.4334598590   16.2195943990   -0.0001198122    0.0002909653   -0.0001961133
Ti    0.0000001200   10.5346873830   16.2183097470   -0.0000000000   -0.0003294670    0.0000651667
Ti    2.1055817630   10.5361674870   14.2036966200   -0.0000000256    0.0000000256    0.0000663402
Ti    4.2139164700    0.0000000000   10.0000000000   -0.0000000000    0.0000000000    0.0000000000
Ti    6.3208747000    0.0000000000   12.1069582300    0.0000000000    0.0000000000    0.0000000000
Ti    4.2139164700    2.1069582300   12.1069582300    0.0000000000    0.0000000000    0.0000000000
Ti    6.3208747000    2.1069582300   10.0000000000    0.0000000000   -0.0000000000    0.0000000000
Ti    4.2129716530   -0.0000002900   14.2059609130    0.0000329703   -0.0000000000    0.0000557171
Ti    6.3208745000   -0.0000000100   16.2177861600    0.0000000000    0.0000000000    0.0000780752
Ti    4.2082891600    2.1062793520   16.2195948590   -0.0002909653   -0.0001198122   -0.0001961133
Ti    6.3208746300    2.1075954180   14.2038144270   -0.0000000000   -0.0002364714   -0.0003358517
Ti    4.2139164700    4.2139164700   10.0000000000    0.0000000000    0.0000000000    0.0000000000
Ti    6.3208747000    4.2139164700   12.1069582300    0.0000000000    0.0000000000    0.0000000000
Ti    4.2139164700    6.3208747000   12.1069582300    0.0000000000    0.0000000000    0.0000000000
Ti    6.3208747000    6.3208747000   10.0000000000    0.0000000000    0.0000000000    0.0000000000
Ti    4.2147350020    4.2147348820   14.2042831670   -0.0001813331   -0.0001813331   -0.0001332885
Ti    6.3208747700    4.1761388810   16.2321283260   -0.0000000000    0.0008238912   -0.0009793621
Ti    4.1761388510    6.3208748200   16.2321286660    0.0008238912    0.0000000000   -0.0009793621
Ti    6.3208746400    6.3208745100   14.2579335930    0.0000000000    0.0000000000   -0.0004692951
Ti    4.2139164700    8.4278329400   10.0000000000    0.0000000000   -0.0000000000    0.0000000000
Ti    6.3208747000    8.4278329400   12.1069582300    0.0000000000   -0.0000000000    0.0000000000
Ti    4.2139164700   10.5347911700   12.1069582300    0.0000000000   -0.0000000000    0.0000000000
Ti    6.3208747000   10.5347911700   10.0000000000    0.0000000000    0.0000000000    0.0000000000
Ti    4.2147349520    8.4270145780   14.2042826870   -0.0001813331    0.0001813331   -0.0001332885
Ti    6.3208749100    8.4656101190   16.2321281760    0.0000000000   -0.0008238912   -0.0009793621
Ti    4.2082891100   10.5354699190   16.2195940590   -0.0002909653    0.0001198122   -0.0001961133
Ti    6.3208745300   10.5341538320   14.2038145570    0.0000000000    0.0002364714   -0.0003358517
Ti    8.4278329400    0.0000000000   10.0000000000    0.0000000000    0.0000000000    0.0000000000
Ti   10.5347911700    0.0000000000   12.1069582300   -0.0000000000    0.0000000000    0.0000000000
Ti    8.4278329400    2.1069582300   12.1069582300   -0.0000000000    0.0000000000    0.0000000000
Ti   10.5347911700    2.1069582300   10.0000000000    0.0000000000   -0.0000000000    0.0000000000
Ti    8.4287775870   -0.0000000400   14.2059610830   -0.0000329703    0.0000000000    0.0000557171
Ti   10.5346874330   -0.0000000100   16.2183101370   -0.0003294670   -0.0000000000    0.0000651667
Ti    8.4334600300    2.1062792210   16.2195945790    0.0002909653   -0.0001198122   -0.0001961133
Ti   10.5361674970    2.1055815930   14.2036962300    0.0000000256   -0.0000000256    0.0000663402
Ti    8.4278329400    4.2139164700   10.0000000000   -0.0000000000    0.0000000000    0.0000000000
Ti   10.5347911700    4.2139164700   12.1069582300   -0.0000000000    0.0000000000    0.0000000000
Ti    8.4278329400    6.3208747000   12.1069582300   -0.0000000000    0.0000000000    0.0000000000
Ti   10.5347911700    6.3208747000   10.0000000000    0.0000000000    0.0000000000    0.0000000000
Ti    8.4270142580    4.2147348420   14.2042829670    0.0001813331   -0.0001813331   -0.0001332885
Ti   10.5354703490    4.2082889800   16.2195949990    0.0001198122   -0.0002909653   -0.0001961133
Ti    8.4656105090    6.3208745300   16.2321290260   -0.0008238912   -0.0000000000   -0.0009793621
Ti   10.5341541820    6.3208747400   14.2038142770    0.0002364714   -0.0000000000   -0.0003358517
Ti    8.4278329400    8.4278329400   10.0000000000   -0.0000000000   -0.0000000000    0.0000000000
Ti   10.5347911700    8.4278329400   12.1069582300   -0.0000000000   -0.0000000000    0.0000000000
Ti    8.4278329400   10.5347911700   12.1069582300   -0.0000000000   -0.0000000000    0.0000000000
Ti   10.5347911700   10.5347911700   10.0000000000    0.0000000000    0.0000000000    0.0000000000
Ti    8.4270139580    8.4270144880   14.2042825980    0.0001813331    0.0001813331   -0.0001332885
Ti   10.5354702390    8.4334598700   16.2195936290    0.0001198122    0.0002909653   -0.0001961133
Ti    8.4334598500   10.5354700980   16.2195943190    0.0002909653    0.0001198122   -0.0001961133
Ti   10.5361677170   10.5361675670   14.2036961200    0.0000000256    0.0000000256    0.0000663402
 N    0.0000000000    2.1069582300   10.0000000000    0.0000000000   -0.0000000000   -0.0000000000
 N    2.1069582300    0.0000000000   10.0000000000   -0.0000000000    0.0000000000   -0.0000000000
 N    0.0000000000    0.0000000000   12.1069582300    0.0000000000    0.0000000000   -0.0000000000
 N    2.1069582300    2.1069582300   12.1069582300    0.0000000000    0.0000000000   -0.0000000000
 N   -0.0000004800    2.1065382290   14.2278066770    0.0000000000    0.0000330433    0.0000278874
 N    2.1065380890   -0.0000001400   14.2278062570    0.0000330433    0.0000000000    0.0000278874
 N    0.0000001200    0.0000000400   16.3876586060    0.0000000000    0.0000000000   -0.0001144162
 N    2.1049508320    2.1049509220   16.3884128300    0.0000312763    0.0000312763   -0.0000091342
 N    0.0000000000    6.3208747000   10.0000000000    0.0000000000    0.0000000000   -0.0000000000
 N    2.1069582300    4.2139164700   10.0000000000   -0.0000000000    0.0000000000   -0.0000000000
 N    0.0000000000    4.2139164700   12.1069582300    0.0000000000   -0.0000000000   -0.0000000000
 N    2.1069582300    6.3208747000   12.1069582300    0.0000000000    0.0000000000   -0.0000000000
 N   -0.0000005300    6.3208744300   14.2283273800    0.0000000000    0.0000000000   -0.0000951646
 N    2.1057717700    4.2131865520   14.2275527060   -0.0000847151    0.0000501670    0.0000197575
 N    0.0000000700    4.2124439760   16.3871259200   -0.0000000000    0.0000198085    0.0000116502
 N    2.1032331160    6.3208745800   16.3896728140    0.0000472232    0.0000000000    0.0001847508
 N    0.0000000000   10.5347911700   10.0000000000    0.0000000000    0.0000000000   -0.0000000000
 N    2.1069582300    8.4278329400   10.0000000000   -0.0000000000   -0.0000000000   -0.0000000000
 N    0.0000000000    8.4278329400   12.1069582300    0.0000000000    0.0000000000   -0.0000000000
 N    2.1069582300   10.5347911700   12.1069582300    0.0000000000   -0.0000000000   -0.0000000000
 N   -0.0000001400   10.5352111410   14.2278060670    0.0000000000   -0.0000330433    0.0000278874
 N    2.1057718400    8.4285622380   14.2275528260   -0.0000847151   -0.0000501670    0.0000197575
 N   -0.0000003700    8.4293051040   16.3871255800    0.0000000000   -0.0000198085    0.0000116502
 N    2.1049508720   10.5367984480   16.3884126000    0.0000312763   -0.0000312763   -0.0000091342
 N    4.2139164700    2.1069582300   10.0000000000    0.0000000000   -0.0000000000   -0.0000000000
 N    6.3208747000    0.0000000000   10.0000000000    0.0000000000    0.0000000000   -0.0000000000
 N    4.2139164700    0.0000000000   12.1069582300   -0.0000000000    0.0000000000   -0.0000000000
 N    6.3208747000    2.1069582300   12.1069582300    0.0000000000    0.0000000000   -0.0000000000
 N    4.2131868120    2.1057718400   14.2275526360    0.0000501670   -0.0000847151    0.0000197575
 N    6.3208746900   -0.0000003900   14.2283273100    0.0000000000    0.0000000000   -0.0000951646
 N    4.2124439060   -0.0000003700   16.3871262500    0.0000198085   -0.0000000000    0.0000116502
 N    6.3208745400    2.1032331360   16.3896732740   -0.0000000000    0.0000472232    0.0001847508
 N    4.2139164700    6.3208747000   10.0000000000    0.0000000000    0.0000000000   -0.0000000000
 N    6.3208747000    4.2139164700   10.0000000000    0.0000000000    0.0000000000   -0.0000000000
 N    4.2139164700    4.2139164700   12.1069582300    0.0000000000    0.0000000000   -0.0000000000
 N    6.3208747000    6.3208747000   12.1069582300    0.0000000000    0.0000000000   -0.0000000000
 N    4.2134087890    6.3208745300   14.2384006450   -0.0001527768    0.0000000000   -0.0002193720
 N    6.3208745500    4.2134085590   14.2384006950    0.0000000000   -0.0001527768   -0.0002193720
 N    4.2069453580    4.2069454480   16.3982756880    0.0002703359    0.0002703359   -0.0001629715
 N    6.3208743900    6.3208747400   16.4421493610    0.0000000000    0.0000000000    0.0003481125
 N    4.2139164700   10.5347911700   10.0000000000    0.0000000000    0.0000000000   -0.0000000000
 N    6.3208747000    8.4278329400   10.0000000000    0.0000000000   -0.0000000000   -0.0000000000
 N    4.2139164700    8.4278329400   12.1069582300    0.0000000000   -0.0000000000   -0.0000000000
 N    6.3208747000   10.5347911700   12.1069582300    0.0000000000   -0.0000000000   -0.0000000000
 N    4.2131867020   10.5359776000   14.2275524360    0.0000501670    0.0000847151    0.0000197575
 N    6.3208744400    8.4283406810   14.2384007050   -0.0000000000    0.0001527768   -0.0002193720
 N    4.2069454680    8.4348040320   16.3982755780    0.0002703359   -0.0002703359   -0.0001629715
 N    6.3208744300   10.5385162440   16.3896728640    0.0000000000   -0.0000472232    0.0001847508
 N    8.4278329400    2.1069582300   10.0000000000   -0.0000000000   -0.0000000000   -0.0000000000
 N   10.5347911700    0.0000000000   10.0000000000    0.0000000000    0.0000000000   -0.0000000000
 N    8.4278329400    0.0000000000   12.1069582300    0.0000000000    0.0000000000   -0.0000000000
 N   10.5347911700    2.1069582300   12.1069582300   -0.0000000000    0.0000000000   -0.0000000000
 N    8.4285628880    2.1057718100   14.2275524960   -0.0000501670   -0.0000847151    0.0000197575
 N   10.5352114410   -0.0000001100   14.2278067470   -0.0000330433    0.0000000000    0.0000278874
 N    8.4293054440    0.0000000100   16.3871263900   -0.0000198085    0.0000000000    0.0000116502
 N   10.5367983080    2.1049509820   16.3884130600   -0.0000312763    0.0000312763   -0.0000091342
 N    8.4278329400    6.3208747000   10.0000000000   -0.0000000000    0.0000000000   -0.0000000000
 N   10.5347911700    4.2139164700   10.0000000000    0.0000000000    0.0000000000   -0.0000000000
 N    8.4278329400    4.2139164700   12.1069582300   -0.0000000000    0.0000000000   -0.0000000000
 N   10.5347911700    6.3208747000   12.1069582300   -0.0000000000    0.0000000000   -0.0000000000
 N    8.4283406910    6.3208746300   14.2384006850    0.0001527768    0.0000000000   -0.0002193720
 N   10.5359774200    4.2131867920   14.2275526560    0.0000847151    0.0000501670    0.0000197575
 N    8.4348041920    4.2069453780   16.3982756880   -0.0002703359    0.0002703359   -0.0001629715
 N   10.5385161840    6.3208744800   16.3896729440   -0.0000472232    0.0000000000    0.0001847508
 N    8.4278329400   10.5347911700   10.0000000000   -0.0000000000    0.0000000000   -0.0000000000
 N   10.5347911700    8.4278329400   10.0000000000    0.0000000000   -0.0000000000   -0.0000000000
 N    8.4278329400    8.4278329400   12.1069582300   -0.0000000000   -0.0000000000   -0.0000000000
 N   10.5347911700   10.5347911700   12.1069582300   -0.0000000000   -0.0000000000   -0.0000000000
 N    8.4285628980   10.5359775600   14.2275521960   -0.0000501670    0.0000847151    0.0000197575
 N   10.5359774500    8.4285627880   14.2275522160    0.0000847151   -0.0000501670    0.0000197575
 N    8.4348038720    8.4348037620   16.3982750480   -0.0002703359   -0.0002703359   -0.0001629715
 N   10.5367987680   10.5367986780   16.3884123800   -0.0000312763   -0.0000312763   -0.0000091342
Li    6.3208743900    6.3208747400   18.3284848210    0.0000000000    0.0000000000   -0.0006159140
