  145

Ti    0.0000000000    0.0000000000   10.0000000000
Ti    2.1069582300    0.0000000000   12.1069582300
Ti    0.0000000000    2.1069582300   12.1069582300
Ti    2.1069582300    2.1069582300   10.0000000000
Ti   -0.0013794680   -0.0013794180   14.2036991500
Ti    2.1013200020   -0.0006694040   16.2195962790
Ti   -0.0006695840    2.1013201320   16.2195969390
Ti    2.1077776710    2.1077776810   14.2042673610
Ti    0.0000000000    4.2139164700   10.0000000000
Ti    2.1069582300    4.2139164700   12.1069582300
Ti    0.0000000000    6.3208747000   12.1069582300
Ti    2.1069582300    6.3208747000   10.0000000000
Ti    0.0006449810    4.2139179100   14.2038056980
Ti    2.0691974260    4.2139122300   16.2321338300
Ti   -0.0006698140    6.3265069780   16.2196023190
Ti    2.1077839010    6.3200576890   14.2042732510
Ti    0.0000000000    8.4278329400   10.0000000000
Ti    2.1069582300    8.4278329400   12.1069582300
Ti    0.0000000000   10.5347911700   12.1069582300
Ti    2.1069582300   10.5347911700   10.0000000000
Ti   -0.0013793880    8.4292108580   14.2037002800
Ti    2.1013246520    8.4285062740   16.2196042890
Ti    0.0000908180   10.5347970200   16.2183116660
Ti    2.1060087550   10.5347882500   14.2059603850
Ti    4.2139164700    0.0000000000   10.0000000000
Ti    6.3208747000    0.0000000000   12.1069582300
Ti    4.2139164700    2.1069582300   12.1069582300
Ti    6.3208747000    2.1069582300   10.0000000000
Ti    4.2139177500    0.0006448310   14.2038053780
Ti    6.3265068480   -0.0006695540   16.2196012890
Ti    4.2139122900    2.0691974860   16.2321347900
Ti    6.3200578190    2.1077840410   14.2042733310
Ti    4.2139164700    4.2139164700   10.0000000000
Ti    6.3208747000    4.2139164700   12.1069582300
Ti    4.2139164700    6.3208747000   12.1069582300
Ti    6.3208747000    6.3208747000   10.0000000000
Ti    4.2139245500    4.2139244300   14.2579361200
Ti    6.3586343540    4.2139170700   16.2321444900
Ti    4.2139170400    6.3586344040   16.2321448300
Ti    6.3200578290    6.3200576990   14.2042818110
Ti    4.2139164700    8.4278329400   10.0000000000
Ti    6.3208747000    8.4278329400   12.1069582300
Ti    4.2139164700   10.5347911700   12.1069582300
Ti    6.3208747000   10.5347911700   10.0000000000
Ti    4.2139245000    8.4271799090   14.2038158580
Ti    6.3265072580    8.4285014740   16.2196142990
Ti    4.2139122400   10.5347922000   16.2177929970
Ti    6.3218267750   10.5347820200   14.2059666550
Ti    8.4278329400    0.0000000000   10.0000000000
Ti   10.5347911700    0.0000000000   12.1069582300
Ti    8.4278329400    2.1069582300   12.1069582300
Ti   10.5347911700    2.1069582300   10.0000000000
Ti    8.4292106780   -0.0013792280   14.2037007000
Ti   10.5347970700    0.0000906880   16.2183120560
Ti    8.4285064440    2.1013245920   16.2196044690
Ti   10.5347882600    2.1060085850   14.2059599950
Ti    8.4278329400    4.2139164700   10.0000000000
Ti   10.5347911700    4.2139164700   12.1069582300
Ti    8.4278329400    6.3208747000   12.1069582300
Ti   10.5347911700    6.3208747000   10.0000000000
Ti    8.4271795890    4.2139243900   14.2038161380
Ti   10.5347926300    4.2139121100   16.2177939370
Ti    8.4285018640    6.3265068780   16.2196151490
Ti   10.5347823700    6.3218269850   14.2059663750
Ti    8.4278329400    8.4278329400   10.0000000000
Ti   10.5347911700    8.4278329400   12.1069582300
Ti    8.4278329400   10.5347911700   12.1069582300
Ti   10.5347911700   10.5347911700   10.0000000000
Ti    8.4292035980    8.4292041280   14.2037109200
Ti   10.5347925200    8.4277460420   16.2183187060
Ti    8.4277460220   10.5347923800   16.2183193960
Ti   10.5347884800   10.5347883300   14.2053640510
 N    0.0000000000    2.1069582300   10.0000000000
 N    2.1069582300    0.0000000000   10.0000000000
 N    0.0000000000    0.0000000000   12.1069582300
 N    2.1069582300    2.1069582300   12.1069582300
 N   -0.0011835270    2.1062280180   14.2275482370
 N    2.1062278780   -0.0011831870   14.2275478170
 N   -0.0020109920   -0.0020110720   16.3884078040
 N    2.0999891550    2.0999892450   16.3982528750
 N    0.0000000000    6.3208747000   10.0000000000
 N    2.1069582300    4.2139164700   10.0000000000
 N    0.0000000000    4.2139164700   12.1069582300
 N    2.1069582300    6.3208747000   12.1069582300
 N   -0.0011835770    6.3216075920   14.2275545070
 N    2.1064595130    4.2139187600   14.2383929150
 N   -0.0037175440    4.2139137000   16.3896737720
 N    2.0999888950    6.3278420250   16.3982656960
 N    0.0000000000   10.5347911700   10.0000000000
 N    2.1069582300    8.4278329400   10.0000000000
 N    0.0000000000    8.4278329400   12.1069582300
 N    2.1069582300   10.5347911700   12.1069582300
 N   -0.0004264480   10.5347881900   14.2278056790
 N    2.1062293380    8.4290130770   14.2275553170
 N   -0.0020114820    8.4298464920   16.3884170430
 N    2.1054761640   10.5347926800   16.3871361170
 N    4.2139164700    2.1069582300   10.0000000000
 N    6.3208747000    0.0000000000   10.0000000000
 N    4.2139164700    0.0000000000   12.1069582300
 N    6.3208747000    2.1069582300   12.1069582300
 N    4.2139190200    2.1064595830   14.2383928450
 N    6.3216078520   -0.0011834370   14.2275544370
 N    4.2139136300   -0.0037179840   16.3896741020
 N    6.3278419850    2.0999889150   16.3982661550
 N    4.2139164700    6.3208747000   10.0000000000
 N    6.3208747000    4.2139164700   10.0000000000
 N    4.2139164700    4.2139164700   12.1069582300
 N    6.3208747000    6.3208747000   12.1069582300
 N    4.2139200800    6.3213774470   14.2383987950
 N    6.3213774670    4.2139198500   14.2383988450
 N    4.2139139900    4.2139140800   16.4421630240
 N    6.3278418350    6.3278421850   16.3982892160
 N    4.2139164700   10.5347911700   10.0000000000
 N    6.3208747000    8.4278329400   10.0000000000
 N    4.2139164700    8.4278329400   12.1069582300
 N    6.3208747000   10.5347911700   12.1069582300
 N    4.2139189100   10.5347869400   14.2283318030
 N    6.3216076020    8.4290124370   14.2275611370
 N    4.2139141000    8.4315530140   16.3896923820
 N    6.3223549060   10.5347930200   16.3871492170
 N    8.4278329400    2.1069582300   10.0000000000
 N   10.5347911700    0.0000000000   10.0000000000
 N    8.4278329400    0.0000000000   12.1069582300
 N   10.5347911700    2.1069582300   12.1069582300
 N    8.4290137270    2.1062293080   14.2275549870
 N   10.5347884900   -0.0004264180   14.2278063590
 N    8.4298468320   -0.0020111020   16.3884178530
 N   10.5347925400    2.1054762740   16.3871365770
 N    8.4278329400    6.3208747000   10.0000000000
 N   10.5347911700    4.2139164700   10.0000000000
 N    8.4278329400    4.2139164700   12.1069582300
 N   10.5347911700    6.3208747000   12.1069582300
 N    8.4290124470    6.3216077920   14.2275611170
 N   10.5347867600    4.2139190000   14.2283320230
 N    8.4315531740    4.2139140100   16.3896924920
 N   10.5347929600    6.3223549560   16.3871492970
 N    8.4278329400   10.5347911700   10.0000000000
 N   10.5347911700    8.4278329400   10.0000000000
 N    8.4278329400    8.4278329400   12.1069582300
 N   10.5347911700   10.5347911700   12.1069582300
 N    8.4282569980   10.5347869000   14.2278127390
 N   10.5347867900    8.4282568880   14.2278127590
 N    8.4298463520    8.4298462420   16.3884354630
 N   10.5347930000   10.5347929100   16.3876603710
Li    4.2139139900    4.2139140800   18.3285756450
  145

Ti    0.0000000000    0.0000000000   10.0000000000
Ti    2.1069582300    0.0000000000   12.1069582300
Ti    0.0000000000    2.1069582300   12.1069582300
Ti    2.1069582300    2.1069582300   10.0000000000
Ti    0.0008885719    0.0008886219   14.2050746071
Ti    2.1076393638    0.0033024216   16.2199481360
Ti    0.0033022416    2.1076394938   16.2199487960
Ti    2.1109772030    2.1109772130   14.2068248287
Ti    0.0000000000    4.2139164700   10.0000000000
Ti    2.1069582300    4.2139164700   12.1069582300
Ti    0.0000000000    6.3208747000   12.1069582300
Ti    2.1069582300    6.3208747000   10.0000000000
Ti    0.0042862482    4.2147228417   14.2058111304
Ti    2.0956201192    4.2210834999   16.2335651772
Ti    0.0019761260    6.3265099154   16.2178628661
Ti    2.1031564998    6.3226465568   14.1981840474
Ti    0.0000000000    8.4278329400   10.0000000000
Ti    2.1069582300    8.4278329400   12.1069582300
Ti    0.0000000000   10.5347911700   12.1069582300
Ti    2.1069582300   10.5347911700   10.0000000000
Ti   -0.0036705820    8.4311512655   14.2032030622
Ti    2.0954987237    8.4389631693   16.2155216416
Ti    0.0004560236   10.5373794429   16.2188754408
Ti    2.1050050596   10.5394329536   14.2045370185
Ti    4.2139164700    0.0000000000   10.0000000000
Ti    6.3208747000    0.0000000000   12.1069582300
Ti    4.2139164700    2.1069582300   12.1069582300
Ti    6.3208747000    2.1069582300   10.0000000000
Ti    4.2147226817    0.0042860982   14.2058108104
Ti    6.3265097854    0.0019763860   16.2178618361
Ti    4.2210835596    2.0956201795   16.2335661372
Ti    6.3226466868    2.1031566398   14.1981841274
Ti    4.2139164700    4.2139164700   10.0000000000
Ti    6.3208747000    4.2139164700   12.1069582300
Ti    4.2139164700    6.3208747000   12.1069582300
Ti    6.3208747000    6.3208747000   10.0000000000
Ti    4.2194501053    4.2194499853   14.2477245201
Ti    6.3829227469    4.1929218437   16.2023111672
Ti    4.1929218137    6.3829227969   16.2023115072
Ti    6.3216827141    6.3216825841   14.2100197391
Ti    4.2139164700    8.4278329400   10.0000000000
Ti    6.3208747000    8.4278329400   12.1069582300
Ti    4.2139164700   10.5347911700   12.1069582300
Ti    6.3208747000   10.5347911700   10.0000000000
Ti    4.2142991078    8.4341381797   14.1967547199
Ti    6.3248916242    8.4245169594   16.2245830319
Ti    4.2142118488   10.5375274370   16.2174573654
Ti    6.3220650803   10.5331698657   14.2074461928
Ti    8.4278329400    0.0000000000   10.0000000000
Ti   10.5347911700    0.0000000000   12.1069582300
Ti    8.4278329400    2.1069582300   12.1069582300
Ti   10.5347911700    2.1069582300   10.0000000000
Ti    8.4311510855   -0.0036704220   14.2032034822
Ti   10.5373794929    0.0004558936   16.2188758308
Ti    8.4389633397    2.0954986637   16.2155218216
Ti   10.5394329636    2.1050048896   14.2045366285
Ti    8.4278329400    4.2139164700   10.0000000000
Ti   10.5347911700    4.2139164700   12.1069582300
Ti    8.4278329400    6.3208747000   12.1069582300
Ti   10.5347911700    6.3208747000   10.0000000000
Ti    8.4341378597    4.2142989978   14.1967549999
Ti   10.5375278670    4.2142117188   16.2174583054
Ti    8.4245173494    6.3248912442   16.2245838819
Ti   10.5331702157    6.3220652903   14.2074459128
Ti    8.4278329400    8.4278329400   10.0000000000
Ti   10.5347911700    8.4278329400   12.1069582300
Ti    8.4278329400   10.5347911700   12.1069582300
Ti   10.5347911700   10.5347911700   10.0000000000
Ti    8.4275591950    8.4275597250   14.2051699959
Ti   10.5341003448    8.4260960322   16.2191949005
Ti    8.4260960122   10.5341002045   16.2191955905
Ti   10.5348448993   10.5348447493   14.2060334070
 N    0.0000000000    2.1069582300   10.0000000000
 N    2.1069582300    0.0000000000   10.0000000000
 N    0.0000000000    0.0000000000   12.1069582300
 N    2.1069582300    2.1069582300   12.1069582300
 N    0.0028549034    2.1081584154   14.2289794290
 N    2.1081582754    0.0028552434   14.2289790090
 N    0.0015838513    0.0015837713   16.3887174544
 N    2.1108060089    2.1108060989   16.3961104545
 N    0.0000000000    6.3208747000   10.0000000000
 N    2.1069582300    4.2139164700   10.0000000000
 N    0.0000000000    4.2139164700   12.1069582300
 N    2.1069582300    6.3208747000   12.1069582300
 N   -0.0029747461    6.3225195289   14.2270122050
 N    2.1100522318    4.2173630468   14.2391451646
 N    0.0061700964    4.2175921986   16.3914580218
 N    2.1015144225    6.3350506798   16.3891500285
 N    0.0000000000   10.5347911700   10.0000000000
 N    2.1069582300    8.4278329400   10.0000000000
 N    0.0000000000    8.4278329400   12.1069582300
 N    2.1069582300   10.5347911700   12.1069582300
 N   -0.0008074255   10.5366832734   14.2283077809
 N    2.1041238232    8.4329812466   14.2251911890
 N   -0.0039244644    8.4320787600   16.3884076552
 N    2.1054474607   10.5412298984   16.3882203539
 N    4.2139164700    2.1069582300   10.0000000000
 N    6.3208747000    0.0000000000   10.0000000000
 N    4.2139164700    0.0000000000   12.1069582300
 N    6.3208747000    2.1069582300   12.1069582300
 N    4.2173633068    2.1100523018   14.2391450946
 N    6.3225197889   -0.0029746061   14.2270121350
 N    4.2175921286    0.0061696564   16.3914583518
 N    6.3350506398    2.1015144425   16.3891504878
 N    4.2139164700    6.3208747000   10.0000000000
 N    6.3208747000    4.2139164700   10.0000000000
 N    4.2139164700    4.2139164700   12.1069582300
 N    6.3208747000    6.3208747000   12.1069582300
 N    4.2129239835    6.3261465737   14.2231847503
 N    6.3261465937    4.2129237535   14.2231848003
 N    4.2266144102    4.2266145002   16.4878794480
 N    6.3172883994    6.3172887494   16.4422564472
 N    4.2139164700   10.5347911700   10.0000000000
 N    6.3208747000    8.4278329400   10.0000000000
 N    4.2139164700    8.4278329400   12.1069582300
 N    6.3208747000   10.5347911700   12.1069582300
 N    4.2135972682   10.5392805570   14.2276462552
 N    6.3208522194    8.4298221101   14.2294971047
 N    4.2090235755    8.4400304022   16.3832198411
 N    6.3210369068   10.5339362099   16.3878090419
 N    8.4278329400    2.1069582300   10.0000000000
 N   10.5347911700    0.0000000000   10.0000000000
 N    8.4278329400    0.0000000000   12.1069582300
 N   10.5347911700    2.1069582300   12.1069582300
 N    8.4329818966    2.1041237932   14.2251908590
 N   10.5366835734   -0.0008073955   14.2283084609
 N    8.4320791000   -0.0039240844   16.3884084652
 N   10.5412297584    2.1054475707   16.3882208139
 N    8.4278329400    6.3208747000   10.0000000000
 N   10.5347911700    4.2139164700   10.0000000000
 N    8.4278329400    4.2139164700   12.1069582300
 N   10.5347911700    6.3208747000   12.1069582300
 N    8.4298221201    6.3208524094   14.2294970847
 N   10.5392803770    4.2135973582   14.2276464752
 N    8.4400305622    4.2090234855   16.3832199511
 N   10.5339361499    6.3210369568   16.3878091219
 N    8.4278329400   10.5347911700   10.0000000000
 N   10.5347911700    8.4278329400   10.0000000000
 N    8.4278329400    8.4278329400   12.1069582300
 N   10.5347911700   10.5347911700   12.1069582300
 N    8.4281347997   10.5333578018   14.2286191920
 N   10.5333576918    8.4281346897   14.2286192120
 N    8.4270319588    8.4270318488   16.3906251915
 N   10.5347670531   10.5347669631   16.3875339276
Li    4.7468931289    4.7468933051   18.2875899443
  145

Ti    0.0000000000    0.0000000000   10.0000000000
Ti    2.1069582300    0.0000000000   12.1069582300
Ti    0.0000000000    2.1069582300   12.1069582300
Ti    2.1069582300    2.1069582300   10.0000000000
Ti    0.0012132672    0.0012133172   14.2058801732
Ti    2.1104333690    0.0049381920   16.2203206962
Ti    0.0049380120    2.1104334990   16.2203213562
Ti    2.1128909401    2.1128909501   14.2091418971
Ti    0.0000000000    4.2139164700   10.0000000000
Ti    2.1069582300    4.2139164700   12.1069582300
Ti    0.0000000000    6.3208747000   12.1069582300
Ti    2.1069582300    6.3208747000   10.0000000000
Ti    0.0063531244    4.2134943042   14.2081488665
Ti    2.1107666957    4.2196765204   16.2362270819
Ti   -0.0016493248    6.3242106489   16.2176601093
Ti    2.0970712056    6.3215139310   14.1930261898
Ti    0.0000000000    8.4278329400   10.0000000000
Ti    2.1069582300    8.4278329400   12.1069582300
Ti    0.0000000000   10.5347911700   12.1069582300
Ti    2.1069582300   10.5347911700   10.0000000000
Ti   -0.0066933924    8.4317600970   14.2027073774
Ti    2.0887500905    8.4460349659   16.2116265985
Ti   -0.0020430688   10.5368307395   16.2187394514
Ti    2.1030294766   10.5414814777   14.2027054010
Ti    4.2139164700    0.0000000000   10.0000000000
Ti    6.3208747000    0.0000000000   12.1069582300
Ti    4.2139164700    2.1069582300   12.1069582300
Ti    6.3208747000    2.1069582300   10.0000000000
Ti    4.2134941442    0.0063529744   14.2081485465
Ti    6.3242105189   -0.0016490648   16.2176590793
Ti    4.2196765799    2.1107667562   16.2362280419
Ti    6.3215140610    2.0970713456   14.1930262698
Ti    4.2139164700    4.2139164700   10.0000000000
Ti    6.3208747000    4.2139164700   12.1069582300
Ti    4.2139164700    6.3208747000   12.1069582300
Ti    6.3208747000    6.3208747000   10.0000000000
Ti    4.2178433766    4.2178432566   14.2322628528
Ti    6.3858413824    4.1489409447   16.1781485770
Ti    4.1489409147    6.3858414324   16.1781489170
Ti    6.3169526195    6.3169524895   14.2322611400
Ti    4.2139164700    8.4278329400   10.0000000000
Ti    6.3208747000    8.4278329400   12.1069582300
Ti    4.2139164700   10.5347911700   12.1069582300
Ti    6.3208747000   10.5347911700   10.0000000000
Ti    4.2132818939    8.4377156291   14.1930316677
Ti    6.3151151909    8.4240275689   16.2362345118
Ti    4.2105808154   10.5364453425   16.2176588837
Ti    6.3213012096   10.5284372241   14.2081559973
Ti    8.4278329400    0.0000000000   10.0000000000
Ti   10.5347911700    0.0000000000   12.1069582300
Ti    8.4278329400    2.1069582300   12.1069582300
Ti   10.5347911700    2.1069582300   10.0000000000
Ti    8.4317599170   -0.0066932324   14.2027077974
Ti   10.5368307895   -0.0020431988   16.2187398414
Ti    8.4460351364    2.0887500305   16.2116267785
Ti   10.5414814877    2.1030293066   14.2027050110
Ti    8.4278329400    4.2139164700   10.0000000000
Ti   10.5347911700    4.2139164700   12.1069582300
Ti    8.4278329400    6.3208747000   12.1069582300
Ti   10.5347911700    6.3208747000   10.0000000000
Ti    8.4377153091    4.2132817839   14.1930319478
Ti   10.5364457725    4.2105806854   16.2176598237
Ti    8.4240279589    6.3151148109   16.2362353618
Ti   10.5284375741    6.3213014196   14.2081557173
Ti    8.4278329400    8.4278329400   10.0000000000
Ti   10.5347911700    8.4278329400   12.1069582300
Ti    8.4278329400   10.5347911700   12.1069582300
Ti   10.5347911700   10.5347911700   10.0000000000
Ti    8.4218974754    8.4218980054   14.2091565861
Ti   10.5298585605    8.4243606049   16.2203239517
Ti    8.4243605849   10.5298584200   16.2203246417
Ti   10.5335749646   10.5335748146   14.2058870069
 N    0.0000000000    2.1069582300   10.0000000000
 N    2.1069582300    0.0000000000   10.0000000000
 N    0.0000000000    0.0000000000   12.1069582300
 N    2.1069582300    2.1069582300   12.1069582300
 N    0.0045556222    2.1081290191   14.2296793465
 N    2.1081288791    0.0045559622   14.2296789265
 N    0.0019570612    0.0019569812   16.3876811957
 N    2.1146982482    2.1146983382   16.3959197396
 N    0.0000000000    6.3208747000   10.0000000000
 N    2.1069582300    4.2139164700   10.0000000000
 N    0.0000000000    4.2139164700   12.1069582300
 N    2.1069582300    6.3208747000   12.1069582300
 N   -0.0064464274    6.3223197531   14.2275741924
 N    2.1091076961    4.2176680361   14.2382554883
 N    0.0082322704    4.2177915499   16.3908689482
 N    2.0935218846    6.3369833184   16.3818591072
 N    0.0000000000   10.5347911700   10.0000000000
 N    2.1069582300    8.4278329400   10.0000000000
 N    0.0000000000    8.4278329400   12.1069582300
 N    2.1069582300   10.5347911700   12.1069582300
 N   -0.0022168899   10.5370032664   14.2283801544
 N    2.1007878145    8.4340004348   14.2230169788
 N   -0.0091761204    8.4321886039   16.3881510204
 N    2.1026007148   10.5439657667   16.3881540691
 N    4.2139164700    2.1069582300   10.0000000000
 N    6.3208747000    0.0000000000   10.0000000000
 N    4.2139164700    0.0000000000   12.1069582300
 N    6.3208747000    2.1069582300   12.1069582300
 N    4.2176682961    2.1091077661   14.2382554183
 N    6.3223200131   -0.0064462874   14.2275741224
 N    4.2177914799    0.0082318304   16.3908692782
 N    6.3369832784    2.0935219046   16.3818595667
 N    4.2139164700    6.3208747000   10.0000000000
 N    6.3208747000    4.2139164700   10.0000000000
 N    4.2139164700    4.2139164700   12.1069582300
 N    6.3208747000    6.3208747000   12.1069582300
 N    4.2089549181    6.3258355001   14.2110998309
 N    6.3258355201    4.2089546881   14.2110998809
 N    4.2467642509    4.2467643409   16.5341832054
 N    6.2880234887    6.2880238387   16.5341835001
 N    4.2139164700   10.5347911700   10.0000000000
 N    6.3208747000    8.4278329400   10.0000000000
 N    4.2139164700    8.4278329400   12.1069582300
 N    6.3208747000   10.5347911700   12.1069582300
 N    4.2124740667   10.5412366520   14.2275753635
 N    6.3171256363    8.4256844953   14.2382636543
 N    4.1978047375    8.4412676435   16.3818738588
 N    6.3170019548   10.5265636192   16.3908801553
 N    8.4278329400    2.1069582300   10.0000000000
 N   10.5347911700    0.0000000000   10.0000000000
 N    8.4278329400    0.0000000000   12.1069582300
 N   10.5347911700    2.1069582300   12.1069582300
 N    8.4340010848    2.1007877845   14.2230166488
 N   10.5370035664   -0.0022168599   14.2283808344
 N    8.4321889439   -0.0091757404   16.3881518304
 N   10.5439656267    2.1026008248   16.3881545291
 N    8.4278329400    6.3208747000   10.0000000000
 N   10.5347911700    4.2139164700   10.0000000000
 N    8.4278329400    4.2139164700   12.1069582300
 N   10.5347911700    6.3208747000   12.1069582300
 N    8.4256845053    6.3171258263   14.2382636343
 N   10.5412364720    4.2124741567   14.2275755835
 N    8.4412678035    4.1978046475   16.3818739688
 N   10.5265635592    6.3170020048   16.3908802353
 N    8.4278329400   10.5347911700   10.0000000000
 N   10.5347911700    8.4278329400   10.0000000000
 N    8.4278329400    8.4278329400   12.1069582300
 N   10.5347911700   10.5347911700   12.1069582300
 N    8.4266640555   10.5302346105   14.2296843569
 N   10.5302345005    8.4266639455   14.2296843769
 N    8.4200968651    8.4200967551   16.3959421696
 N   10.5328333968   10.5328333068   16.3876843708
Li    5.2673975046    5.2673977246   18.1526275154
  145

Ti    0.0000000000    0.0000000000   10.0000000000
Ti    2.1069582300    0.0000000000   12.1069582300
Ti    0.0000000000    2.1069582300   12.1069582300
Ti    2.1069582300    2.1069582300   10.0000000000
Ti   -0.0000543467   -0.0000542967   14.2060047797
Ti    2.1087076497    0.0006852234   16.2191153789
Ti    0.0006850434    2.1087077797   16.2191160389
Ti    2.1072278292    2.1072278392   14.2051093164
Ti    0.0000000000    4.2139164700   10.0000000000
Ti    2.1069582300    4.2139164700   12.1069582300
Ti    0.0000000000    6.3208747000   12.1069582300
Ti    2.1069582300    6.3208747000   10.0000000000
Ti    0.0016144314    4.2127347240   14.2073881363
Ti    2.1102768157    4.2099122087   16.2244852170
Ti   -0.0027017401    6.3205696479   16.2173755862
Ti    2.1006712129    6.3204997511   14.1966993473
Ti    0.0000000000    8.4278329400   10.0000000000
Ti    2.1069582300    8.4278329400   12.1069582300
Ti    0.0000000000   10.5347911700   12.1069582300
Ti    2.1069582300   10.5347911700   10.0000000000
Ti   -0.0046321499    8.4297760586   14.2044919743
Ti    2.0958482859    8.4392757200   16.2154406474
Ti   -0.0025880920   10.5343443980   16.2187970006
Ti    2.1036532107   10.5384521647   14.2031664868
Ti    4.2139164700    0.0000000000   10.0000000000
Ti    6.3208747000    0.0000000000   12.1069582300
Ti    4.2139164700    2.1069582300   12.1069582300
Ti    6.3208747000    2.1069582300   10.0000000000
Ti    4.2127345640    0.0016142814   14.2073878163
Ti    6.3205695179   -0.0027014801   16.2173745562
Ti    4.2099122681    2.1102768763   16.2244861770
Ti    6.3204998811    2.1006713529   14.1966994273
Ti    4.2139164700    4.2139164700   10.0000000000
Ti    6.3208747000    4.2139164700   12.1069582300
Ti    4.2139164700    6.3208747000   12.1069582300
Ti    6.3208747000    6.3208747000   10.0000000000
Ti    4.2131193342    4.2131192142   14.2099370550
Ti    6.3418170641    4.1519519847   16.2022464231
Ti    4.1519519547    6.3418171141   16.2022467631
Ti    6.3153486027    6.3153484727   14.2477416444
Ti    4.2139164700    8.4278329400   10.0000000000
Ti    6.3208747000    8.4278329400   12.1069582300
Ti    4.2139164700   10.5347911700   12.1069582300
Ti    6.3208747000   10.5347911700   10.0000000000
Ti    4.2121605211    8.4316191314   14.1981349786
Ti    6.3137144802    8.4391594054   16.2335412778
Ti    4.2083196101   10.5327932245   16.2177867283
Ti    6.3200735661   10.5304985611   14.2057850510
Ti    8.4278329400    0.0000000000   10.0000000000
Ti   10.5347911700    0.0000000000   12.1069582300
Ti    8.4278329400    2.1069582300   12.1069582300
Ti   10.5347911700    2.1069582300   10.0000000000
Ti    8.4297758786   -0.0046319899   14.2044923943
Ti   10.5343444480   -0.0025882220   16.2187973906
Ti    8.4392758907    2.0958482259   16.2154408274
Ti   10.5384521747    2.1036530407   14.2031660968
Ti    8.4278329400    4.2139164700   10.0000000000
Ti   10.5347911700    4.2139164700   12.1069582300
Ti    8.4278329400    6.3208747000   12.1069582300
Ti   10.5347911700    6.3208747000   10.0000000000
Ti    8.4316188114    4.2121604111   14.1981352586
Ti   10.5327936545    4.2083194801   16.2177876683
Ti    8.4391597954    6.3137141002   16.2335421278
Ti   10.5304989111    6.3200737761   14.2057847710
Ti    8.4278329400    8.4278329400   10.0000000000
Ti   10.5347911700    8.4278329400   12.1069582300
Ti    8.4278329400   10.5347911700   12.1069582300
Ti   10.5347911700   10.5347911700   10.0000000000
Ti    8.4238011520    8.4238016820   14.2068101251
Ti   10.5314961274    8.4271437265   16.2198818373
Ti    8.4271437065   10.5314959867   16.2198825273
Ti   10.5339054209   10.5339052709   14.2050496234
 N    0.0000000000    2.1069582300   10.0000000000
 N    2.1069582300    0.0000000000   10.0000000000
 N    0.0000000000    0.0000000000   12.1069582300
 N    2.1069582300    2.1069582300   12.1069582300
 N    0.0014271607    2.1066627842   14.2285685527
 N    2.1066626442    0.0014275007   14.2285681327
 N    0.0000256581    0.0000255781   16.3874342344
 N    2.1077604440    2.1077605340   16.3905081595
 N    0.0000000000    6.3208747000   10.0000000000
 N    2.1069582300    4.2139164700   10.0000000000
 N    0.0000000000    4.2139164700   12.1069582300
 N    2.1069582300    6.3208747000   12.1069582300
 N   -0.0044782576    6.3211935875   14.2276002236
 N    2.1049772205    4.2139406844   14.2294365260
 N    0.0008559068    4.2137633688   16.3877021306
 N    2.0947964254    6.3257613784   16.3831100046
 N    0.0000000000   10.5347911700   10.0000000000
 N    2.1069582300    8.4278329400   10.0000000000
 N    0.0000000000    8.4278329400   12.1069582300
 N    2.1069582300   10.5347911700   12.1069582300
 N   -0.0018848600   10.5355937114   14.2282641788
 N    2.1018237591    8.4306604693   14.2251425527
 N   -0.0064231913    8.4293380892   16.3881222551
 N    2.1027232735   10.5387052509   16.3883047458
 N    4.2139164700    2.1069582300   10.0000000000
 N    6.3208747000    0.0000000000   10.0000000000
 N    4.2139164700    0.0000000000   12.1069582300
 N    6.3208747000    2.1069582300   12.1069582300
 N    4.2139409444    2.1049772905   14.2294364560
 N    6.3211938475   -0.0044781176   14.2276001536
 N    4.2137632988    0.0008554668   16.3877024606
 N    6.3257613384    2.0947964454   16.3831104643
 N    4.2139164700    6.3208747000   10.0000000000
 N    6.3208747000    4.2139164700   10.0000000000
 N    4.2139164700    4.2139164700   12.1069582300
 N    6.3208747000    6.3208747000   12.1069582300
 N    4.2086591823    6.3218603593   14.2231285196
 N    6.3218603793    4.2086589523   14.2231285696
 N    4.2174982975    4.2174983875   16.4421682290
 N    6.3081683855    6.3081687355   16.4878780497
 N    4.2139164700   10.5347911700   10.0000000000
 N    6.3208747000    8.4278329400   10.0000000000
 N    4.2139164700    8.4278329400   12.1069582300
 N    6.3208747000   10.5347911700   12.1069582300
 N    4.2122786779   10.5377519111   14.2269665885
 N    6.3174302965    8.4247349643   14.2391240603
 N    4.1997582986    8.4332701338   16.3890690433
 N    6.3172031530   10.5286272912   16.3913824198
 N    8.4278329400    2.1069582300   10.0000000000
 N   10.5347911700    0.0000000000   10.0000000000
 N    8.4278329400    0.0000000000   12.1069582300
 N   10.5347911700    2.1069582300   12.1069582300
 N    8.4306611193    2.1018237291   14.2251422227
 N   10.5355940114   -0.0018848300   14.2282648588
 N    8.4293384292   -0.0064228113   16.3881230651
 N   10.5387051109    2.1027233835   16.3883052058
 N    8.4278329400    6.3208747000   10.0000000000
 N   10.5347911700    4.2139164700   10.0000000000
 N    8.4278329400    4.2139164700   12.1069582300
 N   10.5347911700    6.3208747000   12.1069582300
 N    8.4247349743    6.3174304865   14.2391240403
 N   10.5377517311    4.2122787679   14.2269668085
 N    8.4332702938    4.1997582086   16.3890691533
 N   10.5286272312    6.3172032030   16.3913824998
 N    8.4278329400   10.5347911700   10.0000000000
 N   10.5347911700    8.4278329400   10.0000000000
 N    8.4278329400    8.4278329400   12.1069582300
 N   10.5347911700   10.5347911700   12.1069582300
 N    8.4266332981   10.5319348293   14.2289400723
 N   10.5319347193    8.4266331881   14.2289400923
 N    8.4239916141    8.4239915041   16.3960528557
 N   10.5332105361   10.5332104461   16.3886207007
Li    5.7878859556    5.7878862194   18.2876234334
  145

Ti    0.0000000000    0.0000000000   10.0000000000
Ti    2.1069582300    0.0000000000   12.1069582300
Ti    0.0000000000    2.1069582300   12.1069582300
Ti    2.1069582300    2.1069582300   10.0000000000
Ti   -0.0000002800   -0.0000002300   14.2053473410
Ti    2.1070619870    0.0000001400   16.2183095470
Ti   -0.0000000400    2.1070621170   16.2183102070
Ti    2.1055816230    2.1055816330   14.2036967900
Ti    0.0000000000    4.2139164700   10.0000000000
Ti    2.1069582300    4.2139164700   12.1069582300
Ti    0.0000000000    6.3208747000   12.1069582300
Ti    2.1069582300    6.3208747000   10.0000000000
Ti   -0.0000001400    4.2129718130   14.2059612330
Ti    2.1062792910    4.2082891010   16.2195938990
Ti   -0.0000002700    6.3208746300   16.2177871900
Ti    2.1075952780    6.3208745000   14.2038143470
Ti    0.0000000000    8.4278329400   10.0000000000
Ti    2.1069582300    8.4278329400   12.1069582300
Ti    0.0000000000   10.5347911700   12.1069582300
Ti    2.1069582300   10.5347911700   10.0000000000
Ti   -0.0000002000    8.4287777670   14.2059606630
Ti    2.1062792810    8.4334598590   16.2195943990
Ti    0.0000001200   10.5346873830   16.2183097470
Ti    2.1055817630   10.5361674870   14.2036966200
Ti    4.2139164700    0.0000000000   10.0000000000
Ti    6.3208747000    0.0000000000   12.1069582300
Ti    4.2139164700    2.1069582300   12.1069582300
Ti    6.3208747000    2.1069582300   10.0000000000
Ti    4.2129716530   -0.0000002900   14.2059609130
Ti    6.3208745000   -0.0000000100   16.2177861600
Ti    4.2082891600    2.1062793520   16.2195948590
Ti    6.3208746300    2.1075954180   14.2038144270
Ti    4.2139164700    4.2139164700   10.0000000000
Ti    6.3208747000    4.2139164700   12.1069582300
Ti    4.2139164700    6.3208747000   12.1069582300
Ti    6.3208747000    6.3208747000   10.0000000000
Ti    4.2147350020    4.2147348820   14.2042831670
Ti    6.3208747700    4.1761388810   16.2321283260
Ti    4.1761388510    6.3208748200   16.2321286660
Ti    6.3208746400    6.3208745100   14.2579335930
Ti    4.2139164700    8.4278329400   10.0000000000
Ti    6.3208747000    8.4278329400   12.1069582300
Ti    4.2139164700   10.5347911700   12.1069582300
Ti    6.3208747000   10.5347911700   10.0000000000
Ti    4.2147349520    8.4270145780   14.2042826870
Ti    6.3208749100    8.4656101190   16.2321281760
Ti    4.2082891100   10.5354699190   16.2195940590
Ti    6.3208745300   10.5341538320   14.2038145570
Ti    8.4278329400    0.0000000000   10.0000000000
Ti   10.5347911700    0.0000000000   12.1069582300
Ti    8.4278329400    2.1069582300   12.1069582300
Ti   10.5347911700    2.1069582300   10.0000000000
Ti    8.4287775870   -0.0000000400   14.2059610830
Ti   10.5346874330   -0.0000000100   16.2183101370
Ti    8.4334600300    2.1062792210   16.2195945790
Ti   10.5361674970    2.1055815930   14.2036962300
Ti    8.4278329400    4.2139164700   10.0000000000
Ti   10.5347911700    4.2139164700   12.1069582300
Ti    8.4278329400    6.3208747000   12.1069582300
Ti   10.5347911700    6.3208747000   10.0000000000
Ti    8.4270142580    4.2147348420   14.2042829670
Ti   10.5354703490    4.2082889800   16.2195949990
Ti    8.4656105090    6.3208745300   16.2321290260
Ti   10.5341541820    6.3208747400   14.2038142770
Ti    8.4278329400    8.4278329400   10.0000000000
Ti   10.5347911700    8.4278329400   12.1069582300
Ti    8.4278329400   10.5347911700   12.1069582300
Ti   10.5347911700   10.5347911700   10.0000000000
Ti    8.4270139580    8.4270144880   14.2042825980
Ti   10.5354702390    8.4334598700   16.2195936290
Ti    8.4334598500   10.5354700980   16.2195943190
Ti   10.5361677170   10.5361675670   14.2036961200
 N    0.0000000000    2.1069582300   10.0000000000
 N    2.1069582300    0.0000000000   10.0000000000
 N    0.0000000000    0.0000000000   12.1069582300
 N    2.1069582300    2.1069582300   12.1069582300
 N   -0.0000004800    2.1065382290   14.2278066770
 N    2.1065380890   -0.0000001400   14.2278062570
 N    0.0000001200    0.0000000400   16.3876586060
 N    2.1049508320    2.1049509220   16.3884128300
 N    0.0000000000    6.3208747000   10.0000000000
 N    2.1069582300    4.2139164700   10.0000000000
 N    0.0000000000    4.2139164700   12.1069582300
 N    2.1069582300    6.3208747000   12.1069582300
 N   -0.0000005300    6.3208744300   14.2283273800
 N    2.1057717700    4.2131865520   14.2275527060
 N    0.0000000700    4.2124439760   16.3871259200
 N    2.1032331160    6.3208745800   16.3896728140
 N    0.0000000000   10.5347911700   10.0000000000
 N    2.1069582300    8.4278329400   10.0000000000
 N    0.0000000000    8.4278329400   12.1069582300
 N    2.1069582300   10.5347911700   12.1069582300
 N   -0.0000001400   10.5352111410   14.2278060670
 N    2.1057718400    8.4285622380   14.2275528260
 N   -0.0000003700    8.4293051040   16.3871255800
 N    2.1049508720   10.5367984480   16.3884126000
 N    4.2139164700    2.1069582300   10.0000000000
 N    6.3208747000    0.0000000000   10.0000000000
 N    4.2139164700    0.0000000000   12.1069582300
 N    6.3208747000    2.1069582300   12.1069582300
 N    4.2131868120    2.1057718400   14.2275526360
 N    6.3208746900   -0.0000003900   14.2283273100
 N    4.2124439060   -0.0000003700   16.3871262500
 N    6.3208745400    2.1032331360   16.3896732740
 N    4.2139164700    6.3208747000   10.0000000000
 N    6.3208747000    4.2139164700   10.0000000000
 N    4.2139164700    4.2139164700   12.1069582300
 N    6.3208747000    6.3208747000   12.1069582300
 N    4.2134087890    6.3208745300   14.2384006450
 N    6.3208745500    4.2134085590   14.2384006950
 N    4.2069453580    4.2069454480   16.3982756880
 N    6.3208743900    6.3208747400   16.4421493610
 N    4.2139164700   10.5347911700   10.0000000000
 N    6.3208747000    8.4278329400   10.0000000000
 N    4.2139164700    8.4278329400   12.1069582300
 N    6.3208747000   10.5347911700   12.1069582300
 N    4.2131867020   10.5359776000   14.2275524360
 N    6.3208744400    8.4283406810   14.2384007050
 N    4.2069454680    8.4348040320   16.3982755780
 N    6.3208744300   10.5385162440   16.3896728640
 N    8.4278329400    2.1069582300   10.0000000000
 N   10.5347911700    0.0000000000   10.0000000000
 N    8.4278329400    0.0000000000   12.1069582300
 N   10.5347911700    2.1069582300   12.1069582300
 N    8.4285628880    2.1057718100   14.2275524960
 N   10.5352114410   -0.0000001100   14.2278067470
 N    8.4293054440    0.0000000100   16.3871263900
 N   10.5367983080    2.1049509820   16.3884130600
 N    8.4278329400    6.3208747000   10.0000000000
 N   10.5347911700    4.2139164700   10.0000000000
 N    8.4278329400    4.2139164700   12.1069582300
 N   10.5347911700    6.3208747000   12.1069582300
 N    8.4283406910    6.3208746300   14.2384006850
 N   10.5359774200    4.2131867920   14.2275526560
 N    8.4348041920    4.2069453780   16.3982756880
 N   10.5385161840    6.3208744800   16.3896729440
 N    8.4278329400   10.5347911700   10.0000000000
 N   10.5347911700    8.4278329400   10.0000000000
 N    8.4278329400    8.4278329400   12.1069582300
 N   10.5347911700   10.5347911700   12.1069582300
 N    8.4285628980   10.5359775600   14.2275521960
 N   10.5359774500    8.4285627880   14.2275522160
 N    8.4348038720    8.4348037620   16.3982750480
 N   10.5367987680   10.5367986780   16.3884123800
Li    6.3208743900    6.3208747400   18.3284848210
