145
Lattice="12.259575388456497 0.0 0.0 0.0 12.259575388456497 0.0 0.0 0.0 26.129789272297636" Properties=species:S:1:pos:R:3 pbc="T T T"
V        0.00000000       0.00000000      10.00000000
V        2.04326254       0.00000000      12.04326254
V        0.00000000       2.04326254      12.04326254
V        2.04326254       2.04326254      10.00000000
V        0.00000014       0.00000017      14.15914706
V        2.04317869       0.00000006      16.01937620
V       -0.00000009       2.04317861      16.01937601
V        2.04324677       2.04324668      14.15915459
V        0.00000000       4.08652507      10.00000000
V        2.04326254       4.08652507      12.04326254
V        0.00000000       6.12978761      12.04326254
V        2.04326254       6.12978761      10.00000000
V        0.00000012       4.08651042      14.15915742
V        2.04318935       4.08660849      16.01940050
V       -0.00000015       6.12978750      16.01936413
V        2.04325066       6.12978739      14.15916964
V        0.00000000       8.17305015      10.00000000
V        2.04326254       8.17305015      12.04326254
V        0.00000000      10.21631269      12.04326254
V        2.04326254      10.21631269      10.00000000
V       -0.00000021       8.17306455      14.15915740
V        2.04318943       8.17296693      16.01940032
V       -0.00000001      10.21639651      16.01937628
V        2.04324670      10.21632830      14.15915438
V        4.08652507       0.00000000      10.00000000
V        6.12978761       0.00000000      12.04326254
V        4.08652507       2.04326254      12.04326254
V        6.12978761       2.04326254      10.00000000
V        4.08651044       0.00000017      14.15915733
V        6.12978762       0.00000005      16.01936471
V        4.08660830       2.04318943      16.01940061
V        6.12978737       2.04325074      14.15916964
V        4.08652507       4.08652507      10.00000000
V        6.12978761       4.08652507      12.04326254
V        4.08652507       6.12978761      12.04326254
V        6.12978761       6.12978761      10.00000000
V        4.08651161       4.08651142      14.15916615
V        6.12978755       4.08657266      16.01938465
V        4.08657261       6.12978755      16.01938441
V        6.12978740       6.12978750      14.15915153
V        4.08652507       8.17305015      10.00000000
V        6.12978761       8.17305015      12.04326254
V        4.08652507      10.21631269      12.04326254
V        6.12978761      10.21631269      10.00000000
V        4.08651163       8.17306392      14.15916616
V        6.12978758       8.17300248      16.01938437
V        4.08660832      10.21638572      16.01940008
V        6.12978754      10.21632426      14.15916971
V        8.17305015       0.00000000      10.00000000
V       10.21631269       0.00000000      12.04326254
V        8.17305015       2.04326254      12.04326254
V       10.21631269       2.04326254      10.00000000
V        8.17306475       0.00000005      14.15915731
V       10.21639659       0.00000010      16.01937614
V        8.17296688       2.04318943      16.01940085
V       10.21632851       2.04324670      14.15915425
V        8.17305015       4.08652507      10.00000000
V       10.21631269       4.08652507      12.04326254
V        8.17305015       6.12978761      12.04326254
V       10.21631269       6.12978761      10.00000000
V        8.17306344       4.08651161      14.15916607
V       10.21638578       4.08660852      16.01940030
V        8.17300265       6.12978765      16.01938464
V       10.21632464       6.12978759      14.15916976
V        8.17305015       8.17305015      10.00000000
V       10.21631269       8.17305015      12.04326254
V        8.17305015      10.21631269      12.04326254
V       10.21631269      10.21631269      10.00000000
V        8.17306379       8.17306367      14.15916627
V       10.21638578       8.17296673      16.01940049
V        8.17296675      10.21638582      16.01940010
V       10.21632839      10.21632826      14.15915436
N        0.00000000       2.04326254      10.00000000
N        2.04326254       0.00000000      10.00000000
N        0.00000000       0.00000000      12.04326254
N        2.04326254       2.04326254      12.04326254
N        0.00000011       2.04325162      14.11774867
N        2.04325139       0.00000010      14.11774837
N       -0.00000003      -0.00000004      16.28140097
N        2.04328088       2.04328080      16.28131467
N        0.00000000       6.12978761      10.00000000
N        2.04326254       4.08652507      10.00000000
N        0.00000000       4.08652507      12.04326254
N        2.04326254       6.12978761      12.04326254
N       -0.00000004       6.12978763      14.11774632
N        2.04325395       4.08651825      14.11776723
N       -0.00000015       4.08648742      16.28137024
N        2.04327102       6.12978746      16.28140190
N        0.00000000      10.21631269      10.00000000
N        2.04326254       8.17305015      10.00000000
N        0.00000000       8.17305015      12.04326254
N        2.04326254      10.21631269      12.04326254
N        0.00000002      10.21632361      14.11774819
N        2.04325394       8.17305713      14.11776737
N        0.00000008       8.17308791      16.28137021
N        2.04328081      10.21629444      16.28131458
N        4.08652507       2.04326254      10.00000000
N        6.12978761       0.00000000      10.00000000
N        4.08652507       0.00000000      12.04326254
N        6.12978761       2.04326254      12.04326254
N        4.08651806       2.04325401      14.11776706
N        6.12978755       0.00000009      14.11774615
N        4.08648737      -0.00000003      16.28137073
N        6.12978766       2.04327112      16.28140232
N        4.08652507       6.12978761      10.00000000
N        6.12978761       4.08652507      10.00000000
N        4.08652507       4.08652507      12.04326254
N        6.12978761       6.12978761      12.04326254
N        4.08651944       6.12978749      14.11776202
N        6.12978765       4.08651937      14.11776169
N        4.08649688       4.08649676      16.28135293
N        6.12978763       6.12978751      16.28143727
N        4.08652507      10.21631269      10.00000000
N        6.12978761       8.17305015      10.00000000
N        4.08652507       8.17305015      12.04326254
N        6.12978761      10.21631269      12.04326254
N        4.08651803      10.21632104      14.11776749
N        6.12978756       8.17305586      14.11776202
N        4.08649686       8.17307859      16.28135247
N        6.12978764      10.21630424      16.28140207
N        8.17305015       2.04326254      10.00000000
N       10.21631269       0.00000000      10.00000000
N        8.17305015       0.00000000      12.04326254
N       10.21631269       2.04326254      12.04326254
N        8.17305705       2.04325389      14.11776692
N       10.21632390      -0.00000012      14.11774847
N        8.17308774       0.00000001      16.28137044
N       10.21629447       2.04328081      16.28131459
N        8.17305015       6.12978761      10.00000000
N       10.21631269       4.08652507      10.00000000
N        8.17305015       4.08652507      12.04326254
N       10.21631269       6.12978761      12.04326254
N        8.17305564       6.12978734      14.11776159
N       10.21632133       4.08651823      14.11776751
N        8.17307852       4.08649675      16.28135264
N       10.21630421       6.12978767      16.28140185
N        8.17305015      10.21631269      10.00000000
N       10.21631269       8.17305015      10.00000000
N        8.17305015       8.17305015      12.04326254
N       10.21631269      10.21631269      12.04326254
N        8.17305698      10.21632135      14.11776746
N       10.21632132       8.17305693      14.11776688
N        8.17307843       8.17307849      16.28135263
N       10.21629446      10.21629436      16.28131461
Li       4.08649688       4.08649676      18.48143727
