145
Lattice="13.691787681916065 0.0 0.0 0.0 13.691787681916065 0.0 0.0 0.0 26.84589886156329" Properties=species:S:1:pos:R:3 pbc="T T T"
Zr       0.00000000       0.00000000      10.00000000
Zr       2.28196466       0.00000000      12.28196466
Zr       0.00000000       2.28196466      12.28196466
Zr       2.28196466       2.28196466      10.00000000
Zr       0.00000021      -0.00000305      14.56271786
Zr       2.28192107      -0.00000491      16.75501110
Zr      -0.00000662       2.28191905      16.75500442
Zr       2.28191488       2.28191317      14.56273151
Zr       0.00000000       4.56392932      10.00000000
Zr       2.28196466       4.56392932      12.28196466
Zr       0.00000000       6.84589398      12.28196466
Zr       2.28196466       6.84589398      10.00000000
Zr       0.00000656       4.56385834      14.56274213
Zr       2.28200234       4.56391637      16.75506692
Zr      -0.00000868       6.84588689      16.75507590
Zr       2.28199762       6.84589071      14.56277870
Zr       0.00000000       9.12785864      10.00000000
Zr       2.28196466       9.12785864      12.28196466
Zr       0.00000000      11.40982330      12.28196466
Zr       2.28196466      11.40982330      10.00000000
Zr       0.00000288       9.12793393      14.56273809
Zr       2.28200400       9.12787318      16.75504926
Zr      -0.00000347      11.40987313      16.75503719
Zr       2.28190806      11.40987398      14.56274993
Zr       4.56392932       0.00000000      10.00000000
Zr       6.84589398       0.00000000      12.28196466
Zr       4.56392932       2.28196466      12.28196466
Zr       6.84589398       2.28196466      10.00000000
Zr       4.56385895      -0.00000191      14.56274227
Zr       6.84588914      -0.00000925      16.75507435
Zr       4.56391825       2.28200212      16.75506371
Zr       6.84589827       2.28199413      14.56276828
Zr       4.56392932       4.56392932      10.00000000
Zr       6.84589398       4.56392932      12.28196466
Zr       4.56392932       6.84589398      12.28196466
Zr       6.84589398       6.84589398      10.00000000
Zr       4.56394246       4.56394219      14.56283031
Zr       6.84588937       4.56400553      16.75505295
Zr       4.56400539       6.84589348      16.75504275
Zr       6.84589394       6.84588976      14.56289386
Zr       4.56392932       9.12785864      10.00000000
Zr       6.84589398       9.12785864      12.28196466
Zr       4.56392932      11.40982330      12.28196466
Zr       6.84589398      11.40982330      10.00000000
Zr       4.56394347       9.12784692      14.56282022
Zr       6.84590069       9.12779134      16.75504242
Zr       4.56391724      11.40979447      16.75504998
Zr       6.84589390      11.40979075      14.56277980
Zr       9.12785864       0.00000000      10.00000000
Zr      11.40982330       0.00000000      12.28196466
Zr       9.12785864       2.28196466      12.28196466
Zr      11.40982330       2.28196466      10.00000000
Zr       9.12793448       0.00000369      14.56273258
Zr      11.40986968      -0.00000165      16.75501526
Zr       9.12787890       2.28200319      16.75506689
Zr      11.40986929       2.28190922      14.56274328
Zr       9.12785864       4.56392932      10.00000000
Zr      11.40982330       4.56392932      12.28196466
Zr       9.12785864       6.84589398      12.28196466
Zr      11.40982330       6.84589398      10.00000000
Zr       9.12784665       4.56393970      14.56281826
Zr      11.40979272       4.56391752      16.75505956
Zr       9.12778793       6.84590057      16.75506039
Zr      11.40978559       6.84589219      14.56278005
Zr       9.12785864       9.12785864      10.00000000
Zr      11.40982330       9.12785864      12.28196466
Zr       9.12785864      11.40982330      12.28196466
Zr      11.40982330      11.40982330      10.00000000
Zr       9.12784691       9.12784634      14.56282968
Zr      11.40977502       9.12786906      16.75505682
Zr       9.12787404      11.40978018      16.75504354
Zr      11.40987887      11.40987566      14.56274466
N        0.00000000       2.28196466      10.00000000
N        2.28196466       0.00000000      10.00000000
N        0.00000000       0.00000000      12.28196466
N        2.28196466       2.28196466      12.28196466
N       -0.00000197       2.28195433      14.58786647
N        2.28195741      -0.00000022      14.58786416
N        0.00000055      -0.00000013      16.91440779
N        2.28197662       2.28197736      16.91431710
N        0.00000000       6.84589398      10.00000000
N        2.28196466       4.56392932      10.00000000
N        0.00000000       4.56392932      12.28196466
N        2.28196466       6.84589398      12.28196466
N       -0.00000012       6.84589554      14.58796441
N        2.28196464       4.56392020      14.58793933
N        0.00000235       4.56394988      16.91434362
N        2.28195034       6.84589846      16.91431426
N        0.00000000      11.40982330      10.00000000
N        2.28196466       9.12785864      10.00000000
N        0.00000000       9.12785864      12.28196466
N        2.28196466      11.40982330      12.28196466
N        0.00000155      11.40982817      14.58789997
N        2.28196514       9.12786994      14.58793491
N        0.00000128       9.12784197      16.91429492
N        2.28197598      11.40980748      16.91440094
N        4.56392932       2.28196466      10.00000000
N        6.84589398       0.00000000      10.00000000
N        4.56392932       0.00000000      12.28196466
N        6.84589398       2.28196466      12.28196466
N        4.56392142       2.28196372      14.58791047
N        6.84589294      -0.00000337      14.58797741
N        4.56394618      -0.00000146      16.91433955
N        6.84589808       2.28195224      16.91430076
N        4.56392932       6.84589398      10.00000000
N        6.84589398       4.56392932      10.00000000
N        4.56392932       4.56392932      12.28196466
N        6.84589398       6.84589398      12.28196466
N        4.56392662       6.84589342      14.58783971
N        6.84589112       4.56392522      14.58784565
N        4.56392207       4.56391886      16.91441710
N        6.84589493       6.84589500      16.91446282
N        4.56392932      11.40982330      10.00000000
N        6.84589398       9.12785864      10.00000000
N        4.56392932       9.12785864      12.28196466
N        6.84589398      11.40982330      12.28196466
N        4.56391709      11.40982268      14.58790487
N        6.84589023       9.12786079      14.58783812
N        4.56391907       9.12786404      16.91436817
N        6.84589632      11.40983781      16.91434487
N        9.12785864       2.28196466      10.00000000
N       11.40982330       0.00000000      10.00000000
N        9.12785864       0.00000000      12.28196466
N       11.40982330       2.28196466      12.28196466
N        9.12786743       2.28196299      14.58794319
N       11.40982807      -0.00000080      14.58787083
N        9.12783906       0.00000253      16.91429949
N       11.40980635       2.28197457      16.91437629
N        9.12785864       6.84589398      10.00000000
N       11.40982330       4.56392932      10.00000000
N        9.12785864       4.56392932      12.28196466
N       11.40982330       6.84589398      12.28196466
N        9.12786052       6.84588848      14.58784285
N       11.40982283       4.56391749      14.58790578
N        9.12786243       4.56392164      16.91435517
N       11.40983727       6.84589481      16.91434638
N        9.12785864      11.40982330      10.00000000
N       11.40982330       9.12785864      10.00000000
N        9.12785864       9.12785864      12.28196466
N       11.40982330      11.40982330      12.28196466
N        9.12787074      11.40982292      14.58789911
N       11.40982651       9.12786848      14.58790081
N        9.12786700       9.12786794      16.91441581
N       11.40980902      11.40981210      16.91437626
Li       4.56392207       4.56391886      19.11446282
