
     Program PWSCF v.7.5 starts on 23Feb2026 at 12:40:27 

     This program is part of the open-source Quantum ESPRESSO suite
     for quantum simulation of materials; please cite
         "P. Giannozzi et al., J. Phys.:Condens. Matter 21 395502 (2009);
         "P. Giannozzi et al., J. Phys.:Condens. Matter 29 465901 (2017);
         "P. Giannozzi et al., J. Chem. Phys. 152 154105 (2020);
          URL http://www.quantum-espresso.org", 
     in publications or presentations arising from this work. More details at
     http://www.quantum-espresso.org/quote

     Parallel version (MPI & OpenMP), running on      64 processor cores
     Number of MPI processes:                64
     Threads/MPI process:                     1

     MPI processes distributed on     1 nodes
     670151 MiB available memory on the printing compute node when the environment starts

     Waiting for input...
     Reading input from standard input

     Current dimensions of program PWSCF are:
     Max number of different atomic species (ntypx) = 10
     Max number of k-points (npk) =  40000
     Max angular momentum in pseudopotentials (lmaxx) =  4
     Found identity + (  0.1667  0.1667  0.0000) symmetry
     This is a supercell, fractional translations are disabled
     Message from routine setup:
     using ibrav=0 with symmetry is DISCOURAGED, use correct ibrav instead

     K-points division:     npool     =       4
     R & G space division:  proc/nbgrp/npool/nimage =      16
     Subspace diagonalization in iterative solution of the eigenvalue problem:
     one sub-group per band group will be used
     ELPA distributed-memory algorithm (size of sub-group:  4*  4 procs)


     Parallelization info
     --------------------
     sticks:   dense  smooth     PW     G-vecs:    dense   smooth      PW
     Min        1200     480    126               266998    67548    9180
     Max        1201     481    127               267007    67559    9191
     Sum       19213    7685   2025              4272073  1080831  146981

     Using Slab Decomposition



     bravais-lattice index     =            0
     lattice parameter (alat)  =      23.1672  a.u.
     unit-cell volume          =   26502.2854 (a.u.)^3
     number of atoms/cell      =          144
     number of atomic types    =            2
     number of electrons       =      1296.00
     number of Kohn-Sham states=          778
     kinetic-energy cutoff     =      45.0000  Ry
     charge density cutoff     =     450.0000  Ry
     scf convergence threshold =      5.0E-06
     mixing beta               =       0.2500
     number of iterations used =            8  plain     mixing
     energy convergence thresh.=      1.0E-04
     force convergence thresh. =      7.8E-04
     Exchange-correlation= SLA  PW   PBE  PBE
                           (   1   4   3   4   0   0   0)
     nstep                     =           50


     celldm(1)=  23.167240  celldm(2)=   0.000000  celldm(3)=   0.000000
     celldm(4)=   0.000000  celldm(5)=   0.000000  celldm(6)=   0.000000

     crystal axes: (cart. coord. in units of alat)
               a(1) = (   1.000000   0.000000   0.000000 )  
               a(2) = (   0.000000   1.000000   0.000000 )  
               a(3) = (   0.000000   0.000000   2.131378 )  

     reciprocal axes: (cart. coord. in units 2 pi/alat)
               b(1) = (  1.000000  0.000000  0.000000 )  
               b(2) = (  0.000000  1.000000  0.000000 )  
               b(3) = (  0.000000  0.000000  0.469180 )  


     PseudoPot. # 1 for V  read from file:
     /scratch/anizami/QE_2/USPP/v_pbe_v1.4.uspp.F.UPF
     MD5 check sum: 22b79981416ebb76fdaf5b1b8640f6fb
     Pseudo is Ultrasoft + core correction, Zval = 13.0
     Generated by new atomic code, or converted to UPF format
     Using radial grid of  853 points,  6 beta functions with: 
                l(1) =   0
                l(2) =   0
                l(3) =   1
                l(4) =   1
                l(5) =   2
                l(6) =   2
     Q(r) pseudized with  8 coefficients,  rinner =    1.100   1.100   1.100
                                                       1.100   1.100

     PseudoPot. # 2 for N  read from file:
     /scratch/anizami/QE_2/USPP/n_pbe_v1.2.uspp.F.UPF
     MD5 check sum: 95339753478d7afb44899504a8723017
     Pseudo is Ultrasoft + core correction, Zval =  5.0
     Generated by new atomic code, or converted to UPF format
     Using radial grid of  729 points,  4 beta functions with: 
                l(1) =   0
                l(2) =   0
                l(3) =   1
                l(4) =   1
     Q(r) pseudized with  8 coefficients,  rinner =    0.900   0.900   0.900


     atomic species   valence    mass     pseudopotential
     V                13.00     1.00000     V ( 1.00)
     N                 5.00    14.00674     N ( 1.00)

      8 Sym. Ops. (no inversion) found



   Cartesian axes

     site n.     atom                  positions (alat units)
         1        V      tau(   1) = (   0.0000000   0.0000000   0.8156889  )
         2        V      tau(   2) = (   0.1666667   0.0000000   0.9823556  )
         3        V      tau(   3) = (   0.0000000   0.1666667   0.9823556  )
         4        V      tau(   4) = (   0.1666667   0.1666667   0.8156889  )
         5        V      tau(   5) = (   0.0000000   0.0000000   1.1641888  )
         6        V      tau(   6) = (   0.1666667   0.0000000   1.3138975  )
         7        V      tau(   7) = (  -0.0000000   0.1666667   1.3138975  )
         8        V      tau(   8) = (   0.1666667   0.1666667   1.1641888  )
         9        V      tau(   9) = (   0.0000000   0.3333333   0.8156889  )
        10        V      tau(  10) = (   0.1666667   0.3333333   0.9823556  )
        11        V      tau(  11) = (   0.0000000   0.5000000   0.9823556  )
        12        V      tau(  12) = (   0.1666667   0.5000000   0.8156889  )
        13        V      tau(  13) = (   0.0000000   0.3333333   1.1641888  )
        14        V      tau(  14) = (   0.1666667   0.3333333   1.3138975  )
        15        V      tau(  15) = (  -0.0000000   0.5000000   1.3138975  )
        16        V      tau(  16) = (   0.1666667   0.5000000   1.1641888  )
        17        V      tau(  17) = (   0.0000000   0.6666667   0.8156889  )
        18        V      tau(  18) = (   0.1666667   0.6666667   0.9823556  )
        19        V      tau(  19) = (   0.0000000   0.8333333   0.9823556  )
        20        V      tau(  20) = (   0.1666667   0.8333333   0.8156889  )
        21        V      tau(  21) = (  -0.0000000   0.6666666   1.1641888  )
        22        V      tau(  22) = (   0.1666667   0.6666667   1.3138975  )
        23        V      tau(  23) = (  -0.0000000   0.8333333   1.3138975  )
        24        V      tau(  24) = (   0.1666667   0.8333333   1.1641888  )
        25        V      tau(  25) = (   0.3333333   0.0000000   0.8156889  )
        26        V      tau(  26) = (   0.5000000   0.0000000   0.9823556  )
        27        V      tau(  27) = (   0.3333333   0.1666667   0.9823556  )
        28        V      tau(  28) = (   0.5000000   0.1666667   0.8156889  )
        29        V      tau(  29) = (   0.3333333   0.0000000   1.1641888  )
        30        V      tau(  30) = (   0.5000000   0.0000000   1.3138975  )
        31        V      tau(  31) = (   0.3333333   0.1666667   1.3138975  )
        32        V      tau(  32) = (   0.5000000   0.1666667   1.1641888  )
        33        V      tau(  33) = (   0.3333333   0.3333333   0.8156889  )
        34        V      tau(  34) = (   0.5000000   0.3333333   0.9823556  )
        35        V      tau(  35) = (   0.3333333   0.5000000   0.9823556  )
        36        V      tau(  36) = (   0.5000000   0.5000000   0.8156889  )
        37        V      tau(  37) = (   0.3333333   0.3333333   1.1641888  )
        38        V      tau(  38) = (   0.5000000   0.3333333   1.3138975  )
        39        V      tau(  39) = (   0.3333333   0.5000000   1.3138975  )
        40        V      tau(  40) = (   0.5000000   0.5000000   1.1641888  )
        41        V      tau(  41) = (   0.3333333   0.6666667   0.8156889  )
        42        V      tau(  42) = (   0.5000000   0.6666667   0.9823556  )
        43        V      tau(  43) = (   0.3333333   0.8333333   0.9823556  )
        44        V      tau(  44) = (   0.5000000   0.8333333   0.8156889  )
        45        V      tau(  45) = (   0.3333333   0.6666667   1.1641888  )
        46        V      tau(  46) = (   0.5000000   0.6666667   1.3138975  )
        47        V      tau(  47) = (   0.3333333   0.8333333   1.3138975  )
        48        V      tau(  48) = (   0.5000000   0.8333333   1.1641888  )
        49        V      tau(  49) = (   0.6666667   0.0000000   0.8156889  )
        50        V      tau(  50) = (   0.8333333   0.0000000   0.9823556  )
        51        V      tau(  51) = (   0.6666667   0.1666667   0.9823556  )
        52        V      tau(  52) = (   0.8333333   0.1666667   0.8156889  )
        53        V      tau(  53) = (   0.6666667   0.0000000   1.1641888  )
        54        V      tau(  54) = (   0.8333333   0.0000000   1.3138975  )
        55        V      tau(  55) = (   0.6666667   0.1666667   1.3138975  )
        56        V      tau(  56) = (   0.8333333   0.1666667   1.1641888  )
        57        V      tau(  57) = (   0.6666667   0.3333333   0.8156889  )
        58        V      tau(  58) = (   0.8333333   0.3333333   0.9823556  )
        59        V      tau(  59) = (   0.6666667   0.5000000   0.9823556  )
        60        V      tau(  60) = (   0.8333333   0.5000000   0.8156889  )
        61        V      tau(  61) = (   0.6666666   0.3333333   1.1641888  )
        62        V      tau(  62) = (   0.8333333   0.3333333   1.3138975  )
        63        V      tau(  63) = (   0.6666667   0.5000000   1.3138975  )
        64        V      tau(  64) = (   0.8333333   0.5000000   1.1641888  )
        65        V      tau(  65) = (   0.6666667   0.6666667   0.8156889  )
        66        V      tau(  66) = (   0.8333333   0.6666667   0.9823556  )
        67        V      tau(  67) = (   0.6666667   0.8333333   0.9823556  )
        68        V      tau(  68) = (   0.8333333   0.8333333   0.8156889  )
        69        V      tau(  69) = (   0.6666667   0.6666667   1.1641888  )
        70        V      tau(  70) = (   0.8333333   0.6666667   1.3138975  )
        71        V      tau(  71) = (   0.6666667   0.8333333   1.3138975  )
        72        V      tau(  72) = (   0.8333333   0.8333333   1.1641888  )
        73        N      tau(  73) = (   0.0000000   0.1666667   0.8156889  )
        74        N      tau(  74) = (   0.1666667   0.0000000   0.8156889  )
        75        N      tau(  75) = (   0.0000000   0.0000000   0.9823556  )
        76        N      tau(  76) = (   0.1666667   0.1666667   0.9823556  )
        77        N      tau(  77) = (   0.0000000   0.1666667   1.1539696  )
        78        N      tau(  78) = (   0.1666667   0.0000000   1.1539696  )
        79        N      tau(  79) = (  -0.0000000  -0.0000000   1.3331703  )
        80        N      tau(  80) = (   0.1666667   0.1666667   1.3331704  )
        81        N      tau(  81) = (   0.0000000   0.5000000   0.8156889  )
        82        N      tau(  82) = (   0.1666667   0.3333333   0.8156889  )
        83        N      tau(  83) = (   0.0000000   0.3333333   0.9823556  )
        84        N      tau(  84) = (   0.1666667   0.5000000   0.9823556  )
        85        N      tau(  85) = (  -0.0000000   0.5000000   1.1539696  )
        86        N      tau(  86) = (   0.1666667   0.3333333   1.1539696  )
        87        N      tau(  87) = (  -0.0000000   0.3333333   1.3331703  )
        88        N      tau(  88) = (   0.1666667   0.5000000   1.3331703  )
        89        N      tau(  89) = (   0.0000000   0.8333333   0.8156889  )
        90        N      tau(  90) = (   0.1666667   0.6666667   0.8156889  )
        91        N      tau(  91) = (   0.0000000   0.6666667   0.9823556  )
        92        N      tau(  92) = (   0.1666667   0.8333333   0.9823556  )
        93        N      tau(  93) = (   0.0000000   0.8333333   1.1539696  )
        94        N      tau(  94) = (   0.1666667   0.6666667   1.1539696  )
        95        N      tau(  95) = (   0.0000000   0.6666667   1.3331703  )
        96        N      tau(  96) = (   0.1666667   0.8333333   1.3331704  )
        97        N      tau(  97) = (   0.3333333   0.1666667   0.8156889  )
        98        N      tau(  98) = (   0.5000000   0.0000000   0.8156889  )
        99        N      tau(  99) = (   0.3333333   0.0000000   0.9823556  )
       100        N      tau( 100) = (   0.5000000   0.1666667   0.9823556  )
       101        N      tau( 101) = (   0.3333333   0.1666667   1.1539696  )
       102        N      tau( 102) = (   0.5000000   0.0000000   1.1539696  )
       103        N      tau( 103) = (   0.3333333  -0.0000000   1.3331704  )
       104        N      tau( 104) = (   0.5000000   0.1666667   1.3331704  )
       105        N      tau( 105) = (   0.3333333   0.5000000   0.8156889  )
       106        N      tau( 106) = (   0.5000000   0.3333333   0.8156889  )
       107        N      tau( 107) = (   0.3333333   0.3333333   0.9823556  )
       108        N      tau( 108) = (   0.5000000   0.5000000   0.9823556  )
       109        N      tau( 109) = (   0.3333333   0.5000000   1.1539696  )
       110        N      tau( 110) = (   0.5000000   0.3333333   1.1539696  )
       111        N      tau( 111) = (   0.3333333   0.3333333   1.3331704  )
       112        N      tau( 112) = (   0.5000000   0.5000000   1.3331704  )
       113        N      tau( 113) = (   0.3333333   0.8333333   0.8156889  )
       114        N      tau( 114) = (   0.5000000   0.6666667   0.8156889  )
       115        N      tau( 115) = (   0.3333333   0.6666667   0.9823556  )
       116        N      tau( 116) = (   0.5000000   0.8333333   0.9823556  )
       117        N      tau( 117) = (   0.3333333   0.8333333   1.1539696  )
       118        N      tau( 118) = (   0.5000000   0.6666667   1.1539696  )
       119        N      tau( 119) = (   0.3333333   0.6666667   1.3331703  )
       120        N      tau( 120) = (   0.5000000   0.8333333   1.3331704  )
       121        N      tau( 121) = (   0.6666667   0.1666667   0.8156889  )
       122        N      tau( 122) = (   0.8333333   0.0000000   0.8156889  )
       123        N      tau( 123) = (   0.6666667   0.0000000   0.9823556  )
       124        N      tau( 124) = (   0.8333333   0.1666667   0.9823556  )
       125        N      tau( 125) = (   0.6666667   0.1666667   1.1539696  )
       126        N      tau( 126) = (   0.8333333  -0.0000000   1.1539696  )
       127        N      tau( 127) = (   0.6666667   0.0000000   1.3331704  )
       128        N      tau( 128) = (   0.8333333   0.1666667   1.3331704  )
       129        N      tau( 129) = (   0.6666667   0.5000000   0.8156889  )
       130        N      tau( 130) = (   0.8333333   0.3333333   0.8156889  )
       131        N      tau( 131) = (   0.6666667   0.3333333   0.9823556  )
       132        N      tau( 132) = (   0.8333333   0.5000000   0.9823556  )
       133        N      tau( 133) = (   0.6666667   0.5000000   1.1539696  )
       134        N      tau( 134) = (   0.8333333   0.3333333   1.1539696  )
       135        N      tau( 135) = (   0.6666667   0.3333333   1.3331703  )
       136        N      tau( 136) = (   0.8333333   0.5000000   1.3331703  )
       137        N      tau( 137) = (   0.6666667   0.8333333   0.8156889  )
       138        N      tau( 138) = (   0.8333333   0.6666667   0.8156889  )
       139        N      tau( 139) = (   0.6666667   0.6666667   0.9823556  )
       140        N      tau( 140) = (   0.8333333   0.8333333   0.9823556  )
       141        N      tau( 141) = (   0.6666667   0.8333333   1.1539696  )
       142        N      tau( 142) = (   0.8333333   0.6666667   1.1539696  )
       143        N      tau( 143) = (   0.6666667   0.6666667   1.3331703  )
       144        N      tau( 144) = (   0.8333333   0.8333333   1.3331704  )

     --------------------------------------------
     DFT-D3 Dispersion Correction (3-body terms):
     --------------------------------------------
       Reference C6 values for interpolation: 

         atom   Coordination number   C6
         N          0.000            50.54
         N          0.994            44.25
         N          2.014            39.35
         N          2.990            31.16
         V          0.000          2232.20
         V          1.914           580.29
         V          2.911           538.67

       Values used:

         atom   Coordination number  R0_AB[au]  C6      C8
         V         12.116            3.516    538.67  59684.75
         V         16.155            3.516    538.67  59684.75
         V         16.155            3.516    538.67  59684.75
         V         12.116            3.516    538.67  59684.75
         V         16.371            3.516    538.67  59684.75
         V         12.457            3.516    538.67  59684.75
         V         12.457            3.516    538.67  59684.75
         V         16.371            3.516    538.67  59684.75
         V         12.116            3.516    538.67  59684.75
         V         16.155            3.516    538.67  59684.75
         V         16.155            3.516    538.67  59684.75
         V         12.116            3.516    538.67  59684.75
         V         16.371            3.516    538.67  59684.75
         V         12.457            3.516    538.67  59684.75
         V         12.457            3.516    538.67  59684.75
         V         16.371            3.516    538.67  59684.75
         V         12.116            3.516    538.67  59684.75
         V         16.155            3.516    538.67  59684.75
         V         16.155            3.516    538.67  59684.75
         V         12.116            3.516    538.67  59684.75
         V         16.371            3.516    538.67  59684.75
         V         12.457            3.516    538.67  59684.75
         V         12.457            3.516    538.67  59684.75
         V         16.371            3.516    538.67  59684.75
         V         12.116            3.516    538.67  59684.75
         V         16.155            3.516    538.67  59684.75
         V         16.155            3.516    538.67  59684.75
         V         12.116            3.516    538.67  59684.75
         V         16.371            3.516    538.67  59684.75
         V         12.457            3.516    538.67  59684.75
         V         12.457            3.516    538.67  59684.75
         V         16.371            3.516    538.67  59684.75
         V         12.116            3.516    538.67  59684.75
         V         16.155            3.516    538.67  59684.75
         V         16.155            3.516    538.67  59684.75
         V         12.116            3.516    538.67  59684.75
         V         16.371            3.516    538.67  59684.75
         V         12.457            3.516    538.67  59684.75
         V         12.457            3.516    538.67  59684.75
         V         16.371            3.516    538.67  59684.75
         V         12.116            3.516    538.67  59684.75
         V         16.155            3.516    538.67  59684.75
         V         16.155            3.516    538.67  59684.75
         V         12.116            3.516    538.67  59684.75
         V         16.371            3.516    538.67  59684.75
         V         12.457            3.516    538.67  59684.75
         V         12.457            3.516    538.67  59684.75
         V         16.371            3.516    538.67  59684.75
         V         12.116            3.516    538.67  59684.75
         V         16.155            3.516    538.67  59684.75
         V         16.155            3.516    538.67  59684.75
         V         12.116            3.516    538.67  59684.75
         V         16.371            3.516    538.67  59684.75
         V         12.457            3.516    538.67  59684.75
         V         12.457            3.516    538.67  59684.75
         V         16.371            3.516    538.67  59684.75
         V         12.116            3.516    538.67  59684.75
         V         16.155            3.516    538.67  59684.75
         V         16.155            3.516    538.67  59684.75
         V         12.116            3.516    538.67  59684.75
         V         16.371            3.516    538.67  59684.75
         V         12.457            3.516    538.67  59684.75
         V         12.457            3.516    538.67  59684.75
         V         16.371            3.516    538.67  59684.75
         V         12.116            3.516    538.67  59684.75
         V         16.155            3.516    538.67  59684.75
         V         16.155            3.516    538.67  59684.75
         V         12.116            3.516    538.67  59684.75
         V         16.371            3.516    538.67  59684.75
         V         12.457            3.516    538.67  59684.75
         V         12.457            3.516    538.67  59684.75
         V         16.371            3.516    538.67  59684.75
         N          5.013            2.478     31.16    687.49
         N          5.013            2.478     31.16    687.49
         N          5.980            2.478     31.16    687.49
         N          5.980            2.478     31.16    687.49
         N          6.054            2.478     31.16    687.49
         N          6.054            2.478     31.16    687.49
         N          4.990            2.478     31.16    687.49
         N          4.990            2.478     31.16    687.49
         N          5.013            2.478     31.16    687.49
         N          5.013            2.478     31.16    687.49
         N          5.980            2.478     31.16    687.49
         N          5.980            2.478     31.16    687.49
         N          6.054            2.478     31.16    687.49
         N          6.054            2.478     31.16    687.49
         N          4.990            2.478     31.16    687.49
         N          4.990            2.478     31.16    687.49
         N          5.013            2.478     31.16    687.49
         N          5.013            2.478     31.16    687.49
         N          5.980            2.478     31.16    687.49
         N          5.980            2.478     31.16    687.49
         N          6.054            2.478     31.16    687.49
         N          6.054            2.478     31.16    687.49
         N          4.990            2.478     31.16    687.49
         N          4.990            2.478     31.16    687.49
         N          5.013            2.478     31.16    687.49
         N          5.013            2.478     31.16    687.49
         N          5.980            2.478     31.16    687.49
         N          5.980            2.478     31.16    687.49
         N          6.054            2.478     31.16    687.49
         N          6.054            2.478     31.16    687.49
         N          4.990            2.478     31.16    687.49
         N          4.990            2.478     31.16    687.49
         N          5.013            2.478     31.16    687.49
         N          5.013            2.478     31.16    687.49
         N          5.980            2.478     31.16    687.49
         N          5.980            2.478     31.16    687.49
         N          6.054            2.478     31.16    687.49
         N          6.054            2.478     31.16    687.49
         N          4.990            2.478     31.16    687.49
         N          4.990            2.478     31.16    687.49
         N          5.013            2.478     31.16    687.49
         N          5.013            2.478     31.16    687.49
         N          5.980            2.478     31.16    687.49
         N          5.980            2.478     31.16    687.49
         N          6.054            2.478     31.16    687.49
         N          6.054            2.478     31.16    687.49
         N          4.990            2.478     31.16    687.49
         N          4.990            2.478     31.16    687.49
         N          5.013            2.478     31.16    687.49
         N          5.013            2.478     31.16    687.49
         N          5.980            2.478     31.16    687.49
         N          5.980            2.478     31.16    687.49
         N          6.054            2.478     31.16    687.49
         N          6.054            2.478     31.16    687.49
         N          4.990            2.478     31.16    687.49
         N          4.990            2.478     31.16    687.49
         N          5.013            2.478     31.16    687.49
         N          5.013            2.478     31.16    687.49
         N          5.980            2.478     31.16    687.49
         N          5.980            2.478     31.16    687.49
         N          6.054            2.478     31.16    687.49
         N          6.054            2.478     31.16    687.49
         N          4.990            2.478     31.16    687.49
         N          4.990            2.478     31.16    687.49
         N          5.013            2.478     31.16    687.49
         N          5.013            2.478     31.16    687.49
         N          5.980            2.478     31.16    687.49
         N          5.980            2.478     31.16    687.49
         N          6.054            2.478     31.16    687.49
         N          6.054            2.478     31.16    687.49
         N          4.990            2.478     31.16    687.49
         N          4.990            2.478     31.16    687.49

         Molecular C6 ( Ry / a.u.^6 ) =   4214419.89


     number of k points=     6  Marzari-Vanderbilt smearing, width (Ry)=  0.0150
                       cart. coord. in units 2pi/alat
        k(    1) = (   0.0000000   0.0000000   0.0000000), wk =   0.1250000
        k(    2) = (   0.0000000   0.2500000   0.0000000), wk =   0.5000000
        k(    3) = (   0.0000000  -0.5000000   0.0000000), wk =   0.2500000
        k(    4) = (   0.2500000   0.2500000   0.0000000), wk =   0.5000000
        k(    5) = (   0.2500000  -0.5000000   0.0000000), wk =   0.5000000
        k(    6) = (  -0.5000000  -0.5000000   0.0000000), wk =   0.1250000

     Dense  grid:  4272073 G-vectors     FFT dimensions: ( 160, 160, 360)

     Smooth grid:  1080831 G-vectors     FFT dimensions: ( 100, 100, 216)

     Estimated max dynamical RAM per process >       1.30 GB

     Estimated total dynamical RAM >      80.31 GB

     Check: negative core charge=   -0.000004

     Initial potential from superposition of free atoms

     starting charge    1295.9110, renormalised to    1296.0000

     negative rho (up, down):  4.722E-02 0.000E+00
     Starting wfcs are 1008 randomized atomic wfcs

     total cpu time spent up to now is       36.5 secs

     per-process dynamical memory:   767.1 Mb

     Self-consistent Calculation

     iteration #  1     ecut=    45.00 Ry     beta= 0.25
     Davidson diagonalization with overlap
     ethr =  1.00E-02,  avg # of iterations =  2.0

     negative rho (up, down):  6.389E-02 0.000E+00

     total cpu time spent up to now is      117.8 secs

     total energy              =  -11889.46699107 Ry
     estimated scf accuracy    <      78.80242464 Ry

     iteration #  2     ecut=    45.00 Ry     beta= 0.25
     Davidson diagonalization with overlap
     ethr =  6.08E-03,  avg # of iterations =  8.0

     negative rho (up, down):  6.358E-02 0.000E+00

     total cpu time spent up to now is      245.2 secs

     total energy              =  -11844.42722147 Ry
     estimated scf accuracy    <    2548.88190449 Ry

     iteration #  3     ecut=    45.00 Ry     beta= 0.25
     Davidson diagonalization with overlap
     ethr =  6.08E-03,  avg # of iterations = 12.0

     negative rho (up, down):  6.424E-02 0.000E+00

     total cpu time spent up to now is      347.2 secs

     total energy              =  -11880.85641648 Ry
     estimated scf accuracy    <    1190.98915315 Ry

     iteration #  4     ecut=    45.00 Ry     beta= 0.25
     Davidson diagonalization with overlap
     ethr =  6.08E-03,  avg # of iterations =  3.5

     negative rho (up, down):  6.329E-02 0.000E+00

     total cpu time spent up to now is      426.5 secs

     total energy              =  -11901.31627435 Ry
     estimated scf accuracy    <     176.02777649 Ry

     iteration #  5     ecut=    45.00 Ry     beta= 0.25
     Davidson diagonalization with overlap
     ethr =  6.08E-03,  avg # of iterations =  4.2

     negative rho (up, down):  6.346E-02 0.000E+00

     total cpu time spent up to now is      502.9 secs

     total energy              =  -11906.02700564 Ry
     estimated scf accuracy    <      55.82566999 Ry

     iteration #  6     ecut=    45.00 Ry     beta= 0.25
     Davidson diagonalization with overlap
     ethr =  4.31E-03,  avg # of iterations =  1.3

     negative rho (up, down):  6.697E-02 0.000E+00

     total cpu time spent up to now is      569.9 secs

     total energy              =  -11907.96952933 Ry
     estimated scf accuracy    <       1.24592960 Ry

     iteration #  7     ecut=    45.00 Ry     beta= 0.25
     Davidson diagonalization with overlap
     ethr =  9.61E-05,  avg # of iterations = 10.5

     negative rho (up, down):  6.858E-02 0.000E+00

     total cpu time spent up to now is      690.0 secs

     total energy              =  -11908.08209182 Ry
     estimated scf accuracy    <       0.99083632 Ry

     iteration #  8     ecut=    45.00 Ry     beta= 0.25
     Davidson diagonalization with overlap
     ethr =  7.65E-05,  avg # of iterations = 11.3

     negative rho (up, down):  7.026E-02 0.000E+00

     total cpu time spent up to now is      776.7 secs

     total energy              =  -11907.90612449 Ry
     estimated scf accuracy    <      12.28560582 Ry

     iteration #  9     ecut=    45.00 Ry     beta= 0.25
     Davidson diagonalization with overlap
     ethr =  7.65E-05,  avg # of iterations =  3.0

     negative rho (up, down):  7.252E-02 0.000E+00

     total cpu time spent up to now is      849.5 secs

     total energy              =  -11908.09972104 Ry
     estimated scf accuracy    <       0.26608220 Ry

     iteration # 10     ecut=    45.00 Ry     beta= 0.25
     Davidson diagonalization with overlap
     c_bands:  1 eigenvalues not converged
     ethr =  2.05E-05,  avg # of iterations = 17.8

     negative rho (up, down):  7.456E-02 0.000E+00

     total cpu time spent up to now is      988.7 secs

     total energy              =  -11908.07217457 Ry
     estimated scf accuracy    <       1.42824762 Ry

     iteration # 11     ecut=    45.00 Ry     beta= 0.25
     Davidson diagonalization with overlap
     ethr =  2.05E-05,  avg # of iterations =  6.2

     negative rho (up, down):  7.416E-02 0.000E+00

     total cpu time spent up to now is     1069.9 secs

     total energy              =  -11908.10251598 Ry
     estimated scf accuracy    <       0.53459380 Ry

     iteration # 12     ecut=    45.00 Ry     beta= 0.25
     Davidson diagonalization with overlap
     ethr =  2.05E-05,  avg # of iterations =  2.3

     negative rho (up, down):  7.381E-02 0.000E+00

     total cpu time spent up to now is     1142.9 secs

     total energy              =  -11908.10838582 Ry
     estimated scf accuracy    <       0.21218965 Ry

     iteration # 13     ecut=    45.00 Ry     beta= 0.25
     Davidson diagonalization with overlap
     ethr =  1.64E-05,  avg # of iterations = 11.2

     negative rho (up, down):  7.473E-02 0.000E+00

     total cpu time spent up to now is     1232.0 secs

     total energy              =  -11908.08942375 Ry
     estimated scf accuracy    <       2.77347368 Ry

     iteration # 14     ecut=    45.00 Ry     beta= 0.25
     Davidson diagonalization with overlap
     ethr =  1.64E-05,  avg # of iterations =  5.2

     negative rho (up, down):  7.547E-02 0.000E+00

     total cpu time spent up to now is     1311.2 secs

     total energy              =  -11908.11468539 Ry
     estimated scf accuracy    <       0.19720441 Ry

     iteration # 15     ecut=    45.00 Ry     beta= 0.25
     Davidson diagonalization with overlap
     ethr =  1.52E-05,  avg # of iterations =  3.5

     negative rho (up, down):  7.637E-02 0.000E+00

     total cpu time spent up to now is     1391.7 secs

     total energy              =  -11908.11643464 Ry
     estimated scf accuracy    <       0.30476877 Ry

     iteration # 16     ecut=    45.00 Ry     beta= 0.25
     Davidson diagonalization with overlap
     ethr =  1.52E-05,  avg # of iterations =  1.3

     negative rho (up, down):  7.672E-02 0.000E+00

     total cpu time spent up to now is     1457.1 secs

     total energy              =  -11908.12237889 Ry
     estimated scf accuracy    <       0.02906531 Ry

     iteration # 17     ecut=    45.00 Ry     beta= 0.25
     Davidson diagonalization with overlap
     ethr =  2.24E-06,  avg # of iterations = 22.0

     negative rho (up, down):  7.659E-02 0.000E+00

     total cpu time spent up to now is     1603.1 secs

     total energy              =  -11908.12137213 Ry
     estimated scf accuracy    <       0.08579804 Ry

     iteration # 18     ecut=    45.00 Ry     beta= 0.25
     Davidson diagonalization with overlap
     c_bands:  3 eigenvalues not converged
     c_bands:  1 eigenvalues not converged
     ethr =  2.24E-06,  avg # of iterations = 16.3

     negative rho (up, down):  7.634E-02 0.000E+00

     total cpu time spent up to now is     1698.5 secs

     total energy              =  -11908.12111141 Ry
     estimated scf accuracy    <       0.11040483 Ry

     iteration # 19     ecut=    45.00 Ry     beta= 0.25
     Davidson diagonalization with overlap
     ethr =  2.24E-06,  avg # of iterations =  6.2

     negative rho (up, down):  7.666E-02 0.000E+00

     total cpu time spent up to now is     1776.0 secs

     total energy              =  -11908.12285246 Ry
     estimated scf accuracy    <       0.02565720 Ry

     iteration # 20     ecut=    45.00 Ry     beta= 0.25
     Davidson diagonalization with overlap
     ethr =  1.98E-06,  avg # of iterations =  2.7

     negative rho (up, down):  7.693E-02 0.000E+00

     total cpu time spent up to now is     1848.2 secs

     total energy              =  -11908.12232783 Ry
     estimated scf accuracy    <       0.03294028 Ry

     iteration # 21     ecut=    45.00 Ry     beta= 0.25
     Davidson diagonalization with overlap
     ethr =  1.98E-06,  avg # of iterations =  2.2

     negative rho (up, down):  7.682E-02 0.000E+00

     total cpu time spent up to now is     1918.7 secs

     total energy              =  -11908.12281065 Ry
     estimated scf accuracy    <       0.03819771 Ry

     iteration # 22     ecut=    45.00 Ry     beta= 0.25
     Davidson diagonalization with overlap
     ethr =  1.98E-06,  avg # of iterations =  1.0

     negative rho (up, down):  7.685E-02 0.000E+00

     total cpu time spent up to now is     1980.8 secs

     total energy              =  -11908.12408979 Ry
     estimated scf accuracy    <       0.00100917 Ry

     iteration # 23     ecut=    45.00 Ry     beta= 0.25
     Davidson diagonalization with overlap
     ethr =  7.79E-08,  avg # of iterations =  7.8

     negative rho (up, down):  7.686E-02 0.000E+00

     total cpu time spent up to now is     2066.9 secs

     total energy              =  -11908.12400724 Ry
     estimated scf accuracy    <       0.00539421 Ry

     iteration # 24     ecut=    45.00 Ry     beta= 0.25
     Davidson diagonalization with overlap
     ethr =  7.79E-08,  avg # of iterations =  5.3

     negative rho (up, down):  7.692E-02 0.000E+00

     total cpu time spent up to now is     2140.7 secs

     total energy              =  -11908.12403095 Ry
     estimated scf accuracy    <       0.01587487 Ry

     iteration # 25     ecut=    45.00 Ry     beta= 0.25
     Davidson diagonalization with overlap
     ethr =  7.79E-08,  avg # of iterations =  5.0

     negative rho (up, down):  7.702E-02 0.000E+00

     total cpu time spent up to now is     2229.5 secs

     total energy              =  -11908.12421016 Ry
     estimated scf accuracy    <       0.00055945 Ry

     iteration # 26     ecut=    45.00 Ry     beta= 0.25
     Davidson diagonalization with overlap
     ethr =  4.32E-08,  avg # of iterations =  5.7

     negative rho (up, down):  7.707E-02 0.000E+00

     total cpu time spent up to now is     2312.1 secs

     total energy              =  -11908.12415710 Ry
     estimated scf accuracy    <       0.00340211 Ry

     iteration # 27     ecut=    45.00 Ry     beta= 0.25
     Davidson diagonalization with overlap
     ethr =  4.32E-08,  avg # of iterations =  5.3

     negative rho (up, down):  7.702E-02 0.000E+00

     total cpu time spent up to now is     2391.7 secs

     total energy              =  -11908.12419551 Ry
     estimated scf accuracy    <       0.00075214 Ry

     iteration # 28     ecut=    45.00 Ry     beta= 0.25
     Davidson diagonalization with overlap
     ethr =  4.32E-08,  avg # of iterations =  5.7

     negative rho (up, down):  7.704E-02 0.000E+00

     total cpu time spent up to now is     2469.8 secs

     total energy              =  -11908.12408903 Ry
     estimated scf accuracy    <       0.00656924 Ry

     iteration # 29     ecut=    45.00 Ry     beta= 0.25
     Davidson diagonalization with overlap
     ethr =  4.32E-08,  avg # of iterations =  5.5

     negative rho (up, down):  7.708E-02 0.000E+00

     total cpu time spent up to now is     2547.5 secs

     total energy              =  -11908.12414313 Ry
     estimated scf accuracy    <       0.00483772 Ry

     iteration # 30     ecut=    45.00 Ry     beta= 0.25
     Davidson diagonalization with overlap
     ethr =  4.32E-08,  avg # of iterations =  5.0

     negative rho (up, down):  7.712E-02 0.000E+00

     total cpu time spent up to now is     2620.1 secs

     total energy              =  -11908.12425170 Ry
     estimated scf accuracy    <       0.00025859 Ry

     iteration # 31     ecut=    45.00 Ry     beta= 0.25
     Davidson diagonalization with overlap
     ethr =  2.00E-08,  avg # of iterations =  5.0

     negative rho (up, down):  7.711E-02 0.000E+00

     total cpu time spent up to now is     2696.9 secs

     total energy              =  -11908.12426162 Ry
     estimated scf accuracy    <       0.00012793 Ry

     iteration # 32     ecut=    45.00 Ry     beta= 0.25
     Davidson diagonalization with overlap
     ethr =  9.87E-09,  avg # of iterations =  5.0

     negative rho (up, down):  7.714E-02 0.000E+00

     total cpu time spent up to now is     2770.1 secs

     total energy              =  -11908.12426266 Ry
     estimated scf accuracy    <       0.00030085 Ry

     iteration # 33     ecut=    45.00 Ry     beta= 0.25
     Davidson diagonalization with overlap
     ethr =  9.87E-09,  avg # of iterations =  1.8

     negative rho (up, down):  7.712E-02 0.000E+00

     total cpu time spent up to now is     2849.7 secs

     total energy              =  -11908.12426525 Ry
     estimated scf accuracy    <       0.00005953 Ry

     iteration # 34     ecut=    45.00 Ry     beta= 0.25
     Davidson diagonalization with overlap
     ethr =  4.59E-09,  avg # of iterations =  6.0

     negative rho (up, down):  7.712E-02 0.000E+00

     total cpu time spent up to now is     2926.5 secs

     total energy              =  -11908.12424880 Ry
     estimated scf accuracy    <       0.00211569 Ry

     iteration # 35     ecut=    45.00 Ry     beta= 0.25
     Davidson diagonalization with overlap
     ethr =  4.59E-09,  avg # of iterations =  5.7

     negative rho (up, down):  7.713E-02 0.000E+00

     total cpu time spent up to now is     3002.5 secs

     total energy              =  -11908.12426969 Ry
     estimated scf accuracy    <       0.00007823 Ry

     iteration # 36     ecut=    45.00 Ry     beta= 0.25
     Davidson diagonalization with overlap
     ethr =  4.59E-09,  avg # of iterations =  2.0

     negative rho (up, down):  7.713E-02 0.000E+00

     total cpu time spent up to now is     3073.3 secs

     total energy              =  -11908.12427193 Ry
     estimated scf accuracy    <       0.00001507 Ry

     iteration # 37     ecut=    45.00 Ry     beta= 0.25
     Davidson diagonalization with overlap
     ethr =  1.16E-09,  avg # of iterations =  5.0

     negative rho (up, down):  7.714E-02 0.000E+00

     total cpu time spent up to now is     3148.4 secs

     total energy              =  -11908.12427299 Ry
     estimated scf accuracy    <       0.00000911 Ry

     iteration # 38     ecut=    45.00 Ry     beta= 0.25
     Davidson diagonalization with overlap
     ethr =  7.03E-10,  avg # of iterations =  5.3

     negative rho (up, down):  7.715E-02 0.000E+00

     total cpu time spent up to now is     3224.0 secs

     total energy              =  -11908.12427248 Ry
     estimated scf accuracy    <       0.00006027 Ry

     iteration # 39     ecut=    45.00 Ry     beta= 0.25
     Davidson diagonalization with overlap
     ethr =  7.03E-10,  avg # of iterations =  4.0

     negative rho (up, down):  7.714E-02 0.000E+00

     total cpu time spent up to now is     3298.9 secs

     total energy              =  -11908.12427282 Ry
     estimated scf accuracy    <       0.00000754 Ry

     iteration # 40     ecut=    45.00 Ry     beta= 0.25
     Davidson diagonalization with overlap
     ethr =  5.82E-10,  avg # of iterations =  5.0

     negative rho (up, down):  7.714E-02 0.000E+00

     total cpu time spent up to now is     3375.5 secs

     total energy              =  -11908.12427309 Ry
     estimated scf accuracy    <       0.00001446 Ry

     iteration # 41     ecut=    45.00 Ry     beta= 0.25
     Davidson diagonalization with overlap
     ethr =  5.82E-10,  avg # of iterations =  3.0

     negative rho (up, down):  7.715E-02 0.000E+00

     total cpu time spent up to now is     3448.1 secs

     total energy              =  -11908.12427373 Ry
     estimated scf accuracy    <       0.00001049 Ry

     iteration # 42     ecut=    45.00 Ry     beta= 0.25
     Davidson diagonalization with overlap
     ethr =  5.82E-10,  avg # of iterations =  1.7

     negative rho (up, down):  7.715E-02 0.000E+00

     total cpu time spent up to now is     3519.0 secs

     End of self-consistent calculation

          k = 0.0000 0.0000 0.0000 (135157 PWs)   bands (ev):

   -61.8474 -61.8289 -61.8289 -61.8289 -61.8288 -61.8180 -61.8180 -61.8180
   -61.8180 -61.8009 -61.8009 -61.8009 -61.8009 -61.7952 -61.7952 -61.7952
   -61.7952 -61.7808 -61.7693 -61.7592 -61.7592 -61.7592 -61.7592 -61.7562
   -61.7557 -61.7557 -61.7557 -61.7557 -61.7455 -61.7455 -61.7455 -61.7455
   -61.7382 -61.7382 -61.7382 -61.7382 -61.7323 -61.7322 -61.7322 -61.7321
   -61.7258 -61.7143 -61.7143 -61.7143 -61.7143 -61.6852 -61.6852 -61.6851
   -61.6850 -61.6841 -61.6841 -61.6841 -61.6841 -61.6654 -61.6637 -61.6634
   -61.6634 -61.6634 -61.6611 -61.6609 -61.6609 -61.6609 -61.6578 -61.6562
   -61.6562 -61.6562 -61.6560 -61.6513 -61.6512 -61.6512 -61.6510 -61.6431
   -35.9309 -35.9309 -35.9309 -35.9309 -35.9019 -35.9019 -35.9003 -35.9003
   -35.9002 -35.9002 -35.8857 -35.8857 -35.8857 -35.8857 -35.8671 -35.8671
   -35.8670 -35.8670 -35.8493 -35.8493 -35.8492 -35.8492 -35.8425 -35.8425
   -35.8425 -35.8425 -35.8424 -35.8424 -35.8366 -35.8365 -35.8365 -35.8365
   -35.8286 -35.8286 -35.8286 -35.8286 -35.8125 -35.8125 -35.8125 -35.8125
   -35.7992 -35.7992 -35.7992 -35.7991 -35.7946 -35.7823 -35.7822 -35.7822
   -35.7822 -35.7781 -35.7781 -35.7781 -35.7781 -35.7723 -35.7723 -35.7723
   -35.7723 -35.7482 -35.7482 -35.7482 -35.7482 -35.7360 -35.7360 -35.7360
   -35.7359 -35.7247 -35.7247 -35.7064 -35.7064 -35.7064 -35.7064 -35.6948
   -35.6948 -35.6947 -35.6947 -35.6741 -35.6741 -35.6741 -35.6741 -35.6704
   -35.6664 -35.6664 -35.6664 -35.6663 -35.6476 -35.6476 -35.6476 -35.6476
   -35.6418 -35.6418 -35.6405 -35.6405 -35.6405 -35.6405 -35.6378 -35.6327
   -35.6327 -35.6327 -35.6326 -35.6258 -35.6258 -35.6258 -35.6258 -35.6066
   -35.6066 -35.6066 -35.6066 -35.6062 -35.6062 -35.5963 -35.5963 -35.5963
   -35.5963 -35.5937 -35.5937 -35.5937 -35.5937 -35.5813 -35.5813 -35.5763
   -35.5763 -35.5762 -35.5762 -35.5724 -35.5724 -35.5724 -35.5724 -35.5716
   -35.5716 -35.5716 -35.5716 -35.5611 -35.5606 -35.5606 -35.5606 -35.5606
   -35.5526 -35.5526 -35.5525 -35.5525 -35.5391 -35.5391 -35.5391 -35.5391
   -35.5324 -35.5308 -35.5308 -35.5307 -35.5307 -35.5291 -35.5291 -35.5291
   -35.5291 -35.5246 -35.5246 -35.5246 -35.5246 -35.5212 -35.5212 -35.5182
   -35.5182 -35.5181 -35.5181 -35.5163 -35.5163 -35.5163 -35.5163 -35.5080
   -35.5080 -35.5080 -35.5080 -35.5014 -35.4797 -35.4797 -35.4797 -35.4797
   -35.4694 -35.4694 -35.4694 -35.4694 -35.4584 -35.4584 -35.4584 -35.4584
   -35.4542 -35.4542 -35.4541 -35.4541 -35.4454 -35.4364 -35.4364 -35.4363
   -35.4363 -35.4341 -35.4341 -35.4341 -35.4340 -35.4238 -35.4238 -35.3922
   -35.3920 -35.3919 -35.3919 -35.3850 -35.3849 -35.3849 -35.3848 -35.3567
   -35.3566 -35.3565 -35.3565 -35.3562 -35.3388 -35.3387 -35.3387 -35.3386
   -14.1052 -13.4460 -13.4460 -13.4460 -13.4460 -13.2856 -12.8424 -12.8424
   -12.8424 -12.8424 -12.7078 -12.7078 -12.7078 -12.7077 -12.5981 -12.5834
   -12.5834 -12.5834 -12.5834 -12.4800 -12.4252 -12.4122 -12.2482 -12.2482
   -12.2482 -12.2482 -12.2416 -12.2416 -12.2416 -12.2416 -12.2211 -12.2211
   -12.2211 -12.2211 -12.0621 -12.0621 -12.0621 -12.0621 -12.0084 -12.0084
   -12.0084 -12.0084 -11.9169 -11.9169 -11.9169 -11.9168 -11.7944 -11.6513
   -11.6513 -11.6513 -11.6513 -11.6162 -11.6162 -11.6162 -11.6162 -11.5764
   -11.4683 -11.4683 -11.4683 -11.4683 -11.4489 -11.4489 -11.4489 -11.4489
   -11.4099 -11.4099 -11.4099 -11.4099 -11.2121 -11.2121 -11.2120 -11.2120
    -4.5348  -4.5348  -4.5347  -4.5347  -4.3542  -4.3542  -4.3542  -4.3542
    -4.2163  -4.2163  -4.2162  -4.2162  -4.1335  -4.1335  -4.1335  -4.1335
    -3.7916  -3.7916  -3.7916  -3.7916  -3.6709  -3.6709  -3.6709  -3.6709
    -3.5242  -3.5242  -3.5242  -3.5242  -3.4987  -3.4987  -3.4987  -3.4987
    -3.4878  -3.4878  -3.4877  -3.4877  -3.4634  -3.2144  -3.2144  -3.2144
    -3.2144  -3.0189  -3.0189  -3.0189  -3.0189  -2.9922  -2.9922  -2.9871
    -2.9871  -2.9871  -2.9871  -2.9367  -2.9367  -2.9367  -2.9366  -2.8369
    -2.8369  -2.8369  -2.8369  -2.5864  -2.5864  -2.5864  -2.5864  -2.4417
    -2.4417  -2.4198  -2.4198  -2.4198  -2.4198  -2.3481  -2.3027  -2.3027
    -2.3027  -2.3027  -2.2761  -2.2761  -2.2761  -2.2761  -2.2694  -2.2694
    -2.2694  -2.2694  -2.1952  -2.1952  -2.1951  -2.1951  -2.1630  -2.1630
    -2.1629  -2.1629  -2.1319  -2.1319  -2.1319  -2.1319  -2.0132  -2.0132
    -2.0132  -2.0132  -2.0097  -2.0097  -2.0097  -2.0097  -2.0075  -2.0074
    -2.0074  -2.0074  -1.9829  -1.9829  -1.9829  -1.9829  -1.8837  -1.8837
    -1.8837  -1.8837  -1.8111  -1.8111  -1.8111  -1.8111  -1.7961  -1.7961
    -1.7960  -1.7960  -1.7799  -1.7246  -1.7246  -1.7246  -1.7246  -1.6711
    -1.6711  -1.6711  -1.6711  -1.6603  -1.6603  -1.6603  -1.6603  -1.5603
    -1.5603  -1.5392  -1.5392  -1.5392  -1.5392  -1.5288  -1.5288  -1.5288
    -1.5288  -1.4468  -1.4468  -1.4468  -1.4468  -1.4275  -1.3763  -1.3763
    -1.3762  -1.3762  -1.3666  -1.3284  -1.3283  -1.3283  -1.3283  -1.3259
    -1.3259  -1.3259  -1.3259  -1.3168  -1.3168  -1.3168  -1.3167  -1.2021
    -1.2021  -1.2021  -1.2021  -1.1677  -1.1677  -1.1677  -1.1677  -1.0154
    -1.0154  -1.0154  -1.0154  -0.8811  -0.8811  -0.8811  -0.8811  -0.7376
    -0.7376  -0.7376  -0.7376  -0.7299  -0.7299  -0.7148  -0.7148  -0.7148
    -0.7148  -0.5483  -0.5483  -0.5483  -0.5483  -0.3301  -0.3301  -0.3301
    -0.3301  -0.2988  -0.1814  -0.1814  -0.1814  -0.1814  -0.1781  -0.1781
    -0.1311   0.1662   0.1662   0.1786   0.3583   0.3723   0.6095   0.6095
     0.9397   0.9397   0.9863   0.9863   0.9863   0.9863   1.2039   1.2039
     1.3802   1.8681   1.9290   1.9290   1.9290   1.9290   2.2391   2.2391
     2.4456   2.4456   2.4456   2.4456   2.5991   2.5992   2.5992   2.5992
     2.6280   2.6280   2.6280   2.6280   2.6379   2.6379   2.7319   2.7319
     2.7319   2.7319   2.7349   2.7350   2.7350   2.7351   2.7876   2.7876
     2.7876   2.7876   2.9842   3.1480   3.1480   3.1480   3.1480   3.2012
     3.2012   3.2012   3.2012   3.2036   3.2700   3.2700   3.2700   3.2701
     3.2848   3.2848   3.2849   3.2849   3.3419   3.3420   3.3420   3.3420
     3.3597   3.3597   3.3597   3.3597   3.3978   3.3978   3.3979   3.3979
     3.4137   3.4403   3.4403   3.4403   3.4403   3.4467   3.4467   3.4467
     3.4467   3.4548   3.4548   3.4548   3.4548   3.5207   3.5207   3.5207
     3.5207   3.5948   3.5948   3.5948   3.5948   3.6740   3.6740   3.7344
     3.7344   3.7344   3.7344   3.7833   3.7833   3.7833   3.7833   3.8816
     3.9244   3.9245   3.9245   3.9245   4.0058   4.0058   4.0058   4.0058
     4.0377   4.0377   4.0377   4.0377   4.0956   4.0956   4.0956   4.0956
     4.1090   4.1090   4.1090   4.1090   4.1247   4.1683   4.1683   4.2279
     4.2279   4.2279   4.2279   4.2559   4.2559   4.2559   4.2560   4.2680
     4.2680   4.2680   4.2680   4.3262   4.3733   4.3733   4.3733   4.3733
     4.3983   4.4173   4.4174   4.4175   4.4175   4.4602   4.4602   4.4603
     4.4603   4.5037   4.5037   4.5037   4.5037   4.5312   4.5312   4.5312
     4.5312   4.5502   4.5502   4.5502   4.5503   4.5538   4.5538   4.5538
     4.5538   4.6075   4.6075   4.6075   4.6075   4.6190   4.6361   4.6361
     4.6361   4.6361   4.6463   4.6463   4.6463   4.6463   4.6937   4.6937
     4.7532   4.7532   4.7532   4.7533   4.8023   4.8023   4.8023   4.8024
     4.8098   4.8684   4.8684   4.8685   4.8686   4.8750   4.9120   4.9375
     4.9375   4.9375

          k = 0.0000 0.2500 0.0000 (135097 PWs)   bands (ev):

   -61.8461 -61.8364 -61.8281 -61.8281 -61.8223 -61.8223 -61.8203 -61.8132
   -61.8132 -61.8044 -61.8044 -61.8028 -61.7983 -61.7983 -61.7955 -61.7955
   -61.7890 -61.7817 -61.7685 -61.7633 -61.7590 -61.7590 -61.7572 -61.7572
   -61.7546 -61.7544 -61.7537 -61.7537 -61.7485 -61.7485 -61.7436 -61.7426
   -61.7426 -61.7423 -61.7387 -61.7387 -61.7332 -61.7310 -61.7309 -61.7267
   -61.7217 -61.7216 -61.7203 -61.7059 -61.7058 -61.6952 -61.6899 -61.6898
   -61.6840 -61.6839 -61.6836 -61.6835 -61.6753 -61.6664 -61.6653 -61.6652
   -61.6630 -61.6630 -61.6596 -61.6595 -61.6590 -61.6590 -61.6577 -61.6569
   -61.6565 -61.6565 -61.6553 -61.6529 -61.6523 -61.6522 -61.6489 -61.6440
   -35.9356 -35.9356 -35.9161 -35.9161 -35.9122 -35.9122 -35.9081 -35.9081
   -35.8976 -35.8975 -35.8910 -35.8910 -35.8822 -35.8822 -35.8656 -35.8656
   -35.8656 -35.8636 -35.8521 -35.8521 -35.8498 -35.8498 -35.8412 -35.8412
   -35.8410 -35.8381 -35.8355 -35.8355 -35.8306 -35.8306 -35.8289 -35.8289
   -35.8275 -35.8241 -35.8241 -35.8218 -35.8217 -35.8203 -35.8196 -35.8196
   -35.8051 -35.8048 -35.7990 -35.7990 -35.7931 -35.7913 -35.7913 -35.7906
   -35.7905 -35.7905 -35.7873 -35.7843 -35.7701 -35.7700 -35.7631 -35.7631
   -35.7522 -35.7484 -35.7469 -35.7431 -35.7421 -35.7421 -35.7377 -35.7290
   -35.7289 -35.7279 -35.7213 -35.7200 -35.7170 -35.7124 -35.7123 -35.6951
   -35.6942 -35.6942 -35.6796 -35.6793 -35.6793 -35.6690 -35.6687 -35.6687
   -35.6684 -35.6676 -35.6676 -35.6562 -35.6517 -35.6517 -35.6497 -35.6496
   -35.6489 -35.6489 -35.6462 -35.6396 -35.6369 -35.6270 -35.6270 -35.6202
   -35.6187 -35.6187 -35.6187 -35.6187 -35.6174 -35.6158 -35.6158 -35.6108
   -35.6087 -35.6079 -35.6079 -35.6072 -35.6072 -35.6063 -35.6040 -35.6040
   -35.6031 -35.5978 -35.5978 -35.5972 -35.5972 -35.5969 -35.5931 -35.5916
   -35.5916 -35.5913 -35.5862 -35.5862 -35.5858 -35.5795 -35.5703 -35.5703
   -35.5600 -35.5585 -35.5585 -35.5575 -35.5519 -35.5519 -35.5516 -35.5516
   -35.5512 -35.5495 -35.5485 -35.5485 -35.5397 -35.5397 -35.5387 -35.5387
   -35.5387 -35.5369 -35.5369 -35.5365 -35.5364 -35.5329 -35.5329 -35.5282
   -35.5278 -35.5264 -35.5264 -35.5247 -35.5247 -35.5195 -35.5195 -35.5187
   -35.5187 -35.5173 -35.5156 -35.5142 -35.5142 -35.5127 -35.5127 -35.5090
   -35.5090 -35.4965 -35.4932 -35.4932 -35.4914 -35.4831 -35.4758 -35.4745
   -35.4745 -35.4671 -35.4671 -35.4628 -35.4628 -35.4622 -35.4516 -35.4516
   -35.4510 -35.4510 -35.4505 -35.4458 -35.4454 -35.4454 -35.4448 -35.4447
   -35.4412 -35.4360 -35.4359 -35.4346 -35.4346 -35.4275 -35.4269 -35.4072
   -35.3928 -35.3927 -35.3861 -35.3861 -35.3838 -35.3837 -35.3652 -35.3642
   -35.3641 -35.3534 -35.3498 -35.3498 -35.3415 -35.3412 -35.3402 -35.3401
   -14.0580 -13.7090 -13.4020 -13.4020 -13.2424 -13.1655 -13.0799 -13.0799
   -12.9307 -12.7052 -12.6693 -12.6693 -12.5982 -12.5982 -12.5833 -12.5515
   -12.5515 -12.5400 -12.4898 -12.4425 -12.4090 -12.3995 -12.3994 -12.3758
   -12.3436 -12.3436 -12.2973 -12.2605 -12.2604 -12.2389 -12.2227 -12.2227
   -12.1816 -12.1157 -12.1157 -12.1105 -12.0714 -12.0714 -12.0067 -12.0067
   -11.9765 -11.9765 -11.8821 -11.8821 -11.8487 -11.7777 -11.7582 -11.7582
   -11.7236 -11.6834 -11.6623 -11.6358 -11.6358 -11.6286 -11.6286 -11.5606
   -11.4898 -11.4898 -11.4843 -11.4843 -11.4746 -11.4734 -11.4261 -11.4261
   -11.3761 -11.3761 -11.3164 -11.3164 -11.2834 -11.2834 -11.1815 -11.1815
    -4.6896  -4.6896  -4.5163  -4.5163  -4.4934  -4.4934  -4.3760  -4.3760
    -4.2745  -4.2745  -4.1172  -4.1172  -3.8957  -3.8957  -3.8539  -3.8450
    -3.8450  -3.7943  -3.7942  -3.7763  -3.7762  -3.6219  -3.6209  -3.6208
    -3.5967  -3.5927  -3.5927  -3.5745  -3.5598  -3.5598  -3.5253  -3.5253
    -3.4851  -3.4831  -3.4831  -3.4651  -3.3595  -3.3595  -3.2646  -3.2618
    -3.2618  -3.2535  -3.1448  -3.0925  -3.0925  -3.0901  -3.0675  -3.0675
    -2.9850  -2.9148  -2.8703  -2.8703  -2.8656  -2.8656  -2.7647  -2.7174
    -2.7156  -2.7156  -2.6856  -2.6366  -2.5870  -2.5835  -2.5834  -2.5426
    -2.5426  -2.5043  -2.5043  -2.4353  -2.4214  -2.3744  -2.3726  -2.3517
    -2.3517  -2.3506  -2.3506  -2.3455  -2.3455  -2.3399  -2.3399  -2.3135
    -2.2407  -2.2407  -2.1992  -2.1992  -2.1975  -2.1975  -2.1956  -2.1943
    -2.1697  -2.1697  -2.1693  -2.1693  -2.1621  -2.1621  -2.1024  -2.1024
    -2.0832  -2.0832  -2.0329  -2.0135  -2.0135  -1.9628  -1.9562  -1.9562
    -1.9158  -1.9069  -1.9069  -1.8980  -1.8979  -1.8915  -1.8915  -1.8506
    -1.8506  -1.8294  -1.8283  -1.8253  -1.8210  -1.7909  -1.7909  -1.7698
    -1.7425  -1.7425  -1.7396  -1.7396  -1.7363  -1.7363  -1.7276  -1.7276
    -1.7202  -1.7202  -1.6824  -1.6413  -1.6370  -1.6370  -1.5989  -1.5989
    -1.5843  -1.5820  -1.5820  -1.5559  -1.5363  -1.5362  -1.5072  -1.4708
    -1.4499  -1.4499  -1.4284  -1.4284  -1.3953  -1.3883  -1.3883  -1.3882
    -1.3707  -1.3707  -1.3487  -1.3312  -1.2891  -1.2891  -1.2487  -1.2487
    -1.2441  -1.2441  -1.2300  -1.2300  -1.1979  -1.1872  -1.1402  -1.1402
    -1.1394  -1.1394  -1.1001  -1.0453  -1.0452  -1.0313  -1.0087  -1.0004
    -0.9823  -0.9823  -0.9672  -0.9672  -0.8956  -0.8628  -0.8627  -0.7977
    -0.7977  -0.7749  -0.7748  -0.7348  -0.7323  -0.7172  -0.6922  -0.6821
    -0.6619  -0.6104  -0.6104  -0.6069  -0.4906  -0.4439  -0.4438  -0.4165
    -0.4041  -0.4018  -0.3932  -0.3848  -0.3412  -0.3412  -0.2808  -0.1270
    -0.0517  -0.0274   0.1070   0.1817   0.2408   0.6322   0.6377   0.7486
     0.8071   0.8167   0.8198   0.9784   1.1259   1.1706   1.1706   1.1953
     1.6894   1.7296   1.9840   2.0374   2.0374   2.0624   2.1279   2.1357
     2.1375   2.1375   2.2506   2.3141   2.3175   2.3518   2.4683   2.4683
     2.5630   2.6133   2.6279   2.6279   2.6433   2.6433   2.6580   2.7310
     2.7310   2.7524   2.7524   2.7612   2.7612   2.7638   2.7949   2.7949
     2.8907   2.9433   2.9699   2.9700   3.0196   3.0525   3.0525   3.0898
     3.0898   3.0934   3.1127   3.1127   3.1378   3.1816   3.1816   3.1892
     3.1892   3.1895   3.2426   3.2729   3.2729   3.2800   3.3039   3.3039
     3.3450   3.3540   3.3540   3.3595   3.3595   3.3814   3.3815   3.3860
     3.3860   3.3897   3.5511   3.5511   3.5529   3.5529   3.5671   3.5671
     3.5751   3.5751   3.5815   3.5815   3.5866   3.6265   3.6546   3.6575
     3.6968   3.6968   3.7105   3.7391   3.7408   3.7408   3.7417   3.7418
     3.7516   3.7871   3.8330   3.8330   3.8401   3.8401   3.8618   3.8618
     3.8653   3.9731   3.9731   3.9917   4.0131   4.0440   4.0440   4.0799
     4.0799   4.0974   4.1247   4.1366   4.1366   4.1435   4.1442   4.1611
     4.1691   4.1691   4.1793   4.1832   4.1832   4.1960   4.2054   4.2113
     4.2113   4.2119   4.2119   4.2236   4.2236   4.2669   4.2669   4.3175
     4.3176   4.3198   4.3198   4.3256   4.3256   4.3303   4.3303   4.3310
     4.3360   4.3360   4.3634   4.3638   4.3711   4.4001   4.4002   4.4170
     4.4170   4.4202   4.4203   4.4573   4.4761   4.4761   4.4825   4.4930
     4.5225   4.5278   4.5278   4.5437   4.5483   4.5483   4.5816   4.5817
     4.6060   4.6060   4.6145   4.6212   4.6277   4.6277   4.6504   4.6509
     4.6520   4.6782   4.6879   4.7326   4.7349   4.7349   4.7439   4.7439
     4.7584   4.7585   4.7620   4.7645   4.7976   4.7977   4.8129   4.8217
     4.8218   4.8291   4.8341   4.8342   4.8618   4.8685   4.8711   4.8752
     4.8810   4.8884

          k = 0.0000-0.5000 0.0000 (135178 PWs)   bands (ev):

   -61.8424 -61.8423 -61.8259 -61.8259 -61.8258 -61.8258 -61.8113 -61.8113
   -61.8086 -61.8086 -61.8085 -61.8085 -61.7966 -61.7966 -61.7965 -61.7965
   -61.7845 -61.7845 -61.7664 -61.7664 -61.7583 -61.7583 -61.7583 -61.7583
   -61.7513 -61.7513 -61.7513 -61.7513 -61.7499 -61.7499 -61.7492 -61.7491
   -61.7403 -61.7403 -61.7403 -61.7403 -61.7293 -61.7293 -61.7274 -61.7274
   -61.7274 -61.7273 -61.7077 -61.7077 -61.6973 -61.6973 -61.6973 -61.6972
   -61.6836 -61.6836 -61.6836 -61.6835 -61.6695 -61.6694 -61.6648 -61.6647
   -61.6647 -61.6646 -61.6575 -61.6575 -61.6575 -61.6575 -61.6573 -61.6573
   -61.6554 -61.6553 -61.6552 -61.6552 -61.6542 -61.6542 -61.6463 -61.6462
   -35.9293 -35.9293 -35.9293 -35.9293 -35.9050 -35.9050 -35.9050 -35.9050
   -35.8932 -35.8932 -35.8932 -35.8932 -35.8851 -35.8850 -35.8844 -35.8844
   -35.8561 -35.8561 -35.8561 -35.8561 -35.8414 -35.8414 -35.8414 -35.8414
   -35.8365 -35.8364 -35.8297 -35.8297 -35.8297 -35.8297 -35.8253 -35.8253
   -35.8188 -35.8188 -35.8188 -35.8188 -35.8166 -35.8166 -35.8166 -35.8166
   -35.8059 -35.8059 -35.8059 -35.8059 -35.8013 -35.8013 -35.8002 -35.8002
   -35.8002 -35.8002 -35.7891 -35.7890 -35.7713 -35.7713 -35.7682 -35.7681
   -35.7409 -35.7409 -35.7409 -35.7409 -35.7400 -35.7400 -35.7353 -35.7353
   -35.7132 -35.7131 -35.7122 -35.7122 -35.7122 -35.7121 -35.7112 -35.7111
   -35.6998 -35.6998 -35.6998 -35.6998 -35.6972 -35.6971 -35.6631 -35.6631
   -35.6591 -35.6590 -35.6464 -35.6464 -35.6429 -35.6429 -35.6395 -35.6395
   -35.6395 -35.6395 -35.6310 -35.6310 -35.6310 -35.6310 -35.6233 -35.6233
   -35.6202 -35.6202 -35.6202 -35.6201 -35.6195 -35.6195 -35.6195 -35.6195
   -35.6130 -35.6129 -35.6111 -35.6111 -35.6110 -35.6110 -35.6060 -35.6060
   -35.6033 -35.6033 -35.5991 -35.5991 -35.5975 -35.5974 -35.5974 -35.5974
   -35.5944 -35.5944 -35.5943 -35.5943 -35.5940 -35.5940 -35.5637 -35.5637
   -35.5637 -35.5637 -35.5565 -35.5565 -35.5534 -35.5534 -35.5534 -35.5533
   -35.5406 -35.5406 -35.5405 -35.5405 -35.5404 -35.5403 -35.5403 -35.5403
   -35.5402 -35.5402 -35.5349 -35.5349 -35.5304 -35.5304 -35.5304 -35.5304
   -35.5223 -35.5223 -35.5223 -35.5222 -35.5222 -35.5222 -35.5222 -35.5222
   -35.5206 -35.5206 -35.5179 -35.5179 -35.5151 -35.5150 -35.5121 -35.5121
   -35.5121 -35.5120 -35.4883 -35.4883 -35.4699 -35.4699 -35.4657 -35.4657
   -35.4657 -35.4657 -35.4648 -35.4648 -35.4648 -35.4648 -35.4610 -35.4610
   -35.4610 -35.4610 -35.4427 -35.4427 -35.4427 -35.4426 -35.4418 -35.4418
   -35.4418 -35.4417 -35.4364 -35.4363 -35.4360 -35.4360 -35.4278 -35.4278
   -35.3894 -35.3893 -35.3893 -35.3892 -35.3733 -35.3733 -35.3733 -35.3732
   -35.3504 -35.3503 -35.3471 -35.3471 -35.3441 -35.3441 -35.3441 -35.3440
   -13.9210 -13.9210 -13.2750 -13.2750 -13.2750 -13.2750 -13.1185 -13.1185
   -12.9065 -12.9065 -12.5601 -12.5601 -12.5601 -12.5601 -12.5523 -12.5523
   -12.4632 -12.4632 -12.4632 -12.4632 -12.3899 -12.3899 -12.3899 -12.3899
   -12.3628 -12.3628 -12.3364 -12.3364 -12.3221 -12.3221 -12.2710 -12.2710
   -12.1739 -12.1739 -12.1739 -12.1739 -11.9956 -11.9956 -11.9956 -11.9956
   -11.8871 -11.8871 -11.8871 -11.8871 -11.7830 -11.7830 -11.7829 -11.7829
   -11.7344 -11.7344 -11.7286 -11.7286 -11.5675 -11.5675 -11.5668 -11.5668
   -11.5668 -11.5668 -11.5199 -11.5198 -11.4038 -11.4038 -11.4037 -11.4037
   -11.3645 -11.3644 -11.3644 -11.3644 -11.2147 -11.2147 -11.2146 -11.2146
    -4.6858  -4.6858  -4.6858  -4.6858  -4.5033  -4.5033  -4.5032  -4.5032
    -4.0119  -4.0119  -4.0119  -4.0119  -3.8352  -3.8352  -3.8352  -3.8352
    -3.7728  -3.7728  -3.7257  -3.7257  -3.7257  -3.7257  -3.6775  -3.6775
    -3.6775  -3.6775  -3.5911  -3.5911  -3.5911  -3.5911  -3.4819  -3.4819
    -3.4709  -3.4709  -3.3946  -3.3946  -3.3946  -3.3946  -3.3293  -3.3293
    -3.2838  -3.2838  -3.2838  -3.2838  -3.0848  -3.0848  -3.0227  -3.0227
    -3.0227  -3.0227  -2.9612  -2.9612  -2.9114  -2.9114  -2.5666  -2.5666
    -2.5666  -2.5666  -2.5459  -2.5459  -2.5363  -2.5363  -2.5363  -2.5363
    -2.4602  -2.4602  -2.4549  -2.4549  -2.4549  -2.4549  -2.4280  -2.4279
    -2.4279  -2.4279  -2.4235  -2.4235  -2.4140  -2.4140  -2.3935  -2.3935
    -2.3935  -2.3935  -2.3161  -2.3161  -2.2707  -2.2707  -2.2706  -2.2706
    -2.1565  -2.1565  -2.1565  -2.1565  -2.1188  -2.1188  -2.1188  -2.1188
    -2.0586  -2.0586  -2.0369  -2.0369  -1.9587  -1.9587  -1.9587  -1.9587
    -1.9395  -1.9395  -1.9395  -1.9395  -1.9044  -1.9044  -1.8284  -1.8284
    -1.8284  -1.8284  -1.8249  -1.8249  -1.8249  -1.8249  -1.8166  -1.8166
    -1.8166  -1.8165  -1.7138  -1.7138  -1.7138  -1.7138  -1.6774  -1.6774
    -1.6774  -1.6774  -1.6316  -1.6316  -1.5404  -1.5404  -1.5160  -1.5160
    -1.5160  -1.5160  -1.4874  -1.4874  -1.4874  -1.4874  -1.4788  -1.4788
    -1.4432  -1.4432  -1.4432  -1.4432  -1.3491  -1.3490  -1.2685  -1.2685
    -1.2685  -1.2685  -1.2655  -1.2654  -1.2532  -1.2532  -1.2532  -1.2532
    -1.2228  -1.2228  -1.2228  -1.2228  -1.2026  -1.2026  -1.1983  -1.1983
    -1.1379  -1.1379  -0.9350  -0.9350  -0.9350  -0.9350  -0.9341  -0.9341
    -0.9341  -0.9341  -0.8729  -0.8729  -0.7774  -0.7774  -0.7774  -0.7774
    -0.7652  -0.7651  -0.7365  -0.7365  -0.7274  -0.7274  -0.7073  -0.7073
    -0.7073  -0.7073  -0.6720  -0.6719  -0.6719  -0.6719  -0.5866  -0.5866
    -0.5620  -0.5620  -0.4074  -0.4074  -0.3969  -0.3969  -0.0589  -0.0589
    -0.0254  -0.0254   0.0593   0.0593   0.0813   0.0813   0.4498   0.4498
     0.7016   0.7016   1.3468   1.3469   1.4355   1.4355   1.5261   1.5261
     1.5895   1.5895   1.6043   1.6043   1.6043   1.6043   2.1739   2.1739
     2.2871   2.2871   2.3284   2.3284   2.3284   2.3284   2.5241   2.5241
     2.5477   2.5477   2.5477   2.5477   2.5646   2.5646   2.6861   2.6862
     2.6885   2.6885   2.7266   2.7266   2.7266   2.7266   2.8236   2.8236
     2.8630   2.8630   2.8630   2.8630   2.8738   2.8738   2.8738   2.8738
     2.9205   2.9205   2.9205   2.9205   3.0825   3.0825   3.1859   3.1859
     3.1859   3.1859   3.3164   3.3164   3.3164   3.3164   3.3440   3.3440
     3.3440   3.3440   3.4011   3.4011   3.4011   3.4011   3.4472   3.4472
     3.4542   3.4542   3.4542   3.4542   3.5122   3.5122   3.5814   3.5814
     3.5814   3.5814   3.6072   3.6072   3.7371   3.7372   3.7372   3.7372
     3.7514   3.7514   3.9201   3.9201   3.9201   3.9201   3.9244   3.9244
     3.9304   3.9304   3.9304   3.9305   3.9309   3.9310   4.0361   4.0361
     4.0361   4.0362   4.0487   4.0487   4.0526   4.0526   4.0949   4.0950
     4.0950   4.0950   4.1179   4.1179   4.1180   4.1180   4.1196   4.1196
     4.1196   4.1197   4.1242   4.1242   4.1350   4.1350   4.1444   4.1444
     4.1834   4.1834   4.1834   4.1834   4.2699   4.2699   4.2699   4.2700
     4.2799   4.2799   4.2799   4.2799   4.2922   4.2922   4.2982   4.2982
     4.2983   4.2983   4.4087   4.4087   4.4223   4.4223   4.4223   4.4223
     4.4318   4.4318   4.4758   4.4758   4.5496   4.5496   4.5496   4.5496
     4.5571   4.5571   4.5571   4.5571   4.5700   4.5700   4.5700   4.5700
     4.6163   4.6163   4.6212   4.6212   4.6720   4.6720   4.6943   4.6943
     4.6943   4.6943   4.7075   4.7075   4.7075   4.7075   4.7114   4.7114
     4.7262   4.7262   4.7374   4.7375   4.7707   4.7708   4.8090   4.8091
     4.8135   4.8136   4.8138   4.8144   4.8369   4.8370   4.8370   4.8371
     4.8377   4.8387

          k = 0.2500 0.2500 0.0000 (135083 PWs)   bands (ev):

   -61.8449 -61.8355 -61.8354 -61.8280 -61.8197 -61.8197 -61.8160 -61.8160
   -61.8104 -61.8058 -61.8035 -61.8035 -61.8028 -61.8028 -61.7942 -61.7896
   -61.7896 -61.7826 -61.7678 -61.7629 -61.7628 -61.7598 -61.7544 -61.7544
   -61.7541 -61.7541 -61.7530 -61.7530 -61.7503 -61.7466 -61.7466 -61.7440
   -61.7440 -61.7409 -61.7409 -61.7389 -61.7339 -61.7339 -61.7302 -61.7276
   -61.7194 -61.7193 -61.7118 -61.7117 -61.6993 -61.6948 -61.6947 -61.6915
   -61.6915 -61.6899 -61.6786 -61.6755 -61.6755 -61.6685 -61.6672 -61.6662
   -61.6608 -61.6606 -61.6600 -61.6599 -61.6582 -61.6576 -61.6571 -61.6569
   -61.6567 -61.6559 -61.6558 -61.6539 -61.6538 -61.6501 -61.6499 -61.6449
   -35.9474 -35.9354 -35.9217 -35.9131 -35.9131 -35.9128 -35.9105 -35.8981
   -35.8901 -35.8836 -35.8835 -35.8810 -35.8810 -35.8800 -35.8800 -35.8728
   -35.8595 -35.8594 -35.8584 -35.8553 -35.8553 -35.8470 -35.8470 -35.8453
   -35.8435 -35.8390 -35.8383 -35.8365 -35.8328 -35.8328 -35.8319 -35.8319
   -35.8224 -35.8216 -35.8213 -35.8128 -35.8128 -35.8114 -35.8114 -35.8106
   -35.8106 -35.8066 -35.8046 -35.8045 -35.7978 -35.7978 -35.7958 -35.7957
   -35.7919 -35.7871 -35.7871 -35.7830 -35.7830 -35.7697 -35.7697 -35.7682
   -35.7682 -35.7440 -35.7384 -35.7384 -35.7373 -35.7372 -35.7338 -35.7338
   -35.7297 -35.7208 -35.7207 -35.7169 -35.7169 -35.7166 -35.7125 -35.6922
   -35.6906 -35.6880 -35.6879 -35.6857 -35.6857 -35.6744 -35.6744 -35.6667
   -35.6667 -35.6607 -35.6606 -35.6486 -35.6474 -35.6474 -35.6467 -35.6467
   -35.6377 -35.6372 -35.6372 -35.6352 -35.6351 -35.6350 -35.6312 -35.6312
   -35.6305 -35.6278 -35.6278 -35.6175 -35.6130 -35.6130 -35.6116 -35.6116
   -35.6103 -35.6103 -35.6094 -35.6083 -35.6068 -35.6064 -35.6063 -35.6060
   -35.6029 -35.6029 -35.6012 -35.5990 -35.5990 -35.5929 -35.5928 -35.5877
   -35.5847 -35.5810 -35.5809 -35.5809 -35.5765 -35.5737 -35.5736 -35.5730
   -35.5730 -35.5721 -35.5711 -35.5711 -35.5591 -35.5579 -35.5578 -35.5502
   -35.5496 -35.5496 -35.5480 -35.5423 -35.5393 -35.5392 -35.5392 -35.5391
   -35.5372 -35.5372 -35.5340 -35.5340 -35.5334 -35.5334 -35.5302 -35.5302
   -35.5288 -35.5288 -35.5274 -35.5240 -35.5222 -35.5215 -35.5215 -35.5199
   -35.5189 -35.5189 -35.5188 -35.5187 -35.5119 -35.5065 -35.5055 -35.5054
   -35.4938 -35.4931 -35.4910 -35.4842 -35.4842 -35.4797 -35.4767 -35.4767
   -35.4725 -35.4725 -35.4637 -35.4616 -35.4616 -35.4593 -35.4593 -35.4567
   -35.4566 -35.4516 -35.4516 -35.4485 -35.4483 -35.4482 -35.4482 -35.4422
   -35.4380 -35.4379 -35.4378 -35.4360 -35.4290 -35.4288 -35.4241 -35.4077
   -35.4076 -35.4045 -35.3856 -35.3776 -35.3775 -35.3730 -35.3668 -35.3667
   -35.3555 -35.3554 -35.3514 -35.3463 -35.3433 -35.3432 -35.3419 -35.3418
   -14.0109 -13.6636 -13.6635 -13.3293 -13.1995 -13.1235 -13.1235 -12.8900
   -12.8900 -12.8184 -12.8184 -12.6691 -12.6691 -12.5998 -12.5669 -12.5133
   -12.5132 -12.4547 -12.4547 -12.4186 -12.4185 -12.4053 -12.3930 -12.3804
   -12.3650 -12.3395 -12.2817 -12.2817 -12.2162 -12.2162 -12.2146 -12.2146
   -12.1838 -12.1628 -12.1474 -12.1474 -12.0747 -12.0747 -12.0696 -12.0696
   -11.9728 -11.9691 -11.9125 -11.8192 -11.8192 -11.8169 -11.7606 -11.6908
   -11.6908 -11.6631 -11.6631 -11.6373 -11.6373 -11.6184 -11.6184 -11.5443
   -11.5396 -11.4720 -11.4720 -11.4639 -11.4639 -11.4536 -11.4535 -11.4483
   -11.4483 -11.3790 -11.3346 -11.3140 -11.2772 -11.2772 -11.1921 -11.1217
    -4.8794  -4.7865  -4.6631  -4.6032  -4.4039  -4.4038  -4.2274  -4.2274
    -4.1705  -4.1705  -4.0645  -4.0645  -4.0239  -3.9392  -3.9207  -3.9206
    -3.9091  -3.8083  -3.7928  -3.6869  -3.6822  -3.6822  -3.6715  -3.6715
    -3.6417  -3.6360  -3.6360  -3.5501  -3.5501  -3.5027  -3.5027  -3.4682
    -3.4059  -3.3938  -3.3937  -3.3694  -3.3694  -3.3645  -3.3645  -3.3252
    -3.2063  -3.2063  -3.1665  -3.1665  -3.1034  -3.0956  -3.0956  -3.0870
    -3.0688  -2.9830  -2.9829  -2.8362  -2.8362  -2.8040  -2.8040  -2.7373
    -2.7373  -2.7349  -2.7349  -2.6512  -2.6005  -2.5370  -2.5265  -2.5265
    -2.5156  -2.5014  -2.5002  -2.4962  -2.4962  -2.4766  -2.4244  -2.4244
    -2.4070  -2.4042  -2.3835  -2.3835  -2.3826  -2.3786  -2.3786  -2.3329
    -2.3283  -2.2881  -2.2881  -2.2392  -2.2392  -2.1969  -2.1875  -2.1875
    -2.1631  -2.1428  -2.1428  -2.1152  -2.1152  -2.0810  -2.0303  -2.0134
    -2.0134  -2.0132  -2.0131  -2.0016  -2.0016  -1.9970  -1.9970  -1.9568
    -1.9566  -1.9566  -1.8971  -1.8971  -1.8904  -1.8903  -1.8874  -1.8778
    -1.8662  -1.8662  -1.8357  -1.8357  -1.8173  -1.8173  -1.7841  -1.7841
    -1.7774  -1.7621  -1.7399  -1.7399  -1.7339  -1.7163  -1.7072  -1.6672
    -1.6576  -1.6576  -1.6571  -1.5931  -1.5931  -1.5590  -1.5590  -1.5559
    -1.5451  -1.5292  -1.5257  -1.5006  -1.4580  -1.4580  -1.4430  -1.4282
    -1.4282  -1.4211  -1.4035  -1.4035  -1.4021  -1.4021  -1.3832  -1.3832
    -1.3282  -1.2868  -1.2557  -1.2553  -1.2553  -1.2419  -1.2419  -1.2233
    -1.2233  -1.1793  -1.1782  -1.1782  -1.1302  -1.1302  -1.0756  -1.0756
    -1.0733  -1.0733  -1.0587  -1.0587  -1.0217  -1.0217  -0.9861  -0.9861
    -0.9824  -0.9780  -0.9521  -0.9341  -0.9190  -0.9190  -0.8593  -0.8174
    -0.8084  -0.8084  -0.7973  -0.7973  -0.7723  -0.7129  -0.6880  -0.6880
    -0.6698  -0.6698  -0.6404  -0.5750  -0.5750  -0.5422  -0.5422  -0.4698
    -0.4698  -0.4546  -0.4140  -0.4140  -0.3495  -0.2790  -0.2790  -0.1326
    -0.1216  -0.0671  -0.0671   0.0164   0.0340   0.4397   0.5609   0.7238
     0.9058   0.9200   1.0343   1.0407   1.0407   1.1860   1.3522   1.3522
     1.8093   1.8093   1.8775   1.9864   2.0155   2.0155   2.0975   2.0975
     2.1227   2.1228   2.1858   2.2570   2.2570   2.2570   2.3085   2.3490
     2.3596   2.3596   2.4395   2.4396   2.4914   2.5711   2.5711   2.6050
     2.6051   2.6051   2.6646   2.6702   2.8237   2.8237   2.8457   2.8457
     2.8825   2.9074   2.9419   2.9455   2.9455   2.9857   2.9857   2.9912
     2.9913   3.0316   3.1035   3.1126   3.1126   3.1558   3.2582   3.2593
     3.2593   3.2688   3.2688   3.2722   3.2723   3.3164   3.3164   3.3323
     3.3434   3.3679   3.3688   3.3688   3.3971   3.3971   3.4520   3.4733
     3.4734   3.5643   3.5666   3.5691   3.5691   3.5819   3.5819   3.6070
     3.6070   3.6211   3.6211   3.6930   3.6930   3.6967   3.7035   3.7036
     3.7036   3.7097   3.7097   3.7628   3.7776   3.7776   3.7945   3.7987
     3.8382   3.8494   3.8494   3.8950   3.8950   3.9155   3.9752   3.9752
     3.9901   3.9952   4.0516   4.0680   4.0680   4.0753   4.0826   4.0826
     4.0866   4.0924   4.0924   4.1184   4.1208   4.1208   4.1237   4.1265
     4.1265   4.1654   4.1655   4.1769   4.2111   4.2111   4.2152   4.2177
     4.2177   4.2208   4.2267   4.2268   4.2540   4.2541   4.2795   4.2795
     4.2900   4.2967   4.3092   4.3093   4.3113   4.3113   4.3194   4.3292
     4.3485   4.3485   4.3560   4.3741   4.3741   4.3926   4.3926   4.4080
     4.4081   4.4209   4.4209   4.4319   4.4906   4.4906   4.4940   4.5296
     4.5296   4.5302   4.5333   4.5661   4.5661   4.5876   4.5879   4.5880
     4.5891   4.5891   4.6017   4.6427   4.6576   4.6576   4.6621   4.6940
     4.6941   4.7182   4.7182   4.7323   4.7323   4.7361   4.7364   4.7434
     4.7434   4.7600   4.7684   4.7684   4.7993   4.8045   4.8113   4.8187
     4.8220   4.8223   4.8443   4.8448   4.8500   4.8513   4.8517   4.8621
     4.8624   4.8634

          k = 0.2500-0.5000 0.0000 (135080 PWs)   bands (ev):

   -61.8412 -61.8412 -61.8326 -61.8325 -61.8183 -61.8182 -61.8111 -61.8111
   -61.8095 -61.8095 -61.8079 -61.8079 -61.8031 -61.8030 -61.7914 -61.7913
   -61.7853 -61.7852 -61.7659 -61.7659 -61.7617 -61.7617 -61.7543 -61.7543
   -61.7518 -61.7518 -61.7506 -61.7505 -61.7493 -61.7493 -61.7484 -61.7484
   -61.7451 -61.7450 -61.7368 -61.7368 -61.7359 -61.7359 -61.7301 -61.7301
   -61.7164 -61.7164 -61.7069 -61.7069 -61.7014 -61.7013 -61.6935 -61.6934
   -61.6934 -61.6934 -61.6763 -61.6763 -61.6700 -61.6700 -61.6686 -61.6685
   -61.6606 -61.6606 -61.6575 -61.6575 -61.6574 -61.6574 -61.6573 -61.6573
   -61.6566 -61.6565 -61.6550 -61.6549 -61.6530 -61.6529 -61.6473 -61.6472
   -35.9474 -35.9474 -35.9233 -35.9233 -35.9009 -35.9009 -35.8978 -35.8978
   -35.8922 -35.8922 -35.8823 -35.8823 -35.8759 -35.8759 -35.8758 -35.8758
   -35.8595 -35.8595 -35.8570 -35.8570 -35.8501 -35.8501 -35.8418 -35.8418
   -35.8407 -35.8407 -35.8369 -35.8369 -35.8362 -35.8362 -35.8270 -35.8270
   -35.8258 -35.8258 -35.8216 -35.8216 -35.8181 -35.8181 -35.8175 -35.8175
   -35.8117 -35.8117 -35.7985 -35.7985 -35.7981 -35.7981 -35.7934 -35.7934
   -35.7891 -35.7891 -35.7882 -35.7882 -35.7733 -35.7733 -35.7669 -35.7669
   -35.7648 -35.7648 -35.7442 -35.7442 -35.7396 -35.7396 -35.7329 -35.7329
   -35.7168 -35.7168 -35.7150 -35.7150 -35.7131 -35.7131 -35.7039 -35.7039
   -35.6979 -35.6979 -35.6831 -35.6831 -35.6822 -35.6822 -35.6642 -35.6642
   -35.6609 -35.6609 -35.6522 -35.6522 -35.6463 -35.6463 -35.6430 -35.6430
   -35.6372 -35.6372 -35.6339 -35.6338 -35.6308 -35.6308 -35.6296 -35.6296
   -35.6266 -35.6266 -35.6242 -35.6242 -35.6235 -35.6235 -35.6174 -35.6174
   -35.6113 -35.6112 -35.6111 -35.6110 -35.6005 -35.6005 -35.5997 -35.5997
   -35.5994 -35.5994 -35.5985 -35.5985 -35.5975 -35.5975 -35.5948 -35.5948
   -35.5899 -35.5899 -35.5815 -35.5815 -35.5814 -35.5814 -35.5783 -35.5783
   -35.5731 -35.5731 -35.5592 -35.5592 -35.5569 -35.5569 -35.5559 -35.5559
   -35.5496 -35.5496 -35.5488 -35.5488 -35.5484 -35.5484 -35.5458 -35.5458
   -35.5455 -35.5455 -35.5332 -35.5331 -35.5281 -35.5281 -35.5249 -35.5249
   -35.5233 -35.5233 -35.5217 -35.5217 -35.5213 -35.5212 -35.5200 -35.5199
   -35.5193 -35.5192 -35.5186 -35.5186 -35.5102 -35.5102 -35.5073 -35.5073
   -35.4874 -35.4874 -35.4819 -35.4819 -35.4753 -35.4753 -35.4698 -35.4698
   -35.4686 -35.4686 -35.4627 -35.4627 -35.4619 -35.4619 -35.4616 -35.4616
   -35.4605 -35.4605 -35.4590 -35.4589 -35.4540 -35.4540 -35.4469 -35.4469
   -35.4332 -35.4332 -35.4303 -35.4303 -35.4279 -35.4279 -35.4268 -35.4267
   -35.4081 -35.4081 -35.3809 -35.3809 -35.3712 -35.3712 -35.3646 -35.3645
   -35.3521 -35.3521 -35.3481 -35.3481 -35.3466 -35.3465 -35.3437 -35.3437
   -13.8746 -13.8746 -13.5321 -13.5321 -13.0764 -13.0764 -13.0025 -13.0025
   -12.8670 -12.8670 -12.7737 -12.7737 -12.5852 -12.5852 -12.5670 -12.5670
   -12.5314 -12.5314 -12.4430 -12.4430 -12.3563 -12.3563 -12.3476 -12.3476
   -12.3003 -12.3003 -12.2919 -12.2919 -12.2405 -12.2405 -12.2348 -12.2348
   -12.2139 -12.2139 -12.1500 -12.1500 -12.0974 -12.0974 -12.0515 -12.0515
   -11.9719 -11.9719 -11.9435 -11.9435 -11.7367 -11.7366 -11.7161 -11.7161
   -11.7014 -11.7014 -11.6088 -11.6088 -11.5984 -11.5984 -11.5681 -11.5681
   -11.5377 -11.5377 -11.5179 -11.5179 -11.5022 -11.5022 -11.4009 -11.4008
   -11.3760 -11.3760 -11.3370 -11.3370 -11.3136 -11.3136 -11.1225 -11.1225
    -4.9165  -4.9165  -4.7031  -4.7031  -4.3675  -4.3675  -4.2097  -4.2097
    -4.1165  -4.1165  -3.9551  -3.9551  -3.9236  -3.9236  -3.8668  -3.8668
    -3.8457  -3.8457  -3.8114  -3.8114  -3.7710  -3.7710  -3.7072  -3.7072
    -3.6402  -3.6401  -3.5964  -3.5964  -3.5625  -3.5625  -3.4786  -3.4786
    -3.4358  -3.4358  -3.3535  -3.3535  -3.3525  -3.3525  -3.3258  -3.3258
    -3.1471  -3.1471  -3.1463  -3.1463  -3.1214  -3.1214  -3.0785  -3.0785
    -3.0162  -3.0162  -2.9144  -2.9144  -2.8811  -2.8811  -2.8675  -2.8675
    -2.8044  -2.8044  -2.7281  -2.7281  -2.5680  -2.5680  -2.5463  -2.5463
    -2.5155  -2.5155  -2.4809  -2.4809  -2.4412  -2.4412  -2.4396  -2.4396
    -2.4325  -2.4325  -2.4002  -2.4002  -2.3350  -2.3350  -2.3098  -2.3098
    -2.2723  -2.2723  -2.2721  -2.2721  -2.2535  -2.2535  -2.2141  -2.2141
    -2.1797  -2.1797  -2.1757  -2.1757  -2.1102  -2.1102  -2.1046  -2.1046
    -2.0688  -2.0688  -2.0328  -2.0328  -2.0298  -2.0298  -1.9741  -1.9741
    -1.9687  -1.9687  -1.9648  -1.9648  -1.9423  -1.9423  -1.9314  -1.9314
    -1.9258  -1.9258  -1.8012  -1.8012  -1.7850  -1.7850  -1.7496  -1.7495
    -1.7480  -1.7480  -1.6209  -1.6209  -1.5986  -1.5986  -1.5878  -1.5878
    -1.5701  -1.5701  -1.5661  -1.5661  -1.5383  -1.5383  -1.5203  -1.5203
    -1.4952  -1.4952  -1.4315  -1.4315  -1.4056  -1.4056  -1.4020  -1.4019
    -1.3812  -1.3812  -1.3493  -1.3493  -1.3235  -1.3235  -1.3063  -1.3063
    -1.2983  -1.2983  -1.2707  -1.2707  -1.2649  -1.2649  -1.2534  -1.2534
    -1.2317  -1.2317  -1.1764  -1.1764  -1.1563  -1.1563  -1.1151  -1.1151
    -1.0649  -1.0649  -1.0263  -1.0263  -1.0115  -1.0115  -1.0088  -1.0088
    -0.9164  -0.9164  -0.8973  -0.8972  -0.8518  -0.8518  -0.8307  -0.8306
    -0.7866  -0.7866  -0.7780  -0.7779  -0.7366  -0.7366  -0.6321  -0.6321
    -0.6319  -0.6319  -0.6299  -0.6299  -0.5903  -0.5902  -0.5356  -0.5356
    -0.5294  -0.5294  -0.4422  -0.4422  -0.4207  -0.4207  -0.2559  -0.2559
    -0.1446  -0.1446  -0.1226  -0.1226   0.0879   0.0879   0.2828   0.2828
     0.9697   0.9697   1.3975   1.3975   1.5079   1.5079   1.5199   1.5199
     1.5715   1.5715   1.6403   1.6403   1.7464   1.7465   2.0823   2.0823
     2.1301   2.1301   2.1529   2.1529   2.2391   2.2391   2.3320   2.3320
     2.3603   2.3603   2.4049   2.4049   2.5584   2.5584   2.5612   2.5612
     2.5768   2.5768   2.6217   2.6217   2.6570   2.6570   2.7351   2.7351
     2.7520   2.7520   2.8154   2.8154   2.8655   2.8655   2.9575   2.9575
     3.0007   3.0007   3.0567   3.0567   3.0947   3.0947   3.1578   3.1578
     3.2095   3.2095   3.2963   3.2963   3.3131   3.3131   3.4014   3.4015
     3.4145   3.4145   3.4387   3.4387   3.4576   3.4576   3.4827   3.4828
     3.5581   3.5581   3.6250   3.6250   3.6496   3.6496   3.6668   3.6668
     3.6860   3.6860   3.7135   3.7135   3.7301   3.7301   3.7584   3.7584
     3.8343   3.8343   3.8762   3.8762   3.9047   3.9047   3.9387   3.9387
     3.9562   3.9562   3.9601   3.9601   3.9671   3.9671   3.9700   3.9700
     3.9726   3.9727   4.0269   4.0269   4.0325   4.0326   4.0337   4.0337
     4.0862   4.0862   4.0929   4.0929   4.1030   4.1030   4.1108   4.1108
     4.1443   4.1443   4.1455   4.1455   4.1480   4.1481   4.1652   4.1652
     4.1957   4.1957   4.2106   4.2106   4.2197   4.2197   4.2501   4.2501
     4.2767   4.2767   4.2772   4.2773   4.2854   4.2854   4.2986   4.2986
     4.3515   4.3515   4.4109   4.4109   4.4229   4.4229   4.4606   4.4606
     4.4687   4.4687   4.4961   4.4961   4.5050   4.5050   4.5135   4.5135
     4.5337   4.5337   4.6012   4.6012   4.6318   4.6318   4.6388   4.6388
     4.6422   4.6423   4.6449   4.6449   4.6910   4.6910   4.6998   4.6998
     4.7069   4.7069   4.7121   4.7121   4.7553   4.7554   4.7689   4.7690
     4.7733   4.7733   4.7937   4.7946   4.7996   4.7997   4.8011   4.8011
     4.8040   4.8040   4.8307   4.8309   4.8326   4.8329   4.8335   4.8352
     4.8372   4.8389

          k =-0.5000-0.5000 0.0000 (135004 PWs)   bands (ev):

   -61.8379 -61.8378 -61.8378 -61.8378 -61.8105 -61.8105 -61.8105 -61.8105
   -61.8104 -61.8104 -61.8104 -61.8104 -61.8076 -61.8076 -61.7876 -61.7875
   -61.7875 -61.7875 -61.7642 -61.7642 -61.7642 -61.7642 -61.7521 -61.7520
   -61.7499 -61.7499 -61.7499 -61.7498 -61.7498 -61.7498 -61.7498 -61.7498
   -61.7440 -61.7439 -61.7439 -61.7439 -61.7324 -61.7324 -61.7324 -61.7324
   -61.7048 -61.7048 -61.7048 -61.7048 -61.7048 -61.7047 -61.7047 -61.7046
   -61.6917 -61.6917 -61.6721 -61.6720 -61.6720 -61.6720 -61.6703 -61.6702
   -61.6575 -61.6574 -61.6574 -61.6574 -61.6573 -61.6573 -61.6573 -61.6572
   -61.6572 -61.6571 -61.6571 -61.6569 -61.6500 -61.6499 -61.6498 -61.6498
   -35.9536 -35.9536 -35.9295 -35.9295 -35.8971 -35.8971 -35.8971 -35.8971
   -35.8667 -35.8667 -35.8666 -35.8666 -35.8648 -35.8648 -35.8648 -35.8648
   -35.8648 -35.8648 -35.8648 -35.8648 -35.8623 -35.8623 -35.8424 -35.8424
   -35.8407 -35.8407 -35.8407 -35.8407 -35.8386 -35.8386 -35.8386 -35.8386
   -35.8386 -35.8386 -35.8385 -35.8385 -35.8253 -35.8253 -35.8253 -35.8253
   -35.7907 -35.7906 -35.7906 -35.7906 -35.7895 -35.7895 -35.7894 -35.7894
   -35.7894 -35.7894 -35.7894 -35.7894 -35.7654 -35.7654 -35.7654 -35.7653
   -35.7653 -35.7653 -35.7653 -35.7653 -35.7424 -35.7424 -35.7424 -35.7424
   -35.7262 -35.7262 -35.7262 -35.7262 -35.6891 -35.6891 -35.6891 -35.6891
   -35.6852 -35.6852 -35.6852 -35.6852 -35.6639 -35.6639 -35.6639 -35.6639
   -35.6639 -35.6639 -35.6639 -35.6639 -35.6561 -35.6560 -35.6560 -35.6560
   -35.6329 -35.6329 -35.6329 -35.6329 -35.6329 -35.6329 -35.6329 -35.6329
   -35.6263 -35.6263 -35.6263 -35.6263 -35.6254 -35.6254 -35.6254 -35.6253
   -35.6081 -35.6081 -35.6080 -35.6080 -35.5976 -35.5976 -35.5976 -35.5975
   -35.5949 -35.5949 -35.5836 -35.5836 -35.5836 -35.5836 -35.5836 -35.5836
   -35.5835 -35.5835 -35.5785 -35.5785 -35.5785 -35.5785 -35.5762 -35.5762
   -35.5715 -35.5715 -35.5715 -35.5715 -35.5715 -35.5715 -35.5714 -35.5714
   -35.5629 -35.5629 -35.5628 -35.5628 -35.5541 -35.5541 -35.5541 -35.5541
   -35.5487 -35.5487 -35.5245 -35.5245 -35.5245 -35.5245 -35.5245 -35.5245
   -35.5245 -35.5245 -35.5242 -35.5242 -35.5242 -35.5242 -35.5164 -35.5164
   -35.5163 -35.5163 -35.5058 -35.5058 -35.4907 -35.4907 -35.4907 -35.4907
   -35.4906 -35.4906 -35.4905 -35.4905 -35.4775 -35.4775 -35.4694 -35.4694
   -35.4694 -35.4693 -35.4638 -35.4638 -35.4638 -35.4637 -35.4637 -35.4637
   -35.4637 -35.4637 -35.4593 -35.4593 -35.4561 -35.4561 -35.4560 -35.4560
   -35.4304 -35.4304 -35.4254 -35.4254 -35.4254 -35.4254 -35.4216 -35.4215
   -35.4214 -35.4214 -35.3841 -35.3840 -35.3571 -35.3571 -35.3571 -35.3571
   -35.3571 -35.3571 -35.3570 -35.3569 -35.3452 -35.3451 -35.3451 -35.3451
   -13.7401 -13.7401 -13.7401 -13.7401 -12.9557 -12.9557 -12.9557 -12.9557
   -12.7542 -12.7542 -12.7542 -12.7542 -12.7542 -12.7542 -12.7542 -12.7542
   -12.4817 -12.4817 -12.4817 -12.4817 -12.3049 -12.3049 -12.3048 -12.3048
   -12.2090 -12.2090 -12.2090 -12.2090 -12.2090 -12.2090 -12.2090 -12.2090
   -12.1988 -12.1988 -12.1988 -12.1988 -12.1316 -12.1316 -12.1307 -12.1306
   -12.1306 -12.1306 -11.9401 -11.9401 -11.6678 -11.6678 -11.6678 -11.6678
   -11.6255 -11.6255 -11.6255 -11.6255 -11.6255 -11.6255 -11.6255 -11.6255
   -11.4562 -11.4561 -11.4561 -11.4561 -11.4547 -11.4547 -11.4546 -11.4546
   -11.4546 -11.4546 -11.4546 -11.4546 -11.2787 -11.2787 -11.0885 -11.0884
    -5.0005  -5.0005  -4.7728  -4.7728  -4.0568  -4.0568  -4.0568  -4.0568
    -4.0568  -4.0568  -4.0568  -4.0568  -4.0390  -4.0390  -3.9028  -3.9028
    -3.8791  -3.8791  -3.8791  -3.8791  -3.8791  -3.8791  -3.8791  -3.8791
    -3.5050  -3.5050  -3.5050  -3.5050  -3.4618  -3.4618  -3.4617  -3.4617
    -3.4405  -3.4405  -3.4405  -3.4405  -3.2311  -3.2311  -3.2311  -3.2311
    -3.2311  -3.2311  -3.2311  -3.2311  -3.0166  -3.0166  -3.0166  -3.0166
    -3.0166  -3.0166  -3.0166  -3.0166  -2.9978  -2.9978  -2.9978  -2.9977
    -2.6979  -2.6978  -2.6978  -2.6978  -2.6905  -2.6905  -2.6905  -2.6905
    -2.5833  -2.5833  -2.4469  -2.4469  -2.4259  -2.4259  -2.3862  -2.3862
    -2.3862  -2.3862  -2.3862  -2.3862  -2.3862  -2.3862  -2.3510  -2.3510
    -2.3510  -2.3510  -2.2656  -2.2656  -2.2356  -2.2356  -2.2356  -2.2356
    -2.2356  -2.2356  -2.2356  -2.2355  -2.0087  -2.0087  -2.0001  -2.0001
    -2.0001  -2.0001  -2.0001  -2.0001  -2.0001  -2.0001  -1.9624  -1.9624
    -1.9624  -1.9624  -1.9624  -1.9624  -1.9624  -1.9624  -1.8856  -1.8856
    -1.8856  -1.8856  -1.8371  -1.8371  -1.8371  -1.8371  -1.7727  -1.7727
    -1.7583  -1.7582  -1.7582  -1.7582  -1.6370  -1.6370  -1.6260  -1.6260
    -1.6260  -1.6260  -1.4517  -1.4517  -1.4517  -1.4517  -1.4517  -1.4516
    -1.4516  -1.4516  -1.3684  -1.3684  -1.3684  -1.3684  -1.3586  -1.3586
    -1.3105  -1.3105  -1.3105  -1.3105  -1.2449  -1.2449  -1.2449  -1.2449
    -1.2414  -1.2414  -1.2414  -1.2414  -1.2414  -1.2414  -1.2414  -1.2414
    -1.1780  -1.1780  -1.1780  -1.1780  -1.0503  -1.0503  -1.0503  -1.0503
    -1.0053  -1.0053  -1.0053  -1.0053  -1.0053  -1.0053  -1.0053  -1.0053
    -0.9327  -0.9327  -0.9327  -0.9327  -0.8465  -0.8465  -0.8465  -0.8465
    -0.8465  -0.8465  -0.8465  -0.8465  -0.7757  -0.7757  -0.7757  -0.7757
    -0.5576  -0.5576  -0.5576  -0.5576  -0.5537  -0.5537  -0.5537  -0.5537
    -0.4546  -0.4546  -0.4546  -0.4546  -0.3733  -0.3733  -0.3733  -0.3733
    -0.2045  -0.2045  -0.2045  -0.2045  -0.0654  -0.0654  -0.0654  -0.0654
     1.3956   1.3956   1.3956   1.3956   1.5939   1.5939   1.5939   1.5939
     1.6622   1.6622   1.6623   1.6623   1.9048   1.9048   1.9048   1.9049
     1.9273   1.9273   1.9273   1.9273   1.9273   1.9273   1.9273   1.9273
     2.4585   2.4585   2.4585   2.4585   2.5518   2.5518   2.5518   2.5518
     2.6456   2.6456   2.6456   2.6457   2.6884   2.6884   2.6885   2.6885
     2.7715   2.7716   2.7716   2.7716   2.7967   2.7967   2.7968   2.7968
     2.8954   2.8954   2.8955   2.8955   2.8955   2.8955   2.8955   2.8955
     3.3694   3.3694   3.3694   3.3695   3.4402   3.4402   3.4403   3.4403
     3.5646   3.5646   3.5646   3.5646   3.5646   3.5646   3.5646   3.5646
     3.7169   3.7169   3.7570   3.7570   3.7943   3.7943   3.7943   3.7943
     3.7944   3.7944   3.7944   3.7945   3.8161   3.8161   3.8331   3.8331
     3.8332   3.8332   3.8634   3.8634   3.8878   3.8878   3.8878   3.8878
     3.8878   3.8878   3.8878   3.8878   3.9196   3.9197   3.9197   3.9197
     3.9197   3.9197   3.9197   3.9197   4.0753   4.0753   4.0818   4.0818
     4.0818   4.0818   4.0818   4.0818   4.0818   4.0818   4.1316   4.1316
     4.1316   4.1316   4.1382   4.1382   4.1382   4.1382   4.1382   4.1382
     4.1382   4.1382   4.1479   4.1479   4.1800   4.1800   4.1981   4.1981
     4.1981   4.1981   4.2459   4.2459   4.2459   4.2459   4.3150   4.3151
     4.4762   4.4762   4.4762   4.4762   4.4762   4.4762   4.4762   4.4762
     4.5485   4.5485   4.5486   4.5486   4.5551   4.5551   4.5551   4.5551
     4.6281   4.6281   4.6281   4.6281   4.6281   4.6281   4.6282   4.6282
     4.6663   4.6663   4.6663   4.6663   4.6663   4.6664   4.6664   4.6664
     4.6921   4.6921   4.7424   4.7425   4.7425   4.7425   4.7464   4.7464
     4.7465   4.7465   4.7662   4.7662   4.7663   4.7664   4.7914   4.7914
     4.7914   4.7914   4.7914   4.7915   4.7915   4.7916   4.8297   4.8297
     4.8298   4.8389

     the Fermi energy is     3.4813 ev

!    total energy              =  -11908.12427203 Ry
     estimated scf accuracy    <       0.00000219 Ry
     smearing contrib. (-TS)   =      -0.02089449 Ry
     internal energy E=F+TS    =  -11908.10337754 Ry

     The total energy is F=E-TS. E is the sum of the following terms:
     one-electron contribution = -156514.54090064 Ry
     hartree contribution      =   78349.37812765 Ry
     xc contribution           =   -1803.21083797 Ry
     ewald contribution        =   68063.67712902 Ry
     DFT-D3 Dispersion         =      -3.40689560 Ry

     convergence has been achieved in  42 iterations

     negative rho (up, down):  7.715E-02 0.000E+00

     Forces acting on atoms (cartesian axes, Ry/au):

     atom    1 type  1   force =     0.00000000    0.00000000    0.09710285
     atom    2 type  1   force =    -0.00000185    0.00000000   -0.01838906
     atom    3 type  1   force =     0.00000000   -0.00000185   -0.01838906
     atom    4 type  1   force =    -0.00000341   -0.00000341    0.09710202
     atom    5 type  1   force =     0.00000000    0.00000000   -0.01512350
     atom    6 type  1   force =    -0.00000410    0.00000000   -0.02141701
     atom    7 type  1   force =     0.00000000   -0.00000410   -0.02141701
     atom    8 type  1   force =     0.00001189    0.00001189   -0.01511754
     atom    9 type  1   force =     0.00000000   -0.00000336    0.09709896
     atom   10 type  1   force =    -0.00000073    0.00000380   -0.01838028
     atom   11 type  1   force =     0.00000000    0.00000000   -0.01837731
     atom   12 type  1   force =     0.00000168    0.00000000    0.09709823
     atom   13 type  1   force =     0.00000000    0.00001376   -0.01512646
     atom   14 type  1   force =     0.00000284    0.00001176   -0.02142787
     atom   15 type  1   force =     0.00000000    0.00000000   -0.02141851
     atom   16 type  1   force =     0.00000092    0.00000000   -0.01512041
     atom   17 type  1   force =     0.00000000    0.00000336    0.09709896
     atom   18 type  1   force =    -0.00000073   -0.00000380   -0.01838028
     atom   19 type  1   force =     0.00000000    0.00000185   -0.01838906
     atom   20 type  1   force =    -0.00000341    0.00000341    0.09710202
     atom   21 type  1   force =     0.00000000   -0.00001376   -0.01512646
     atom   22 type  1   force =     0.00000284   -0.00001176   -0.02142787
     atom   23 type  1   force =     0.00000000    0.00000410   -0.02141701
     atom   24 type  1   force =     0.00001189   -0.00001189   -0.01511754
     atom   25 type  1   force =    -0.00000336    0.00000000    0.09709896
     atom   26 type  1   force =     0.00000000    0.00000000   -0.01837731
     atom   27 type  1   force =     0.00000380   -0.00000073   -0.01838028
     atom   28 type  1   force =     0.00000000    0.00000168    0.09709823
     atom   29 type  1   force =     0.00001376    0.00000000   -0.01512646
     atom   30 type  1   force =     0.00000000    0.00000000   -0.02141851
     atom   31 type  1   force =     0.00001176    0.00000284   -0.02142787
     atom   32 type  1   force =     0.00000000    0.00000092   -0.01512041
     atom   33 type  1   force =    -0.00000163   -0.00000163    0.09709417
     atom   34 type  1   force =     0.00000000    0.00000080   -0.01837941
     atom   35 type  1   force =     0.00000080    0.00000000   -0.01837941
     atom   36 type  1   force =     0.00000000    0.00000000    0.09709198
     atom   37 type  1   force =    -0.00000244   -0.00000244   -0.01511055
     atom   38 type  1   force =     0.00000000    0.00001209   -0.02142689
     atom   39 type  1   force =     0.00001209    0.00000000   -0.02142689
     atom   40 type  1   force =     0.00000000    0.00000000   -0.01511264
     atom   41 type  1   force =    -0.00000163    0.00000163    0.09709417
     atom   42 type  1   force =     0.00000000   -0.00000080   -0.01837941
     atom   43 type  1   force =     0.00000380    0.00000073   -0.01838028
     atom   44 type  1   force =     0.00000000   -0.00000168    0.09709823
     atom   45 type  1   force =    -0.00000244    0.00000244   -0.01511055
     atom   46 type  1   force =    -0.00000000   -0.00001209   -0.02142689
     atom   47 type  1   force =     0.00001176   -0.00000284   -0.02142787
     atom   48 type  1   force =     0.00000000   -0.00000092   -0.01512041
     atom   49 type  1   force =     0.00000336    0.00000000    0.09709896
     atom   50 type  1   force =     0.00000185    0.00000000   -0.01838906
     atom   51 type  1   force =    -0.00000380   -0.00000073   -0.01838028
     atom   52 type  1   force =     0.00000341   -0.00000341    0.09710202
     atom   53 type  1   force =    -0.00001376   -0.00000000   -0.01512646
     atom   54 type  1   force =     0.00000410    0.00000000   -0.02141701
     atom   55 type  1   force =    -0.00001176    0.00000284   -0.02142787
     atom   56 type  1   force =    -0.00001189    0.00001189   -0.01511754
     atom   57 type  1   force =     0.00000163   -0.00000163    0.09709417
     atom   58 type  1   force =     0.00000073    0.00000380   -0.01838028
     atom   59 type  1   force =    -0.00000080    0.00000000   -0.01837941
     atom   60 type  1   force =    -0.00000168    0.00000000    0.09709823
     atom   61 type  1   force =     0.00000244   -0.00000244   -0.01511055
     atom   62 type  1   force =    -0.00000284    0.00001176   -0.02142787
     atom   63 type  1   force =    -0.00001209   -0.00000000   -0.02142689
     atom   64 type  1   force =    -0.00000092    0.00000000   -0.01512041
     atom   65 type  1   force =     0.00000163    0.00000163    0.09709417
     atom   66 type  1   force =     0.00000073   -0.00000380   -0.01838028
     atom   67 type  1   force =    -0.00000380    0.00000073   -0.01838028
     atom   68 type  1   force =     0.00000341    0.00000341    0.09710202
     atom   69 type  1   force =     0.00000244    0.00000244   -0.01511055
     atom   70 type  1   force =    -0.00000284   -0.00001176   -0.02142787
     atom   71 type  1   force =    -0.00001176   -0.00000284   -0.02142787
     atom   72 type  1   force =    -0.00001189   -0.00001189   -0.01511754
     atom   73 type  2   force =     0.00000000    0.00000558   -0.05185371
     atom   74 type  2   force =     0.00000558    0.00000000   -0.05185371
     atom   75 type  2   force =     0.00000000    0.00000000   -0.01074373
     atom   76 type  2   force =     0.00000817    0.00000817   -0.01074090
     atom   77 type  2   force =     0.00000000    0.00001601    0.01365632
     atom   78 type  2   force =     0.00001601    0.00000000    0.01365632
     atom   79 type  2   force =     0.00000000    0.00000000    0.00676601
     atom   80 type  2   force =     0.00000696    0.00000696    0.00676186
     atom   81 type  2   force =     0.00000000    0.00000000   -0.05183906
     atom   82 type  2   force =     0.00000103    0.00000362   -0.05184387
     atom   83 type  2   force =     0.00000000    0.00001384   -0.01073395
     atom   84 type  2   force =     0.00000033    0.00000000   -0.01073661
     atom   85 type  2   force =     0.00000000    0.00000000    0.01365696
     atom   86 type  2   force =    -0.00000980    0.00001185    0.01365027
     atom   87 type  2   force =     0.00000000    0.00000165    0.00674617
     atom   88 type  2   force =    -0.00000172   -0.00000000    0.00675547
     atom   89 type  2   force =     0.00000000   -0.00000558   -0.05185371
     atom   90 type  2   force =     0.00000103   -0.00000362   -0.05184387
     atom   91 type  2   force =     0.00000000   -0.00001384   -0.01073395
     atom   92 type  2   force =     0.00000817   -0.00000817   -0.01074090
     atom   93 type  2   force =     0.00000000   -0.00001601    0.01365632
     atom   94 type  2   force =    -0.00000980   -0.00001185    0.01365027
     atom   95 type  2   force =     0.00000000   -0.00000165    0.00674617
     atom   96 type  2   force =     0.00000696   -0.00000696    0.00676186
     atom   97 type  2   force =     0.00000362    0.00000103   -0.05184387
     atom   98 type  2   force =     0.00000000    0.00000000   -0.05183906
     atom   99 type  2   force =     0.00001384    0.00000000   -0.01073395
     atom  100 type  2   force =    -0.00000000    0.00000033   -0.01073661
     atom  101 type  2   force =     0.00001185   -0.00000980    0.01365027
     atom  102 type  2   force =     0.00000000    0.00000000    0.01365696
     atom  103 type  2   force =     0.00000165    0.00000000    0.00674617
     atom  104 type  2   force =    -0.00000000   -0.00000172    0.00675547
     atom  105 type  2   force =     0.00000199    0.00000000   -0.05183531
     atom  106 type  2   force =     0.00000000    0.00000199   -0.05183531
     atom  107 type  2   force =     0.00000591    0.00000591   -0.01074487
     atom  108 type  2   force =     0.00000000    0.00000000   -0.01075216
     atom  109 type  2   force =    -0.00001212    0.00000000    0.01363886
     atom  110 type  2   force =     0.00000000   -0.00001212    0.01363886
     atom  111 type  2   force =    -0.00000717   -0.00000717    0.00676987
     atom  112 type  2   force =     0.00000000    0.00000000    0.00678414
     atom  113 type  2   force =     0.00000362   -0.00000103   -0.05184387
     atom  114 type  2   force =     0.00000000   -0.00000199   -0.05183531
     atom  115 type  2   force =     0.00000591   -0.00000591   -0.01074487
     atom  116 type  2   force =     0.00000000   -0.00000033   -0.01073661
     atom  117 type  2   force =     0.00001185    0.00000980    0.01365027
     atom  118 type  2   force =     0.00000000    0.00001212    0.01363886
     atom  119 type  2   force =    -0.00000717    0.00000717    0.00676987
     atom  120 type  2   force =     0.00000000    0.00000172    0.00675547
     atom  121 type  2   force =    -0.00000362    0.00000103   -0.05184387
     atom  122 type  2   force =    -0.00000558    0.00000000   -0.05185371
     atom  123 type  2   force =    -0.00001384    0.00000000   -0.01073395
     atom  124 type  2   force =    -0.00000817    0.00000817   -0.01074090
     atom  125 type  2   force =    -0.00001185   -0.00000980    0.01365027
     atom  126 type  2   force =    -0.00001601    0.00000000    0.01365632
     atom  127 type  2   force =    -0.00000165    0.00000000    0.00674617
     atom  128 type  2   force =    -0.00000696    0.00000696    0.00676186
     atom  129 type  2   force =    -0.00000199    0.00000000   -0.05183531
     atom  130 type  2   force =    -0.00000103    0.00000362   -0.05184387
     atom  131 type  2   force =    -0.00000591    0.00000591   -0.01074487
     atom  132 type  2   force =    -0.00000033    0.00000000   -0.01073661
     atom  133 type  2   force =     0.00001212    0.00000000    0.01363886
     atom  134 type  2   force =     0.00000980    0.00001185    0.01365027
     atom  135 type  2   force =     0.00000717   -0.00000717    0.00676987
     atom  136 type  2   force =     0.00000172    0.00000000    0.00675547
     atom  137 type  2   force =    -0.00000362   -0.00000103   -0.05184387
     atom  138 type  2   force =    -0.00000103   -0.00000362   -0.05184387
     atom  139 type  2   force =    -0.00000591   -0.00000591   -0.01074487
     atom  140 type  2   force =    -0.00000817   -0.00000817   -0.01074090
     atom  141 type  2   force =    -0.00001185    0.00000980    0.01365027
     atom  142 type  2   force =     0.00000980   -0.00001185    0.01365027
     atom  143 type  2   force =     0.00000717    0.00000717    0.00676987
     atom  144 type  2   force =    -0.00000696   -0.00000696    0.00676186

     Total force =     0.128657     Total SCF correction =     0.006682

     BFGS Geometry Optimization
     Energy error            =      1.4E-01 Ry
     Gradient error          =      2.1E-02 Ry/Bohr

     number of scf cycles    =   1
     number of bfgs steps    =   0

     energy             new  =  -11908.1242720283 Ry

     new trust radius        =       0.0214278776 bohr
     new conv_thr            =       0.0000050000 Ry


ATOMIC_POSITIONS (angstrom)
V                0.0000000000        0.0000000000       10.0000000000    0   0   0
V                2.0432625400        0.0000000000       12.0432625400    0   0   0
V                0.0000000000        2.0432625400       12.0432625400    0   0   0
V                2.0432625400        2.0432625400       10.0000000000    0   0   0
V                0.0000001400        0.0000001700       14.2644569397
V                2.0432604122        0.0000000600       16.0964916268
V               -0.0000000900        2.0432603322       16.0964914368
V                2.0432687924        2.0432687024       14.2644602811
V                0.0000000000        4.0865250700       10.0000000000    0   0   0
V                2.0432625400        4.0865250700       12.0432625400    0   0   0
V                0.0000000000        6.1297876100       12.0432625400    0   0   0
V                2.0432625400        6.1297876100       10.0000000000    0   0   0
V                0.0000001200        4.0865324499       14.2644555803
V                2.0432640025        4.0865313353       16.0964859273
V               -0.0000001500        6.1297875000       16.0964908246
V                2.0432629891        6.1297873900       14.2644586841
V                0.0000000000        8.1730501500       10.0000000000    0   0   0
V                2.0432625400        8.1730501500       12.0432625400    0   0   0
V                0.0000000000       10.2163126900       12.0432625400    0   0   0
V                2.0432625400       10.2163126900       10.0000000000    0   0   0
V               -0.0000002100        8.1730425201       14.2644555603
V                2.0432640825        8.1730440847       16.0964857473
V               -0.0000000100       10.2163147878       16.0964917068
V                2.0432687224       10.2163062776       14.2644600711
V                4.0865250700        0.0000000000       10.0000000000    0   0   0
V                6.1297876100        0.0000000000       12.0432625400    0   0   0
V                4.0865250700        2.0432625400       12.0432625400    0   0   0
V                6.1297876100        2.0432625400       10.0000000000    0   0   0
V                4.0865324699        0.0000001700       14.2644554903
V                6.1297876200        0.0000000500       16.0964914046
V                4.0865311453        2.0432640825       16.0964860373
V                6.1297873700        2.0432630691       14.2644586841
V                4.0865250700        4.0865250700       10.0000000000    0   0   0
V                6.1297876100        4.0865250700       12.0432625400    0   0   0
V                4.0865250700        6.1297876100       12.0432625400    0   0   0
V                6.1297876100        6.1297876100       10.0000000000    0   0   0
V                4.0865239099        4.0865237199       14.2644638708
V                6.1297875500        4.0865314559       16.0964864506
V                4.0865314059        6.1297875500       16.0964862106
V                6.1297874000        6.1297875000       14.2644625355
V                4.0865250700        8.1730501500       10.0000000000    0   0   0
V                6.1297876100        8.1730501500       12.0432625400    0   0   0
V                4.0865250700       10.2163126900       12.0432625400    0   0   0
V                6.1297876100       10.2163126900       10.0000000000    0   0   0
V                4.0865239299        8.1730516201       14.2644638808
V                6.1297875800        8.1730436841       16.0964861706
V                4.0865311653       10.2163110675       16.0964855073
V                6.1297875400       10.2163119309       14.2644587541
V                8.1730501500        0.0000000000       10.0000000000    0   0   0
V               10.2163126900        0.0000000000       12.0432625400    0   0   0
V                8.1730501500        2.0432625400       12.0432625400    0   0   0
V               10.2163126900        2.0432625400       10.0000000000    0   0   0
V                8.1730427201        0.0000000500       14.2644554703
V               10.2163148678        0.0000001000       16.0964915668
V                8.1730440347        2.0432640825       16.0964862773
V               10.2163064876        2.0432687224       14.2644599411
V                8.1730501500        4.0865250700       10.0000000000    0   0   0
V               10.2163126900        4.0865250700       12.0432625400    0   0   0
V                8.1730501500        6.1297876100       12.0432625400    0   0   0
V               10.2163126900        6.1297876100       10.0000000000    0   0   0
V                8.1730511401        4.0865239099       14.2644637908
V               10.2163111275        4.0865313653       16.0964857273
V                8.1730438541        6.1297876500       16.0964864406
V               10.2163123109        6.1297875900       14.2644588041
V                8.1730501500        8.1730501500       10.0000000000    0   0   0
V               10.2163126900        8.1730501500       12.0432625400    0   0   0
V                8.1730501500       10.2163126900       12.0432625400    0   0   0
V               10.2163126900       10.2163126900       10.0000000000    0   0   0
V                8.1730514901        8.1730513701       14.2644639908
V               10.2163111275        8.1730438847       16.0964859173
V                8.1730439047       10.2163111675       16.0964855273
V               10.2163063676       10.2163062376       14.2644600511
N                0.0000000000        2.0432625400       10.0000000000    0   0   0
N                2.0432625400        0.0000000000       10.0000000000    0   0   0
N                0.0000000000        0.0000000000       12.0432625400    0   0   0
N                2.0432625400        2.0432625400       12.0432625400    0   0   0
N                0.0000001100        2.0432712106       14.1544039332
N                2.0432709806        0.0000001000       14.1544036332
N               -0.0000000300       -0.0000000400       16.3476823982
N                2.0432662917        2.0432662117       16.3476805100
N                0.0000000000        6.1297876100       10.0000000000    0   0   0
N                2.0432625400        4.0865250700       10.0000000000    0   0   0
N                0.0000000000        4.0865250700       12.0432625400    0   0   0
N                2.0432625400        6.1297876100       12.0432625400    0   0   0
N               -0.0000000400        6.1297876300       14.1544037718
N                2.0432574427        4.0865314192       14.1544004594
N               -0.0000001500        4.0865259352       16.3476719469
N                2.0432615596        6.1297874600       16.3476769293
N                0.0000000000       10.2163126900       10.0000000000    0   0   0
N                2.0432625400        8.1730501500       10.0000000000    0   0   0
N                0.0000000000        8.1730501500       12.0432625400    0   0   0
N                2.0432625400       10.2163126900       12.0432625400    0   0   0
N                0.0000000200       10.2163040194       14.1544034532
N                2.0432574327        8.1730439608       14.1544005994
N                0.0000000800        8.1730493948       16.3476719169
N                2.0432662217       10.2163090283       16.3476804200
N                4.0865250700        2.0432625400       10.0000000000    0   0   0
N                6.1297876100        0.0000000000       10.0000000000    0   0   0
N                4.0865250700        0.0000000000       12.0432625400    0   0   0
N                6.1297876100        2.0432625400       12.0432625400    0   0   0
N                4.0865312292        2.0432575027       14.1544002894
N                6.1297875500        0.0000000900       14.1544036018
N                4.0865258852       -0.0000000300       16.3476724369
N                6.1297876600        2.0432616696       16.3476773493
N                4.0865250700        6.1297876100       10.0000000000    0   0   0
N                6.1297876100        4.0865250700       10.0000000000    0   0   0
N                4.0865250700        4.0865250700       12.0432625400    0   0   0
N                6.1297876100        6.1297876100       12.0432625400    0   0   0
N                4.0865185263        6.1297874900       14.1543946357
N                6.1297876500        4.0865184563       14.1543943057
N                4.0865213554        4.0865212354       16.3476849025
N                6.1297876300        6.1297875100       16.3476922639
N                4.0865250700       10.2163126900       10.0000000000    0   0   0
N                6.1297876100        8.1730501500       10.0000000000    0   0   0
N                4.0865250700        8.1730501500       12.0432625400    0   0   0
N                6.1297876100       10.2163126900       12.0432625400    0   0   0
N                4.0865311992       10.2163175473       14.1544007194
N                6.1297875600        8.1730567737       14.1543946357
N                4.0865213354        8.1730541146       16.3476844425
N                6.1297876400       10.2163136904       16.3476770993
N                8.1730501500        2.0432625400       10.0000000000    0   0   0
N               10.2163126900        0.0000000000       10.0000000000    0   0   0
N                8.1730501500        0.0000000000       12.0432625400    0   0   0
N               10.2163126900        2.0432625400       12.0432625400    0   0   0
N                8.1730438808        2.0432573827       14.1544001494
N               10.2163043094       -0.0000001200       14.1544037332
N                8.1730492248        0.0000000100       16.3476721469
N               10.2163090583        2.0432662217       16.3476804300
N                8.1730501500        6.1297876100       10.0000000000    0   0   0
N               10.2163126900        4.0865250700       10.0000000000    0   0   0
N                8.1730501500        4.0865250700       12.0432625400    0   0   0
N               10.2163126900        6.1297876100       12.0432625400    0   0   0
N                8.1730565537        6.1297873400       14.1543942057
N               10.2163178373        4.0865313992       14.1544007394
N                8.1730540446        4.0865212254       16.3476846125
N               10.2163136704        6.1297876700       16.3476768793
N                8.1730501500       10.2163126900       10.0000000000    0   0   0
N               10.2163126900        8.1730501500       10.0000000000    0   0   0
N                8.1730501500        8.1730501500       12.0432625400    0   0   0
N               10.2163126900       10.2163126900       12.0432625400    0   0   0
N                8.1730438108       10.2163178573       14.1544006894
N               10.2163178273        8.1730437608       14.1544001094
N                8.1730539546        8.1730540146       16.3476846025
N               10.2163090483       10.2163089483       16.3476804500



     Writing config-only to output data dir ./tmp/VN_slab.save/ :
     XML data file
     NEW-OLD atomic charge density approx. for the potential

     Check: negative core charge=   -0.000004

     negative rho (up, down):  7.720E-02 0.000E+00

     total cpu time spent up to now is     3547.3 secs

     per-process dynamical memory:   790.1 Mb

     Self-consistent Calculation

     iteration #  1     ecut=    45.00 Ry     beta= 0.25
     Davidson diagonalization with overlap
     ethr =  1.00E-06,  avg # of iterations =  8.0

     negative rho (up, down):  7.719E-02 0.000E+00

     total cpu time spent up to now is     3737.8 secs

     total energy              =  -11908.13288679 Ry
     estimated scf accuracy    <       0.01480218 Ry

     iteration #  2     ecut=    45.00 Ry     beta= 0.25
     Davidson diagonalization with overlap
     c_bands:  2 eigenvalues not converged
     ethr =  1.14E-06,  avg # of iterations = 24.7

     negative rho (up, down):  7.719E-02 0.000E+00

     total cpu time spent up to now is     3952.0 secs

     total energy              =  -11908.11147009 Ry
     estimated scf accuracy    <       1.27384127 Ry

     iteration #  3     ecut=    45.00 Ry     beta= 0.25
     Davidson diagonalization with overlap
     c_bands:  1 eigenvalues not converged
     ethr =  1.14E-06,  avg # of iterations = 18.5

     negative rho (up, down):  7.720E-02 0.000E+00

     total cpu time spent up to now is     4073.1 secs

     total energy              =  -11908.12753486 Ry
     estimated scf accuracy    <       0.89413586 Ry

     iteration #  4     ecut=    45.00 Ry     beta= 0.25
     Davidson diagonalization with overlap
     ethr =  1.14E-06,  avg # of iterations = 12.0

     negative rho (up, down):  7.722E-02 0.000E+00

     total cpu time spent up to now is     4165.7 secs

     total energy              =  -11908.13727394 Ry
     estimated scf accuracy    <       0.01445707 Ry

     iteration #  5     ecut=    45.00 Ry     beta= 0.25
     Davidson diagonalization with overlap
     ethr =  1.12E-06,  avg # of iterations =  2.0

     negative rho (up, down):  7.722E-02 0.000E+00

     total cpu time spent up to now is     4237.5 secs

     total energy              =  -11908.13751432 Ry
     estimated scf accuracy    <       0.00501350 Ry

     iteration #  6     ecut=    45.00 Ry     beta= 0.25
     Davidson diagonalization with overlap
     ethr =  3.87E-07,  avg # of iterations =  4.8

     negative rho (up, down):  7.722E-02 0.000E+00

     total cpu time spent up to now is     4314.0 secs

     total energy              =  -11908.13745695 Ry
     estimated scf accuracy    <       0.01841701 Ry

     iteration #  7     ecut=    45.00 Ry     beta= 0.25
     Davidson diagonalization with overlap
     ethr =  3.87E-07,  avg # of iterations =  1.0

     negative rho (up, down):  7.722E-02 0.000E+00

     total cpu time spent up to now is     4374.7 secs

     total energy              =  -11908.13774136 Ry
     estimated scf accuracy    <       0.00142017 Ry

     iteration #  8     ecut=    45.00 Ry     beta= 0.25
     Davidson diagonalization with overlap
     ethr =  1.10E-07,  avg # of iterations =  2.5

     negative rho (up, down):  7.722E-02 0.000E+00

     total cpu time spent up to now is     4455.2 secs

     total energy              =  -11908.13777489 Ry
     estimated scf accuracy    <       0.00077026 Ry

     iteration #  9     ecut=    45.00 Ry     beta= 0.25
     Davidson diagonalization with overlap
     ethr =  5.94E-08,  avg # of iterations =  2.7

     negative rho (up, down):  7.722E-02 0.000E+00

     total cpu time spent up to now is     4533.3 secs

     total energy              =  -11908.13777177 Ry
     estimated scf accuracy    <       0.00076183 Ry

     iteration # 10     ecut=    45.00 Ry     beta= 0.25
     Davidson diagonalization with overlap
     ethr =  5.88E-08,  avg # of iterations =  1.8

     negative rho (up, down):  7.722E-02 0.000E+00

     total cpu time spent up to now is     4603.0 secs

     total energy              =  -11908.13779431 Ry
     estimated scf accuracy    <       0.00025899 Ry

     iteration # 11     ecut=    45.00 Ry     beta= 0.25
     Davidson diagonalization with overlap
     ethr =  2.00E-08,  avg # of iterations =  4.5

     negative rho (up, down):  7.722E-02 0.000E+00

     total cpu time spent up to now is     4677.9 secs

     total energy              =  -11908.13780563 Ry
     estimated scf accuracy    <       0.00004022 Ry

     iteration # 12     ecut=    45.00 Ry     beta= 0.25
     Davidson diagonalization with overlap
     ethr =  3.10E-09,  avg # of iterations =  8.2

     negative rho (up, down):  7.722E-02 0.000E+00

     total cpu time spent up to now is     4768.3 secs

     total energy              =  -11908.13779900 Ry
     estimated scf accuracy    <       0.00042065 Ry

     iteration # 13     ecut=    45.00 Ry     beta= 0.25
     Davidson diagonalization with overlap
     ethr =  3.10E-09,  avg # of iterations =  5.5

     negative rho (up, down):  7.723E-02 0.000E+00

     total cpu time spent up to now is     4846.7 secs

     total energy              =  -11908.13780812 Ry
     estimated scf accuracy    <       0.00007846 Ry

     iteration # 14     ecut=    45.00 Ry     beta= 0.25
     Davidson diagonalization with overlap
     ethr =  3.10E-09,  avg # of iterations =  5.0

     negative rho (up, down):  7.723E-02 0.000E+00

     total cpu time spent up to now is     4920.1 secs

     total energy              =  -11908.13780931 Ry
     estimated scf accuracy    <       0.00005329 Ry

     iteration # 15     ecut=    45.00 Ry     beta= 0.25
     Davidson diagonalization with overlap
     ethr =  3.10E-09,  avg # of iterations =  4.3

     negative rho (up, down):  7.723E-02 0.000E+00

     total cpu time spent up to now is     5000.0 secs

     total energy              =  -11908.13780720 Ry
     estimated scf accuracy    <       0.00038780 Ry

     iteration # 16     ecut=    45.00 Ry     beta= 0.25
     Davidson diagonalization with overlap
     ethr =  3.10E-09,  avg # of iterations =  2.8

     negative rho (up, down):  7.723E-02 0.000E+00

     total cpu time spent up to now is     5078.6 secs

     total energy              =  -11908.13780782 Ry
     estimated scf accuracy    <       0.00020118 Ry

     iteration # 17     ecut=    45.00 Ry     beta= 0.25
     Davidson diagonalization with overlap
     ethr =  3.10E-09,  avg # of iterations =  1.5

     negative rho (up, down):  7.723E-02 0.000E+00

     total cpu time spent up to now is     5149.5 secs

     total energy              =  -11908.13781055 Ry
     estimated scf accuracy    <       0.00004883 Ry

     iteration # 18     ecut=    45.00 Ry     beta= 0.25
     Davidson diagonalization with overlap
     ethr =  3.10E-09,  avg # of iterations =  1.8

     negative rho (up, down):  7.723E-02 0.000E+00

     total cpu time spent up to now is     5218.1 secs

     total energy              =  -11908.13781106 Ry
     estimated scf accuracy    <       0.00003104 Ry

     iteration # 19     ecut=    45.00 Ry     beta= 0.25
     Davidson diagonalization with overlap
     ethr =  2.39E-09,  avg # of iterations =  1.3

     negative rho (up, down):  7.723E-02 0.000E+00

     total cpu time spent up to now is     5287.0 secs

     total energy              =  -11908.13781133 Ry
     estimated scf accuracy    <       0.00003222 Ry

     iteration # 20     ecut=    45.00 Ry     beta= 0.25
     Davidson diagonalization with overlap
     ethr =  2.39E-09,  avg # of iterations =  1.0

     negative rho (up, down):  7.723E-02 0.000E+00

     total cpu time spent up to now is     5347.5 secs

     total energy              =  -11908.13781196 Ry
     estimated scf accuracy    <       0.00000984 Ry

     iteration # 21     ecut=    45.00 Ry     beta= 0.25
     Davidson diagonalization with overlap
     ethr =  7.59E-10,  avg # of iterations =  2.3

     negative rho (up, down):  7.724E-02 0.000E+00

     total cpu time spent up to now is     5420.0 secs

     total energy              =  -11908.13781260 Ry
     estimated scf accuracy    <       0.00001082 Ry

     iteration # 22     ecut=    45.00 Ry     beta= 0.25
     Davidson diagonalization with overlap
     ethr =  7.59E-10,  avg # of iterations =  1.7

     negative rho (up, down):  7.724E-02 0.000E+00

     total cpu time spent up to now is     5490.0 secs

     total energy              =  -11908.13781242 Ry
     estimated scf accuracy    <       0.00000783 Ry

     iteration # 23     ecut=    45.00 Ry     beta= 0.25
     Davidson diagonalization with overlap
     ethr =  6.04E-10,  avg # of iterations =  1.0

     negative rho (up, down):  7.724E-02 0.000E+00

     total cpu time spent up to now is     5551.7 secs

     End of self-consistent calculation

          k = 0.0000 0.0000 0.0000 (135157 PWs)   bands (ev):

   -61.8679 -61.8493 -61.8493 -61.8493 -61.8492 -61.8384 -61.8383 -61.8383
   -61.8383 -61.8213 -61.8212 -61.8212 -61.8212 -61.8156 -61.8156 -61.8156
   -61.8155 -61.8011 -61.7902 -61.7803 -61.7803 -61.7803 -61.7802 -61.7769
   -61.7769 -61.7769 -61.7768 -61.7755 -61.7667 -61.7667 -61.7667 -61.7666
   -61.7594 -61.7594 -61.7594 -61.7592 -61.7516 -61.7516 -61.7515 -61.7515
   -61.7470 -61.7341 -61.7341 -61.7340 -61.7340 -61.7069 -61.7069 -61.7069
   -61.7068 -61.7049 -61.7048 -61.7048 -61.7048 -61.6872 -61.6769 -61.6769
   -61.6769 -61.6769 -61.6764 -61.6764 -61.6763 -61.6763 -61.6737 -61.6720
   -61.6719 -61.6719 -61.6719 -61.6657 -61.6656 -61.6656 -61.6655 -61.6564
   -35.9520 -35.9520 -35.9519 -35.9519 -35.9227 -35.9227 -35.9209 -35.9209
   -35.9209 -35.9209 -35.9069 -35.9069 -35.9069 -35.9069 -35.8878 -35.8878
   -35.8878 -35.8877 -35.8700 -35.8700 -35.8700 -35.8700 -35.8635 -35.8635
   -35.8635 -35.8635 -35.8616 -35.8616 -35.8573 -35.8573 -35.8573 -35.8573
   -35.8475 -35.8475 -35.8475 -35.8475 -35.8325 -35.8325 -35.8325 -35.8325
   -35.8200 -35.8199 -35.8199 -35.8199 -35.8149 -35.8026 -35.8026 -35.8026
   -35.8025 -35.7971 -35.7971 -35.7971 -35.7971 -35.7913 -35.7913 -35.7913
   -35.7913 -35.7686 -35.7686 -35.7685 -35.7685 -35.7569 -35.7569 -35.7569
   -35.7569 -35.7457 -35.7457 -35.7272 -35.7272 -35.7271 -35.7271 -35.7173
   -35.7173 -35.7173 -35.7173 -35.6951 -35.6951 -35.6951 -35.6951 -35.6933
   -35.6858 -35.6858 -35.6858 -35.6858 -35.6663 -35.6663 -35.6663 -35.6663
   -35.6625 -35.6625 -35.6611 -35.6611 -35.6611 -35.6611 -35.6576 -35.6512
   -35.6512 -35.6512 -35.6512 -35.6466 -35.6465 -35.6465 -35.6465 -35.6272
   -35.6272 -35.6272 -35.6272 -35.6227 -35.6227 -35.6166 -35.6166 -35.6165
   -35.6165 -35.6145 -35.6145 -35.6144 -35.6144 -35.5998 -35.5998 -35.5971
   -35.5971 -35.5971 -35.5971 -35.5934 -35.5934 -35.5933 -35.5933 -35.5928
   -35.5928 -35.5928 -35.5928 -35.5824 -35.5772 -35.5772 -35.5772 -35.5772
   -35.5726 -35.5725 -35.5725 -35.5725 -35.5602 -35.5602 -35.5602 -35.5601
   -35.5539 -35.5503 -35.5503 -35.5503 -35.5502 -35.5469 -35.5469 -35.5468
   -35.5468 -35.5460 -35.5460 -35.5459 -35.5459 -35.5422 -35.5422 -35.5372
   -35.5372 -35.5372 -35.5371 -35.5363 -35.5363 -35.5362 -35.5362 -35.5297
   -35.5288 -35.5288 -35.5287 -35.5287 -35.5007 -35.5007 -35.5007 -35.5007
   -35.4863 -35.4863 -35.4863 -35.4863 -35.4779 -35.4779 -35.4779 -35.4779
   -35.4723 -35.4723 -35.4723 -35.4723 -35.4571 -35.4564 -35.4564 -35.4564
   -35.4564 -35.4541 -35.4541 -35.4540 -35.4540 -35.4407 -35.4407 -35.4046
   -35.4046 -35.4046 -35.4046 -35.4000 -35.3999 -35.3999 -35.3999 -35.3728
   -35.3719 -35.3719 -35.3718 -35.3718 -35.3549 -35.3548 -35.3548 -35.3548
   -14.1339 -13.4753 -13.4753 -13.4753 -13.4753 -13.3186 -12.8726 -12.8726
   -12.8726 -12.8726 -12.7429 -12.7429 -12.7429 -12.7429 -12.6422 -12.6197
   -12.6197 -12.6197 -12.6196 -12.5027 -12.4555 -12.4101 -12.2875 -12.2875
   -12.2874 -12.2874 -12.2769 -12.2769 -12.2769 -12.2769 -12.2577 -12.2577
   -12.2577 -12.2577 -12.0922 -12.0922 -12.0922 -12.0922 -12.0322 -12.0322
   -12.0322 -12.0322 -11.9118 -11.9118 -11.9118 -11.9118 -11.8166 -11.6726
   -11.6726 -11.6726 -11.6725 -11.6369 -11.6369 -11.6369 -11.6369 -11.5628
   -11.4648 -11.4648 -11.4648 -11.4648 -11.4395 -11.4395 -11.4395 -11.4395
   -11.4323 -11.4323 -11.4323 -11.4323 -11.2044 -11.2044 -11.2044 -11.2044
    -4.5727  -4.5727  -4.5727  -4.5727  -4.3821  -4.3821  -4.3821  -4.3821
    -4.2540  -4.2540  -4.2540  -4.2539  -4.1608  -4.1608  -4.1608  -4.1608
    -3.8225  -3.8225  -3.8225  -3.8225  -3.7009  -3.7009  -3.7009  -3.7009
    -3.5528  -3.5528  -3.5528  -3.5528  -3.5292  -3.5292  -3.5292  -3.5292
    -3.4874  -3.4874  -3.4874  -3.4874  -3.4861  -3.2243  -3.2243  -3.2243
    -3.2243  -3.0515  -3.0515  -3.0514  -3.0514  -3.0180  -3.0180  -3.0088
    -3.0088  -3.0088  -3.0088  -2.9640  -2.9640  -2.9640  -2.9640  -2.8653
    -2.8653  -2.8653  -2.8653  -2.6177  -2.6177  -2.6177  -2.6177  -2.4748
    -2.4748  -2.4388  -2.4388  -2.4388  -2.4388  -2.3720  -2.3359  -2.3359
    -2.3359  -2.3359  -2.3111  -2.3111  -2.3111  -2.3111  -2.3094  -2.3094
    -2.3094  -2.3094  -2.2140  -2.2140  -2.2140  -2.2140  -2.2110  -2.2110
    -2.2109  -2.2109  -2.1785  -2.1785  -2.1785  -2.1785  -2.0454  -2.0453
    -2.0453  -2.0453  -2.0386  -2.0386  -2.0386  -2.0385  -2.0366  -2.0366
    -2.0366  -2.0366  -2.0146  -2.0146  -2.0146  -2.0146  -1.9095  -1.9095
    -1.9095  -1.9095  -1.8457  -1.8457  -1.8457  -1.8457  -1.8188  -1.8188
    -1.8188  -1.8188  -1.8117  -1.7294  -1.7294  -1.7294  -1.7294  -1.7041
    -1.7041  -1.7041  -1.7041  -1.6816  -1.6816  -1.6816  -1.6816  -1.5706
    -1.5706  -1.5706  -1.5705  -1.5591  -1.5591  -1.5512  -1.5512  -1.5512
    -1.5512  -1.4589  -1.4460  -1.4460  -1.4460  -1.4460  -1.3756  -1.3633
    -1.3633  -1.3633  -1.3633  -1.3533  -1.3533  -1.3533  -1.3533  -1.3315
    -1.3315  -1.3315  -1.3315  -1.3000  -1.3000  -1.3000  -1.3000  -1.2044
    -1.2044  -1.2044  -1.2044  -1.1791  -1.1790  -1.1790  -1.1790  -0.9801
    -0.9801  -0.9800  -0.9800  -0.8882  -0.8882  -0.8882  -0.8882  -0.7806
    -0.7806  -0.7547  -0.7547  -0.7547  -0.7547  -0.7401  -0.7401  -0.7401
    -0.7401  -0.5817  -0.5817  -0.5817  -0.5817  -0.3417  -0.3371  -0.3371
    -0.3371  -0.3371  -0.2145  -0.2145  -0.2119  -0.2119  -0.2119  -0.2119
    -0.1603   0.1305   0.1305   0.1483   0.3374   0.3746   0.5784   0.5784
     0.9341   0.9341   0.9529   0.9529   0.9529   0.9529   1.1780   1.1780
     1.3591   1.8560   1.8985   1.8985   1.8985   1.8985   2.2427   2.2427
     2.4436   2.4436   2.4437   2.4437   2.5818   2.5818   2.5818   2.5819
     2.5898   2.5898   2.5898   2.5898   2.6099   2.6099   2.7002   2.7002
     2.7002   2.7002   2.7088   2.7088   2.7088   2.7089   2.7637   2.7637
     2.7637   2.7637   2.9643   3.1242   3.1242   3.1242   3.1242   3.1681
     3.1681   3.1681   3.1681   3.1789   3.2525   3.2525   3.2525   3.2526
     3.2562   3.2562   3.2562   3.2562   3.3149   3.3149   3.3149   3.3149
     3.3484   3.3484   3.3485   3.3485   3.3850   3.3850   3.3850   3.3850
     3.3933   3.4233   3.4233   3.4233   3.4233   3.4241   3.4241   3.4241
     3.4241   3.4248   3.4248   3.4248   3.4248   3.5007   3.5007   3.5007
     3.5008   3.5651   3.5651   3.5651   3.5651   3.6678   3.6678   3.7170
     3.7170   3.7170   3.7170   3.7795   3.7795   3.7795   3.7795   3.8606
     3.9097   3.9097   3.9097   3.9097   3.9865   3.9865   3.9865   3.9865
     4.0240   4.0240   4.0240   4.0240   4.0780   4.0780   4.0780   4.0780
     4.0886   4.0886   4.0886   4.0887   4.1113   4.1508   4.1508   4.2077
     4.2077   4.2077   4.2077   4.2419   4.2420   4.2420   4.2420   4.2475
     4.2475   4.2475   4.2475   4.2960   4.3575   4.3575   4.3575   4.3575
     4.3962   4.3998   4.3998   4.3999   4.3999   4.4468   4.4468   4.4468
     4.4468   4.4865   4.4865   4.4865   4.4865   4.5281   4.5281   4.5281
     4.5281   4.5293   4.5293   4.5293   4.5293   4.5351   4.5351   4.5351
     4.5351   4.5803   4.5803   4.5803   4.5804   4.6164   4.6164   4.6164
     4.6164   4.6271   4.6271   4.6271   4.6271   4.6425   4.6738   4.6738
     4.7392   4.7392   4.7392   4.7392   4.7838   4.7838   4.7838   4.7838
     4.7883   4.8503   4.8503   4.8503   4.8504   4.8580   4.8908   4.9153
     4.9153   4.9250

          k = 0.0000 0.2500 0.0000 (135097 PWs)   bands (ev):

   -61.8666 -61.8569 -61.8485 -61.8485 -61.8427 -61.8427 -61.8406 -61.8336
   -61.8336 -61.8247 -61.8247 -61.8231 -61.8187 -61.8186 -61.8159 -61.8158
   -61.8093 -61.8021 -61.7895 -61.7843 -61.7801 -61.7800 -61.7784 -61.7783
   -61.7755 -61.7749 -61.7748 -61.7739 -61.7697 -61.7696 -61.7648 -61.7639
   -61.7638 -61.7616 -61.7599 -61.7599 -61.7544 -61.7504 -61.7503 -61.7479
   -61.7412 -61.7412 -61.7399 -61.7260 -61.7259 -61.7154 -61.7112 -61.7112
   -61.7051 -61.7050 -61.7047 -61.7047 -61.6966 -61.6881 -61.6790 -61.6790
   -61.6780 -61.6780 -61.6746 -61.6746 -61.6736 -61.6732 -61.6732 -61.6727
   -61.6723 -61.6723 -61.6709 -61.6679 -61.6666 -61.6666 -61.6628 -61.6573
   -35.9567 -35.9567 -35.9372 -35.9372 -35.9334 -35.9334 -35.9290 -35.9290
   -35.9184 -35.9183 -35.9119 -35.9119 -35.9025 -35.9025 -35.8866 -35.8866
   -35.8866 -35.8844 -35.8734 -35.8734 -35.8706 -35.8705 -35.8620 -35.8620
   -35.8603 -35.8572 -35.8560 -35.8560 -35.8507 -35.8507 -35.8477 -35.8477
   -35.8470 -35.8448 -35.8448 -35.8424 -35.8424 -35.8412 -35.8387 -35.8387
   -35.8258 -35.8239 -35.8179 -35.8179 -35.8133 -35.8113 -35.8111 -35.8111
   -35.8106 -35.8106 -35.8082 -35.8045 -35.7910 -35.7910 -35.7838 -35.7838
   -35.7725 -35.7685 -35.7658 -35.7637 -35.7613 -35.7613 -35.7584 -35.7493
   -35.7493 -35.7489 -35.7423 -35.7420 -35.7387 -35.7345 -35.7345 -35.7161
   -35.7140 -35.7140 -35.7019 -35.7003 -35.6981 -35.6908 -35.6894 -35.6894
   -35.6885 -35.6881 -35.6881 -35.6755 -35.6717 -35.6717 -35.6706 -35.6687
   -35.6686 -35.6686 -35.6669 -35.6609 -35.6566 -35.6477 -35.6477 -35.6394
   -35.6394 -35.6394 -35.6394 -35.6388 -35.6357 -35.6355 -35.6355 -35.6286
   -35.6281 -35.6281 -35.6281 -35.6280 -35.6280 -35.6273 -35.6245 -35.6245
   -35.6196 -35.6187 -35.6187 -35.6180 -35.6176 -35.6176 -35.6140 -35.6123
   -35.6123 -35.6099 -35.6059 -35.6058 -35.6044 -35.5961 -35.5883 -35.5882
   -35.5813 -35.5786 -35.5754 -35.5754 -35.5730 -35.5730 -35.5727 -35.5726
   -35.5722 -35.5707 -35.5696 -35.5696 -35.5607 -35.5607 -35.5597 -35.5597
   -35.5556 -35.5556 -35.5553 -35.5547 -35.5547 -35.5541 -35.5541 -35.5493
   -35.5487 -35.5474 -35.5474 -35.5460 -35.5457 -35.5396 -35.5395 -35.5384
   -35.5370 -35.5370 -35.5364 -35.5352 -35.5352 -35.5332 -35.5332 -35.5273
   -35.5273 -35.5238 -35.5122 -35.5122 -35.5082 -35.5059 -35.4955 -35.4955
   -35.4955 -35.4846 -35.4846 -35.4817 -35.4817 -35.4806 -35.4716 -35.4715
   -35.4687 -35.4687 -35.4674 -35.4666 -35.4666 -35.4636 -35.4634 -35.4634
   -35.4561 -35.4561 -35.4535 -35.4535 -35.4531 -35.4446 -35.4438 -35.4213
   -35.4061 -35.4061 -35.4010 -35.4010 -35.3971 -35.3971 -35.3807 -35.3790
   -35.3790 -35.3699 -35.3655 -35.3655 -35.3575 -35.3574 -35.3562 -35.3562
   -14.0867 -13.7379 -13.4313 -13.4313 -13.2755 -13.1956 -13.1096 -13.1096
   -12.9649 -12.7386 -12.7045 -12.7045 -12.6294 -12.6294 -12.6271 -12.5879
   -12.5879 -12.5797 -12.5260 -12.4656 -12.4393 -12.4356 -12.4356 -12.3820
   -12.3820 -12.3732 -12.3304 -12.2968 -12.2968 -12.2758 -12.2577 -12.2577
   -12.2063 -12.1476 -12.1476 -12.1079 -12.1079 -12.1055 -12.0390 -12.0390
   -12.0001 -12.0001 -11.8771 -11.8771 -11.8708 -11.7999 -11.7800 -11.7800
   -11.7186 -11.7053 -11.6830 -11.6500 -11.6500 -11.6318 -11.6318 -11.5473
   -11.5101 -11.5100 -11.5064 -11.5064 -11.4673 -11.4621 -11.4168 -11.4168
   -11.3982 -11.3981 -11.3127 -11.3127 -11.2750 -11.2750 -11.1751 -11.1751
    -4.7282  -4.7282  -4.5545  -4.5545  -4.5220  -4.5220  -4.4045  -4.4045
    -4.3117  -4.3117  -4.1442  -4.1442  -3.9310  -3.9309  -3.8881  -3.8770
    -3.8770  -3.8216  -3.8216  -3.8071  -3.8071  -3.6534  -3.6242  -3.6227
    -3.6227  -3.6176  -3.6176  -3.6045  -3.5892  -3.5892  -3.5414  -3.5414
    -3.5115  -3.5115  -3.5115  -3.4882  -3.3767  -3.3767  -3.2955  -3.2848
    -3.2673  -3.2673  -3.1698  -3.1162  -3.1162  -3.1156  -3.0950  -3.0950
    -3.0110  -2.9421  -2.8934  -2.8934  -2.8777  -2.8776  -2.8009  -2.7551
    -2.7551  -2.7468  -2.7061  -2.6598  -2.6198  -2.6191  -2.6191  -2.5694
    -2.5694  -2.5300  -2.5300  -2.4683  -2.4337  -2.4058  -2.3980  -2.3888
    -2.3888  -2.3870  -2.3870  -2.3797  -2.3797  -2.3788  -2.3788  -2.3448
    -2.2821  -2.2821  -2.2343  -2.2343  -2.2273  -2.2155  -2.2155  -2.2152
    -2.2014  -2.2013  -2.1945  -2.1944  -2.1931  -2.1931  -2.1354  -2.1354
    -2.1155  -2.1154  -2.0545  -2.0544  -2.0542  -1.9970  -1.9970  -1.9848
    -1.9428  -1.9330  -1.9330  -1.9248  -1.9248  -1.9164  -1.9164  -1.8732
    -1.8732  -1.8569  -1.8563  -1.8530  -1.8274  -1.8272  -1.8272  -1.8093
    -1.7683  -1.7683  -1.7662  -1.7662  -1.7606  -1.7605  -1.7425  -1.7425
    -1.7366  -1.7366  -1.7106  -1.6741  -1.6523  -1.6523  -1.6220  -1.6220
    -1.6055  -1.5922  -1.5922  -1.5547  -1.5243  -1.5242  -1.5061  -1.5030
    -1.4563  -1.4563  -1.4553  -1.4553  -1.4279  -1.4104  -1.4104  -1.3984
    -1.3845  -1.3845  -1.3542  -1.3484  -1.2846  -1.2846  -1.2632  -1.2631
    -1.2318  -1.2318  -1.2275  -1.2275  -1.2180  -1.1996  -1.1694  -1.1693
    -1.1113  -1.1071  -1.1071  -1.0417  -1.0417  -1.0363  -1.0345  -1.0018
    -0.9998  -0.9998  -0.9873  -0.9873  -0.9416  -0.8282  -0.8282  -0.8263
    -0.8263  -0.7819  -0.7784  -0.7755  -0.7755  -0.7259  -0.7043  -0.6984
    -0.6921  -0.6463  -0.6463  -0.6344  -0.5038  -0.4425  -0.4425  -0.4371
    -0.4364  -0.4358  -0.4201  -0.4161  -0.3654  -0.3654  -0.3112  -0.1303
    -0.0753  -0.0680   0.0763   0.1635   0.2376   0.6008   0.6264   0.7145
     0.7869   0.7897   0.7953   0.9491   1.1189   1.1371   1.1371   1.1620
     1.6575   1.7104   1.9516   2.0070   2.0070   2.0478   2.0961   2.1034
     2.1034   2.1159   2.2538   2.2843   2.3178   2.3519   2.4597   2.4597
     2.5587   2.5872   2.6068   2.6068   2.6159   2.6159   2.6277   2.7012
     2.7012   2.7288   2.7288   2.7340   2.7340   2.7537   2.7614   2.7614
     2.8625   2.9338   2.9428   2.9428   2.9995   3.0223   3.0223   3.0715
     3.0760   3.0760   3.0927   3.0927   3.1189   3.1575   3.1575   3.1619
     3.1625   3.1625   3.2117   3.2493   3.2493   3.2555   3.2822   3.2823
     3.3176   3.3423   3.3423   3.3451   3.3451   3.3482   3.3482   3.3623
     3.3623   3.3694   3.5285   3.5285   3.5368   3.5369   3.5439   3.5440
     3.5552   3.5552   3.5585   3.5585   3.5861   3.6079   3.6288   3.6488
     3.6792   3.6792   3.6985   3.7172   3.7172   3.7177   3.7238   3.7238
     3.7258   3.7797   3.8189   3.8189   3.8192   3.8192   3.8388   3.8388
     3.8446   3.9508   3.9508   3.9782   3.9960   4.0286   4.0286   4.0700
     4.0700   4.0829   4.1069   4.1159   4.1159   4.1270   4.1333   4.1435
     4.1492   4.1492   4.1584   4.1685   4.1686   4.1779   4.1889   4.1957
     4.1957   4.1971   4.1971   4.2062   4.2063   4.2467   4.2467   4.2994
     4.2994   4.3006   4.3006   4.3114   4.3114   4.3170   4.3209   4.3209
     4.3267   4.3267   4.3352   4.3366   4.3475   4.3825   4.3826   4.3988
     4.3988   4.4026   4.4026   4.4428   4.4550   4.4550   4.4588   4.4912
     4.5015   4.5142   4.5142   4.5210   4.5305   4.5305   4.5574   4.5574
     4.5896   4.5896   4.5996   4.6069   4.6069   4.6097   4.6312   4.6322
     4.6600   4.6614   4.6680   4.7119   4.7143   4.7143   4.7378   4.7378
     4.7401   4.7463   4.7463   4.7546   4.7772   4.7772   4.7914   4.8009
     4.8009   4.8077   4.8077   4.8126   4.8464   4.8494   4.8587   4.8595
     4.8596   4.8896

          k = 0.0000-0.5000 0.0000 (135178 PWs)   bands (ev):

   -61.8629 -61.8628 -61.8463 -61.8463 -61.8462 -61.8461 -61.8317 -61.8317
   -61.8290 -61.8289 -61.8288 -61.8288 -61.8170 -61.8169 -61.8168 -61.8168
   -61.8049 -61.8047 -61.7875 -61.7874 -61.7795 -61.7794 -61.7794 -61.7794
   -61.7725 -61.7724 -61.7724 -61.7724 -61.7703 -61.7703 -61.7692 -61.7692
   -61.7616 -61.7614 -61.7614 -61.7614 -61.7505 -61.7504 -61.7468 -61.7468
   -61.7468 -61.7468 -61.7275 -61.7275 -61.7179 -61.7179 -61.7179 -61.7179
   -61.7047 -61.7046 -61.7046 -61.7046 -61.6911 -61.6911 -61.6792 -61.6792
   -61.6791 -61.6791 -61.6733 -61.6733 -61.6732 -61.6732 -61.6732 -61.6731
   -61.6696 -61.6696 -61.6694 -61.6694 -61.6693 -61.6693 -61.6598 -61.6597
   -35.9505 -35.9505 -35.9504 -35.9504 -35.9260 -35.9260 -35.9259 -35.9259
   -35.9143 -35.9143 -35.9143 -35.9142 -35.9059 -35.9059 -35.9052 -35.9052
   -35.8761 -35.8761 -35.8761 -35.8761 -35.8622 -35.8622 -35.8622 -35.8622
   -35.8558 -35.8557 -35.8505 -35.8505 -35.8505 -35.8505 -35.8444 -35.8444
   -35.8377 -35.8377 -35.8377 -35.8377 -35.8376 -35.8376 -35.8376 -35.8376
   -35.8252 -35.8252 -35.8252 -35.8252 -35.8222 -35.8222 -35.8205 -35.8205
   -35.8205 -35.8205 -35.8092 -35.8092 -35.7921 -35.7921 -35.7890 -35.7890
   -35.7623 -35.7623 -35.7623 -35.7623 -35.7606 -35.7606 -35.7562 -35.7562
   -35.7322 -35.7322 -35.7320 -35.7320 -35.7315 -35.7315 -35.7315 -35.7315
   -35.7204 -35.7204 -35.7204 -35.7204 -35.7194 -35.7194 -35.6824 -35.6824
   -35.6798 -35.6798 -35.6685 -35.6684 -35.6622 -35.6621 -35.6598 -35.6598
   -35.6598 -35.6598 -35.6517 -35.6517 -35.6517 -35.6517 -35.6443 -35.6443
   -35.6402 -35.6402 -35.6402 -35.6402 -35.6400 -35.6400 -35.6400 -35.6400
   -35.6319 -35.6319 -35.6316 -35.6316 -35.6316 -35.6316 -35.6244 -35.6244
   -35.6243 -35.6243 -35.6182 -35.6182 -35.6181 -35.6181 -35.6177 -35.6177
   -35.6143 -35.6142 -35.6142 -35.6142 -35.6105 -35.6105 -35.5821 -35.5821
   -35.5821 -35.5821 -35.5778 -35.5777 -35.5719 -35.5718 -35.5718 -35.5718
   -35.5615 -35.5615 -35.5615 -35.5614 -35.5614 -35.5614 -35.5608 -35.5607
   -35.5607 -35.5607 -35.5560 -35.5559 -35.5514 -35.5514 -35.5514 -35.5514
   -35.5434 -35.5433 -35.5433 -35.5433 -35.5433 -35.5432 -35.5432 -35.5432
   -35.5417 -35.5417 -35.5387 -35.5387 -35.5318 -35.5318 -35.5297 -35.5297
   -35.5297 -35.5297 -35.5135 -35.5135 -35.4888 -35.4888 -35.4842 -35.4842
   -35.4842 -35.4841 -35.4832 -35.4832 -35.4832 -35.4832 -35.4822 -35.4822
   -35.4822 -35.4822 -35.4622 -35.4622 -35.4622 -35.4622 -35.4601 -35.4601
   -35.4601 -35.4601 -35.4538 -35.4537 -35.4530 -35.4529 -35.4407 -35.4406
   -35.4037 -35.4037 -35.4036 -35.4036 -35.3876 -35.3876 -35.3875 -35.3875
   -35.3662 -35.3661 -35.3635 -35.3635 -35.3600 -35.3600 -35.3600 -35.3600
   -13.9498 -13.9498 -13.3044 -13.3044 -13.3044 -13.3044 -13.1520 -13.1520
   -12.9378 -12.9378 -12.5957 -12.5957 -12.5956 -12.5956 -12.5949 -12.5949
   -12.5003 -12.5003 -12.5003 -12.5003 -12.4231 -12.4231 -12.4230 -12.4230
   -12.3939 -12.3938 -12.3605 -12.3605 -12.3591 -12.3591 -12.2671 -12.2671
   -12.2079 -12.2079 -12.2078 -12.2078 -12.0307 -12.0307 -12.0307 -12.0307
   -11.9101 -11.9101 -11.9100 -11.9100 -11.7784 -11.7784 -11.7784 -11.7784
   -11.7566 -11.7565 -11.7495 -11.7495 -11.5885 -11.5885 -11.5884 -11.5884
   -11.5619 -11.5619 -11.5073 -11.5073 -11.4246 -11.4246 -11.4246 -11.4246
   -11.3555 -11.3555 -11.3555 -11.3555 -11.2098 -11.2098 -11.2098 -11.2098
    -4.7246  -4.7246  -4.7245  -4.7245  -4.5321  -4.5321  -4.5320  -4.5320
    -4.0469  -4.0469  -4.0468  -4.0468  -3.8631  -3.8630  -3.8630  -3.8630
    -3.8072  -3.8072  -3.7533  -3.7533  -3.7533  -3.7533  -3.7091  -3.7091
    -3.7090  -3.7090  -3.5921  -3.5921  -3.5921  -3.5921  -3.5125  -3.5125
    -3.4953  -3.4953  -3.4225  -3.4225  -3.4225  -3.4225  -3.3548  -3.3548
    -3.3097  -3.3097  -3.3097  -3.3097  -3.1149  -3.1149  -3.0370  -3.0370
    -3.0370  -3.0370  -2.9878  -2.9877  -2.9434  -2.9434  -2.5929  -2.5929
    -2.5928  -2.5928  -2.5763  -2.5763  -2.5717  -2.5717  -2.5717  -2.5717
    -2.4832  -2.4832  -2.4793  -2.4793  -2.4793  -2.4793  -2.4624  -2.4624
    -2.4624  -2.4624  -2.4472  -2.4472  -2.4359  -2.4359  -2.4326  -2.4326
    -2.4326  -2.4326  -2.3364  -2.3364  -2.3037  -2.3037  -2.3037  -2.3037
    -2.1897  -2.1897  -2.1897  -2.1897  -2.1530  -2.1530  -2.1530  -2.1530
    -2.0699  -2.0699  -2.0695  -2.0695  -1.9834  -1.9834  -1.9834  -1.9834
    -1.9704  -1.9704  -1.9703  -1.9703  -1.9343  -1.9343  -1.8559  -1.8559
    -1.8559  -1.8559  -1.8486  -1.8486  -1.8486  -1.8486  -1.8474  -1.8474
    -1.8474  -1.8474  -1.7288  -1.7288  -1.7288  -1.7288  -1.6688  -1.6688
    -1.6688  -1.6688  -1.6570  -1.6570  -1.5392  -1.5392  -1.5297  -1.5297
    -1.5297  -1.5297  -1.5181  -1.5181  -1.5181  -1.5181  -1.4972  -1.4972
    -1.4701  -1.4701  -1.4701  -1.4701  -1.3869  -1.3869  -1.2979  -1.2979
    -1.2979  -1.2979  -1.2933  -1.2933  -1.2461  -1.2461  -1.2461  -1.2461
    -1.2316  -1.2316  -1.2031  -1.2031  -1.1956  -1.1956  -1.1956  -1.1956
    -1.1408  -1.1408  -0.9600  -0.9600  -0.9600  -0.9600  -0.9466  -0.9466
    -0.9466  -0.9466  -0.9096  -0.9095  -0.8137  -0.8137  -0.8137  -0.8137
    -0.7955  -0.7955  -0.7836  -0.7836  -0.7508  -0.7508  -0.7090  -0.7090
    -0.7090  -0.7090  -0.6500  -0.6500  -0.6500  -0.6500  -0.6070  -0.6070
    -0.5958  -0.5958  -0.4423  -0.4423  -0.4229  -0.4229  -0.0644  -0.0644
    -0.0496  -0.0496   0.0674   0.0674   0.0784   0.0784   0.4160   0.4160
     0.6695   0.6695   1.3200   1.3200   1.4027   1.4027   1.4948   1.4948
     1.5708   1.5708   1.5708   1.5708   1.5716   1.5716   2.1546   2.1546
     2.2890   2.2890   2.2982   2.2982   2.2982   2.2982   2.4823   2.4823
     2.5266   2.5267   2.5267   2.5267   2.5590   2.5590   2.6793   2.6793
     2.6797   2.6797   2.7004   2.7004   2.7004   2.7004   2.7948   2.7948
     2.8445   2.8446   2.8446   2.8446   2.8532   2.8532   2.8532   2.8532
     2.8888   2.8888   2.8888   2.8888   3.0611   3.0611   3.1625   3.1625
     3.1625   3.1625   3.2894   3.2894   3.2894   3.2895   3.3310   3.3310
     3.3310   3.3311   3.3842   3.3842   3.3842   3.3843   3.4224   3.4224
     3.4301   3.4301   3.4301   3.4301   3.4880   3.4880   3.5586   3.5586
     3.5586   3.5586   3.6031   3.6031   3.7192   3.7192   3.7193   3.7193
     3.7314   3.7314   3.8985   3.8985   3.8985   3.8985   3.9053   3.9053
     3.9071   3.9071   3.9072   3.9072   3.9118   3.9119   4.0143   4.0143
     4.0143   4.0143   4.0230   4.0230   4.0338   4.0339   4.0762   4.0762
     4.0762   4.0762   4.0998   4.0998   4.0998   4.0998   4.1030   4.1030
     4.1030   4.1030   4.1082   4.1082   4.1123   4.1123   4.1267   4.1267
     4.1830   4.1831   4.1831   4.1831   4.2532   4.2532   4.2532   4.2532
     4.2602   4.2603   4.2603   4.2603   4.2827   4.2828   4.2832   4.2833
     4.2833   4.2833   4.3844   4.3844   4.4019   4.4019   4.4019   4.4020
     4.4210   4.4210   4.4574   4.4574   4.5270   4.5270   4.5270   4.5270
     4.5368   4.5368   4.5368   4.5368   4.5551   4.5551   4.5552   4.5552
     4.5948   4.5948   4.5987   4.5987   4.6521   4.6522   4.6750   4.6750
     4.6750   4.6750   4.6854   4.6854   4.6855   4.6855   4.7074   4.7074
     4.7165   4.7165   4.7277   4.7277   4.7537   4.7539   4.7999   4.7999
     4.8000   4.8001   4.8005   4.8005   4.8159   4.8159   4.8159   4.8159
     4.8183   4.8240

          k = 0.2500 0.2500 0.0000 (135083 PWs)   bands (ev):

   -61.8653 -61.8559 -61.8558 -61.8484 -61.8401 -61.8401 -61.8364 -61.8363
   -61.8307 -61.8261 -61.8238 -61.8238 -61.8232 -61.8231 -61.8145 -61.8099
   -61.8099 -61.8029 -61.7888 -61.7839 -61.7839 -61.7809 -61.7756 -61.7755
   -61.7753 -61.7752 -61.7741 -61.7724 -61.7715 -61.7678 -61.7678 -61.7652
   -61.7651 -61.7602 -61.7602 -61.7601 -61.7551 -61.7551 -61.7496 -61.7487
   -61.7389 -61.7389 -61.7316 -61.7315 -61.7200 -61.7150 -61.7150 -61.7124
   -61.7123 -61.7117 -61.7003 -61.6969 -61.6968 -61.6890 -61.6819 -61.6807
   -61.6753 -61.6752 -61.6750 -61.6750 -61.6739 -61.6735 -61.6729 -61.6728
   -61.6715 -61.6714 -61.6701 -61.6688 -61.6687 -61.6638 -61.6637 -61.6582
   -35.9685 -35.9565 -35.9427 -35.9342 -35.9342 -35.9338 -35.9315 -35.9190
   -35.9108 -35.9042 -35.9041 -35.9021 -35.9020 -35.9012 -35.9011 -35.8927
   -35.8802 -35.8801 -35.8792 -35.8757 -35.8757 -35.8680 -35.8679 -35.8661
   -35.8644 -35.8583 -35.8569 -35.8557 -35.8535 -35.8535 -35.8519 -35.8519
   -35.8428 -35.8411 -35.8405 -35.8333 -35.8333 -35.8306 -35.8306 -35.8296
   -35.8296 -35.8269 -35.8256 -35.8256 -35.8184 -35.8184 -35.8165 -35.8165
   -35.8121 -35.8073 -35.8073 -35.8034 -35.8034 -35.7888 -35.7888 -35.7876
   -35.7876 -35.7654 -35.7598 -35.7597 -35.7584 -35.7584 -35.7543 -35.7543
   -35.7506 -35.7408 -35.7408 -35.7377 -35.7371 -35.7371 -35.7317 -35.7129
   -35.7128 -35.7105 -35.7105 -35.7067 -35.7066 -35.6945 -35.6945 -35.6863
   -35.6863 -35.6802 -35.6802 -35.6704 -35.6681 -35.6681 -35.6660 -35.6659
   -35.6584 -35.6568 -35.6568 -35.6549 -35.6549 -35.6548 -35.6517 -35.6517
   -35.6516 -35.6484 -35.6484 -35.6382 -35.6338 -35.6338 -35.6318 -35.6318
   -35.6310 -35.6288 -35.6288 -35.6269 -35.6261 -35.6261 -35.6256 -35.6242
   -35.6238 -35.6238 -35.6217 -35.6190 -35.6189 -35.6121 -35.6121 -35.6082
   -35.6017 -35.6003 -35.5980 -35.5980 -35.5950 -35.5948 -35.5947 -35.5935
   -35.5932 -35.5932 -35.5923 -35.5923 -35.5803 -35.5763 -35.5763 -35.5714
   -35.5707 -35.5706 -35.5685 -35.5605 -35.5604 -35.5602 -35.5583 -35.5582
   -35.5578 -35.5577 -35.5551 -35.5550 -35.5516 -35.5516 -35.5511 -35.5510
   -35.5486 -35.5486 -35.5483 -35.5450 -35.5433 -35.5426 -35.5426 -35.5409
   -35.5398 -35.5398 -35.5396 -35.5395 -35.5329 -35.5277 -35.5235 -35.5235
   -35.5178 -35.5101 -35.5088 -35.5013 -35.5013 -35.5007 -35.4995 -35.4995
   -35.4923 -35.4923 -35.4824 -35.4800 -35.4800 -35.4784 -35.4784 -35.4744
   -35.4743 -35.4716 -35.4693 -35.4692 -35.4687 -35.4687 -35.4666 -35.4632
   -35.4551 -35.4551 -35.4531 -35.4510 -35.4499 -35.4464 -35.4411 -35.4216
   -35.4215 -35.4170 -35.3982 -35.3920 -35.3920 -35.3871 -35.3822 -35.3821
   -35.3709 -35.3708 -35.3678 -35.3622 -35.3592 -35.3591 -35.3581 -35.3581
   -14.0396 -13.6925 -13.6925 -13.3585 -13.2328 -13.1536 -13.1535 -12.9243
   -12.9243 -12.8489 -12.8489 -12.7026 -12.7026 -12.6351 -12.6106 -12.5532
   -12.5532 -12.4910 -12.4910 -12.4532 -12.4532 -12.4288 -12.4233 -12.4130
   -12.4060 -12.3364 -12.3143 -12.3143 -12.2530 -12.2530 -12.2513 -12.2513
   -12.2139 -12.2006 -12.1721 -12.1721 -12.1043 -12.1043 -12.0697 -12.0697
   -12.0043 -12.0028 -11.9359 -11.8411 -11.8411 -11.8124 -11.7828 -11.6860
   -11.6860 -11.6851 -11.6851 -11.6580 -11.6580 -11.6391 -11.6391 -11.5619
   -11.5312 -11.4933 -11.4933 -11.4600 -11.4599 -11.4425 -11.4425 -11.4411
   -11.4411 -11.3997 -11.3365 -11.3249 -11.2706 -11.2706 -11.1879 -11.1157
    -4.9185  -4.8254  -4.6922  -4.6323  -4.4420  -4.4420  -4.2552  -4.2552
    -4.2085  -4.2085  -4.0917  -4.0917  -4.0603  -3.9705  -3.9557  -3.9557
    -3.9344  -3.8295  -3.7869  -3.7181  -3.7148  -3.7147  -3.7011  -3.7011
    -3.6645  -3.6645  -3.6485  -3.5802  -3.5801  -3.5297  -3.5296  -3.4918
    -3.4328  -3.4239  -3.4239  -3.4000  -3.4000  -3.3659  -3.3658  -3.3523
    -3.2317  -3.2317  -3.1835  -3.1834  -3.1268  -3.1197  -3.1197  -3.1157
    -3.0819  -3.0078  -3.0078  -2.8563  -2.8563  -2.8392  -2.8392  -2.7632
    -2.7632  -2.7583  -2.7583  -2.6801  -2.6428  -2.5569  -2.5568  -2.5568
    -2.5384  -2.5370  -2.5296  -2.5277  -2.5185  -2.5185  -2.4460  -2.4460
    -2.4341  -2.4302  -2.4218  -2.4070  -2.4070  -2.4038  -2.4038  -2.3749
    -2.3576  -2.3229  -2.3228  -2.2661  -2.2661  -2.2317  -2.2274  -2.2274
    -2.1982  -2.1729  -2.1729  -2.1506  -2.1506  -2.1148  -2.0474  -2.0439
    -2.0439  -2.0386  -2.0386  -2.0255  -2.0255  -2.0195  -2.0195  -1.9892
    -1.9892  -1.9788  -1.9399  -1.9399  -1.9205  -1.9098  -1.9098  -1.9093
    -1.8969  -1.8969  -1.8655  -1.8655  -1.8439  -1.8439  -1.8088  -1.8088
    -1.7822  -1.7667  -1.7622  -1.7622  -1.7568  -1.7324  -1.7240  -1.7116
    -1.6690  -1.6690  -1.6390  -1.6121  -1.6121  -1.5809  -1.5809  -1.5809
    -1.5676  -1.5554  -1.5507  -1.5147  -1.4776  -1.4776  -1.4768  -1.4342
    -1.4283  -1.4283  -1.4216  -1.4216  -1.4198  -1.4198  -1.4062  -1.4062
    -1.3074  -1.3069  -1.2605  -1.2605  -1.2593  -1.2592  -1.2521  -1.2521
    -1.2265  -1.1936  -1.1936  -1.1656  -1.1598  -1.1598  -1.0853  -1.0853
    -1.0659  -1.0659  -1.0651  -1.0651  -1.0201  -1.0201  -1.0158  -1.0084
    -0.9809  -0.9752  -0.9555  -0.9555  -0.9553  -0.9553  -0.9028  -0.8537
    -0.8342  -0.8342  -0.8069  -0.8069  -0.7582  -0.7218  -0.7218  -0.6881
    -0.6881  -0.6778  -0.6676  -0.5791  -0.5791  -0.5634  -0.5634  -0.5080
    -0.5080  -0.4925  -0.4151  -0.4151  -0.3869  -0.2745  -0.2745  -0.1684
    -0.1545  -0.0914  -0.0913   0.0195   0.0243   0.4063   0.5484   0.7134
     0.8750   0.8967   1.0051   1.0079   1.0079   1.1707   1.3187   1.3187
     1.7772   1.7772   1.8589   1.9502   1.9868   1.9868   2.0681   2.0681
     2.1041   2.1041   2.1594   2.2237   2.2237   2.2389   2.3083   2.3302
     2.3303   2.3488   2.4347   2.4347   2.4655   2.5393   2.5393   2.5759
     2.5974   2.5974   2.6328   2.6482   2.8115   2.8116   2.8203   2.8203
     2.8573   2.8784   2.9309   2.9357   2.9357   2.9640   2.9640   2.9745
     2.9745   3.0184   3.0793   3.0793   3.0844   3.1215   3.2214   3.2301
     3.2301   3.2474   3.2474   3.2481   3.2481   3.2978   3.2978   3.3178
     3.3215   3.3428   3.3485   3.3486   3.3756   3.3756   3.4295   3.4493
     3.4493   3.5323   3.5485   3.5552   3.5553   3.5621   3.5621   3.5817
     3.5817   3.5964   3.5964   3.6733   3.6767   3.6767   3.6881   3.6881
     3.6908   3.6908   3.6988   3.7453   3.7551   3.7551   3.7621   3.7788
     3.8230   3.8419   3.8419   3.8712   3.8712   3.8980   3.9594   3.9594
     3.9702   3.9830   4.0316   4.0455   4.0455   4.0528   4.0663   4.0672
     4.0672   4.0761   4.0762   4.1032   4.1032   4.1065   4.1110   4.1110
     4.1214   4.1458   4.1458   4.1594   4.1963   4.1963   4.1971   4.1972
     4.2020   4.2041   4.2073   4.2073   4.2350   4.2350   4.2609   4.2610
     4.2757   4.2763   4.2893   4.2893   4.3009   4.3021   4.3022   4.3100
     4.3225   4.3225   4.3367   4.3567   4.3567   4.3751   4.3751   4.3864
     4.3890   4.4023   4.4077   4.4077   4.4671   4.4671   4.4757   4.5092
     4.5092   4.5183   4.5342   4.5448   4.5448   4.5728   4.5728   4.5740
     4.5807   4.5836   4.5836   4.6246   4.6471   4.6471   4.6546   4.6771
     4.6771   4.6989   4.6989   4.7111   4.7112   4.7149   4.7149   4.7229
     4.7231   4.7468   4.7468   4.7695   4.7773   4.7798   4.7835   4.7976
     4.8074   4.8074   4.8247   4.8247   4.8354   4.8357   4.8357   4.8477
     4.8477   4.8588

          k = 0.2500-0.5000 0.0000 (135080 PWs)   bands (ev):

   -61.8617 -61.8616 -61.8530 -61.8529 -61.8387 -61.8386 -61.8315 -61.8315
   -61.8299 -61.8298 -61.8282 -61.8282 -61.8234 -61.8233 -61.8117 -61.8116
   -61.8056 -61.8055 -61.7869 -61.7868 -61.7828 -61.7827 -61.7755 -61.7754
   -61.7730 -61.7730 -61.7717 -61.7717 -61.7705 -61.7705 -61.7677 -61.7677
   -61.7663 -61.7662 -61.7571 -61.7570 -61.7561 -61.7561 -61.7513 -61.7512
   -61.7360 -61.7360 -61.7267 -61.7267 -61.7216 -61.7216 -61.7148 -61.7148
   -61.7139 -61.7138 -61.6979 -61.6979 -61.6917 -61.6917 -61.6824 -61.6823
   -61.6755 -61.6755 -61.6733 -61.6733 -61.6733 -61.6732 -61.6730 -61.6729
   -61.6713 -61.6712 -61.6703 -61.6703 -61.6665 -61.6664 -61.6607 -61.6606
   -35.9685 -35.9685 -35.9443 -35.9443 -35.9220 -35.9220 -35.9189 -35.9189
   -35.9132 -35.9132 -35.9033 -35.9033 -35.8966 -35.8966 -35.8964 -35.8964
   -35.8792 -35.8792 -35.8778 -35.8778 -35.8705 -35.8705 -35.8630 -35.8630
   -35.8616 -35.8616 -35.8565 -35.8564 -35.8548 -35.8548 -35.8468 -35.8468
   -35.8462 -35.8462 -35.8421 -35.8421 -35.8381 -35.8381 -35.8374 -35.8374
   -35.8324 -35.8324 -35.8191 -35.8191 -35.8186 -35.8186 -35.8124 -35.8124
   -35.8093 -35.8092 -35.8074 -35.8074 -35.7942 -35.7941 -35.7875 -35.7875
   -35.7857 -35.7857 -35.7639 -35.7639 -35.7590 -35.7589 -35.7536 -35.7536
   -35.7388 -35.7388 -35.7355 -35.7355 -35.7349 -35.7349 -35.7250 -35.7250
   -35.7181 -35.7181 -35.7029 -35.7029 -35.7022 -35.7022 -35.6866 -35.6866
   -35.6819 -35.6819 -35.6717 -35.6716 -35.6670 -35.6670 -35.6632 -35.6632
   -35.6566 -35.6566 -35.6536 -35.6535 -35.6515 -35.6515 -35.6502 -35.6501
   -35.6455 -35.6455 -35.6442 -35.6442 -35.6436 -35.6435 -35.6379 -35.6379
   -35.6316 -35.6316 -35.6294 -35.6294 -35.6214 -35.6214 -35.6202 -35.6202
   -35.6190 -35.6190 -35.6181 -35.6181 -35.6159 -35.6159 -35.6149 -35.6148
   -35.6100 -35.6100 -35.6021 -35.6021 -35.6000 -35.5999 -35.5969 -35.5969
   -35.5918 -35.5918 -35.5780 -35.5780 -35.5776 -35.5776 -35.5772 -35.5771
   -35.5705 -35.5705 -35.5694 -35.5694 -35.5693 -35.5693 -35.5670 -35.5670
   -35.5645 -35.5645 -35.5541 -35.5541 -35.5492 -35.5491 -35.5457 -35.5457
   -35.5443 -35.5442 -35.5428 -35.5428 -35.5424 -35.5424 -35.5407 -35.5407
   -35.5397 -35.5397 -35.5368 -35.5367 -35.5313 -35.5313 -35.5242 -35.5242
   -35.5069 -35.5069 -35.5039 -35.5039 -35.4932 -35.4932 -35.4877 -35.4876
   -35.4875 -35.4875 -35.4849 -35.4849 -35.4826 -35.4826 -35.4799 -35.4799
   -35.4798 -35.4798 -35.4772 -35.4771 -35.4736 -35.4736 -35.4643 -35.4643
   -35.4550 -35.4550 -35.4476 -35.4476 -35.4450 -35.4450 -35.4394 -35.4393
   -35.4212 -35.4212 -35.3940 -35.3940 -35.3863 -35.3862 -35.3796 -35.3796
   -35.3678 -35.3678 -35.3639 -35.3638 -35.3629 -35.3628 -35.3598 -35.3597
   -13.9034 -13.9034 -13.5611 -13.5611 -13.1101 -13.1100 -13.0327 -13.0327
   -12.8984 -12.8984 -12.8084 -12.8084 -12.6173 -12.6173 -12.6009 -12.6008
   -12.5742 -12.5741 -12.4837 -12.4837 -12.3929 -12.3928 -12.3783 -12.3783
   -12.3289 -12.3289 -12.3247 -12.3247 -12.2718 -12.2718 -12.2491 -12.2491
   -12.2306 -12.2306 -12.1861 -12.1861 -12.1338 -12.1338 -12.0758 -12.0758
   -11.9760 -11.9760 -11.9669 -11.9669 -11.7580 -11.7580 -11.7383 -11.7382
   -11.7221 -11.7221 -11.6310 -11.6309 -11.5940 -11.5940 -11.5889 -11.5889
   -11.5383 -11.5383 -11.5322 -11.5322 -11.4898 -11.4898 -11.3902 -11.3902
   -11.3691 -11.3691 -11.3356 -11.3356 -11.3321 -11.3321 -11.1174 -11.1174
    -4.9558  -4.9558  -4.7324  -4.7324  -4.4060  -4.4060  -4.2376  -4.2376
    -4.1535  -4.1535  -3.9841  -3.9841  -3.9518  -3.9518  -3.9024  -3.9023
    -3.8811  -3.8811  -3.8078  -3.8078  -3.8037  -3.8037  -3.7355  -3.7355
    -3.6672  -3.6672  -3.6262  -3.6262  -3.5913  -3.5912  -3.5036  -3.5036
    -3.4681  -3.4681  -3.3798  -3.3798  -3.3798  -3.3797  -3.3268  -3.3268
    -3.1760  -3.1759  -3.1716  -3.1716  -3.1512  -3.1512  -3.0882  -3.0882
    -3.0409  -3.0409  -2.9469  -2.9469  -2.9078  -2.9078  -2.8907  -2.8907
    -2.8214  -2.8214  -2.7460  -2.7459  -2.6153  -2.6153  -2.5828  -2.5828
    -2.5380  -2.5380  -2.5094  -2.5094  -2.4679  -2.4679  -2.4673  -2.4673
    -2.4589  -2.4589  -2.4308  -2.4308  -2.3623  -2.3623  -2.3464  -2.3464
    -2.2941  -2.2941  -2.2870  -2.2870  -2.2832  -2.2832  -2.2503  -2.2503
    -2.2079  -2.2079  -2.1930  -2.1930  -2.1482  -2.1482  -2.1363  -2.1363
    -2.1005  -2.1005  -2.0645  -2.0645  -2.0598  -2.0598  -2.0055  -2.0055
    -1.9961  -1.9961  -1.9867  -1.9867  -1.9716  -1.9716  -1.9538  -1.9538
    -1.9528  -1.9528  -1.8352  -1.8352  -1.8149  -1.8149  -1.7691  -1.7691
    -1.7320  -1.7320  -1.6448  -1.6447  -1.6127  -1.6127  -1.6112  -1.6112
    -1.5999  -1.5999  -1.5881  -1.5881  -1.5500  -1.5500  -1.5286  -1.5286
    -1.5239  -1.5239  -1.4546  -1.4546  -1.4315  -1.4315  -1.4231  -1.4231
    -1.4081  -1.4081  -1.3517  -1.3517  -1.3215  -1.3215  -1.3121  -1.3121
    -1.3041  -1.3041  -1.2984  -1.2984  -1.2887  -1.2887  -1.2850  -1.2850
    -1.2584  -1.2584  -1.1979  -1.1978  -1.1650  -1.1650  -1.1144  -1.1144
    -1.0487  -1.0487  -1.0412  -1.0412  -1.0377  -1.0377  -1.0073  -1.0073
    -0.9482  -0.9482  -0.9392  -0.9392  -0.8883  -0.8883  -0.8316  -0.8316
    -0.8060  -0.8060  -0.7747  -0.7747  -0.7713  -0.7713  -0.6715  -0.6715
    -0.6523  -0.6523  -0.6426  -0.6426  -0.6082  -0.6082  -0.5700  -0.5700
    -0.5039  -0.5039  -0.4424  -0.4424  -0.4385  -0.4385  -0.2835  -0.2834
    -0.1615  -0.1615  -0.1176  -0.1176   0.0846   0.0846   0.2635   0.2635
     0.9383   0.9383   1.3708   1.3708   1.4747   1.4747   1.4892   1.4892
     1.5385   1.5385   1.6209   1.6209   1.7130   1.7131   2.0533   2.0533
     2.0980   2.0980   2.1266   2.1266   2.2203   2.2204   2.3106   2.3106
     2.3587   2.3587   2.3723   2.3723   2.5229   2.5229   2.5293   2.5293
     2.5709   2.5709   2.6100   2.6100   2.6478   2.6478   2.7255   2.7255
     2.7375   2.7375   2.7835   2.7835   2.8431   2.8431   2.9466   2.9467
     2.9842   2.9842   3.0267   3.0267   3.0727   3.0727   3.1381   3.1381
     3.1897   3.1897   3.2708   3.2708   3.2879   3.2880   3.3725   3.3725
     3.3957   3.3958   3.4183   3.4183   3.4355   3.4356   3.4591   3.4592
     3.5358   3.5358   3.6037   3.6038   3.6302   3.6302   3.6418   3.6418
     3.6712   3.6712   3.6938   3.6938   3.7260   3.7260   3.7364   3.7364
     3.8083   3.8083   3.8500   3.8500   3.8839   3.8839   3.9175   3.9175
     3.9349   3.9350   3.9375   3.9375   3.9480   3.9480   3.9557   3.9557
     3.9711   3.9711   4.0053   4.0053   4.0132   4.0132   4.0168   4.0168
     4.0665   4.0665   4.0731   4.0731   4.0803   4.0803   4.0941   4.0941
     4.1245   4.1246   4.1259   4.1259   4.1331   4.1331   4.1482   4.1483
     4.1789   4.1789   4.1948   4.1948   4.2032   4.2032   4.2284   4.2284
     4.2564   4.2564   4.2569   4.2569   4.2690   4.2691   4.2820   4.2820
     4.3313   4.3313   4.3987   4.3987   4.4175   4.4175   4.4435   4.4436
     4.4445   4.4445   4.4736   4.4736   4.4887   4.4887   4.4927   4.4927
     4.5236   4.5236   4.5870   4.5870   4.6058   4.6058   4.6171   4.6171
     4.6219   4.6220   4.6281   4.6281   4.6716   4.6716   4.6809   4.6809
     4.6921   4.6921   4.7057   4.7058   4.7353   4.7354   4.7579   4.7580
     4.7593   4.7596   4.7773   4.7774   4.7793   4.7793   4.7793   4.7793
     4.7820   4.7821   4.8133   4.8133   4.8136   4.8136   4.8223   4.8231
     4.8249   4.8250

          k =-0.5000-0.5000 0.0000 (135004 PWs)   bands (ev):

   -61.8583 -61.8583 -61.8583 -61.8581 -61.8309 -61.8309 -61.8308 -61.8308
   -61.8308 -61.8307 -61.8307 -61.8307 -61.8279 -61.8279 -61.8079 -61.8079
   -61.8079 -61.8077 -61.7853 -61.7853 -61.7853 -61.7852 -61.7732 -61.7732
   -61.7711 -61.7711 -61.7711 -61.7709 -61.7709 -61.7709 -61.7709 -61.7709
   -61.7633 -61.7633 -61.7633 -61.7632 -61.7536 -61.7536 -61.7536 -61.7534
   -61.7247 -61.7247 -61.7247 -61.7247 -61.7247 -61.7247 -61.7246 -61.7246
   -61.7134 -61.7134 -61.6938 -61.6938 -61.6938 -61.6938 -61.6837 -61.6837
   -61.6734 -61.6733 -61.6733 -61.6732 -61.6725 -61.6724 -61.6724 -61.6724
   -61.6724 -61.6724 -61.6723 -61.6723 -61.6633 -61.6633 -61.6633 -61.6631
   -35.9747 -35.9747 -35.9506 -35.9506 -35.9182 -35.9181 -35.9181 -35.9181
   -35.8867 -35.8867 -35.8867 -35.8867 -35.8859 -35.8859 -35.8859 -35.8859
   -35.8859 -35.8859 -35.8858 -35.8858 -35.8832 -35.8832 -35.8609 -35.8609
   -35.8609 -35.8609 -35.8609 -35.8609 -35.8592 -35.8592 -35.8592 -35.8592
   -35.8591 -35.8591 -35.8591 -35.8591 -35.8445 -35.8445 -35.8445 -35.8445
   -35.8108 -35.8108 -35.8108 -35.8107 -35.8101 -35.8101 -35.8101 -35.8101
   -35.8101 -35.8101 -35.8100 -35.8100 -35.7846 -35.7846 -35.7846 -35.7846
   -35.7846 -35.7846 -35.7846 -35.7846 -35.7638 -35.7638 -35.7638 -35.7638
   -35.7467 -35.7467 -35.7467 -35.7467 -35.7115 -35.7115 -35.7115 -35.7115
   -35.7063 -35.7063 -35.7063 -35.7063 -35.6846 -35.6846 -35.6846 -35.6846
   -35.6846 -35.6846 -35.6845 -35.6845 -35.6747 -35.6747 -35.6747 -35.6747
   -35.6531 -35.6531 -35.6530 -35.6530 -35.6530 -35.6530 -35.6530 -35.6530
   -35.6470 -35.6470 -35.6470 -35.6470 -35.6455 -35.6455 -35.6455 -35.6454
   -35.6236 -35.6236 -35.6236 -35.6236 -35.6178 -35.6178 -35.6178 -35.6177
   -35.6153 -35.6153 -35.6028 -35.6028 -35.6028 -35.6028 -35.6027 -35.6027
   -35.6027 -35.6027 -35.5997 -35.5996 -35.5996 -35.5996 -35.5968 -35.5968
   -35.5926 -35.5926 -35.5926 -35.5926 -35.5926 -35.5926 -35.5925 -35.5925
   -35.5812 -35.5812 -35.5812 -35.5812 -35.5753 -35.5752 -35.5752 -35.5751
   -35.5699 -35.5699 -35.5457 -35.5456 -35.5456 -35.5456 -35.5456 -35.5456
   -35.5456 -35.5455 -35.5449 -35.5449 -35.5449 -35.5448 -35.5374 -35.5374
   -35.5373 -35.5373 -35.5270 -35.5270 -35.5080 -35.5080 -35.5080 -35.5079
   -35.5079 -35.5079 -35.5079 -35.5079 -35.4940 -35.4939 -35.4939 -35.4939
   -35.4926 -35.4926 -35.4829 -35.4829 -35.4829 -35.4829 -35.4829 -35.4829
   -35.4829 -35.4829 -35.4797 -35.4797 -35.4740 -35.4739 -35.4739 -35.4739
   -35.4531 -35.4531 -35.4426 -35.4425 -35.4425 -35.4425 -35.4338 -35.4338
   -35.4338 -35.4336 -35.3966 -35.3966 -35.3727 -35.3726 -35.3726 -35.3726
   -35.3725 -35.3725 -35.3725 -35.3725 -35.3614 -35.3614 -35.3613 -35.3612
   -13.7690 -13.7690 -13.7690 -13.7689 -12.9898 -12.9898 -12.9897 -12.9897
   -12.7858 -12.7858 -12.7858 -12.7858 -12.7858 -12.7858 -12.7858 -12.7857
   -12.5244 -12.5243 -12.5243 -12.5242 -12.3352 -12.3351 -12.3351 -12.3350
   -12.2459 -12.2459 -12.2459 -12.2459 -12.2459 -12.2459 -12.2459 -12.2459
   -12.2235 -12.2235 -12.2235 -12.2235 -12.1689 -12.1689 -12.1259 -12.1258
   -12.1258 -12.1258 -11.9701 -11.9701 -11.6901 -11.6901 -11.6901 -11.6900
   -11.6461 -11.6461 -11.6461 -11.6460 -11.6460 -11.6460 -11.6460 -11.6460
   -11.4494 -11.4494 -11.4494 -11.4494 -11.4494 -11.4494 -11.4494 -11.4494
   -11.4444 -11.4444 -11.4444 -11.4444 -11.3012 -11.3012 -11.0831 -11.0831
    -5.0400  -5.0400  -4.8023  -4.8023  -4.0943  -4.0943  -4.0943  -4.0943
    -4.0943  -4.0943  -4.0943  -4.0942  -4.0707  -4.0707  -3.9073  -3.9073
    -3.9073  -3.9073  -3.9073  -3.9073  -3.9073  -3.9073  -3.8954  -3.8954
    -3.5315  -3.5314  -3.5314  -3.5314  -3.4960  -3.4960  -3.4960  -3.4960
    -3.4630  -3.4630  -3.4629  -3.4629  -3.2617  -3.2617  -3.2617  -3.2617
    -3.2617  -3.2616  -3.2616  -3.2616  -3.0257  -3.0257  -3.0257  -3.0257
    -3.0257  -3.0257  -3.0257  -3.0257  -3.0223  -3.0223  -3.0223  -3.0223
    -2.7261  -2.7261  -2.7261  -2.7261  -2.7202  -2.7202  -2.7202  -2.7202
    -2.6358  -2.6358  -2.4752  -2.4752  -2.4597  -2.4597  -2.4140  -2.4140
    -2.4140  -2.4140  -2.4140  -2.4140  -2.4140  -2.4140  -2.3606  -2.3605
    -2.3605  -2.3605  -2.3022  -2.3022  -2.2630  -2.2630  -2.2630  -2.2630
    -2.2630  -2.2630  -2.2630  -2.2630  -2.0305  -2.0305  -2.0280  -2.0280
    -2.0280  -2.0280  -2.0280  -2.0280  -2.0280  -2.0280  -1.9922  -1.9922
    -1.9922  -1.9922  -1.9922  -1.9921  -1.9921  -1.9921  -1.9115  -1.9115
    -1.9115  -1.9115  -1.8800  -1.8800  -1.8800  -1.8799  -1.7803  -1.7803
    -1.7803  -1.7803  -1.7541  -1.7541  -1.6610  -1.6610  -1.6560  -1.6560
    -1.6560  -1.6560  -1.4579  -1.4579  -1.4579  -1.4579  -1.4579  -1.4579
    -1.4579  -1.4579  -1.3963  -1.3963  -1.3963  -1.3963  -1.3419  -1.3419
    -1.3419  -1.3419  -1.3349  -1.3349  -1.2591  -1.2591  -1.2591  -1.2591
    -1.2563  -1.2563  -1.2563  -1.2563  -1.2563  -1.2563  -1.2563  -1.2563
    -1.2096  -1.2096  -1.2095  -1.2095  -1.0912  -1.0912  -1.0912  -1.0912
    -1.0334  -1.0334  -1.0334  -1.0334  -1.0334  -1.0334  -1.0334  -1.0334
    -0.9384  -0.9384  -0.9384  -0.9384  -0.8402  -0.8402  -0.8402  -0.8402
    -0.8402  -0.8401  -0.8401  -0.8401  -0.8110  -0.8110  -0.8110  -0.8110
    -0.5908  -0.5908  -0.5908  -0.5908  -0.5682  -0.5682  -0.5682  -0.5682
    -0.4932  -0.4932  -0.4932  -0.4932  -0.3484  -0.3484  -0.3484  -0.3484
    -0.2272  -0.2272  -0.2272  -0.2272  -0.0571  -0.0571  -0.0571  -0.0571
     1.3624   1.3624   1.3624   1.3624   1.5648   1.5648   1.5648   1.5648
     1.6354   1.6354   1.6354   1.6355   1.8842   1.8842   1.8842   1.8843
     1.8943   1.8943   1.8944   1.8944   1.8944   1.8944   1.8944   1.8944
     2.4395   2.4395   2.4395   2.4395   2.5448   2.5448   2.5448   2.5448
     2.6384   2.6384   2.6384   2.6384   2.6614   2.6614   2.6615   2.6615
     2.7456   2.7456   2.7456   2.7456   2.7672   2.7672   2.7672   2.7672
     2.8804   2.8804   2.8804   2.8805   2.8805   2.8805   2.8805   2.8805
     3.3478   3.3478   3.3478   3.3478   3.4205   3.4205   3.4205   3.4205
     3.5432   3.5432   3.5432   3.5432   3.5432   3.5432   3.5432   3.5432
     3.6958   3.6958   3.7374   3.7374   3.7684   3.7685   3.7685   3.7685
     3.7685   3.7685   3.7685   3.7685   3.7945   3.7945   3.8183   3.8183
     3.8334   3.8334   3.8334   3.8334   3.8645   3.8645   3.8646   3.8646
     3.8646   3.8646   3.8646   3.8646   3.9057   3.9057   3.9057   3.9057
     3.9057   3.9057   3.9057   3.9057   4.0580   4.0580   4.0610   4.0610
     4.0610   4.0611   4.0611   4.0611   4.0611   4.0611   4.1161   4.1161
     4.1161   4.1161   4.1201   4.1201   4.1202   4.1202   4.1202   4.1202
     4.1202   4.1202   4.1341   4.1341   4.1640   4.1640   4.1768   4.1768
     4.1768   4.1768   4.2278   4.2278   4.2278   4.2278   4.2944   4.2944
     4.4548   4.4548   4.4548   4.4548   4.4548   4.4548   4.4548   4.4548
     4.5307   4.5307   4.5308   4.5308   4.5346   4.5346   4.5347   4.5347
     4.6215   4.6215   4.6215   4.6215   4.6215   4.6216   4.6216   4.6216
     4.6465   4.6466   4.6466   4.6466   4.6466   4.6466   4.6466   4.6466
     4.6611   4.6611   4.7260   4.7260   4.7261   4.7261   4.7378   4.7378
     4.7379   4.7386   4.7465   4.7466   4.7466   4.7466   4.7724   4.7724
     4.7724   4.7725   4.7725   4.7725   4.7725   4.7725   4.8142   4.8142
     4.8143   4.8169

     the Fermi energy is     3.4600 ev

!    total energy              =  -11908.13781086 Ry
     estimated scf accuracy    <       0.00000266 Ry
     smearing contrib. (-TS)   =      -0.01999701 Ry
     internal energy E=F+TS    =  -11908.11781385 Ry

     The total energy is F=E-TS. E is the sum of the following terms:
     one-electron contribution = -156670.78465631 Ry
     hartree contribution      =   78426.57587787 Ry
     xc contribution           =   -1803.28112585 Ry
     ewald contribution        =   68142.78194014 Ry
     DFT-D3 Dispersion         =      -3.40984970 Ry

     convergence has been achieved in  23 iterations

     negative rho (up, down):  7.724E-02 0.000E+00

     Forces acting on atoms (cartesian axes, Ry/au):

     atom    1 type  1   force =     0.00000000    0.00000000    0.09686278
     atom    2 type  1   force =    -0.00001043    0.00000000   -0.01773064
     atom    3 type  1   force =     0.00000000   -0.00001043   -0.01773064
     atom    4 type  1   force =    -0.00000441   -0.00000441    0.09686754
     atom    5 type  1   force =     0.00000000    0.00000000   -0.01466810
     atom    6 type  1   force =    -0.00000837    0.00000000   -0.01193866
     atom    7 type  1   force =    -0.00000000   -0.00000837   -0.01193866
     atom    8 type  1   force =    -0.00000216   -0.00000216   -0.01463791
     atom    9 type  1   force =     0.00000000    0.00000139    0.09686450
     atom   10 type  1   force =     0.00000443    0.00000211   -0.01773341
     atom   11 type  1   force =     0.00000000    0.00000000   -0.01772860
     atom   12 type  1   force =     0.00000139    0.00000000    0.09687138
     atom   13 type  1   force =     0.00000000   -0.00000106   -0.01463507
     atom   14 type  1   force =    -0.00000455    0.00000131   -0.01192740
     atom   15 type  1   force =     0.00000000    0.00000000   -0.01193143
     atom   16 type  1   force =     0.00001222   -0.00000000   -0.01463935
     atom   17 type  1   force =     0.00000000   -0.00000139    0.09686450
     atom   18 type  1   force =     0.00000443   -0.00000211   -0.01773341
     atom   19 type  1   force =     0.00000000    0.00001043   -0.01773064
     atom   20 type  1   force =    -0.00000441    0.00000441    0.09686754
     atom   21 type  1   force =    -0.00000000    0.00000106   -0.01463507
     atom   22 type  1   force =    -0.00000455   -0.00000131   -0.01192740
     atom   23 type  1   force =     0.00000000    0.00000837   -0.01193866
     atom   24 type  1   force =    -0.00000216    0.00000216   -0.01463791
     atom   25 type  1   force =     0.00000139    0.00000000    0.09686450
     atom   26 type  1   force =     0.00000000    0.00000000   -0.01772860
     atom   27 type  1   force =     0.00000211    0.00000443   -0.01773341
     atom   28 type  1   force =     0.00000000    0.00000139    0.09687138
     atom   29 type  1   force =    -0.00000106   -0.00000000   -0.01463507
     atom   30 type  1   force =     0.00000000    0.00000000   -0.01193143
     atom   31 type  1   force =     0.00000131   -0.00000455   -0.01192740
     atom   32 type  1   force =     0.00000000    0.00001222   -0.01463935
     atom   33 type  1   force =    -0.00000323   -0.00000323    0.09687932
     atom   34 type  1   force =     0.00000000    0.00001283   -0.01771995
     atom   35 type  1   force =     0.00001283    0.00000000   -0.01771995
     atom   36 type  1   force =     0.00000000    0.00000000    0.09686451
     atom   37 type  1   force =     0.00000808    0.00000808   -0.01464752
     atom   38 type  1   force =     0.00000000    0.00000309   -0.01195314
     atom   39 type  1   force =     0.00000309   -0.00000000   -0.01195314
     atom   40 type  1   force =     0.00000000    0.00000000   -0.01466820
     atom   41 type  1   force =    -0.00000323    0.00000323    0.09687932
     atom   42 type  1   force =     0.00000000   -0.00001283   -0.01771995
     atom   43 type  1   force =     0.00000211   -0.00000443   -0.01773341
     atom   44 type  1   force =     0.00000000   -0.00000139    0.09687138
     atom   45 type  1   force =     0.00000808   -0.00000808   -0.01464752
     atom   46 type  1   force =    -0.00000000   -0.00000309   -0.01195314
     atom   47 type  1   force =     0.00000131    0.00000455   -0.01192740
     atom   48 type  1   force =    -0.00000000   -0.00001222   -0.01463935
     atom   49 type  1   force =    -0.00000139    0.00000000    0.09686450
     atom   50 type  1   force =     0.00001043   -0.00000000   -0.01773064
     atom   51 type  1   force =    -0.00000211    0.00000443   -0.01773341
     atom   52 type  1   force =     0.00000441   -0.00000441    0.09686754
     atom   53 type  1   force =     0.00000106    0.00000000   -0.01463507
     atom   54 type  1   force =     0.00000837   -0.00000000   -0.01193866
     atom   55 type  1   force =    -0.00000131   -0.00000455   -0.01192740
     atom   56 type  1   force =     0.00000216   -0.00000216   -0.01463791
     atom   57 type  1   force =     0.00000323   -0.00000323    0.09687932
     atom   58 type  1   force =    -0.00000443    0.00000211   -0.01773341
     atom   59 type  1   force =    -0.00001283    0.00000000   -0.01771995
     atom   60 type  1   force =    -0.00000139    0.00000000    0.09687138
     atom   61 type  1   force =    -0.00000808    0.00000808   -0.01464752
     atom   62 type  1   force =     0.00000455    0.00000131   -0.01192740
     atom   63 type  1   force =    -0.00000309    0.00000000   -0.01195314
     atom   64 type  1   force =    -0.00001222    0.00000000   -0.01463935
     atom   65 type  1   force =     0.00000323    0.00000323    0.09687932
     atom   66 type  1   force =    -0.00000443   -0.00000211   -0.01773341
     atom   67 type  1   force =    -0.00000211   -0.00000443   -0.01773341
     atom   68 type  1   force =     0.00000441    0.00000441    0.09686754
     atom   69 type  1   force =    -0.00000808   -0.00000808   -0.01464752
     atom   70 type  1   force =     0.00000455   -0.00000131   -0.01192740
     atom   71 type  1   force =    -0.00000131    0.00000455   -0.01192740
     atom   72 type  1   force =     0.00000216    0.00000216   -0.01463791
     atom   73 type  2   force =     0.00000000   -0.00001324   -0.05141632
     atom   74 type  2   force =    -0.00001324    0.00000000   -0.05141632
     atom   75 type  2   force =     0.00000000    0.00000000   -0.01003874
     atom   76 type  2   force =     0.00000434    0.00000434   -0.01003001
     atom   77 type  2   force =     0.00000000   -0.00000335    0.00626739
     atom   78 type  2   force =    -0.00000335   -0.00000000    0.00626739
     atom   79 type  2   force =     0.00000000    0.00000000    0.00261453
     atom   80 type  2   force =     0.00001097    0.00001097    0.00260440
     atom   81 type  2   force =     0.00000000    0.00000000   -0.05141294
     atom   82 type  2   force =    -0.00000681   -0.00001034   -0.05141145
     atom   83 type  2   force =     0.00000000    0.00000259   -0.01002933
     atom   84 type  2   force =     0.00002086    0.00000000   -0.01001359
     atom   85 type  2   force =     0.00000000    0.00000000    0.00627245
     atom   86 type  2   force =     0.00002228    0.00000569    0.00627174
     atom   87 type  2   force =     0.00000000    0.00000145    0.00260985
     atom   88 type  2   force =     0.00001164    0.00000000    0.00259317
     atom   89 type  2   force =     0.00000000    0.00001324   -0.05141632
     atom   90 type  2   force =    -0.00000681    0.00001034   -0.05141145
     atom   91 type  2   force =    -0.00000000   -0.00000259   -0.01002933
     atom   92 type  2   force =     0.00000434   -0.00000434   -0.01003001
     atom   93 type  2   force =     0.00000000    0.00000335    0.00626739
     atom   94 type  2   force =     0.00002228   -0.00000569    0.00627174
     atom   95 type  2   force =    -0.00000000   -0.00000145    0.00260985
     atom   96 type  2   force =     0.00001097   -0.00001097    0.00260440
     atom   97 type  2   force =    -0.00001034   -0.00000681   -0.05141145
     atom   98 type  2   force =     0.00000000    0.00000000   -0.05141294
     atom   99 type  2   force =     0.00000259   -0.00000000   -0.01002933
     atom  100 type  2   force =     0.00000000    0.00002086   -0.01001359
     atom  101 type  2   force =     0.00000569    0.00002228    0.00627174
     atom  102 type  2   force =     0.00000000    0.00000000    0.00627245
     atom  103 type  2   force =     0.00000145    0.00000000    0.00260985
     atom  104 type  2   force =     0.00000000    0.00001164    0.00259317
     atom  105 type  2   force =     0.00001729   -0.00000000   -0.05138939
     atom  106 type  2   force =    -0.00000000    0.00001729   -0.05138939
     atom  107 type  2   force =     0.00001744    0.00001744   -0.01000772
     atom  108 type  2   force =     0.00000000    0.00000000   -0.01000646
     atom  109 type  2   force =     0.00002472    0.00000000    0.00627392
     atom  110 type  2   force =     0.00000000    0.00002472    0.00627392
     atom  111 type  2   force =     0.00000042    0.00000042    0.00257625
     atom  112 type  2   force =     0.00000000    0.00000000    0.00256828
     atom  113 type  2   force =    -0.00001034    0.00000681   -0.05141145
     atom  114 type  2   force =    -0.00000000   -0.00001729   -0.05138939
     atom  115 type  2   force =     0.00001744   -0.00001744   -0.01000772
     atom  116 type  2   force =     0.00000000   -0.00002086   -0.01001359
     atom  117 type  2   force =     0.00000569   -0.00002228    0.00627174
     atom  118 type  2   force =     0.00000000   -0.00002472    0.00627392
     atom  119 type  2   force =     0.00000042   -0.00000042    0.00257625
     atom  120 type  2   force =    -0.00000000   -0.00001164    0.00259317
     atom  121 type  2   force =     0.00001034   -0.00000681   -0.05141145
     atom  122 type  2   force =     0.00001324    0.00000000   -0.05141632
     atom  123 type  2   force =    -0.00000259    0.00000000   -0.01002933
     atom  124 type  2   force =    -0.00000434    0.00000434   -0.01003001
     atom  125 type  2   force =    -0.00000569    0.00002228    0.00627174
     atom  126 type  2   force =     0.00000335    0.00000000    0.00626739
     atom  127 type  2   force =    -0.00000145    0.00000000    0.00260985
     atom  128 type  2   force =    -0.00001097    0.00001097    0.00260440
     atom  129 type  2   force =    -0.00001729    0.00000000   -0.05138939
     atom  130 type  2   force =     0.00000681   -0.00001034   -0.05141145
     atom  131 type  2   force =    -0.00001744    0.00001744   -0.01000772
     atom  132 type  2   force =    -0.00002086    0.00000000   -0.01001359
     atom  133 type  2   force =    -0.00002472    0.00000000    0.00627392
     atom  134 type  2   force =    -0.00002228    0.00000569    0.00627174
     atom  135 type  2   force =    -0.00000042    0.00000042    0.00257625
     atom  136 type  2   force =    -0.00001164   -0.00000000    0.00259317
     atom  137 type  2   force =     0.00001034    0.00000681   -0.05141145
     atom  138 type  2   force =     0.00000681    0.00001034   -0.05141145
     atom  139 type  2   force =    -0.00001744   -0.00001744   -0.01000772
     atom  140 type  2   force =    -0.00000434   -0.00000434   -0.01003001
     atom  141 type  2   force =    -0.00000569   -0.00002228    0.00627174
     atom  142 type  2   force =    -0.00002228   -0.00000569    0.00627174
     atom  143 type  2   force =    -0.00000042   -0.00000042    0.00257625
     atom  144 type  2   force =    -0.00001097   -0.00001097    0.00260440

     Total force =     0.085166     Total SCF correction =     0.004695
     Energy error            =      1.4E-02 Ry
     Gradient error          =      1.5E-02 Ry/Bohr

     number of scf cycles    =   2
     number of bfgs steps    =   1

     energy             old  =  -11908.1242720283 Ry
     energy             new  =  -11908.1378108592 Ry

     CASE: energy            _new < energy            _old

     new trust radius        =       0.0235706654 bohr
     new conv_thr            =       0.0000009427 Ry


ATOMIC_POSITIONS (angstrom)
V                0.0000000000        0.0000000000       10.0000000000    0   0   0
V                2.0432625400        0.0000000000       12.0432625400    0   0   0
V                0.0000000000        2.0432625400       12.0432625400    0   0   0
V                2.0432625400        2.0432625400       10.0000000000    0   0   0
V                0.0000001400        0.0000001700       14.2519838807
V                2.0432536746        0.0000000600       16.0855837193
V               -0.0000000900        2.0432535946       16.0855835293
V                2.0432681287        2.0432680387       14.2520108087
V                0.0000000000        4.0865250700       10.0000000000    0   0   0
V                2.0432625400        4.0865250700       12.0432625400    0   0   0
V                0.0000000000        6.1297876100       12.0432625400    0   0   0
V                2.0432625400        6.1297876100       10.0000000000    0   0   0
V                0.0000001200        4.0865327826       14.2520075416
V                2.0432607547        4.0865333119       16.0855857249
V               -0.0000001500        6.1297875000       16.0855883224
V                2.0432724119        6.1297873900       14.2520078708
V                0.0000000000        8.1730501500       10.0000000000    0   0   0
V                2.0432625400        8.1730501500       12.0432625400    0   0   0
V                0.0000000000       10.2163126900       12.0432625400    0   0   0
V                2.0432625400       10.2163126900       10.0000000000    0   0   0
V               -0.0000002100        8.1730421874       14.2520075216
V                2.0432608347        8.1730421081       16.0855855449
V               -0.0000000100       10.2163215254       16.0855837993
V                2.0432680587       10.2163069413       14.2520105987
V                4.0865250700        0.0000000000       10.0000000000    0   0   0
V                6.1297876100        0.0000000000       12.0432625400    0   0   0
V                4.0865250700        2.0432625400       12.0432625400    0   0   0
V                6.1297876100        2.0432625400       10.0000000000    0   0   0
V                4.0865328026        0.0000001700       14.2520074516
V                6.1297876200        0.0000000500       16.0855889024
V                4.0865331219        2.0432608347       16.0855858349
V                6.1297873700        2.0432724919       14.2520078708
V                4.0865250700        4.0865250700       10.0000000000    0   0   0
V                6.1297876100        4.0865250700       12.0432625400    0   0   0
V                4.0865250700        6.1297876100       12.0432625400    0   0   0
V                6.1297876100        6.1297876100       10.0000000000    0   0   0
V                4.0865298876        4.0865296976       14.2520076243
V                6.1297875500        4.0865348260       16.0855666477
V                4.0865347760        6.1297875500       16.0855664077
V                6.1297874000        6.1297875000       14.2519903047
V                4.0865250700        8.1730501500       10.0000000000    0   0   0
V                6.1297876100        8.1730501500       12.0432625400    0   0   0
V                4.0865250700       10.2163126900       12.0432625400    0   0   0
V                6.1297876100       10.2163126900       10.0000000000    0   0   0
V                4.0865299076        8.1730456424       14.2520076343
V                6.1297875800        8.1730403140       16.0855663677
V                4.0865331419       10.2163143153       16.0855853049
V                6.1297875400       10.2163025081       14.2520079408
V                8.1730501500        0.0000000000       10.0000000000    0   0   0
V               10.2163126900        0.0000000000       12.0432625400    0   0   0
V                8.1730501500        2.0432625400       12.0432625400    0   0   0
V               10.2163126900        2.0432625400       10.0000000000    0   0   0
V                8.1730423874        0.0000000500       14.2520074316
V               10.2163216054        0.0000001000       16.0855836593
V                8.1730420581        2.0432608347       16.0855860749
V               10.2163071513        2.0432680587       14.2520104687
V                8.1730501500        4.0865250700       10.0000000000    0   0   0
V               10.2163126900        4.0865250700       12.0432625400    0   0   0
V                8.1730501500        6.1297876100       12.0432625400    0   0   0
V               10.2163126900        6.1297876100       10.0000000000    0   0   0
V                8.1730451624        4.0865298876       14.2520075443
V               10.2163143753        4.0865333419       16.0855855249
V                8.1730404840        6.1297876500       16.0855666377
V               10.2163028881        6.1297875900       14.2520079908
V                8.1730501500        8.1730501500       10.0000000000    0   0   0
V               10.2163126900        8.1730501500       12.0432625400    0   0   0
V                8.1730501500       10.2163126900       12.0432625400    0   0   0
V               10.2163126900       10.2163126900       10.0000000000    0   0   0
V                8.1730455124        8.1730453924       14.2520077443
V               10.2163143753        8.1730419081       16.0855857149
V                8.1730419281       10.2163144153       16.0855853249
V               10.2163070313       10.2163069013       14.2520105787
N                0.0000000000        2.0432625400       10.0000000000    0   0   0
N                2.0432625400        0.0000000000       10.0000000000    0   0   0
N                0.0000000000        0.0000000000       12.0432625400    0   0   0
N                2.0432625400        2.0432625400       12.0432625400    0   0   0
N                0.0000001100        2.0432699734       14.1603304814
N                2.0432697434        0.0000001000       14.1603301814
N               -0.0000000300       -0.0000000400       16.3502434612
N                2.0432752626        2.0432751826       16.3502334836
N                0.0000000000        6.1297876100       10.0000000000    0   0   0
N                2.0432625400        4.0865250700       10.0000000000    0   0   0
N                0.0000000000        4.0865250700       12.0432625400    0   0   0
N                2.0432625400        6.1297876100       12.0432625400    0   0   0
N               -0.0000000400        6.1297876300       14.1603342368
N                2.0432736701        4.0865367564       14.1603298314
N               -0.0000001500        4.0865271851       16.3502277813
N                2.0432703199        6.1297874600       16.3502207829
N                0.0000000000       10.2163126900       10.0000000000    0   0   0
N                2.0432625400        8.1730501500       10.0000000000    0   0   0
N                0.0000000000        8.1730501500       12.0432625400    0   0   0
N                2.0432625400       10.2163126900       12.0432625400    0   0   0
N                0.0000000200       10.2163052566       14.1603300014
N                2.0432736601        8.1730386236       14.1603299714
N                0.0000000800        8.1730481449       16.3502277513
N                2.0432751926       10.2163000574       16.3502333936
N                4.0865250700        2.0432625400       10.0000000000    0   0   0
N                6.1297876100        0.0000000000       10.0000000000    0   0   0
N                4.0865250700        0.0000000000       12.0432625400    0   0   0
N                6.1297876100        2.0432625400       12.0432625400    0   0   0
N                4.0865365664        2.0432737301       14.1603296614
N                6.1297875500        0.0000000900       14.1603340668
N                4.0865271351       -0.0000000300       16.3502282713
N                6.1297876600        2.0432704299       16.3502212029
N                4.0865250700        6.1297876100       10.0000000000    0   0   0
N                6.1297876100        4.0865250700       10.0000000000    0   0   0
N                4.0865250700        4.0865250700       12.0432625400    0   0   0
N                6.1297876100        6.1297876100       12.0432625400    0   0   0
N                4.0865364291        6.1297874900       14.1603247236
N                6.1297876500        4.0865363591       14.1603243936
N                4.0865210808        4.0865209608       16.3502170105
N                6.1297876300        6.1297875100       16.3502194602
N                4.0865250700       10.2163126900       10.0000000000    0   0   0
N                6.1297876100        8.1730501500       10.0000000000    0   0   0
N                4.0865250700        8.1730501500       12.0432625400    0   0   0
N                6.1297876100       10.2163126900       12.0432625400    0   0   0
N                4.0865365364       10.2163013199       14.1603300914
N                6.1297875600        8.1730388709       14.1603247236
N                4.0865210608        8.1730543892       16.3502165505
N                6.1297876400       10.2163049301       16.3502209529
N                8.1730501500        2.0432625400       10.0000000000    0   0   0
N               10.2163126900        0.0000000000       10.0000000000    0   0   0
N                8.1730501500        0.0000000000       12.0432625400    0   0   0
N               10.2163126900        2.0432625400       12.0432625400    0   0   0
N                8.1730385436        2.0432736101       14.1603295214
N               10.2163055466       -0.0000001200       14.1603302814
N                8.1730479749        0.0000000100       16.3502279813
N               10.2163000874        2.0432751926       16.3502334036
N                8.1730501500        6.1297876100       10.0000000000    0   0   0
N               10.2163126900        4.0865250700       10.0000000000    0   0   0
N                8.1730501500        4.0865250700       12.0432625400    0   0   0
N               10.2163126900        6.1297876100       12.0432625400    0   0   0
N                8.1730386509        6.1297873400       14.1603242936
N               10.2163016099        4.0865367364       14.1603301114
N                8.1730543192        4.0865209508       16.3502167205
N               10.2163049101        6.1297876700       16.3502207329
N                8.1730501500       10.2163126900       10.0000000000    0   0   0
N               10.2163126900        8.1730501500       10.0000000000    0   0   0
N                8.1730501500        8.1730501500       12.0432625400    0   0   0
N               10.2163126900       10.2163126900       12.0432625400    0   0   0
N                8.1730384736       10.2163016299       14.1603300614
N               10.2163015999        8.1730384236       14.1603294814
N                8.1730542292        8.1730542892       16.3502167105
N               10.2163000774       10.2162999774       16.3502334236



     Writing config-only to output data dir ./tmp/VN_slab.save/ :
     XML data file
     NEW-OLD atomic charge density approx. for the potential

     Check: negative core charge=   -0.000004

     negative rho (up, down):  7.767E-02 0.000E+00

     total cpu time spent up to now is     5580.8 secs

     per-process dynamical memory:   807.7 Mb

     Self-consistent Calculation

     iteration #  1     ecut=    45.00 Ry     beta= 0.25
     Davidson diagonalization with overlap
     ethr =  1.00E-06,  avg # of iterations =  8.0

     negative rho (up, down):  7.770E-02 0.000E+00

     total cpu time spent up to now is     5780.0 secs

     total energy              =  -11908.13815086 Ry
     estimated scf accuracy    <       0.02479808 Ry

     iteration #  2     ecut=    45.00 Ry     beta= 0.25
     Davidson diagonalization with overlap
     c_bands:  4 eigenvalues not converged
     ethr =  1.91E-06,  avg # of iterations = 27.2

     negative rho (up, down):  7.769E-02 0.000E+00

     total cpu time spent up to now is     5990.3 secs

     total energy              =  -11908.07414204 Ry
     estimated scf accuracy    <       5.47796254 Ry

     iteration #  3     ecut=    45.00 Ry     beta= 0.25
     Davidson diagonalization with overlap
     ethr =  1.91E-06,  avg # of iterations = 17.0

     negative rho (up, down):  7.768E-02 0.000E+00

     total cpu time spent up to now is     6106.2 secs

     total energy              =  -11908.13238862 Ry
     estimated scf accuracy    <       0.98733634 Ry

     iteration #  4     ecut=    45.00 Ry     beta= 0.25
     Davidson diagonalization with overlap
     c_bands:  1 eigenvalues not converged
     ethr =  1.91E-06,  avg # of iterations = 17.2

     negative rho (up, down):  7.770E-02 0.000E+00

     total cpu time spent up to now is     6217.1 secs

     total energy              =  -11908.14634662 Ry
     estimated scf accuracy    <       0.02324451 Ry

     iteration #  5     ecut=    45.00 Ry     beta= 0.25
     Davidson diagonalization with overlap
     ethr =  1.79E-06,  avg # of iterations =  1.2

     negative rho (up, down):  7.771E-02 0.000E+00

     total cpu time spent up to now is     6282.9 secs

     total energy              =  -11908.14669558 Ry
     estimated scf accuracy    <       0.01386643 Ry

     iteration #  6     ecut=    45.00 Ry     beta= 0.25
     Davidson diagonalization with overlap
     ethr =  1.07E-06,  avg # of iterations =  2.0

     negative rho (up, down):  7.772E-02 0.000E+00

     total cpu time spent up to now is     6349.5 secs

     total energy              =  -11908.14700714 Ry
     estimated scf accuracy    <       0.00445775 Ry

     iteration #  7     ecut=    45.00 Ry     beta= 0.25
     Davidson diagonalization with overlap
     ethr =  3.44E-07,  avg # of iterations =  2.0

     negative rho (up, down):  7.772E-02 0.000E+00

     total cpu time spent up to now is     6420.5 secs

     total energy              =  -11908.14708650 Ry
     estimated scf accuracy    <       0.00123082 Ry

     iteration #  8     ecut=    45.00 Ry     beta= 0.25
     Davidson diagonalization with overlap
     ethr =  9.50E-08,  avg # of iterations =  2.5

     negative rho (up, down):  7.773E-02 0.000E+00

     total cpu time spent up to now is     6491.1 secs

     total energy              =  -11908.14711796 Ry
     estimated scf accuracy    <       0.00060231 Ry

     iteration #  9     ecut=    45.00 Ry     beta= 0.25
     Davidson diagonalization with overlap
     ethr =  4.65E-08,  avg # of iterations =  4.7

     negative rho (up, down):  7.773E-02 0.000E+00

     total cpu time spent up to now is     6567.4 secs

     total energy              =  -11908.14710180 Ry
     estimated scf accuracy    <       0.00141450 Ry

     iteration # 10     ecut=    45.00 Ry     beta= 0.25
     Davidson diagonalization with overlap
     ethr =  4.65E-08,  avg # of iterations =  1.5

     negative rho (up, down):  7.774E-02 0.000E+00

     total cpu time spent up to now is     6637.9 secs

     total energy              =  -11908.14714861 Ry
     estimated scf accuracy    <       0.00003553 Ry

     iteration # 11     ecut=    45.00 Ry     beta= 0.25
     Davidson diagonalization with overlap
     ethr =  2.74E-09,  avg # of iterations =  6.2

     negative rho (up, down):  7.775E-02 0.000E+00

     total cpu time spent up to now is     6723.7 secs

     total energy              =  -11908.14715040 Ry
     estimated scf accuracy    <       0.00012099 Ry

     iteration # 12     ecut=    45.00 Ry     beta= 0.25
     Davidson diagonalization with overlap
     ethr =  2.74E-09,  avg # of iterations =  5.0

     negative rho (up, down):  7.774E-02 0.000E+00

     total cpu time spent up to now is     6806.0 secs

     total energy              =  -11908.14715128 Ry
     estimated scf accuracy    <       0.00014695 Ry

     iteration # 13     ecut=    45.00 Ry     beta= 0.25
     Davidson diagonalization with overlap
     ethr =  2.74E-09,  avg # of iterations =  3.3

     negative rho (up, down):  7.775E-02 0.000E+00

     total cpu time spent up to now is     6881.1 secs

     total energy              =  -11908.14715323 Ry
     estimated scf accuracy    <       0.00018067 Ry

     iteration # 14     ecut=    45.00 Ry     beta= 0.25
     Davidson diagonalization with overlap
     ethr =  2.74E-09,  avg # of iterations =  4.0

     negative rho (up, down):  7.775E-02 0.000E+00

     total cpu time spent up to now is     6955.5 secs

     total energy              =  -11908.14715396 Ry
     estimated scf accuracy    <       0.00010983 Ry

     iteration # 15     ecut=    45.00 Ry     beta= 0.25
     Davidson diagonalization with overlap
     ethr =  2.74E-09,  avg # of iterations =  1.2

     negative rho (up, down):  7.775E-02 0.000E+00

     total cpu time spent up to now is     7018.9 secs

     total energy              =  -11908.14715660 Ry
     estimated scf accuracy    <       0.00002613 Ry

     iteration # 16     ecut=    45.00 Ry     beta= 0.25
     Davidson diagonalization with overlap
     ethr =  2.02E-09,  avg # of iterations =  1.2

     negative rho (up, down):  7.775E-02 0.000E+00

     total cpu time spent up to now is     7081.5 secs

     total energy              =  -11908.14715640 Ry
     estimated scf accuracy    <       0.00002437 Ry

     iteration # 17     ecut=    45.00 Ry     beta= 0.25
     Davidson diagonalization with overlap
     ethr =  1.88E-09,  avg # of iterations =  1.0

     negative rho (up, down):  7.775E-02 0.000E+00

     total cpu time spent up to now is     7144.5 secs

     total energy              =  -11908.14715678 Ry
     estimated scf accuracy    <       0.00001035 Ry

     iteration # 18     ecut=    45.00 Ry     beta= 0.25
     Davidson diagonalization with overlap
     ethr =  7.98E-10,  avg # of iterations =  2.5

     negative rho (up, down):  7.775E-02 0.000E+00

     total cpu time spent up to now is     7214.8 secs

     total energy              =  -11908.14715662 Ry
     estimated scf accuracy    <       0.00001410 Ry

     iteration # 19     ecut=    45.00 Ry     beta= 0.25
     Davidson diagonalization with overlap
     ethr =  7.98E-10,  avg # of iterations =  1.0

     negative rho (up, down):  7.776E-02 0.000E+00

     total cpu time spent up to now is     7278.1 secs

     total energy              =  -11908.14715701 Ry
     estimated scf accuracy    <       0.00000868 Ry

     iteration # 20     ecut=    45.00 Ry     beta= 0.25
     Davidson diagonalization with overlap
     ethr =  6.70E-10,  avg # of iterations =  1.3

     negative rho (up, down):  7.776E-02 0.000E+00

     total cpu time spent up to now is     7346.0 secs

     total energy              =  -11908.14715704 Ry
     estimated scf accuracy    <       0.00000407 Ry

     iteration # 21     ecut=    45.00 Ry     beta= 0.25
     Davidson diagonalization with overlap
     ethr =  3.14E-10,  avg # of iterations =  5.0

     negative rho (up, down):  7.776E-02 0.000E+00

     total cpu time spent up to now is     7421.7 secs

     total energy              =  -11908.14715692 Ry
     estimated scf accuracy    <       0.00000988 Ry

     iteration # 22     ecut=    45.00 Ry     beta= 0.25
     Davidson diagonalization with overlap
     ethr =  3.14E-10,  avg # of iterations =  4.5

     negative rho (up, down):  7.776E-02 0.000E+00

     total cpu time spent up to now is     7502.7 secs

     total energy              =  -11908.14715727 Ry
     estimated scf accuracy    <       0.00000113 Ry

     iteration # 23     ecut=    45.00 Ry     beta= 0.25
     Davidson diagonalization with overlap
     ethr =  8.72E-11,  avg # of iterations =  5.0

     negative rho (up, down):  7.776E-02 0.000E+00

     total cpu time spent up to now is     7576.0 secs

     total energy              =  -11908.14715730 Ry
     estimated scf accuracy    <       0.00000644 Ry

     iteration # 24     ecut=    45.00 Ry     beta= 0.25
     Davidson diagonalization with overlap
     ethr =  8.72E-11,  avg # of iterations =  4.2

     negative rho (up, down):  7.776E-02 0.000E+00

     total cpu time spent up to now is     7648.8 secs

     total energy              =  -11908.14715737 Ry
     estimated scf accuracy    <       0.00000130 Ry

     iteration # 25     ecut=    45.00 Ry     beta= 0.25
     Davidson diagonalization with overlap
     ethr =  8.72E-11,  avg # of iterations =  1.3

     negative rho (up, down):  7.776E-02 0.000E+00

     total cpu time spent up to now is     7710.0 secs

     End of self-consistent calculation

          k = 0.0000 0.0000 0.0000 (135157 PWs)   bands (ev):

   -61.8884 -61.8697 -61.8697 -61.8697 -61.8697 -61.8587 -61.8587 -61.8587
   -61.8587 -61.8415 -61.8415 -61.8415 -61.8415 -61.8359 -61.8358 -61.8358
   -61.8358 -61.8214 -61.8114 -61.8016 -61.8016 -61.8016 -61.8016 -61.7982
   -61.7982 -61.7982 -61.7982 -61.7965 -61.7881 -61.7881 -61.7881 -61.7881
   -61.7807 -61.7807 -61.7807 -61.7807 -61.7730 -61.7730 -61.7730 -61.7730
   -61.7684 -61.7562 -61.7562 -61.7561 -61.7561 -61.7310 -61.7310 -61.7310
   -61.7310 -61.7281 -61.7281 -61.7281 -61.7280 -61.7114 -61.6935 -61.6935
   -61.6935 -61.6935 -61.6921 -61.6921 -61.6920 -61.6920 -61.6919 -61.6898
   -61.6897 -61.6897 -61.6897 -61.6817 -61.6816 -61.6816 -61.6815 -61.6715
   -35.9735 -35.9735 -35.9735 -35.9735 -35.9440 -35.9440 -35.9423 -35.9423
   -35.9422 -35.9422 -35.9288 -35.9288 -35.9288 -35.9288 -35.9092 -35.9092
   -35.9092 -35.9092 -35.8909 -35.8909 -35.8909 -35.8909 -35.8848 -35.8848
   -35.8848 -35.8848 -35.8804 -35.8804 -35.8785 -35.8785 -35.8785 -35.8785
   -35.8666 -35.8666 -35.8666 -35.8666 -35.8528 -35.8528 -35.8528 -35.8528
   -35.8408 -35.8408 -35.8408 -35.8408 -35.8362 -35.8237 -35.8237 -35.8237
   -35.8237 -35.8159 -35.8159 -35.8159 -35.8159 -35.8108 -35.8108 -35.8108
   -35.8108 -35.7893 -35.7893 -35.7893 -35.7893 -35.7790 -35.7790 -35.7790
   -35.7790 -35.7670 -35.7670 -35.7483 -35.7482 -35.7482 -35.7482 -35.7406
   -35.7406 -35.7406 -35.7406 -35.7182 -35.7163 -35.7163 -35.7163 -35.7163
   -35.7066 -35.7066 -35.7066 -35.7066 -35.6850 -35.6850 -35.6850 -35.6850
   -35.6836 -35.6836 -35.6819 -35.6819 -35.6818 -35.6818 -35.6779 -35.6702
   -35.6702 -35.6702 -35.6702 -35.6679 -35.6679 -35.6679 -35.6679 -35.6485
   -35.6485 -35.6485 -35.6485 -35.6419 -35.6419 -35.6372 -35.6372 -35.6372
   -35.6372 -35.6353 -35.6353 -35.6353 -35.6353 -35.6186 -35.6186 -35.6183
   -35.6183 -35.6183 -35.6183 -35.6146 -35.6146 -35.6146 -35.6146 -35.6142
   -35.6142 -35.6142 -35.6142 -35.6041 -35.5965 -35.5965 -35.5965 -35.5964
   -35.5935 -35.5935 -35.5935 -35.5935 -35.5816 -35.5816 -35.5816 -35.5816
   -35.5761 -35.5722 -35.5722 -35.5722 -35.5722 -35.5691 -35.5691 -35.5691
   -35.5691 -35.5637 -35.5637 -35.5636 -35.5636 -35.5634 -35.5634 -35.5609
   -35.5589 -35.5589 -35.5589 -35.5589 -35.5555 -35.5555 -35.5555 -35.5555
   -35.5495 -35.5495 -35.5495 -35.5495 -35.5246 -35.5245 -35.5245 -35.5245
   -35.5055 -35.5055 -35.5055 -35.5055 -35.5005 -35.5005 -35.5005 -35.5005
   -35.4925 -35.4925 -35.4925 -35.4925 -35.4821 -35.4821 -35.4821 -35.4821
   -35.4735 -35.4735 -35.4735 -35.4735 -35.4713 -35.4600 -35.4600 -35.4205
   -35.4205 -35.4205 -35.4205 -35.4180 -35.4180 -35.4180 -35.4179 -35.3920
   -35.3904 -35.3904 -35.3903 -35.3903 -35.3742 -35.3741 -35.3741 -35.3741
   -14.1664 -13.5083 -13.5083 -13.5083 -13.5083 -13.3535 -12.9064 -12.9063
   -12.9063 -12.9063 -12.7804 -12.7804 -12.7804 -12.7804 -12.6882 -12.6590
   -12.6590 -12.6590 -12.6590 -12.5282 -12.4913 -12.4046 -12.3288 -12.3288
   -12.3288 -12.3288 -12.3164 -12.3164 -12.3163 -12.3163 -12.2972 -12.2972
   -12.2972 -12.2972 -12.1277 -12.1277 -12.1277 -12.1277 -12.0575 -12.0575
   -12.0575 -12.0575 -11.9041 -11.9041 -11.9041 -11.9041 -11.8386 -11.6942
   -11.6942 -11.6942 -11.6942 -11.6591 -11.6591 -11.6591 -11.6591 -11.5468
   -11.4582 -11.4582 -11.4582 -11.4582 -11.4547 -11.4547 -11.4546 -11.4546
   -11.4276 -11.4275 -11.4275 -11.4275 -11.1944 -11.1943 -11.1943 -11.1943
    -4.6132  -4.6132  -4.6132  -4.6132  -4.4149  -4.4149  -4.4149  -4.4149
    -4.2948  -4.2948  -4.2948  -4.2948  -4.1920  -4.1920  -4.1920  -4.1920
    -3.8562  -3.8562  -3.8562  -3.8562  -3.7317  -3.7317  -3.7317  -3.7317
    -3.5833  -3.5833  -3.5833  -3.5833  -3.5638  -3.5638  -3.5638  -3.5638
    -3.5088  -3.4867  -3.4867  -3.4867  -3.4867  -3.2365  -3.2365  -3.2365
    -3.2365  -3.0823  -3.0823  -3.0823  -3.0823  -3.0479  -3.0479  -3.0345
    -3.0345  -3.0345  -3.0345  -2.9960  -2.9960  -2.9960  -2.9960  -2.8976
    -2.8976  -2.8976  -2.8976  -2.6483  -2.6483  -2.6483  -2.6483  -2.5108
    -2.5108  -2.4574  -2.4574  -2.4574  -2.4574  -2.4033  -2.3715  -2.3715
    -2.3715  -2.3715  -2.3559  -2.3559  -2.3559  -2.3559  -2.3481  -2.3481
    -2.3481  -2.3481  -2.2609  -2.2609  -2.2609  -2.2609  -2.2296  -2.2296
    -2.2296  -2.2296  -2.2272  -2.2272  -2.2272  -2.2272  -2.0810  -2.0809
    -2.0809  -2.0809  -2.0708  -2.0708  -2.0708  -2.0708  -2.0699  -2.0699
    -2.0699  -2.0699  -2.0498  -2.0498  -2.0498  -2.0498  -1.9363  -1.9363
    -1.9363  -1.9363  -1.8831  -1.8831  -1.8831  -1.8831  -1.8472  -1.8415
    -1.8415  -1.8415  -1.8415  -1.7412  -1.7412  -1.7412  -1.7412  -1.7304
    -1.7304  -1.7304  -1.7304  -1.7038  -1.7038  -1.7038  -1.7038  -1.6033
    -1.6033  -1.6032  -1.6032  -1.5737  -1.5736  -1.5736  -1.5736  -1.5578
    -1.5578  -1.4985  -1.4447  -1.4447  -1.4447  -1.4447  -1.3841  -1.3810
    -1.3810  -1.3810  -1.3810  -1.3492  -1.3492  -1.3491  -1.3491  -1.3472
    -1.3472  -1.3472  -1.3472  -1.2806  -1.2806  -1.2806  -1.2805  -1.2071
    -1.2071  -1.2071  -1.2071  -1.1798  -1.1798  -1.1798  -1.1798  -0.9452
    -0.9452  -0.9452  -0.9451  -0.8981  -0.8981  -0.8981  -0.8981  -0.8321
    -0.8321  -0.7949  -0.7949  -0.7949  -0.7949  -0.7419  -0.7419  -0.7419
    -0.7419  -0.6152  -0.6152  -0.6152  -0.6152  -0.3871  -0.3420  -0.3419
    -0.3419  -0.3419  -0.2552  -0.2552  -0.2422  -0.2422  -0.2422  -0.2422
    -0.1879   0.0911   0.0911   0.1182   0.3192   0.3791   0.5508   0.5508
     0.9216   0.9216   0.9216   0.9216   0.9243   0.9243   1.1577   1.1577
     1.3354   1.8399   1.8675   1.8675   1.8675   1.8675   2.2544   2.2544
     2.4479   2.4479   2.4479   2.4479   2.5500   2.5501   2.5501   2.5501
     2.5642   2.5642   2.5642   2.5642   2.5846   2.5846   2.6670   2.6670
     2.6670   2.6670   2.6833   2.6834   2.6834   2.6834   2.7375   2.7375
     2.7375   2.7375   2.9407   3.0981   3.0981   3.0981   3.0981   3.1320
     3.1320   3.1320   3.1320   3.1557   3.2264   3.2264   3.2265   3.2265
     3.2330   3.2330   3.2330   3.2330   3.2870   3.2870   3.2871   3.2871
     3.3410   3.3410   3.3410   3.3410   3.3744   3.3749   3.3749   3.3749
     3.3749   3.3905   3.3905   3.3905   3.3905   3.4029   3.4029   3.4029
     3.4029   3.4084   3.4084   3.4084   3.4084   3.4806   3.4806   3.4806
     3.4806   3.5356   3.5356   3.5356   3.5356   3.6669   3.6669   3.7001
     3.7001   3.7001   3.7001   3.7799   3.7799   3.7799   3.7799   3.8387
     3.8931   3.8932   3.8932   3.8932   3.9673   3.9673   3.9673   3.9673
     4.0071   4.0071   4.0071   4.0071   4.0587   4.0587   4.0587   4.0587
     4.0689   4.0689   4.0689   4.0689   4.0937   4.1341   4.1341   4.1875
     4.1875   4.1875   4.1875   4.2262   4.2262   4.2262   4.2262   4.2269
     4.2269   4.2269   4.2269   4.2635   4.3442   4.3442   4.3442   4.3442
     4.3793   4.3793   4.3793   4.3794   4.3938   4.4274   4.4274   4.4275
     4.4275   4.4642   4.4642   4.4642   4.4642   4.5057   4.5057   4.5057
     4.5057   4.5137   4.5137   4.5137   4.5137   4.5281   4.5281   4.5281
     4.5281   4.5524   4.5524   4.5524   4.5524   4.5984   4.5984   4.5984
     4.5984   4.6056   4.6056   4.6057   4.6057   4.6551   4.6551   4.6719
     4.7269   4.7269   4.7269   4.7269   4.7583   4.7583   4.7584   4.7584
     4.7666   4.8306   4.8306   4.8306   4.8307   4.8402   4.8695   4.8932
     4.8933   4.8933

          k = 0.0000 0.2500 0.0000 (135097 PWs)   bands (ev):

   -61.8871 -61.8773 -61.8689 -61.8689 -61.8631 -61.8631 -61.8610 -61.8539
   -61.8539 -61.8450 -61.8450 -61.8435 -61.8389 -61.8389 -61.8362 -61.8362
   -61.8296 -61.8223 -61.8107 -61.8056 -61.8014 -61.8014 -61.7997 -61.7997
   -61.7969 -61.7963 -61.7962 -61.7949 -61.7911 -61.7911 -61.7862 -61.7852
   -61.7852 -61.7828 -61.7813 -61.7813 -61.7758 -61.7718 -61.7718 -61.7693
   -61.7630 -61.7630 -61.7616 -61.7485 -61.7485 -61.7381 -61.7350 -61.7350
   -61.7290 -61.7289 -61.7281 -61.7281 -61.7203 -61.7123 -61.6947 -61.6947
   -61.6944 -61.6944 -61.6921 -61.6921 -61.6918 -61.6907 -61.6900 -61.6900
   -61.6886 -61.6886 -61.6884 -61.6845 -61.6825 -61.6825 -61.6783 -61.6725
   -35.9783 -35.9783 -35.9587 -35.9587 -35.9552 -35.9552 -35.9505 -35.9505
   -35.9397 -35.9395 -35.9335 -35.9335 -35.9235 -35.9235 -35.9080 -35.9080
   -35.9079 -35.9056 -35.8954 -35.8954 -35.8914 -35.8914 -35.8829 -35.8829
   -35.8791 -35.8772 -35.8772 -35.8760 -35.8713 -35.8713 -35.8667 -35.8667
   -35.8666 -35.8656 -35.8656 -35.8633 -35.8633 -35.8625 -35.8580 -35.8580
   -35.8470 -35.8427 -35.8371 -35.8371 -35.8346 -35.8328 -35.8324 -35.8324
   -35.8299 -35.8299 -35.8296 -35.8254 -35.8121 -35.8121 -35.8053 -35.8053
   -35.7937 -35.7890 -35.7847 -35.7845 -35.7810 -35.7810 -35.7796 -35.7701
   -35.7697 -35.7697 -35.7648 -35.7635 -35.7620 -35.7575 -35.7575 -35.7373
   -35.7342 -35.7342 -35.7264 -35.7214 -35.7168 -35.7138 -35.7100 -35.7100
   -35.7092 -35.7091 -35.7090 -35.6965 -35.6918 -35.6917 -35.6917 -35.6893
   -35.6893 -35.6882 -35.6880 -35.6825 -35.6771 -35.6691 -35.6691 -35.6607
   -35.6607 -35.6602 -35.6602 -35.6576 -35.6558 -35.6558 -35.6543 -35.6494
   -35.6490 -35.6489 -35.6489 -35.6488 -35.6488 -35.6478 -35.6458 -35.6458
   -35.6399 -35.6399 -35.6392 -35.6388 -35.6384 -35.6384 -35.6354 -35.6331
   -35.6331 -35.6289 -35.6257 -35.6257 -35.6231 -35.6153 -35.6082 -35.6082
   -35.6030 -35.6000 -35.5948 -35.5948 -35.5945 -35.5945 -35.5939 -35.5939
   -35.5934 -35.5922 -35.5915 -35.5915 -35.5820 -35.5820 -35.5810 -35.5810
   -35.5758 -35.5758 -35.5750 -35.5750 -35.5745 -35.5737 -35.5737 -35.5708
   -35.5699 -35.5693 -35.5693 -35.5677 -35.5669 -35.5614 -35.5614 -35.5603
   -35.5578 -35.5565 -35.5565 -35.5563 -35.5563 -35.5544 -35.5544 -35.5541
   -35.5462 -35.5462 -35.5320 -35.5320 -35.5318 -35.5275 -35.5195 -35.5195
   -35.5178 -35.5045 -35.5045 -35.5034 -35.5034 -35.5012 -35.4948 -35.4948
   -35.4919 -35.4919 -35.4885 -35.4885 -35.4867 -35.4836 -35.4831 -35.4831
   -35.4810 -35.4810 -35.4729 -35.4729 -35.4676 -35.4640 -35.4631 -35.4382
   -35.4225 -35.4225 -35.4189 -35.4189 -35.4136 -35.4136 -35.3994 -35.3970
   -35.3970 -35.3891 -35.3843 -35.3843 -35.3767 -35.3767 -35.3754 -35.3754
   -14.1192 -13.7706 -13.4644 -13.4643 -13.3106 -13.2292 -13.1429 -13.1429
   -13.0012 -12.7753 -12.7422 -12.7422 -12.6729 -12.6641 -12.6641 -12.6274
   -12.6274 -12.6220 -12.5649 -12.4913 -12.4751 -12.4743 -12.4743 -12.4228
   -12.4228 -12.3681 -12.3674 -12.3358 -12.3358 -12.3161 -12.2969 -12.2969
   -12.2326 -12.1844 -12.1844 -12.1478 -12.1478 -12.0981 -12.0761 -12.0761
   -12.0252 -12.0252 -11.8945 -11.8695 -11.8695 -11.8220 -11.8035 -11.8035
   -11.7272 -11.7108 -11.7045 -11.6716 -11.6716 -11.6250 -11.6250 -11.5315
   -11.5313 -11.5313 -11.5285 -11.5285 -11.4572 -11.4484 -11.4202 -11.4202
   -11.4050 -11.4050 -11.3060 -11.3060 -11.2641 -11.2641 -11.1662 -11.1662
    -4.7692  -4.7692  -4.5954  -4.5954  -4.5557  -4.5557  -4.4374  -4.4374
    -4.3516  -4.3516  -4.1760  -4.1759  -3.9698  -3.9698  -3.9246  -3.9118
    -3.9118  -3.8520  -3.8520  -3.8387  -3.8387  -3.6873  -3.6569  -3.6569
    -3.6547  -3.6394  -3.6207  -3.6207  -3.6128  -3.6128  -3.5621  -3.5621
    -3.5412  -3.5412  -3.5389  -3.5115  -3.3885  -3.3885  -3.3307  -3.3199
    -3.2743  -3.2743  -3.1976  -3.1449  -3.1428  -3.1428  -3.1268  -3.1268
    -3.0411  -2.9736  -2.9209  -2.9209  -2.8897  -2.8897  -2.8395  -2.7977
    -2.7977  -2.7801  -2.7310  -2.6893  -2.6559  -2.6550  -2.6550  -2.5945
    -2.5945  -2.5566  -2.5566  -2.5044  -2.4437  -2.4417  -2.4356  -2.4356
    -2.4304  -2.4304  -2.4290  -2.4167  -2.4167  -2.4084  -2.4084  -2.3798
    -2.3259  -2.3259  -2.2745  -2.2745  -2.2624  -2.2368  -2.2368  -2.2356
    -2.2331  -2.2331  -2.2268  -2.2268  -2.2184  -2.2184  -2.1723  -2.1723
    -2.1515  -2.1515  -2.0980  -2.0980  -2.0753  -2.0404  -2.0404  -2.0112
    -1.9741  -1.9626  -1.9626  -1.9531  -1.9531  -1.9426  -1.9426  -1.8960
    -1.8960  -1.8926  -1.8866  -1.8800  -1.8652  -1.8652  -1.8511  -1.8232
    -1.8000  -1.8000  -1.7966  -1.7965  -1.7960  -1.7960  -1.7650  -1.7650
    -1.7410  -1.7305  -1.7305  -1.7101  -1.6686  -1.6686  -1.6407  -1.6407
    -1.6305  -1.6061  -1.6061  -1.5533  -1.5389  -1.5129  -1.5129  -1.5046
    -1.4826  -1.4826  -1.4643  -1.4616  -1.4616  -1.4340  -1.4339  -1.4085
    -1.3961  -1.3961  -1.3802  -1.3476  -1.2965  -1.2965  -1.2711  -1.2711
    -1.2499  -1.2246  -1.2246  -1.2120  -1.2120  -1.2037  -1.1990  -1.1990
    -1.1266  -1.0755  -1.0755  -1.0583  -1.0574  -1.0574  -1.0443  -1.0118
    -1.0118  -1.0027  -0.9922  -0.9922  -0.9881  -0.8545  -0.8545  -0.8324
    -0.8226  -0.7931  -0.7931  -0.7767  -0.7767  -0.7620  -0.7349  -0.7040
    -0.6880  -0.6825  -0.6825  -0.6611  -0.5150  -0.4847  -0.4727  -0.4672
    -0.4483  -0.4373  -0.4373  -0.4228  -0.3876  -0.3876  -0.3431  -0.1310
    -0.1123  -0.0991   0.0454   0.1471   0.2376   0.5728   0.6096   0.6757
     0.7566   0.7628   0.7912   0.9216   1.1045   1.1045   1.1148   1.1301
     1.6258   1.6884   1.9160   1.9756   1.9756   2.0345   2.0636   2.0681
     2.0681   2.0927   2.2541   2.2649   2.3253   2.3590   2.4542   2.4542
     2.5599   2.5647   2.5847   2.5847   2.5868   2.5868   2.5978   2.6694
     2.6694   2.7068   2.7068   2.7077   2.7077   2.7257   2.7257   2.7470
     2.8333   2.9153   2.9153   2.9289   2.9762   2.9896   2.9896   3.0465
     3.0654   3.0654   3.0734   3.0734   3.0997   3.1320   3.1320   3.1325
     3.1343   3.1343   3.1791   3.2230   3.2230   3.2292   3.2597   3.2597
     3.2916   3.3147   3.3147   3.3333   3.3333   3.3343   3.3343   3.3352
     3.3352   3.3473   3.5065   3.5065   3.5151   3.5151   3.5224   3.5224
     3.5322   3.5322   3.5406   3.5407   3.5911   3.5916   3.5992   3.6485
     3.6610   3.6610   3.6885   3.6916   3.6916   3.6968   3.6977   3.7079
     3.7079   3.7769   3.7976   3.7976   3.8055   3.8055   3.8160   3.8160
     3.8235   3.9291   3.9291   3.9617   3.9761   4.0107   4.0107   4.0625
     4.0625   4.0653   4.0884   4.0948   4.0948   4.1093   4.1260   4.1266
     4.1287   4.1287   4.1367   4.1513   4.1513   4.1630   4.1708   4.1778
     4.1778   4.1811   4.1811   4.1879   4.1880   4.2264   4.2264   4.2812
     4.2812   4.2823   4.2823   4.2907   4.2907   4.2991   4.3021   4.3021
     4.3048   4.3068   4.3241   4.3286   4.3286   4.3592   4.3592   4.3797
     4.3797   4.3817   4.3817   4.4294   4.4326   4.4326   4.4345   4.4790
     4.4908   4.4954   4.4954   4.4956   4.5081   4.5081   4.5311   4.5311
     4.5713   4.5713   4.5852   4.5853   4.5853   4.6006   4.6129   4.6139
     4.6412   4.6494   4.6628   4.6864   4.6943   4.6943   4.7148   4.7316
     4.7316   4.7349   4.7349   4.7555   4.7555   4.7607   4.7695   4.7755
     4.7755   4.7797   4.7797   4.7973   4.8280   4.8299   4.8407   4.8415
     4.8416   4.8500

          k = 0.0000-0.5000 0.0000 (135178 PWs)   bands (ev):

   -61.8833 -61.8833 -61.8666 -61.8666 -61.8666 -61.8666 -61.8521 -61.8521
   -61.8492 -61.8492 -61.8492 -61.8492 -61.8372 -61.8372 -61.8371 -61.8371
   -61.8251 -61.8251 -61.8087 -61.8087 -61.8008 -61.8008 -61.8007 -61.8007
   -61.7939 -61.7939 -61.7938 -61.7938 -61.7917 -61.7916 -61.7903 -61.7903
   -61.7829 -61.7829 -61.7828 -61.7828 -61.7719 -61.7718 -61.7684 -61.7684
   -61.7683 -61.7683 -61.7496 -61.7496 -61.7412 -61.7412 -61.7411 -61.7411
   -61.7283 -61.7283 -61.7282 -61.7281 -61.7152 -61.7151 -61.6953 -61.6952
   -61.6952 -61.6952 -61.6914 -61.6914 -61.6909 -61.6909 -61.6909 -61.6908
   -61.6867 -61.6867 -61.6851 -61.6851 -61.6850 -61.6850 -61.6750 -61.6749
   -35.9721 -35.9721 -35.9721 -35.9721 -35.9476 -35.9476 -35.9476 -35.9476
   -35.9357 -35.9357 -35.9357 -35.9357 -35.9272 -35.9272 -35.9264 -35.9264
   -35.8968 -35.8968 -35.8968 -35.8967 -35.8830 -35.8830 -35.8830 -35.8830
   -35.8748 -35.8748 -35.8715 -35.8715 -35.8715 -35.8715 -35.8631 -35.8631
   -35.8596 -35.8596 -35.8596 -35.8596 -35.8567 -35.8567 -35.8566 -35.8566
   -35.8446 -35.8446 -35.8446 -35.8446 -35.8436 -35.8436 -35.8416 -35.8416
   -35.8416 -35.8416 -35.8303 -35.8303 -35.8133 -35.8133 -35.8107 -35.8107
   -35.7842 -35.7841 -35.7841 -35.7841 -35.7817 -35.7817 -35.7773 -35.7773
   -35.7534 -35.7534 -35.7513 -35.7513 -35.7513 -35.7513 -35.7508 -35.7507
   -35.7433 -35.7433 -35.7410 -35.7410 -35.7410 -35.7410 -35.7024 -35.7024
   -35.7009 -35.7009 -35.6910 -35.6910 -35.6830 -35.6830 -35.6807 -35.6807
   -35.6807 -35.6807 -35.6727 -35.6727 -35.6726 -35.6726 -35.6655 -35.6655
   -35.6615 -35.6615 -35.6614 -35.6614 -35.6605 -35.6605 -35.6605 -35.6605
   -35.6527 -35.6527 -35.6527 -35.6527 -35.6521 -35.6521 -35.6461 -35.6461
   -35.6431 -35.6430 -35.6390 -35.6390 -35.6390 -35.6390 -35.6365 -35.6364
   -35.6354 -35.6354 -35.6354 -35.6353 -35.6297 -35.6297 -35.6011 -35.6011
   -35.6011 -35.6011 -35.5994 -35.5994 -35.5921 -35.5921 -35.5920 -35.5920
   -35.5831 -35.5830 -35.5830 -35.5830 -35.5828 -35.5827 -35.5813 -35.5813
   -35.5813 -35.5813 -35.5772 -35.5771 -35.5726 -35.5726 -35.5726 -35.5726
   -35.5652 -35.5652 -35.5652 -35.5652 -35.5647 -35.5647 -35.5647 -35.5647
   -35.5635 -35.5635 -35.5600 -35.5600 -35.5510 -35.5510 -35.5488 -35.5488
   -35.5487 -35.5487 -35.5418 -35.5417 -35.5100 -35.5100 -35.5067 -35.5067
   -35.5067 -35.5067 -35.5041 -35.5041 -35.5041 -35.5041 -35.5040 -35.5040
   -35.5040 -35.5040 -35.4860 -35.4860 -35.4859 -35.4859 -35.4795 -35.4795
   -35.4795 -35.4795 -35.4734 -35.4734 -35.4722 -35.4722 -35.4562 -35.4561
   -35.4210 -35.4210 -35.4210 -35.4209 -35.4049 -35.4049 -35.4049 -35.4049
   -35.3853 -35.3853 -35.3827 -35.3827 -35.3791 -35.3791 -35.3791 -35.3791
   -13.9824 -13.9823 -13.3375 -13.3375 -13.3375 -13.3375 -13.1876 -13.1875
   -12.9727 -12.9727 -12.6396 -12.6396 -12.6338 -12.6338 -12.6337 -12.6337
   -12.5403 -12.5403 -12.5403 -12.5403 -12.4594 -12.4594 -12.4594 -12.4594
   -12.4301 -12.4301 -12.3992 -12.3992 -12.3867 -12.3867 -12.2605 -12.2604
   -12.2462 -12.2462 -12.2462 -12.2462 -12.0698 -12.0698 -12.0698 -12.0698
   -11.9346 -11.9346 -11.9346 -11.9346 -11.7786 -11.7786 -11.7716 -11.7716
   -11.7711 -11.7711 -11.7710 -11.7710 -11.6103 -11.6103 -11.6102 -11.6102
   -11.5534 -11.5534 -11.4922 -11.4922 -11.4460 -11.4460 -11.4460 -11.4460
   -11.3440 -11.3440 -11.3440 -11.3440 -11.2023 -11.2023 -11.2022 -11.2022
    -4.7658  -4.7658  -4.7657  -4.7657  -4.5657  -4.5657  -4.5657  -4.5657
    -4.0847  -4.0847  -4.0847  -4.0847  -3.8954  -3.8954  -3.8954  -3.8954
    -3.8441  -3.8441  -3.7833  -3.7833  -3.7832  -3.7832  -3.7435  -3.7435
    -3.7435  -3.7435  -3.5894  -3.5894  -3.5894  -3.5894  -3.5481  -3.5481
    -3.5202  -3.5202  -3.4540  -3.4540  -3.4540  -3.4540  -3.3838  -3.3838
    -3.3377  -3.3377  -3.3377  -3.3377  -3.1470  -3.1470  -3.0548  -3.0548
    -3.0548  -3.0548  -3.0184  -3.0183  -2.9792  -2.9792  -2.6224  -2.6224
    -2.6224  -2.6224  -2.6105  -2.6105  -2.6087  -2.6087  -2.6087  -2.6087
    -2.5132  -2.5132  -2.5020  -2.5020  -2.5020  -2.5020  -2.4983  -2.4983
    -2.4983  -2.4983  -2.4832  -2.4832  -2.4736  -2.4736  -2.4735  -2.4735
    -2.4478  -2.4478  -2.3612  -2.3612  -2.3403  -2.3403  -2.3403  -2.3403
    -2.2258  -2.2258  -2.2258  -2.2258  -2.1911  -2.1911  -2.1911  -2.1911
    -2.1039  -2.1039  -2.0803  -2.0803  -2.0098  -2.0097  -2.0097  -2.0097
    -2.0036  -2.0036  -2.0036  -2.0036  -1.9675  -1.9675  -1.8864  -1.8864
    -1.8864  -1.8864  -1.8835  -1.8835  -1.8835  -1.8835  -1.8701  -1.8701
    -1.8701  -1.8701  -1.7431  -1.7431  -1.7431  -1.7431  -1.6837  -1.6837
    -1.6578  -1.6578  -1.6578  -1.6578  -1.5505  -1.5505  -1.5505  -1.5505
    -1.5418  -1.5418  -1.5418  -1.5418  -1.5377  -1.5377  -1.5167  -1.5167
    -1.4978  -1.4978  -1.4978  -1.4978  -1.4266  -1.4266  -1.3280  -1.3280
    -1.3280  -1.3280  -1.3231  -1.3231  -1.2679  -1.2678  -1.2401  -1.2401
    -1.2401  -1.2401  -1.2030  -1.2030  -1.1686  -1.1686  -1.1685  -1.1685
    -1.1467  -1.1467  -0.9882  -0.9882  -0.9882  -0.9882  -0.9634  -0.9634
    -0.9634  -0.9634  -0.9507  -0.9507  -0.8483  -0.8483  -0.8483  -0.8483
    -0.8315  -0.8315  -0.8269  -0.8269  -0.7741  -0.7741  -0.7049  -0.7049
    -0.7049  -0.7049  -0.6293  -0.6293  -0.6260  -0.6260  -0.6246  -0.6246
    -0.6246  -0.6246  -0.4914  -0.4914  -0.4391  -0.4391  -0.0743  -0.0743
    -0.0684  -0.0683   0.0786   0.0786   0.0797   0.0797   0.3812   0.3812
     0.6404   0.6404   1.2902   1.2902   1.3707   1.3707   1.4639   1.4639
     1.5369   1.5369   1.5369   1.5369   1.5558   1.5558   2.1318   2.1318
     2.2664   2.2664   2.2664   2.2664   2.2984   2.2985   2.4410   2.4410
     2.5052   2.5052   2.5052   2.5052   2.5592   2.5592   2.6715   2.6715
     2.6736   2.6736   2.6736   2.6736   2.6771   2.6771   2.7642   2.7642
     2.8293   2.8293   2.8293   2.8293   2.8338   2.8339   2.8339   2.8339
     2.8547   2.8547   2.8547   2.8547   3.0370   3.0370   3.1382   3.1382
     3.1382   3.1382   3.2615   3.2615   3.2615   3.2615   3.3213   3.3213
     3.3213   3.3213   3.3638   3.3639   3.3639   3.3639   3.3960   3.3960
     3.4055   3.4056   3.4056   3.4056   3.4645   3.4645   3.5364   3.5364
     3.5364   3.5364   3.6048   3.6048   3.7021   3.7021   3.7021   3.7021
     3.7089   3.7089   3.8771   3.8771   3.8771   3.8771   3.8811   3.8811
     3.8811   3.8811   3.8857   3.8857   3.8965   3.8965   3.9912   3.9912
     3.9912   3.9912   3.9921   3.9921   4.0158   4.0158   4.0564   4.0564
     4.0564   4.0564   4.0801   4.0801   4.0801   4.0801   4.0861   4.0861
     4.0861   4.0861   4.0892   4.0892   4.0899   4.0899   4.1090   4.1091
     4.1843   4.1844   4.1844   4.1844   4.2310   4.2310   4.2311   4.2311
     4.2406   4.2406   4.2406   4.2406   4.2661   4.2661   4.2662   4.2662
     4.2758   4.2758   4.3587   4.3587   4.3796   4.3796   4.3796   4.3796
     4.4128   4.4128   4.4380   4.4380   4.5042   4.5042   4.5042   4.5042
     4.5132   4.5132   4.5132   4.5133   4.5365   4.5366   4.5366   4.5366
     4.5711   4.5711   4.5739   4.5739   4.6336   4.6337   4.6555   4.6555
     4.6555   4.6555   4.6625   4.6625   4.6625   4.6625   4.6964   4.6964
     4.6994   4.6994   4.7309   4.7310   4.7336   4.7337   4.7865   4.7865
     4.7866   4.7866   4.7914   4.7914   4.7949   4.7949   4.7949   4.7951
     4.7970   4.7972

          k = 0.2500 0.2500 0.0000 (135083 PWs)   bands (ev):

   -61.8858 -61.8764 -61.8763 -61.8689 -61.8605 -61.8605 -61.8567 -61.8567
   -61.8511 -61.8464 -61.8441 -61.8441 -61.8435 -61.8435 -61.8348 -61.8302
   -61.8302 -61.8232 -61.8101 -61.8052 -61.8052 -61.8022 -61.7969 -61.7969
   -61.7966 -61.7966 -61.7955 -61.7934 -61.7929 -61.7892 -61.7892 -61.7865
   -61.7865 -61.7815 -61.7815 -61.7815 -61.7765 -61.7765 -61.7712 -61.7702
   -61.7606 -61.7606 -61.7537 -61.7537 -61.7431 -61.7378 -61.7377 -61.7358
   -61.7357 -61.7357 -61.7245 -61.7207 -61.7207 -61.7131 -61.6970 -61.6968
   -61.6924 -61.6923 -61.6917 -61.6916 -61.6909 -61.6909 -61.6908 -61.6908
   -61.6889 -61.6889 -61.6853 -61.6853 -61.6852 -61.6792 -61.6792 -61.6734
   -35.9901 -35.9782 -35.9644 -35.9558 -35.9557 -35.9556 -35.9530 -35.9403
   -35.9320 -35.9255 -35.9255 -35.9235 -35.9235 -35.9230 -35.9230 -35.9133
   -35.9016 -35.9015 -35.9001 -35.8966 -35.8966 -35.8894 -35.8893 -35.8869
   -35.8855 -35.8773 -35.8758 -35.8744 -35.8743 -35.8743 -35.8719 -35.8719
   -35.8648 -35.8601 -35.8598 -35.8545 -35.8544 -35.8497 -35.8497 -35.8488
   -35.8488 -35.8479 -35.8473 -35.8473 -35.8393 -35.8393 -35.8373 -35.8373
   -35.8333 -35.8283 -35.8283 -35.8246 -35.8246 -35.8083 -35.8083 -35.8072
   -35.8072 -35.7873 -35.7822 -35.7822 -35.7800 -35.7800 -35.7749 -35.7749
   -35.7716 -35.7614 -35.7614 -35.7590 -35.7574 -35.7574 -35.7514 -35.7367
   -35.7338 -35.7338 -35.7333 -35.7279 -35.7279 -35.7147 -35.7147 -35.7064
   -35.7064 -35.7006 -35.7006 -35.6928 -35.6889 -35.6889 -35.6868 -35.6868
   -35.6794 -35.6771 -35.6771 -35.6754 -35.6747 -35.6747 -35.6730 -35.6726
   -35.6726 -35.6698 -35.6697 -35.6595 -35.6548 -35.6547 -35.6525 -35.6525
   -35.6520 -35.6500 -35.6476 -35.6474 -35.6469 -35.6468 -35.6455 -35.6455
   -35.6448 -35.6442 -35.6426 -35.6393 -35.6393 -35.6320 -35.6320 -35.6290
   -35.6225 -35.6177 -35.6174 -35.6174 -35.6168 -35.6161 -35.6161 -35.6138
   -35.6137 -35.6136 -35.6135 -35.6135 -35.6019 -35.5964 -35.5964 -35.5930
   -35.5921 -35.5921 -35.5892 -35.5821 -35.5815 -35.5796 -35.5796 -35.5793
   -35.5773 -35.5773 -35.5763 -35.5763 -35.5725 -35.5725 -35.5723 -35.5723
   -35.5703 -35.5684 -35.5684 -35.5666 -35.5647 -35.5640 -35.5640 -35.5621
   -35.5617 -35.5617 -35.5610 -35.5610 -35.5541 -35.5490 -35.5474 -35.5430
   -35.5430 -35.5285 -35.5255 -35.5254 -35.5250 -35.5234 -35.5207 -35.5207
   -35.5148 -35.5148 -35.5036 -35.5006 -35.5006 -35.5005 -35.5005 -35.4979
   -35.4944 -35.4944 -35.4926 -35.4926 -35.4887 -35.4887 -35.4879 -35.4864
   -35.4766 -35.4746 -35.4746 -35.4727 -35.4657 -35.4645 -35.4604 -35.4383
   -35.4382 -35.4327 -35.4141 -35.4095 -35.4095 -35.4043 -35.4008 -35.4008
   -35.3895 -35.3895 -35.3870 -35.3812 -35.3784 -35.3783 -35.3773 -35.3773
   -14.0721 -13.7252 -13.7252 -13.3914 -13.2680 -13.1872 -13.1872 -12.9608
   -12.9608 -12.8830 -12.8830 -12.7394 -12.7394 -12.6729 -12.6563 -12.5957
   -12.5957 -12.5300 -12.5300 -12.4910 -12.4910 -12.4591 -12.4547 -12.4490
   -12.4489 -12.3517 -12.3517 -12.3303 -12.2927 -12.2927 -12.2915 -12.2915
   -12.2496 -12.2406 -12.1983 -12.1983 -12.1432 -12.1432 -12.0622 -12.0622
   -12.0434 -12.0383 -11.9608 -11.8645 -11.8645 -11.8052 -11.8049 -11.7070
   -11.7070 -11.6794 -11.6794 -11.6783 -11.6783 -11.6611 -11.6610 -11.5842
   -11.5157 -11.5149 -11.5149 -11.4530 -11.4530 -11.4312 -11.4312 -11.4289
   -11.4289 -11.4211 -11.3589 -11.3127 -11.2613 -11.2613 -11.1810 -11.1073
    -4.9599  -4.8667  -4.7266  -4.6663  -4.4827  -4.4827  -4.2880  -4.2880
    -4.2495  -4.2495  -4.1231  -4.1231  -4.0996  -4.0023  -3.9932  -3.9932
    -3.9642  -3.8545  -3.7786  -3.7522  -3.7501  -3.7501  -3.7355  -3.7355
    -3.6961  -3.6961  -3.6496  -3.6112  -3.6112  -3.5579  -3.5579  -3.5157
    -3.4634  -3.4581  -3.4581  -3.4345  -3.4345  -3.3809  -3.3670  -3.3670
    -3.2595  -3.2595  -3.2092  -3.2092  -3.1540  -3.1484  -3.1361  -3.1361
    -3.0990  -3.0354  -3.0354  -2.8795  -2.8794  -2.8768  -2.8768  -2.7951
    -2.7951  -2.7872  -2.7872  -2.7116  -2.6862  -2.5867  -2.5867  -2.5802
    -2.5799  -2.5779  -2.5606  -2.5555  -2.5430  -2.5430  -2.4687  -2.4680
    -2.4680  -2.4647  -2.4608  -2.4297  -2.4297  -2.4292  -2.4292  -2.4186
    -2.3911  -2.3611  -2.3611  -2.2946  -2.2946  -2.2704  -2.2688  -2.2688
    -2.2374  -2.2042  -2.2042  -2.1890  -2.1890  -2.1552  -2.0783  -2.0783
    -2.0674  -2.0646  -2.0646  -2.0585  -2.0585  -2.0427  -2.0427  -2.0238
    -2.0238  -2.0008  -1.9857  -1.9857  -1.9645  -1.9318  -1.9318  -1.9312
    -1.9293  -1.9293  -1.8943  -1.8943  -1.8736  -1.8736  -1.8362  -1.8362
    -1.8014  -1.7830  -1.7830  -1.7823  -1.7585  -1.7543  -1.7532  -1.7411
    -1.6839  -1.6839  -1.6250  -1.6250  -1.6182  -1.6064  -1.6058  -1.6058
    -1.5869  -1.5832  -1.5755  -1.5275  -1.5141  -1.5006  -1.5006  -1.4586
    -1.4586  -1.4476  -1.4384  -1.4384  -1.4259  -1.4259  -1.4094  -1.4094
    -1.3311  -1.2861  -1.2821  -1.2821  -1.2817  -1.2817  -1.2640  -1.2640
    -1.2169  -1.2169  -1.1985  -1.1902  -1.1902  -1.1553  -1.0979  -1.0979
    -1.0755  -1.0755  -1.0523  -1.0487  -1.0487  -1.0390  -1.0274  -1.0201
    -1.0201  -0.9987  -0.9933  -0.9933  -0.9475  -0.9237  -0.9237  -0.8881
    -0.8714  -0.8714  -0.8009  -0.8009  -0.7561  -0.7561  -0.7411  -0.7083
    -0.7083  -0.6944  -0.6420  -0.5817  -0.5817  -0.5797  -0.5797  -0.5470
    -0.5470  -0.5342  -0.4286  -0.4166  -0.4166  -0.2658  -0.2658  -0.2078
    -0.1866  -0.1134  -0.1134   0.0081   0.0352   0.3719   0.5303   0.7107
     0.8464   0.8710   0.9764   0.9764   0.9775   1.1582   1.2858   1.2858
     1.7449   1.7449   1.8380   1.9133   1.9549   1.9549   2.0379   2.0379
     2.0875   2.0875   2.1311   2.1890   2.1890   2.2171   2.3000   2.3000
     2.3153   2.3557   2.4363   2.4363   2.4394   2.5055   2.5055   2.5471
     2.5941   2.5941   2.6026   2.6268   2.7942   2.7942   2.8024   2.8024
     2.8301   2.8463   2.9244   2.9304   2.9304   2.9423   2.9423   2.9558
     2.9558   3.0086   3.0434   3.0434   3.0629   3.0866   3.1818   3.1997
     3.1998   3.2211   3.2211   3.2282   3.2282   3.2793   3.2793   3.2976
     3.3010   3.3187   3.3291   3.3291   3.3526   3.3526   3.4047   3.4245
     3.4246   3.4966   3.5314   3.5418   3.5418   3.5424   3.5424   3.5560
     3.5560   3.5718   3.5718   3.6507   3.6616   3.6616   3.6635   3.6635
     3.6801   3.6801   3.6987   3.7289   3.7289   3.7290   3.7313   3.7599
     3.8082   3.8379   3.8379   3.8466   3.8467   3.8801   3.9408   3.9408
     3.9486   3.9749   4.0108   4.0224   4.0224   4.0306   4.0453   4.0489
     4.0489   4.0579   4.0579   4.0854   4.0854   4.0884   4.0936   4.0936
     4.1257   4.1257   4.1257   4.1420   4.1761   4.1761   4.1795   4.1795
     4.1853   4.1866   4.1891   4.1891   4.2145   4.2145   4.2416   4.2416
     4.2554   4.2571   4.2666   4.2666   4.2772   4.2902   4.2948   4.2948
     4.2958   4.2959   4.3154   4.3402   4.3402   4.3526   4.3526   4.3630
     4.3699   4.3707   4.3914   4.3914   4.4425   4.4425   4.4538   4.4859
     4.4859   4.5001   4.5219   4.5219   4.5393   4.5564   4.5590   4.5590
     4.5597   4.5784   4.5784   4.6020   4.6381   4.6381   4.6427   4.6570
     4.6571   4.6807   4.6807   4.6903   4.6903   4.6914   4.6914   4.7008
     4.7008   4.7221   4.7221   4.7482   4.7546   4.7635   4.7761   4.7895
     4.7931   4.7932   4.8050   4.8051   4.8145   4.8147   4.8202   4.8221
     4.8236   4.8292

          k = 0.2500-0.5000 0.0000 (135080 PWs)   bands (ev):

   -61.8821 -61.8821 -61.8734 -61.8734 -61.8590 -61.8590 -61.8518 -61.8518
   -61.8502 -61.8502 -61.8485 -61.8485 -61.8437 -61.8437 -61.8319 -61.8319
   -61.8258 -61.8258 -61.8082 -61.8081 -61.8041 -61.8040 -61.7968 -61.7968
   -61.7944 -61.7944 -61.7931 -61.7931 -61.7918 -61.7918 -61.7889 -61.7888
   -61.7876 -61.7876 -61.7785 -61.7785 -61.7775 -61.7774 -61.7727 -61.7726
   -61.7580 -61.7579 -61.7489 -61.7489 -61.7443 -61.7443 -61.7385 -61.7385
   -61.7369 -61.7368 -61.7220 -61.7218 -61.7159 -61.7157 -61.6978 -61.6978
   -61.6921 -61.6921 -61.6914 -61.6914 -61.6912 -61.6912 -61.6903 -61.6903
   -61.6876 -61.6876 -61.6874 -61.6874 -61.6818 -61.6817 -61.6759 -61.6758
   -35.9902 -35.9902 -35.9662 -35.9662 -35.9437 -35.9437 -35.9404 -35.9404
   -35.9346 -35.9346 -35.9248 -35.9248 -35.9181 -35.9181 -35.9174 -35.9174
   -35.8994 -35.8994 -35.8987 -35.8987 -35.8916 -35.8916 -35.8848 -35.8848
   -35.8827 -35.8827 -35.8758 -35.8758 -35.8737 -35.8737 -35.8683 -35.8683
   -35.8651 -35.8651 -35.8633 -35.8633 -35.8589 -35.8589 -35.8566 -35.8566
   -35.8532 -35.8532 -35.8405 -35.8405 -35.8399 -35.8399 -35.8317 -35.8317
   -35.8303 -35.8303 -35.8268 -35.8268 -35.8159 -35.8159 -35.8084 -35.8084
   -35.8067 -35.8067 -35.7841 -35.7841 -35.7788 -35.7787 -35.7745 -35.7745
   -35.7616 -35.7615 -35.7581 -35.7581 -35.7560 -35.7560 -35.7463 -35.7463
   -35.7384 -35.7384 -35.7236 -35.7236 -35.7217 -35.7217 -35.7097 -35.7097
   -35.7032 -35.7032 -35.6918 -35.6918 -35.6880 -35.6880 -35.6838 -35.6838
   -35.6775 -35.6775 -35.6740 -35.6740 -35.6725 -35.6725 -35.6713 -35.6712
   -35.6652 -35.6652 -35.6647 -35.6647 -35.6641 -35.6641 -35.6589 -35.6589
   -35.6524 -35.6524 -35.6494 -35.6494 -35.6426 -35.6426 -35.6412 -35.6412
   -35.6400 -35.6400 -35.6385 -35.6385 -35.6375 -35.6375 -35.6345 -35.6345
   -35.6311 -35.6311 -35.6228 -35.6228 -35.6199 -35.6199 -35.6158 -35.6158
   -35.6114 -35.6113 -35.5993 -35.5993 -35.5987 -35.5986 -35.5964 -35.5964
   -35.5918 -35.5917 -35.5906 -35.5906 -35.5905 -35.5905 -35.5887 -35.5887
   -35.5843 -35.5843 -35.5756 -35.5755 -35.5706 -35.5706 -35.5674 -35.5674
   -35.5654 -35.5654 -35.5646 -35.5646 -35.5643 -35.5643 -35.5621 -35.5621
   -35.5609 -35.5609 -35.5561 -35.5561 -35.5526 -35.5526 -35.5435 -35.5435
   -35.5350 -35.5349 -35.5220 -35.5220 -35.5126 -35.5126 -35.5112 -35.5111
   -35.5088 -35.5088 -35.5081 -35.5081 -35.5057 -35.5056 -35.5005 -35.5005
   -35.5002 -35.5002 -35.4973 -35.4973 -35.4964 -35.4964 -35.4842 -35.4841
   -35.4803 -35.4803 -35.4669 -35.4669 -35.4643 -35.4643 -35.4547 -35.4546
   -35.4373 -35.4372 -35.4104 -35.4104 -35.4045 -35.4045 -35.3978 -35.3978
   -35.3868 -35.3868 -35.3828 -35.3828 -35.3821 -35.3821 -35.3789 -35.3789
   -13.9360 -13.9359 -13.5939 -13.5938 -13.1458 -13.1457 -13.0665 -13.0665
   -12.9333 -12.9333 -12.8454 -12.8454 -12.6528 -12.6528 -12.6380 -12.6380
   -12.6189 -12.6189 -12.5267 -12.5267 -12.4322 -12.4322 -12.4144 -12.4143
   -12.3690 -12.3690 -12.3509 -12.3509 -12.3083 -12.3082 -12.2870 -12.2870
   -12.2260 -12.2259 -12.2238 -12.2238 -12.1738 -12.1738 -12.1017 -12.1016
   -12.0132 -12.0132 -11.9595 -11.9594 -11.7809 -11.7808 -11.7603 -11.7603
   -11.7441 -11.7441 -11.6531 -11.6530 -11.6104 -11.6103 -11.5866 -11.5866
   -11.5596 -11.5596 -11.5238 -11.5238 -11.4750 -11.4750 -11.3771 -11.3771
   -11.3595 -11.3594 -11.3576 -11.3576 -11.3243 -11.3243 -11.1098 -11.1098
    -4.9973  -4.9973  -4.7669  -4.7669  -4.4471  -4.4471  -4.2703  -4.2703
    -4.1931  -4.1931  -4.0146  -4.0146  -3.9849  -3.9849  -3.9410  -3.9410
    -3.9191  -3.9191  -3.8398  -3.8398  -3.8004  -3.8004  -3.7676  -3.7676
    -3.6982  -3.6982  -3.6609  -3.6609  -3.6219  -3.6218  -3.5292  -3.5292
    -3.5017  -3.5017  -3.4096  -3.4096  -3.4088  -3.4087  -3.3270  -3.3270
    -3.2087  -3.2086  -3.1988  -3.1988  -3.1829  -3.1829  -3.0993  -3.0992
    -3.0701  -3.0701  -2.9825  -2.9825  -2.9374  -2.9374  -2.9200  -2.9200
    -2.8383  -2.8383  -2.7662  -2.7662  -2.6644  -2.6644  -2.6243  -2.6243
    -2.5673  -2.5673  -2.5386  -2.5385  -2.5044  -2.5044  -2.4955  -2.4955
    -2.4742  -2.4742  -2.4650  -2.4650  -2.3900  -2.3900  -2.3850  -2.3850
    -2.3174  -2.3174  -2.3152  -2.3152  -2.3037  -2.3037  -2.2903  -2.2903
    -2.2416  -2.2416  -2.2113  -2.2113  -2.1866  -2.1866  -2.1714  -2.1714
    -2.1339  -2.1339  -2.0999  -2.0999  -2.0916  -2.0916  -2.0427  -2.0427
    -2.0247  -2.0247  -2.0086  -2.0086  -2.0051  -2.0050  -1.9844  -1.9844
    -1.9762  -1.9762  -1.8691  -1.8691  -1.8467  -1.8467  -1.7940  -1.7940
    -1.7137  -1.7137  -1.6705  -1.6704  -1.6382  -1.6382  -1.6323  -1.6323
    -1.6292  -1.6292  -1.6089  -1.6089  -1.5564  -1.5564  -1.5547  -1.5547
    -1.5354  -1.5354  -1.4766  -1.4766  -1.4599  -1.4599  -1.4477  -1.4477
    -1.4314  -1.4314  -1.3536  -1.3536  -1.3476  -1.3476  -1.3362  -1.3361
    -1.3171  -1.3171  -1.3166  -1.3166  -1.3144  -1.3144  -1.2879  -1.2879
    -1.2745  -1.2745  -1.2250  -1.2250  -1.1790  -1.1790  -1.1178  -1.1178
    -1.0704  -1.0704  -1.0666  -1.0666  -1.0149  -1.0149  -1.0024  -1.0024
    -0.9817  -0.9817  -0.9812  -0.9812  -0.9280  -0.9280  -0.8355  -0.8355
    -0.8256  -0.8255  -0.8129  -0.8129  -0.7514  -0.7514  -0.7117  -0.7117
    -0.6787  -0.6787  -0.6499  -0.6499  -0.6287  -0.6287  -0.6085  -0.6085
    -0.4754  -0.4754  -0.4657  -0.4657  -0.4292  -0.4292  -0.3085  -0.3085
    -0.1761  -0.1761  -0.1077  -0.1077   0.0777   0.0777   0.2499   0.2499
     0.9086   0.9086   1.3417   1.3417   1.4414   1.4414   1.4588   1.4588
     1.5057   1.5057   1.6036   1.6036   1.6790   1.6790   2.0231   2.0231
     2.0647   2.0647   2.0993   2.0993   2.1989   2.1989   2.2905   2.2905
     2.3379   2.3379   2.3638   2.3639   2.4838   2.4838   2.4984   2.4984
     2.5707   2.5707   2.5971   2.5971   2.6437   2.6437   2.7198   2.7198
     2.7254   2.7254   2.7505   2.7505   2.8200   2.8200   2.9399   2.9399
     2.9698   2.9698   2.9894   2.9894   3.0531   3.0531   3.1196   3.1196
     3.1682   3.1682   3.2450   3.2450   3.2619   3.2620   3.3405   3.3405
     3.3781   3.3781   3.3989   3.3989   3.4128   3.4129   3.4344   3.4344
     3.5137   3.5137   3.5828   3.5828   3.6109   3.6109   3.6149   3.6149
     3.6580   3.6581   3.6700   3.6700   3.7124   3.7124   3.7264   3.7264
     3.7814   3.7814   3.8221   3.8222   3.8616   3.8616   3.8936   3.8936
     3.9090   3.9090   3.9173   3.9173   3.9278   3.9278   3.9394   3.9394
     3.9745   3.9745   3.9830   3.9830   3.9953   3.9953   3.9987   3.9987
     4.0436   4.0436   4.0527   4.0527   4.0576   4.0576   4.0758   4.0758
     4.1031   4.1031   4.1054   4.1054   4.1160   4.1160   4.1294   4.1294
     4.1612   4.1612   4.1762   4.1762   4.1819   4.1819   4.2061   4.2061
     4.2345   4.2345   4.2354   4.2354   4.2521   4.2521   4.2640   4.2640
     4.3078   4.3079   4.3901   4.3901   4.4125   4.4125   4.4183   4.4183
     4.4259   4.4259   4.4504   4.4504   4.4691   4.4691   4.4700   4.4700
     4.5143   4.5143   4.5714   4.5714   4.5805   4.5805   4.5939   4.5939
     4.5999   4.5999   4.6101   4.6101   4.6483   4.6484   4.6617   4.6618
     4.6729   4.6729   4.7016   4.7017   4.7143   4.7143   4.7442   4.7443
     4.7465   4.7465   4.7547   4.7547   4.7571   4.7571   4.7572   4.7572
     4.7620   4.7620   4.7859   4.7860   4.7915   4.7917   4.7991   4.7999
     4.8077   4.8088

          k =-0.5000-0.5000 0.0000 (135004 PWs)   bands (ev):

   -61.8788 -61.8788 -61.8787 -61.8787 -61.8512 -61.8512 -61.8511 -61.8511
   -61.8511 -61.8511 -61.8511 -61.8511 -61.8482 -61.8482 -61.8281 -61.8281
   -61.8281 -61.8281 -61.8066 -61.8065 -61.8065 -61.8065 -61.7947 -61.7946
   -61.7924 -61.7924 -61.7924 -61.7923 -61.7923 -61.7923 -61.7923 -61.7923
   -61.7845 -61.7845 -61.7845 -61.7844 -61.7750 -61.7750 -61.7750 -61.7749
   -61.7471 -61.7471 -61.7471 -61.7471 -61.7470 -61.7470 -61.7470 -61.7470
   -61.7375 -61.7375 -61.7181 -61.7179 -61.7179 -61.7178 -61.6989 -61.6989
   -61.6913 -61.6913 -61.6913 -61.6913 -61.6893 -61.6893 -61.6893 -61.6893
   -61.6893 -61.6893 -61.6892 -61.6892 -61.6784 -61.6784 -61.6784 -61.6783
   -35.9964 -35.9964 -35.9725 -35.9725 -35.9396 -35.9396 -35.9396 -35.9396
   -35.9076 -35.9076 -35.9075 -35.9075 -35.9075 -35.9075 -35.9075 -35.9075
   -35.9073 -35.9073 -35.9073 -35.9073 -35.9041 -35.9041 -35.8812 -35.8812
   -35.8812 -35.8811 -35.8805 -35.8805 -35.8805 -35.8805 -35.8805 -35.8805
   -35.8805 -35.8805 -35.8797 -35.8797 -35.8636 -35.8636 -35.8636 -35.8636
   -35.8318 -35.8318 -35.8318 -35.8318 -35.8309 -35.8309 -35.8309 -35.8309
   -35.8309 -35.8309 -35.8309 -35.8309 -35.8042 -35.8042 -35.8042 -35.8042
   -35.8042 -35.8042 -35.8042 -35.8042 -35.7863 -35.7863 -35.7863 -35.7863
   -35.7673 -35.7673 -35.7673 -35.7673 -35.7347 -35.7346 -35.7346 -35.7346
   -35.7276 -35.7276 -35.7276 -35.7276 -35.7056 -35.7056 -35.7055 -35.7055
   -35.7055 -35.7055 -35.7055 -35.7055 -35.6937 -35.6937 -35.6937 -35.6937
   -35.6738 -35.6738 -35.6738 -35.6738 -35.6738 -35.6738 -35.6738 -35.6738
   -35.6680 -35.6680 -35.6680 -35.6680 -35.6667 -35.6667 -35.6666 -35.6666
   -35.6412 -35.6412 -35.6411 -35.6411 -35.6398 -35.6398 -35.6398 -35.6397
   -35.6363 -35.6363 -35.6229 -35.6229 -35.6229 -35.6229 -35.6229 -35.6229
   -35.6229 -35.6229 -35.6210 -35.6210 -35.6210 -35.6210 -35.6176 -35.6176
   -35.6139 -35.6139 -35.6139 -35.6139 -35.6139 -35.6139 -35.6138 -35.6138
   -35.6000 -35.6000 -35.6000 -35.6000 -35.5967 -35.5966 -35.5966 -35.5966
   -35.5916 -35.5916 -35.5673 -35.5673 -35.5673 -35.5673 -35.5673 -35.5673
   -35.5673 -35.5673 -35.5664 -35.5664 -35.5663 -35.5663 -35.5586 -35.5586
   -35.5585 -35.5585 -35.5483 -35.5483 -35.5273 -35.5273 -35.5273 -35.5273
   -35.5273 -35.5272 -35.5272 -35.5272 -35.5217 -35.5215 -35.5215 -35.5214
   -35.5088 -35.5088 -35.5049 -35.5049 -35.5049 -35.5049 -35.5048 -35.5048
   -35.5048 -35.5048 -35.5016 -35.5016 -35.4942 -35.4942 -35.4942 -35.4942
   -35.4794 -35.4794 -35.4619 -35.4619 -35.4618 -35.4618 -35.4490 -35.4490
   -35.4490 -35.4489 -35.4125 -35.4125 -35.3914 -35.3913 -35.3913 -35.3913
   -35.3913 -35.3913 -35.3913 -35.3912 -35.3805 -35.3805 -35.3805 -35.3805
   -13.8016 -13.8016 -13.8016 -13.8015 -13.0259 -13.0259 -13.0259 -13.0259
   -12.8209 -12.8209 -12.8209 -12.8209 -12.8209 -12.8209 -12.8209 -12.8209
   -12.5689 -12.5689 -12.5689 -12.5689 -12.3708 -12.3708 -12.3708 -12.3708
   -12.2861 -12.2861 -12.2861 -12.2861 -12.2861 -12.2861 -12.2860 -12.2860
   -12.2499 -12.2498 -12.2498 -12.2498 -12.2084 -12.2083 -12.1186 -12.1186
   -12.1186 -12.1185 -12.0055 -12.0055 -11.7122 -11.7122 -11.7122 -11.7122
   -11.6677 -11.6677 -11.6677 -11.6677 -11.6677 -11.6677 -11.6677 -11.6677
   -11.4413 -11.4413 -11.4413 -11.4413 -11.4413 -11.4413 -11.4413 -11.4413
   -11.4302 -11.4302 -11.4302 -11.4301 -11.3237 -11.3237 -11.0753 -11.0753
    -5.0816  -5.0816  -4.8371  -4.8371  -4.1344  -4.1344  -4.1344  -4.1344
    -4.1344  -4.1344  -4.1344  -4.1344  -4.1028  -4.1028  -3.9402  -3.9402
    -3.9402  -3.9402  -3.9402  -3.9402  -3.9402  -3.9402  -3.8851  -3.8851
    -3.5590  -3.5590  -3.5590  -3.5590  -3.5339  -3.5339  -3.5339  -3.5338
    -3.4892  -3.4892  -3.4892  -3.4892  -3.2939  -3.2939  -3.2939  -3.2939
    -3.2939  -3.2939  -3.2939  -3.2939  -3.0491  -3.0491  -3.0490  -3.0490
    -3.0354  -3.0354  -3.0353  -3.0353  -3.0353  -3.0353  -3.0353  -3.0353
    -2.7682  -2.7682  -2.7682  -2.7682  -2.7483  -2.7483  -2.7483  -2.7483
    -2.6892  -2.6892  -2.5078  -2.5078  -2.4957  -2.4957  -2.4426  -2.4426
    -2.4426  -2.4426  -2.4426  -2.4426  -2.4426  -2.4426  -2.3684  -2.3684
    -2.3684  -2.3684  -2.3428  -2.3428  -2.2917  -2.2917  -2.2917  -2.2917
    -2.2917  -2.2917  -2.2917  -2.2917  -2.0580  -2.0580  -2.0580  -2.0580
    -2.0580  -2.0580  -2.0580  -2.0580  -2.0522  -2.0522  -2.0254  -2.0254
    -2.0254  -2.0254  -2.0253  -2.0253  -2.0253  -2.0253  -1.9443  -1.9443
    -1.9443  -1.9443  -1.9256  -1.9256  -1.9256  -1.9256  -1.8052  -1.8052
    -1.8052  -1.8052  -1.7329  -1.7329  -1.6856  -1.6856  -1.6853  -1.6853
    -1.6853  -1.6853  -1.4627  -1.4627  -1.4627  -1.4627  -1.4627  -1.4627
    -1.4627  -1.4626  -1.4270  -1.4270  -1.4270  -1.4270  -1.3707  -1.3707
    -1.3707  -1.3707  -1.3127  -1.3126  -1.2755  -1.2755  -1.2755  -1.2755
    -1.2755  -1.2755  -1.2755  -1.2755  -1.2715  -1.2715  -1.2715  -1.2714
    -1.2415  -1.2415  -1.2415  -1.2415  -1.1352  -1.1352  -1.1352  -1.1352
    -1.0640  -1.0640  -1.0640  -1.0640  -1.0640  -1.0639  -1.0639  -1.0639
    -0.9489  -0.9489  -0.9489  -0.9489  -0.8497  -0.8497  -0.8497  -0.8497
    -0.8276  -0.8276  -0.8276  -0.8276  -0.8276  -0.8276  -0.8276  -0.8276
    -0.6237  -0.6237  -0.6237  -0.6236  -0.5842  -0.5842  -0.5842  -0.5842
    -0.5268  -0.5267  -0.5267  -0.5267  -0.3210  -0.3210  -0.3210  -0.3209
    -0.2517  -0.2517  -0.2517  -0.2517  -0.0446  -0.0446  -0.0445  -0.0445
     1.3299   1.3299   1.3299   1.3300   1.5351   1.5351   1.5351   1.5351
     1.6074   1.6074   1.6074   1.6074   1.8605   1.8605   1.8605   1.8605
     1.8605   1.8605   1.8605   1.8605   1.8652   1.8652   1.8652   1.8652
     2.4186   2.4186   2.4186   2.4186   2.5435   2.5435   2.5435   2.5435
     2.6331   2.6332   2.6332   2.6332   2.6363   2.6363   2.6363   2.6363
     2.7027   2.7027   2.7027   2.7028   2.7502   2.7503   2.7503   2.7503
     2.8680   2.8680   2.8680   2.8680   2.8680   2.8680   2.8680   2.8680
     3.3255   3.3255   3.3255   3.3255   3.4018   3.4018   3.4018   3.4018
     3.5214   3.5214   3.5214   3.5214   3.5214   3.5214   3.5214   3.5214
     3.6732   3.6732   3.7178   3.7178   3.7413   3.7413   3.7413   3.7413
     3.7414   3.7414   3.7414   3.7414   3.7683   3.7683   3.7699   3.7699
     3.8368   3.8368   3.8368   3.8368   3.8397   3.8397   3.8398   3.8398
     3.8398   3.8398   3.8398   3.8398   3.8911   3.8911   3.8911   3.8911
     3.8911   3.8911   3.8911   3.8911   4.0396   4.0396   4.0396   4.0396
     4.0396   4.0396   4.0396   4.0396   4.0396   4.0396   4.0984   4.0984
     4.0984   4.0984   4.0985   4.0985   4.0985   4.0985   4.0985   4.0985
     4.0985   4.0985   4.1176   4.1176   4.1470   4.1470   4.1555   4.1555
     4.1555   4.1555   4.2088   4.2088   4.2088   4.2088   4.2722   4.2722
     4.4325   4.4325   4.4325   4.4325   4.4325   4.4325   4.4325   4.4325
     4.5036   4.5037   4.5037   4.5037   4.5227   4.5227   4.5227   4.5228
     4.6099   4.6099   4.6099   4.6099   4.6099   4.6099   4.6099   4.6099
     4.6298   4.6298   4.6298   4.6298   4.6298   4.6298   4.6298   4.6298
     4.6315   4.6315   4.7053   4.7053   4.7053   4.7053   4.7225   4.7226
     4.7226   4.7227   4.7270   4.7271   4.7271   4.7272   4.7548   4.7548
     4.7548   4.7548   4.7548   4.7548   4.7550   4.7553   4.7932   4.7932
     4.7993   4.7994

     the Fermi energy is     3.4385 ev

!    total energy              =  -11908.14715670 Ry
     estimated scf accuracy    <       0.00000076 Ry
     smearing contrib. (-TS)   =      -0.01895669 Ry
     internal energy E=F+TS    =  -11908.12820001 Ry

     The total energy is F=E-TS. E is the sum of the following terms:
     one-electron contribution = -156849.55775896 Ry
     hartree contribution      =   78515.04240020 Ry
     xc contribution           =   -1803.34174170 Ry
     ewald contribution        =   68233.14224296 Ry
     DFT-D3 Dispersion         =      -3.41334251 Ry

     convergence has been achieved in  25 iterations

     negative rho (up, down):  7.776E-02 0.000E+00

     Forces acting on atoms (cartesian axes, Ry/au):

     atom    1 type  1   force =     0.00000000    0.00000000    0.09650732
     atom    2 type  1   force =    -0.00000326    0.00000000   -0.01713388
     atom    3 type  1   force =     0.00000000   -0.00000326   -0.01713388
     atom    4 type  1   force =    -0.00000152   -0.00000152    0.09651131
     atom    5 type  1   force =     0.00000000    0.00000000   -0.01280013
     atom    6 type  1   force =    -0.00000045    0.00000000   -0.00366299
     atom    7 type  1   force =     0.00000000   -0.00000045   -0.00366299
     atom    8 type  1   force =    -0.00000400   -0.00000400   -0.01280405
     atom    9 type  1   force =     0.00000000    0.00000085    0.09650559
     atom   10 type  1   force =    -0.00000366    0.00000406   -0.01713300
     atom   11 type  1   force =     0.00000000    0.00000000   -0.01712291
     atom   12 type  1   force =    -0.00000155    0.00000000    0.09650634
     atom   13 type  1   force =     0.00000000   -0.00000195   -0.01280703
     atom   14 type  1   force =    -0.00000741    0.00000735   -0.00367035
     atom   15 type  1   force =     0.00000000    0.00000000   -0.00367305
     atom   16 type  1   force =    -0.00000649    0.00000000   -0.01281043
     atom   17 type  1   force =     0.00000000   -0.00000085    0.09650559
     atom   18 type  1   force =    -0.00000366   -0.00000406   -0.01713300
     atom   19 type  1   force =     0.00000000    0.00000326   -0.01713388
     atom   20 type  1   force =    -0.00000152    0.00000152    0.09651131
     atom   21 type  1   force =    -0.00000000    0.00000195   -0.01280703
     atom   22 type  1   force =    -0.00000741   -0.00000735   -0.00367035
     atom   23 type  1   force =     0.00000000    0.00000045   -0.00366299
     atom   24 type  1   force =    -0.00000400    0.00000400   -0.01280405
     atom   25 type  1   force =     0.00000085    0.00000000    0.09650559
     atom   26 type  1   force =     0.00000000    0.00000000   -0.01712291
     atom   27 type  1   force =     0.00000406   -0.00000366   -0.01713300
     atom   28 type  1   force =     0.00000000   -0.00000155    0.09650634
     atom   29 type  1   force =    -0.00000195    0.00000000   -0.01280703
     atom   30 type  1   force =     0.00000000    0.00000000   -0.00367305
     atom   31 type  1   force =     0.00000735   -0.00000741   -0.00367035
     atom   32 type  1   force =     0.00000000   -0.00000649   -0.01281043
     atom   33 type  1   force =     0.00000395    0.00000395    0.09651392
     atom   34 type  1   force =    -0.00000000    0.00000624   -0.01712325
     atom   35 type  1   force =     0.00000624    0.00000000   -0.01712325
     atom   36 type  1   force =     0.00000000    0.00000000    0.09651234
     atom   37 type  1   force =     0.00000505    0.00000505   -0.01280989
     atom   38 type  1   force =     0.00000000    0.00000276   -0.00365799
     atom   39 type  1   force =     0.00000276    0.00000000   -0.00365799
     atom   40 type  1   force =     0.00000000    0.00000000   -0.01281394
     atom   41 type  1   force =     0.00000395   -0.00000395    0.09651392
     atom   42 type  1   force =     0.00000000   -0.00000624   -0.01712325
     atom   43 type  1   force =     0.00000406    0.00000366   -0.01713300
     atom   44 type  1   force =     0.00000000    0.00000155    0.09650634
     atom   45 type  1   force =     0.00000505   -0.00000505   -0.01280989
     atom   46 type  1   force =     0.00000000   -0.00000276   -0.00365799
     atom   47 type  1   force =     0.00000735    0.00000741   -0.00367035
     atom   48 type  1   force =     0.00000000    0.00000649   -0.01281043
     atom   49 type  1   force =    -0.00000085    0.00000000    0.09650559
     atom   50 type  1   force =     0.00000326    0.00000000   -0.01713388
     atom   51 type  1   force =    -0.00000406   -0.00000366   -0.01713300
     atom   52 type  1   force =     0.00000152   -0.00000152    0.09651131
     atom   53 type  1   force =     0.00000195    0.00000000   -0.01280703
     atom   54 type  1   force =     0.00000045    0.00000000   -0.00366299
     atom   55 type  1   force =    -0.00000735   -0.00000741   -0.00367035
     atom   56 type  1   force =     0.00000400   -0.00000400   -0.01280405
     atom   57 type  1   force =    -0.00000395    0.00000395    0.09651392
     atom   58 type  1   force =     0.00000366    0.00000406   -0.01713300
     atom   59 type  1   force =    -0.00000624   -0.00000000   -0.01712325
     atom   60 type  1   force =     0.00000155    0.00000000    0.09650634
     atom   61 type  1   force =    -0.00000505    0.00000505   -0.01280989
     atom   62 type  1   force =     0.00000741    0.00000735   -0.00367035
     atom   63 type  1   force =    -0.00000276    0.00000000   -0.00365799
     atom   64 type  1   force =     0.00000649   -0.00000000   -0.01281043
     atom   65 type  1   force =    -0.00000395   -0.00000395    0.09651392
     atom   66 type  1   force =     0.00000366   -0.00000406   -0.01713300
     atom   67 type  1   force =    -0.00000406    0.00000366   -0.01713300
     atom   68 type  1   force =     0.00000152    0.00000152    0.09651131
     atom   69 type  1   force =    -0.00000505   -0.00000505   -0.01280989
     atom   70 type  1   force =     0.00000741   -0.00000735   -0.00367035
     atom   71 type  1   force =    -0.00000735    0.00000741   -0.00367035
     atom   72 type  1   force =     0.00000400    0.00000400   -0.01280405
     atom   73 type  2   force =     0.00000000   -0.00000516   -0.05099863
     atom   74 type  2   force =    -0.00000516    0.00000000   -0.05099863
     atom   75 type  2   force =     0.00000000    0.00000000   -0.00966293
     atom   76 type  2   force =     0.00000011    0.00000011   -0.00966282
     atom   77 type  2   force =     0.00000000   -0.00000526   -0.00070542
     atom   78 type  2   force =    -0.00000526   -0.00000000   -0.00070542
     atom   79 type  2   force =     0.00000000    0.00000000   -0.00153310
     atom   80 type  2   force =     0.00000336    0.00000336   -0.00154148
     atom   81 type  2   force =     0.00000000    0.00000000   -0.05099949
     atom   82 type  2   force =    -0.00000789   -0.00000350   -0.05100057
     atom   83 type  2   force =     0.00000000   -0.00000080   -0.00966387
     atom   84 type  2   force =    -0.00000278    0.00000000   -0.00966181
     atom   85 type  2   force =     0.00000000    0.00000000   -0.00070310
     atom   86 type  2   force =    -0.00000072   -0.00000797   -0.00069696
     atom   87 type  2   force =    -0.00000000    0.00000128   -0.00153875
     atom   88 type  2   force =     0.00000681    0.00000000   -0.00154415
     atom   89 type  2   force =     0.00000000    0.00000516   -0.05099863
     atom   90 type  2   force =    -0.00000789    0.00000350   -0.05100057
     atom   91 type  2   force =     0.00000000    0.00000080   -0.00966387
     atom   92 type  2   force =     0.00000011   -0.00000011   -0.00966282
     atom   93 type  2   force =     0.00000000    0.00000526   -0.00070542
     atom   94 type  2   force =    -0.00000072    0.00000797   -0.00069696
     atom   95 type  2   force =    -0.00000000   -0.00000128   -0.00153875
     atom   96 type  2   force =     0.00000336   -0.00000336   -0.00154148
     atom   97 type  2   force =    -0.00000350   -0.00000789   -0.05100057
     atom   98 type  2   force =     0.00000000    0.00000000   -0.05099949
     atom   99 type  2   force =    -0.00000080    0.00000000   -0.00966387
     atom  100 type  2   force =     0.00000000   -0.00000278   -0.00966181
     atom  101 type  2   force =    -0.00000797   -0.00000072   -0.00069696
     atom  102 type  2   force =     0.00000000    0.00000000   -0.00070310
     atom  103 type  2   force =     0.00000128   -0.00000000   -0.00153875
     atom  104 type  2   force =     0.00000000    0.00000681   -0.00154415
     atom  105 type  2   force =    -0.00000820    0.00000000   -0.05100741
     atom  106 type  2   force =     0.00000000   -0.00000820   -0.05100741
     atom  107 type  2   force =    -0.00000406   -0.00000406   -0.00965630
     atom  108 type  2   force =     0.00000000    0.00000000   -0.00964906
     atom  109 type  2   force =    -0.00000189    0.00000000   -0.00069190
     atom  110 type  2   force =     0.00000000   -0.00000189   -0.00069190
     atom  111 type  2   force =     0.00000666    0.00000666   -0.00155379
     atom  112 type  2   force =     0.00000000    0.00000000   -0.00156164
     atom  113 type  2   force =    -0.00000350    0.00000789   -0.05100057
     atom  114 type  2   force =     0.00000000    0.00000820   -0.05100741
     atom  115 type  2   force =    -0.00000406    0.00000406   -0.00965630
     atom  116 type  2   force =     0.00000000    0.00000278   -0.00966181
     atom  117 type  2   force =    -0.00000797    0.00000072   -0.00069696
     atom  118 type  2   force =     0.00000000    0.00000189   -0.00069190
     atom  119 type  2   force =     0.00000666   -0.00000666   -0.00155379
     atom  120 type  2   force =     0.00000000   -0.00000681   -0.00154415
     atom  121 type  2   force =     0.00000350   -0.00000789   -0.05100057
     atom  122 type  2   force =     0.00000516    0.00000000   -0.05099863
     atom  123 type  2   force =     0.00000080    0.00000000   -0.00966387
     atom  124 type  2   force =    -0.00000011    0.00000011   -0.00966282
     atom  125 type  2   force =     0.00000797   -0.00000072   -0.00069696
     atom  126 type  2   force =     0.00000526    0.00000000   -0.00070542
     atom  127 type  2   force =    -0.00000128   -0.00000000   -0.00153875
     atom  128 type  2   force =    -0.00000336    0.00000336   -0.00154148
     atom  129 type  2   force =     0.00000820    0.00000000   -0.05100741
     atom  130 type  2   force =     0.00000789   -0.00000350   -0.05100057
     atom  131 type  2   force =     0.00000406   -0.00000406   -0.00965630
     atom  132 type  2   force =     0.00000278    0.00000000   -0.00966181
     atom  133 type  2   force =     0.00000189    0.00000000   -0.00069190
     atom  134 type  2   force =     0.00000072   -0.00000797   -0.00069696
     atom  135 type  2   force =    -0.00000666    0.00000666   -0.00155379
     atom  136 type  2   force =    -0.00000681    0.00000000   -0.00154415
     atom  137 type  2   force =     0.00000350    0.00000789   -0.05100057
     atom  138 type  2   force =     0.00000789    0.00000350   -0.05100057
     atom  139 type  2   force =     0.00000406    0.00000406   -0.00965630
     atom  140 type  2   force =    -0.00000011   -0.00000011   -0.00966282
     atom  141 type  2   force =     0.00000797    0.00000072   -0.00069696
     atom  142 type  2   force =     0.00000072    0.00000797   -0.00069696
     atom  143 type  2   force =    -0.00000666   -0.00000666   -0.00155379
     atom  144 type  2   force =    -0.00000336   -0.00000336   -0.00154148

     Total force =     0.056977     Total SCF correction =     0.003713
     Energy error            =      9.3E-03 Ry
     Gradient error          =      1.3E-02 Ry/Bohr

     number of scf cycles    =   3
     number of bfgs steps    =   2

     energy             old  =  -11908.1378108592 Ry
     energy             new  =  -11908.1471567031 Ry

     CASE: energy            _new < energy            _old

     new trust radius        =       0.0353559981 bohr
     new conv_thr            =       0.0000008235 Ry


ATOMIC_POSITIONS (angstrom)
V                0.0000000000        0.0000000000       10.0000000000    0   0   0
V                2.0432625400        0.0000000000       12.0432625400    0   0   0
V                0.0000000000        2.0432625400       12.0432625400    0   0   0
V                2.0432625400        2.0432625400       10.0000000000    0   0   0
V                0.0000001400        0.0000001700       14.2332847745
V                2.0432501896        0.0000000600       16.0747169816
V               -0.0000000900        2.0432501096       16.0747167916
V                2.0432662799        2.0432661899       14.2333174141
V                0.0000000000        4.0865250700       10.0000000000    0   0   0
V                2.0432625400        4.0865250700       12.0432625400    0   0   0
V                0.0000000000        6.1297876100       12.0432625400    0   0   0
V                2.0432625400        6.1297876100       10.0000000000    0   0   0
V                0.0000001200        4.0865334828       14.2333103868
V                2.0432533223        4.0865427626       16.0747130769
V               -0.0000001500        6.1297875000       16.0747140081
V                2.0432699366        6.1297873900       14.2333076719
V                0.0000000000        8.1730501500       10.0000000000    0   0   0
V                2.0432625400        8.1730501500       12.0432625400    0   0   0
V                0.0000000000       10.2163126900       12.0432625400    0   0   0
V                2.0432625400       10.2163126900       10.0000000000    0   0   0
V               -0.0000002100        8.1730414872       14.2333103668
V                2.0432534023        8.1730326574       16.0747128969
V               -0.0000000100       10.2163250104       16.0747170616
V                2.0432662099       10.2163087901       14.2333172041
V                4.0865250700        0.0000000000       10.0000000000    0   0   0
V                6.1297876100        0.0000000000       12.0432625400    0   0   0
V                4.0865250700        2.0432625400       12.0432625400    0   0   0
V                6.1297876100        2.0432625400       10.0000000000    0   0   0
V                4.0865335028        0.0000001700       14.2333102968
V                6.1297876200        0.0000000500       16.0747145881
V                4.0865425726        2.0432534023       16.0747131869
V                6.1297873700        2.0432700166       14.2333076719
V                4.0865250700        4.0865250700       10.0000000000    0   0   0
V                6.1297876100        4.0865250700       12.0432625400    0   0   0
V                4.0865250700        6.1297876100       12.0432625400    0   0   0
V                6.1297876100        6.1297876100       10.0000000000    0   0   0
V                4.0865361932        4.0865360032       14.2333077048
V                6.1297875500        4.0865406143       16.0746986170
V                4.0865405643        6.1297875500       16.0746983770
V                6.1297874000        6.1297875000       14.2332807162
V                4.0865250700        8.1730501500       10.0000000000    0   0   0
V                6.1297876100        8.1730501500       12.0432625400    0   0   0
V                4.0865250700       10.2163126900       12.0432625400    0   0   0
V                6.1297876100       10.2163126900       10.0000000000    0   0   0
V                4.0865362132        8.1730393368       14.2333077148
V                6.1297875800        8.1730345257       16.0746983370
V                4.0865425926       10.2163217477       16.0747126569
V                6.1297875400       10.2163049834       14.2333077419
V                8.1730501500        0.0000000000       10.0000000000    0   0   0
V               10.2163126900        0.0000000000       12.0432625400    0   0   0
V                8.1730501500        2.0432625400       12.0432625400    0   0   0
V               10.2163126900        2.0432625400       10.0000000000    0   0   0
V                8.1730416872        0.0000000500       14.2333102768
V               10.2163250904        0.0000001000       16.0747169216
V                8.1730326074        2.0432534023       16.0747134269
V               10.2163090001        2.0432662099       14.2333170741
V                8.1730501500        4.0865250700       10.0000000000    0   0   0
V               10.2163126900        4.0865250700       12.0432625400    0   0   0
V                8.1730501500        6.1297876100       12.0432625400    0   0   0
V               10.2163126900        6.1297876100       10.0000000000    0   0   0
V                8.1730388568        4.0865361932       14.2333076248
V               10.2163218077        4.0865427926       16.0747128769
V                8.1730346957        6.1297876500       16.0746986070
V               10.2163053634        6.1297875900       14.2333077919
V                8.1730501500        8.1730501500       10.0000000000    0   0   0
V               10.2163126900        8.1730501500       12.0432625400    0   0   0
V                8.1730501500       10.2163126900       12.0432625400    0   0   0
V               10.2163126900       10.2163126900       10.0000000000    0   0   0
V                8.1730392068        8.1730390868       14.2333078248
V               10.2163218077        8.1730324574       16.0747130669
V                8.1730324774       10.2163218477       16.0747126769
V               10.2163088801       10.2163087501       14.2333171841
N                0.0000000000        2.0432625400       10.0000000000    0   0   0
N                2.0432625400        0.0000000000       10.0000000000    0   0   0
N                0.0000000000        0.0000000000       12.0432625400    0   0   0
N                2.0432625400        2.0432625400       12.0432625400    0   0   0
N                0.0000001100        2.0432674793       14.1641140688
N                2.0432672493        0.0000001000       14.1641137688
N               -0.0000000300       -0.0000000400       16.3509026402
N                2.0432826846        2.0432826046       16.3508814325
N                0.0000000000        6.1297876100       10.0000000000    0   0   0
N                2.0432625400        4.0865250700       10.0000000000    0   0   0
N                0.0000000000        4.0865250700       12.0432625400    0   0   0
N                2.0432625400        6.1297876100       12.0432625400    0   0   0
N               -0.0000000400        6.1297876300       14.1641214305
N                2.0432770186        4.0865333665       14.1641211194
N               -0.0000001500        4.0865290816       16.3508765298
N                2.0432793316        6.1297874600       16.3508619844
N                0.0000000000       10.2163126900       10.0000000000    0   0   0
N                2.0432625400        8.1730501500       10.0000000000    0   0   0
N                0.0000000000        8.1730501500       12.0432625400    0   0   0
N                2.0432625400       10.2163126900       12.0432625400    0   0   0
N                0.0000000200       10.2163077507       14.1641135888
N                2.0432770086        8.1730420135       14.1641212594
N                0.0000000800        8.1730462484       16.3508764998
N                2.0432826146       10.2162926354       16.3508813425
N                4.0865250700        2.0432625400       10.0000000000    0   0   0
N                6.1297876100        0.0000000000       10.0000000000    0   0   0
N                4.0865250700        0.0000000000       12.0432625400    0   0   0
N                6.1297876100        2.0432625400       12.0432625400    0   0   0
N                4.0865331765        2.0432770786       14.1641209494
N                6.1297875500        0.0000000900       14.1641212605
N                4.0865290316       -0.0000000300       16.3508770198
N                6.1297876600        2.0432794416       16.3508624044
N                4.0865250700        6.1297876100       10.0000000000    0   0   0
N                6.1297876100        4.0865250700       10.0000000000    0   0   0
N                4.0865250700        4.0865250700       12.0432625400    0   0   0
N                6.1297876100        6.1297876100       12.0432625400    0   0   0
N                4.0865388983        6.1297874900       14.1641189250
N                6.1297876500        4.0865388283       14.1641185950
N                4.0865258503        4.0865257303       16.3508477504
N                6.1297876300        6.1297875100       16.3508437414
N                4.0865250700       10.2163126900       10.0000000000    0   0   0
N                6.1297876100        8.1730501500       10.0000000000    0   0   0
N                4.0865250700        8.1730501500       12.0432625400    0   0   0
N                6.1297876100       10.2163126900       12.0432625400    0   0   0
N                4.0865331465       10.2162979714       14.1641213794
N                6.1297875600        8.1730364017       14.1641189250
N                4.0865258303        8.1730496197       16.3508472904
N                6.1297876400       10.2162959184       16.3508621544
N                8.1730501500        2.0432625400       10.0000000000    0   0   0
N               10.2163126900        0.0000000000       10.0000000000    0   0   0
N                8.1730501500        0.0000000000       12.0432625400    0   0   0
N               10.2163126900        2.0432625400       12.0432625400    0   0   0
N                8.1730419335        2.0432769586       14.1641208094
N               10.2163080407       -0.0000001200       14.1641138688
N                8.1730460784        0.0000000100       16.3508767298
N               10.2162926654        2.0432826146       16.3508813525
N                8.1730501500        6.1297876100       10.0000000000    0   0   0
N               10.2163126900        4.0865250700       10.0000000000    0   0   0
N                8.1730501500        4.0865250700       12.0432625400    0   0   0
N               10.2163126900        6.1297876100       12.0432625400    0   0   0
N                8.1730361817        6.1297873400       14.1641184950
N               10.2162982614        4.0865333465       14.1641213994
N                8.1730495497        4.0865257203       16.3508474604
N               10.2162958984        6.1297876700       16.3508619344
N                8.1730501500       10.2163126900       10.0000000000    0   0   0
N               10.2163126900        8.1730501500       10.0000000000    0   0   0
N                8.1730501500        8.1730501500       12.0432625400    0   0   0
N               10.2163126900       10.2163126900       12.0432625400    0   0   0
N                8.1730418635       10.2162982814       14.1641213494
N               10.2162982514        8.1730418135       14.1641207694
N                8.1730494597        8.1730495197       16.3508474504
N               10.2162926554       10.2162925554       16.3508813725



     Writing config-only to output data dir ./tmp/VN_slab.save/ :
     XML data file
     NEW-OLD atomic charge density approx. for the potential

     Check: negative core charge=   -0.000003

     negative rho (up, down):  7.713E-02 0.000E+00

     total cpu time spent up to now is     7736.3 secs

     per-process dynamical memory:   807.7 Mb

     Self-consistent Calculation

     iteration #  1     ecut=    45.00 Ry     beta= 0.25
     Davidson diagonalization with overlap
     ethr =  1.00E-06,  avg # of iterations = 10.3

     negative rho (up, down):  7.724E-02 0.000E+00

     total cpu time spent up to now is     7942.3 secs

     total energy              =  -11908.14077293 Ry
     estimated scf accuracy    <       0.03549143 Ry

     iteration #  2     ecut=    45.00 Ry     beta= 0.25
     Davidson diagonalization with overlap
     ethr =  2.74E-06,  avg # of iterations = 25.3

     negative rho (up, down):  7.717E-02 0.000E+00

     total cpu time spent up to now is     8152.0 secs

     total energy              =  -11908.05998692 Ry
     estimated scf accuracy    <       6.11407577 Ry

     iteration #  3     ecut=    45.00 Ry     beta= 0.25
     Davidson diagonalization with overlap
     c_bands:  1 eigenvalues not converged
     c_bands:  1 eigenvalues not converged
     ethr =  2.74E-06,  avg # of iterations = 27.0

     negative rho (up, down):  7.714E-02 0.000E+00

     total cpu time spent up to now is     8347.7 secs

     total energy              =  -11908.12985344 Ry
     estimated scf accuracy    <       1.89717580 Ry

     iteration #  4     ecut=    45.00 Ry     beta= 0.25
     Davidson diagonalization with overlap
     c_bands:  2 eigenvalues not converged
     ethr =  2.74E-06,  avg # of iterations = 18.3

     negative rho (up, down):  7.715E-02 0.000E+00

     total cpu time spent up to now is     8454.3 secs

     total energy              =  -11908.15310851 Ry
     estimated scf accuracy    <       0.00810444 Ry

     iteration #  5     ecut=    45.00 Ry     beta= 0.25
     Davidson diagonalization with overlap
     c_bands:  1 eigenvalues not converged
     ethr =  6.25E-07,  avg # of iterations =  7.5

     negative rho (up, down):  7.715E-02 0.000E+00

     total cpu time spent up to now is     8533.0 secs

     total energy              =  -11908.15337897 Ry
     estimated scf accuracy    <       0.00632052 Ry

     iteration #  6     ecut=    45.00 Ry     beta= 0.25
     Davidson diagonalization with overlap
     ethr =  4.88E-07,  avg # of iterations =  4.3

     negative rho (up, down):  7.715E-02 0.000E+00

     total cpu time spent up to now is     8614.8 secs

     total energy              =  -11908.15292489 Ry
     estimated scf accuracy    <       0.04690057 Ry

     iteration #  7     ecut=    45.00 Ry     beta= 0.25
     Davidson diagonalization with overlap
     ethr =  4.88E-07,  avg # of iterations =  2.5

     negative rho (up, down):  7.715E-02 0.000E+00

     total cpu time spent up to now is     8682.4 secs

     total energy              =  -11908.15371413 Ry
     estimated scf accuracy    <       0.00117511 Ry

     iteration #  8     ecut=    45.00 Ry     beta= 0.25
     Davidson diagonalization with overlap
     ethr =  9.07E-08,  avg # of iterations =  4.5

     negative rho (up, down):  7.716E-02 0.000E+00

     total cpu time spent up to now is     8756.9 secs

     total energy              =  -11908.15369933 Ry
     estimated scf accuracy    <       0.00185658 Ry

     iteration #  9     ecut=    45.00 Ry     beta= 0.25
     Davidson diagonalization with overlap
     ethr =  9.07E-08,  avg # of iterations =  3.3

     negative rho (up, down):  7.716E-02 0.000E+00

     total cpu time spent up to now is     8827.8 secs

     total energy              =  -11908.15374238 Ry
     estimated scf accuracy    <       0.00076345 Ry

     iteration # 10     ecut=    45.00 Ry     beta= 0.25
     Davidson diagonalization with overlap
     ethr =  5.89E-08,  avg # of iterations =  2.0

     negative rho (up, down):  7.716E-02 0.000E+00

     total cpu time spent up to now is     8896.6 secs

     total energy              =  -11908.15376923 Ry
     estimated scf accuracy    <       0.00020094 Ry

     iteration # 11     ecut=    45.00 Ry     beta= 0.25
     Davidson diagonalization with overlap
     ethr =  1.55E-08,  avg # of iterations =  5.2

     negative rho (up, down):  7.717E-02 0.000E+00

     total cpu time spent up to now is     8974.6 secs

     total energy              =  -11908.15378052 Ry
     estimated scf accuracy    <       0.00015223 Ry

     iteration # 12     ecut=    45.00 Ry     beta= 0.25
     Davidson diagonalization with overlap
     ethr =  1.17E-08,  avg # of iterations =  1.5

     negative rho (up, down):  7.717E-02 0.000E+00

     total cpu time spent up to now is     9045.1 secs

     total energy              =  -11908.15378174 Ry
     estimated scf accuracy    <       0.00009822 Ry

     iteration # 13     ecut=    45.00 Ry     beta= 0.25
     Davidson diagonalization with overlap
     ethr =  7.58E-09,  avg # of iterations =  2.0

     negative rho (up, down):  7.717E-02 0.000E+00

     total cpu time spent up to now is     9123.8 secs

     total energy              =  -11908.15377849 Ry
     estimated scf accuracy    <       0.00014554 Ry

     iteration # 14     ecut=    45.00 Ry     beta= 0.25
     Davidson diagonalization with overlap
     ethr =  7.58E-09,  avg # of iterations =  5.0

     negative rho (up, down):  7.718E-02 0.000E+00

     total cpu time spent up to now is     9205.9 secs

     total energy              =  -11908.15377664 Ry
     estimated scf accuracy    <       0.00073106 Ry

     iteration # 15     ecut=    45.00 Ry     beta= 0.25
     Davidson diagonalization with overlap
     ethr =  7.58E-09,  avg # of iterations =  5.0

     negative rho (up, down):  7.718E-02 0.000E+00

     total cpu time spent up to now is     9277.3 secs

     total energy              =  -11908.15378582 Ry
     estimated scf accuracy    <       0.00004050 Ry

     iteration # 16     ecut=    45.00 Ry     beta= 0.25
     Davidson diagonalization with overlap
     ethr =  3.12E-09,  avg # of iterations =  5.0

     negative rho (up, down):  7.718E-02 0.000E+00

     total cpu time spent up to now is     9352.3 secs

     total energy              =  -11908.15378610 Ry
     estimated scf accuracy    <       0.00002537 Ry

     iteration # 17     ecut=    45.00 Ry     beta= 0.25
     Davidson diagonalization with overlap
     ethr =  1.96E-09,  avg # of iterations =  3.5

     negative rho (up, down):  7.718E-02 0.000E+00

     total cpu time spent up to now is     9424.5 secs

     total energy              =  -11908.15378576 Ry
     estimated scf accuracy    <       0.00005733 Ry

     iteration # 18     ecut=    45.00 Ry     beta= 0.25
     Davidson diagonalization with overlap
     ethr =  1.96E-09,  avg # of iterations =  2.0

     negative rho (up, down):  7.718E-02 0.000E+00

     total cpu time spent up to now is     9495.8 secs

     total energy              =  -11908.15378671 Ry
     estimated scf accuracy    <       0.00003393 Ry

     iteration # 19     ecut=    45.00 Ry     beta= 0.25
     Davidson diagonalization with overlap
     ethr =  1.96E-09,  avg # of iterations =  1.2

     negative rho (up, down):  7.718E-02 0.000E+00

     total cpu time spent up to now is     9560.6 secs

     total energy              =  -11908.15378761 Ry
     estimated scf accuracy    <       0.00001231 Ry

     iteration # 20     ecut=    45.00 Ry     beta= 0.25
     Davidson diagonalization with overlap
     ethr =  9.50E-10,  avg # of iterations =  1.8

     negative rho (up, down):  7.718E-02 0.000E+00

     total cpu time spent up to now is     9635.6 secs

     total energy              =  -11908.15378801 Ry
     estimated scf accuracy    <       0.00000225 Ry

     iteration # 21     ecut=    45.00 Ry     beta= 0.25
     Davidson diagonalization with overlap
     ethr =  1.73E-10,  avg # of iterations =  5.7

     negative rho (up, down):  7.718E-02 0.000E+00

     total cpu time spent up to now is     9726.6 secs

     total energy              =  -11908.15378790 Ry
     estimated scf accuracy    <       0.00000509 Ry

     iteration # 22     ecut=    45.00 Ry     beta= 0.25
     Davidson diagonalization with overlap
     ethr =  1.73E-10,  avg # of iterations =  4.5

     negative rho (up, down):  7.718E-02 0.000E+00

     total cpu time spent up to now is     9806.2 secs

     total energy              =  -11908.15378804 Ry
     estimated scf accuracy    <       0.00000256 Ry

     iteration # 23     ecut=    45.00 Ry     beta= 0.25
     Davidson diagonalization with overlap
     ethr =  1.73E-10,  avg # of iterations =  2.5

     negative rho (up, down):  7.718E-02 0.000E+00

     total cpu time spent up to now is     9878.7 secs

     total energy              =  -11908.15378797 Ry
     estimated scf accuracy    <       0.00000872 Ry

     iteration # 24     ecut=    45.00 Ry     beta= 0.25
     Davidson diagonalization with overlap
     ethr =  1.73E-10,  avg # of iterations =  3.0

     negative rho (up, down):  7.718E-02 0.000E+00

     total cpu time spent up to now is     9951.3 secs

     total energy              =  -11908.15378802 Ry
     estimated scf accuracy    <       0.00000882 Ry

     iteration # 25     ecut=    45.00 Ry     beta= 0.25
     Davidson diagonalization with overlap
     ethr =  1.73E-10,  avg # of iterations =  1.3

     negative rho (up, down):  7.718E-02 0.000E+00

     total cpu time spent up to now is    10019.4 secs

     End of self-consistent calculation

          k = 0.0000 0.0000 0.0000 (135157 PWs)   bands (ev):

   -61.9071 -61.8882 -61.8882 -61.8882 -61.8882 -61.8771 -61.8771 -61.8771
   -61.8771 -61.8597 -61.8597 -61.8597 -61.8597 -61.8541 -61.8541 -61.8541
   -61.8541 -61.8396 -61.8314 -61.8215 -61.8215 -61.8215 -61.8215 -61.8182
   -61.8182 -61.8182 -61.8182 -61.8181 -61.8082 -61.8082 -61.8082 -61.8082
   -61.8008 -61.8008 -61.8008 -61.8008 -61.7955 -61.7955 -61.7955 -61.7954
   -61.7885 -61.7797 -61.7797 -61.7797 -61.7797 -61.7566 -61.7566 -61.7566
   -61.7566 -61.7530 -61.7530 -61.7530 -61.7529 -61.7370 -61.7113 -61.7111
   -61.7111 -61.7111 -61.7111 -61.7083 -61.7083 -61.7083 -61.7083 -61.7076
   -61.7076 -61.7076 -61.7076 -61.6979 -61.6979 -61.6979 -61.6979 -61.6871
   -35.9939 -35.9939 -35.9939 -35.9938 -35.9640 -35.9640 -35.9627 -35.9627
   -35.9627 -35.9627 -35.9497 -35.9497 -35.9497 -35.9497 -35.9298 -35.9298
   -35.9298 -35.9298 -35.9101 -35.9101 -35.9101 -35.9101 -35.9048 -35.9048
   -35.9048 -35.9048 -35.8985 -35.8985 -35.8985 -35.8985 -35.8968 -35.8968
   -35.8847 -35.8847 -35.8847 -35.8846 -35.8719 -35.8719 -35.8719 -35.8719
   -35.8599 -35.8599 -35.8599 -35.8598 -35.8571 -35.8440 -35.8440 -35.8440
   -35.8440 -35.8325 -35.8325 -35.8325 -35.8325 -35.8293 -35.8293 -35.8293
   -35.8293 -35.8089 -35.8089 -35.8089 -35.8089 -35.8010 -35.8010 -35.8010
   -35.8010 -35.7867 -35.7867 -35.7679 -35.7679 -35.7679 -35.7679 -35.7630
   -35.7629 -35.7629 -35.7629 -35.7440 -35.7360 -35.7360 -35.7360 -35.7360
   -35.7276 -35.7276 -35.7276 -35.7276 -35.7031 -35.7031 -35.7021 -35.7021
   -35.7021 -35.7021 -35.7007 -35.7007 -35.7007 -35.7007 -35.6970 -35.6885
   -35.6885 -35.6885 -35.6885 -35.6882 -35.6882 -35.6882 -35.6882 -35.6691
   -35.6690 -35.6690 -35.6690 -35.6628 -35.6628 -35.6566 -35.6566 -35.6566
   -35.6566 -35.6544 -35.6544 -35.6544 -35.6544 -35.6381 -35.6381 -35.6381
   -35.6381 -35.6359 -35.6359 -35.6342 -35.6342 -35.6342 -35.6342 -35.6342
   -35.6342 -35.6342 -35.6342 -35.6247 -35.6173 -35.6173 -35.6173 -35.6173
   -35.6137 -35.6137 -35.6137 -35.6137 -35.6019 -35.6018 -35.6018 -35.6018
   -35.5977 -35.5943 -35.5934 -35.5934 -35.5934 -35.5934 -35.5932 -35.5932
   -35.5932 -35.5932 -35.5831 -35.5831 -35.5801 -35.5801 -35.5801 -35.5801
   -35.5798 -35.5798 -35.5798 -35.5798 -35.5743 -35.5743 -35.5743 -35.5743
   -35.5686 -35.5686 -35.5686 -35.5686 -35.5502 -35.5501 -35.5501 -35.5501
   -35.5262 -35.5262 -35.5262 -35.5262 -35.5251 -35.5251 -35.5251 -35.5251
   -35.5135 -35.5134 -35.5134 -35.5134 -35.5103 -35.5102 -35.5102 -35.5102
   -35.4935 -35.4935 -35.4935 -35.4935 -35.4874 -35.4805 -35.4805 -35.4390
   -35.4390 -35.4390 -35.4390 -35.4384 -35.4384 -35.4384 -35.4384 -35.4129
   -35.4113 -35.4113 -35.4113 -35.4113 -35.3959 -35.3959 -35.3959 -35.3959
   -14.2023 -13.5446 -13.5446 -13.5446 -13.5446 -13.3891 -12.9432 -12.9432
   -12.9432 -12.9432 -12.8193 -12.8193 -12.8193 -12.8193 -12.7347 -12.7006
   -12.7006 -12.7006 -12.7006 -12.5547 -12.5328 -12.3949 -12.3710 -12.3710
   -12.3710 -12.3710 -12.3597 -12.3597 -12.3597 -12.3597 -12.3391 -12.3391
   -12.3391 -12.3391 -12.1690 -12.1690 -12.1690 -12.1690 -12.0830 -12.0830
   -12.0830 -12.0830 -11.8925 -11.8925 -11.8925 -11.8925 -11.8588 -11.7144
   -11.7144 -11.7144 -11.7144 -11.6811 -11.6811 -11.6811 -11.6811 -11.5272
   -11.4751 -11.4751 -11.4751 -11.4751 -11.4474 -11.4474 -11.4474 -11.4473
   -11.4117 -11.4117 -11.4117 -11.4117 -11.1804 -11.1804 -11.1804 -11.1803
    -4.6548  -4.6548  -4.6548  -4.6548  -4.4532  -4.4532  -4.4532  -4.4532
    -4.3374  -4.3374  -4.3374  -4.3374  -4.2271  -4.2271  -4.2271  -4.2271
    -3.8912  -3.8912  -3.8912  -3.8912  -3.7619  -3.7619  -3.7619  -3.7619
    -3.6144  -3.6144  -3.6144  -3.6144  -3.6026  -3.6026  -3.6026  -3.6026
    -3.5298  -3.4853  -3.4853  -3.4853  -3.4853  -3.2524  -3.2523  -3.2523
    -3.2523  -3.1077  -3.1077  -3.1077  -3.1077  -3.0814  -3.0814  -3.0639
    -3.0639  -3.0639  -3.0639  -3.0328  -3.0328  -3.0328  -3.0328  -2.9334
    -2.9334  -2.9334  -2.9334  -2.6751  -2.6751  -2.6751  -2.6751  -2.5491
    -2.5491  -2.4741  -2.4740  -2.4740  -2.4740  -2.4440  -2.4086  -2.4086
    -2.4086  -2.4086  -2.4024  -2.4024  -2.4024  -2.4024  -2.3924  -2.3924
    -2.3924  -2.3924  -2.3103  -2.3103  -2.3103  -2.3103  -2.2770  -2.2770
    -2.2770  -2.2769  -2.2401  -2.2401  -2.2401  -2.2401  -2.1192  -2.1192
    -2.1192  -2.1192  -2.1070  -2.1069  -2.1069  -2.1069  -2.1058  -2.1058
    -2.1058  -2.1058  -2.0889  -2.0889  -2.0889  -2.0888  -1.9629  -1.9629
    -1.9629  -1.9629  -1.9232  -1.9232  -1.9232  -1.9232  -1.8868  -1.8623
    -1.8623  -1.8623  -1.8623  -1.7822  -1.7822  -1.7822  -1.7822  -1.7265
    -1.7265  -1.7265  -1.7265  -1.7251  -1.7251  -1.7251  -1.7251  -1.6360
    -1.6360  -1.6360  -1.6360  -1.5944  -1.5944  -1.5944  -1.5944  -1.5563
    -1.5563  -1.5479  -1.4426  -1.4426  -1.4426  -1.4426  -1.4075  -1.4075
    -1.4075  -1.4075  -1.3906  -1.3726  -1.3726  -1.3726  -1.3726  -1.3333
    -1.3333  -1.3332  -1.3332  -1.2578  -1.2577  -1.2577  -1.2577  -1.2093
    -1.2092  -1.2092  -1.2092  -1.1709  -1.1709  -1.1709  -1.1708  -0.9104
    -0.9104  -0.9104  -0.9103  -0.9098  -0.9098  -0.9098  -0.9098  -0.8826
    -0.8826  -0.8334  -0.8334  -0.8334  -0.8334  -0.7425  -0.7425  -0.7425
    -0.7425  -0.6469  -0.6469  -0.6468  -0.6468  -0.4337  -0.3429  -0.3429
    -0.3429  -0.3429  -0.2990  -0.2990  -0.2703  -0.2703  -0.2703  -0.2703
    -0.2126   0.0480   0.0480   0.0904   0.3065   0.3881   0.5281   0.5281
     0.8935   0.8935   0.8935   0.8935   0.9087   0.9087   1.1470   1.1470
     1.3099   1.8207   1.8368   1.8368   1.8368   1.8368   2.2792   2.2792
     2.4627   2.4627   2.4627   2.4627   2.5095   2.5095   2.5095   2.5095
     2.5472   2.5472   2.5472   2.5472   2.5632   2.5632   2.6333   2.6333
     2.6333   2.6334   2.6611   2.6611   2.6611   2.6611   2.7097   2.7097
     2.7097   2.7098   2.9155   3.0704   3.0704   3.0704   3.0704   3.0935
     3.0935   3.0935   3.0935   3.1354   3.1964   3.1964   3.1965   3.1965
     3.2128   3.2128   3.2128   3.2129   3.2600   3.2601   3.2601   3.2601
     3.3408   3.3408   3.3409   3.3409   3.3552   3.3552   3.3552   3.3553
     3.3597   3.3703   3.3703   3.3703   3.3703   3.3830   3.3830   3.3830
     3.3830   3.3983   3.3983   3.3983   3.3983   3.4621   3.4621   3.4621
     3.4621   3.5090   3.5090   3.5090   3.5090   3.6753   3.6753   3.6857
     3.6857   3.6857   3.6857   3.7884   3.7884   3.7885   3.7885   3.8175
     3.8755   3.8756   3.8756   3.8757   3.9502   3.9502   3.9502   3.9502
     3.9881   3.9881   3.9881   3.9882   4.0387   4.0387   4.0387   4.0387
     4.0516   4.0517   4.0517   4.0517   4.0726   4.1207   4.1207   4.1692
     4.1692   4.1692   4.1692   4.2080   4.2080   4.2080   4.2080   4.2106
     4.2106   4.2106   4.2106   4.2296   4.3360   4.3360   4.3360   4.3360
     4.3570   4.3570   4.3570   4.3570   4.3930   4.4023   4.4023   4.4023
     4.4023   4.4367   4.4367   4.4367   4.4367   4.4848   4.4848   4.4848
     4.4848   4.4904   4.4904   4.4904   4.4905   4.5253   4.5253   4.5254
     4.5254   4.5303   4.5303   4.5303   4.5303   4.5829   4.5829   4.5829
     4.5829   4.5849   4.5849   4.5849   4.5849   4.6404   4.6404   4.7115
     4.7194   4.7194   4.7194   4.7194   4.7252   4.7252   4.7253   4.7253
     4.7461   4.8115   4.8115   4.8115   4.8115   4.8497   4.8732   4.8732
     4.8732   4.8732

          k = 0.0000 0.2500 0.0000 (135097 PWs)   bands (ev):

   -61.9058 -61.8959 -61.8874 -61.8874 -61.8815 -61.8815 -61.8795 -61.8722
   -61.8722 -61.8632 -61.8632 -61.8617 -61.8571 -61.8571 -61.8544 -61.8544
   -61.8478 -61.8405 -61.8307 -61.8255 -61.8213 -61.8213 -61.8197 -61.8196
   -61.8168 -61.8166 -61.8163 -61.8163 -61.8111 -61.8111 -61.8062 -61.8053
   -61.8053 -61.8049 -61.8014 -61.8013 -61.7959 -61.7944 -61.7944 -61.7894
   -61.7861 -61.7861 -61.7846 -61.7727 -61.7727 -61.7623 -61.7605 -61.7605
   -61.7544 -61.7544 -61.7530 -61.7530 -61.7457 -61.7379 -61.7117 -61.7117
   -61.7111 -61.7102 -61.7102 -61.7101 -61.7101 -61.7096 -61.7086 -61.7086
   -61.7066 -61.7043 -61.7043 -61.7014 -61.6988 -61.6987 -61.6941 -61.6880
   -35.9987 -35.9987 -35.9789 -35.9789 -35.9758 -35.9758 -35.9713 -35.9713
   -35.9598 -35.9596 -35.9543 -35.9543 -35.9436 -35.9436 -35.9281 -35.9281
   -35.9280 -35.9256 -35.9165 -35.9165 -35.9106 -35.9106 -35.9022 -35.9022
   -35.8975 -35.8975 -35.8957 -35.8925 -35.8909 -35.8909 -35.8847 -35.8847
   -35.8846 -35.8846 -35.8844 -35.8828 -35.8828 -35.8822 -35.8762 -35.8761
   -35.8669 -35.8592 -35.8554 -35.8553 -35.8553 -35.8535 -35.8530 -35.8529
   -35.8501 -35.8476 -35.8476 -35.8457 -35.8316 -35.8316 -35.8262 -35.8262
   -35.8143 -35.8083 -35.8045 -35.8013 -35.7999 -35.7999 -35.7993 -35.7898
   -35.7883 -35.7883 -35.7867 -35.7855 -35.7832 -35.7796 -35.7796 -35.7570
   -35.7534 -35.7534 -35.7515 -35.7410 -35.7357 -35.7338 -35.7292 -35.7292
   -35.7291 -35.7288 -35.7288 -35.7179 -35.7115 -35.7101 -35.7101 -35.7096
   -35.7096 -35.7075 -35.7068 -35.7028 -35.6967 -35.6896 -35.6896 -35.6812
   -35.6812 -35.6793 -35.6793 -35.6751 -35.6751 -35.6748 -35.6720 -35.6700
   -35.6694 -35.6689 -35.6682 -35.6682 -35.6681 -35.6681 -35.6665 -35.6665
   -35.6597 -35.6597 -35.6597 -35.6588 -35.6580 -35.6580 -35.6557 -35.6522
   -35.6522 -35.6468 -35.6442 -35.6442 -35.6405 -35.6362 -35.6293 -35.6293
   -35.6235 -35.6199 -35.6153 -35.6153 -35.6148 -35.6148 -35.6137 -35.6137
   -35.6131 -35.6126 -35.6126 -35.6126 -35.6023 -35.6023 -35.6012 -35.6012
   -35.5965 -35.5965 -35.5953 -35.5938 -35.5938 -35.5923 -35.5923 -35.5913
   -35.5904 -35.5904 -35.5900 -35.5882 -35.5866 -35.5864 -35.5828 -35.5828
   -35.5816 -35.5784 -35.5770 -35.5770 -35.5760 -35.5760 -35.5743 -35.5743
   -35.5648 -35.5648 -35.5596 -35.5512 -35.5512 -35.5482 -35.5455 -35.5455
   -35.5415 -35.5265 -35.5265 -35.5255 -35.5255 -35.5224 -35.5204 -35.5204
   -35.5197 -35.5197 -35.5092 -35.5092 -35.5084 -35.5084 -35.5073 -35.5045
   -35.5031 -35.5031 -35.4930 -35.4930 -35.4846 -35.4840 -35.4836 -35.4573
   -35.4415 -35.4415 -35.4391 -35.4391 -35.4327 -35.4327 -35.4208 -35.4175
   -35.4175 -35.4101 -35.4056 -35.4056 -35.3986 -35.3982 -35.3971 -35.3971
   -14.1551 -13.8066 -13.5007 -13.5007 -13.3464 -13.2661 -13.1794 -13.1794
   -13.0387 -12.8148 -12.7813 -12.7813 -12.7193 -12.7017 -12.7017 -12.6691
   -12.6690 -12.6658 -12.6056 -12.5179 -12.5167 -12.5150 -12.5150 -12.4651
   -12.4651 -12.4106 -12.3765 -12.3765 -12.3596 -12.3574 -12.3401 -12.3401
   -12.2591 -12.2264 -12.2264 -12.1906 -12.1906 -12.1182 -12.1182 -12.0869
   -12.0505 -12.0505 -11.9182 -11.8580 -11.8580 -11.8421 -11.8270 -11.8270
   -11.7474 -11.7251 -11.6989 -11.6919 -11.6918 -11.6138 -11.6138 -11.5521
   -11.5520 -11.5488 -11.5488 -11.5121 -11.4432 -11.4406 -11.4406 -11.4309
   -11.3893 -11.3892 -11.2950 -11.2950 -11.2493 -11.2492 -11.1533 -11.1533
    -4.8111  -4.8111  -4.6375  -4.6375  -4.5949  -4.5949  -4.4751  -4.4751
    -4.3928  -4.3928  -4.2129  -4.2129  -4.0114  -4.0113  -3.9620  -3.9481
    -3.9481  -3.8852  -3.8852  -3.8694  -3.8694  -3.7226  -3.6955  -3.6955
    -3.6872  -3.6792  -3.6533  -3.6533  -3.6054  -3.6054  -3.5867  -3.5867
    -3.5708  -3.5708  -3.5661  -3.5333  -3.3928  -3.3928  -3.3699  -3.3587
    -3.2830  -3.2830  -3.2275  -3.1776  -3.1717  -3.1717  -3.1627  -3.1627
    -3.0748  -3.0085  -2.9529  -2.9529  -2.9005  -2.9005  -2.8794  -2.8422
    -2.8422  -2.8167  -2.7605  -2.7259  -2.6949  -2.6885  -2.6885  -2.6146
    -2.6146  -2.5828  -2.5828  -2.5426  -2.4833  -2.4833  -2.4794  -2.4741
    -2.4741  -2.4692  -2.4587  -2.4587  -2.4500  -2.4367  -2.4367  -2.4177
    -2.3715  -2.3715  -2.3197  -2.3197  -2.2986  -2.2761  -2.2761  -2.2630
    -2.2630  -2.2556  -2.2496  -2.2496  -2.2390  -2.2389  -2.2125  -2.2125
    -2.1909  -2.1909  -2.1432  -2.1432  -2.0950  -2.0835  -2.0835  -2.0422
    -2.0086  -1.9955  -1.9955  -1.9820  -1.9820  -1.9690  -1.9690  -1.9324
    -1.9205  -1.9172  -1.9172  -1.9035  -1.9035  -1.8986  -1.8936  -1.8376
    -1.8376  -1.8356  -1.8356  -1.8247  -1.8247  -1.8152  -1.7858  -1.7858
    -1.7733  -1.7485  -1.7203  -1.7203  -1.6877  -1.6877  -1.6613  -1.6498
    -1.6498  -1.6230  -1.6230  -1.5780  -1.5517  -1.5093  -1.5093  -1.5089
    -1.5089  -1.5043  -1.5025  -1.4653  -1.4653  -1.4481  -1.4481  -1.4168
    -1.4076  -1.4037  -1.4036  -1.3458  -1.3169  -1.3169  -1.2817  -1.2765
    -1.2765  -1.2275  -1.2275  -1.2210  -1.2210  -1.2098  -1.1903  -1.1903
    -1.1477  -1.0759  -1.0744  -1.0744  -1.0548  -1.0443  -1.0443  -1.0385
    -1.0385  -1.0336  -1.0024  -0.9719  -0.9718  -0.8819  -0.8812  -0.8812
    -0.8653  -0.7996  -0.7788  -0.7788  -0.7695  -0.7572  -0.7571  -0.7170
    -0.7169  -0.7167  -0.6849  -0.6676  -0.5369  -0.5226  -0.5071  -0.4963
    -0.4799  -0.4271  -0.4270  -0.4239  -0.4052  -0.4052  -0.3757  -0.1605
    -0.1274  -0.1211   0.0163   0.1345   0.2429   0.5496   0.5882   0.6340
     0.7302   0.7364   0.7965   0.8976   1.0740   1.0740   1.1007   1.1152
     1.5953   1.6649   1.8783   1.9441   1.9442   2.0238   2.0315   2.0322
     2.0322   2.0670   2.2253   2.2890   2.3448   2.3776   2.4538   2.4538
     2.5469   2.5568   2.5568   2.5625   2.5626   2.5690   2.5706   2.6360
     2.6360   2.6855   2.6855   2.6885   2.6886   2.6888   2.6888   2.7468
     2.8040   2.8889   2.8889   2.9325   2.9517   2.9548   2.9549   3.0181
     3.0568   3.0568   3.0612   3.0612   3.0818   3.1040   3.1054   3.1054
     3.1068   3.1068   3.1461   3.1940   3.1940   3.2021   3.2375   3.2376
     3.2690   3.2838   3.2838   3.3051   3.3051   3.3250   3.3273   3.3273
     3.3333   3.3333   3.4833   3.4833   3.4867   3.4867   3.5122   3.5122
     3.5124   3.5124   3.5235   3.5236   3.5696   3.5781   3.6074   3.6433
     3.6433   3.6577   3.6664   3.6664   3.6684   3.6785   3.6833   3.6953
     3.6953   3.7776   3.7776   3.7825   3.7954   3.7954   3.7956   3.7956
     3.8034   3.9101   3.9101   3.9437   3.9542   3.9917   3.9917   4.0457
     4.0604   4.0604   4.0706   4.0750   4.0750   4.0930   4.1093   4.1093
     4.1125   4.1160   4.1246   4.1324   4.1324   4.1526   4.1539   4.1603
     4.1603   4.1651   4.1651   4.1695   4.1696   4.2078   4.2078   4.2634
     4.2634   4.2683   4.2683   4.2697   4.2697   4.2746   4.2757   4.2780
     4.2805   4.2805   4.3015   4.3297   4.3297   4.3341   4.3341   4.3585
     4.3585   4.3610   4.3610   4.4105   4.4105   4.4115   4.4193   4.4560
     4.4679   4.4720   4.4720   4.4813   4.4814   4.4940   4.5038   4.5038
     4.5519   4.5519   4.5643   4.5643   4.5734   4.5973   4.5989   4.6001
     4.6184   4.6348   4.6566   4.6597   4.6773   4.6773   4.6897   4.7251
     4.7251   4.7280   4.7280   4.7345   4.7345   4.7470   4.7470   4.7487
     4.7516   4.7517   4.7857   4.7858   4.8084   4.8135   4.8141   4.8233
     4.8234   4.8332

          k = 0.0000-0.5000 0.0000 (135178 PWs)   bands (ev):

   -61.9019 -61.9019 -61.8851 -61.8851 -61.8851 -61.8851 -61.8704 -61.8704
   -61.8675 -61.8675 -61.8674 -61.8674 -61.8554 -61.8554 -61.8554 -61.8554
   -61.8433 -61.8433 -61.8287 -61.8286 -61.8207 -61.8207 -61.8207 -61.8206
   -61.8139 -61.8139 -61.8139 -61.8139 -61.8121 -61.8121 -61.8116 -61.8116
   -61.8030 -61.8029 -61.8029 -61.8029 -61.7920 -61.7919 -61.7912 -61.7911
   -61.7911 -61.7911 -61.7732 -61.7732 -61.7660 -61.7660 -61.7660 -61.7660
   -61.7534 -61.7534 -61.7534 -61.7534 -61.7408 -61.7408 -61.7116 -61.7116
   -61.7115 -61.7115 -61.7105 -61.7105 -61.7092 -61.7092 -61.7092 -61.7092
   -61.7043 -61.7043 -61.7011 -61.7011 -61.7010 -61.7010 -61.6906 -61.6906
   -35.9926 -35.9926 -35.9926 -35.9926 -35.9685 -35.9685 -35.9685 -35.9685
   -35.9559 -35.9559 -35.9559 -35.9559 -35.9473 -35.9473 -35.9465 -35.9465
   -35.9164 -35.9164 -35.9164 -35.9164 -35.9021 -35.9021 -35.9021 -35.9021
   -35.8919 -35.8919 -35.8911 -35.8911 -35.8911 -35.8911 -35.8806 -35.8806
   -35.8806 -35.8806 -35.8796 -35.8796 -35.8746 -35.8746 -35.8746 -35.8746
   -35.8637 -35.8637 -35.8627 -35.8627 -35.8627 -35.8627 -35.8618 -35.8618
   -35.8618 -35.8618 -35.8509 -35.8509 -35.8331 -35.8331 -35.8319 -35.8319
   -35.8047 -35.8047 -35.8047 -35.8047 -35.8016 -35.8016 -35.7971 -35.7970
   -35.7731 -35.7731 -35.7702 -35.7702 -35.7702 -35.7701 -35.7677 -35.7677
   -35.7676 -35.7676 -35.7596 -35.7596 -35.7596 -35.7596 -35.7217 -35.7217
   -35.7204 -35.7204 -35.7122 -35.7122 -35.7041 -35.7041 -35.7005 -35.7005
   -35.7005 -35.7005 -35.6920 -35.6920 -35.6920 -35.6920 -35.6852 -35.6852
   -35.6816 -35.6816 -35.6816 -35.6816 -35.6803 -35.6803 -35.6803 -35.6803
   -35.6727 -35.6727 -35.6727 -35.6727 -35.6722 -35.6722 -35.6670 -35.6670
   -35.6608 -35.6608 -35.6581 -35.6581 -35.6581 -35.6581 -35.6565 -35.6565
   -35.6565 -35.6565 -35.6537 -35.6537 -35.6506 -35.6506 -35.6199 -35.6199
   -35.6192 -35.6192 -35.6192 -35.6192 -35.6124 -35.6123 -35.6123 -35.6123
   -35.6035 -35.6035 -35.6034 -35.6034 -35.6027 -35.6026 -35.6012 -35.6012
   -35.6012 -35.6012 -35.5968 -35.5968 -35.5924 -35.5924 -35.5924 -35.5924
   -35.5868 -35.5868 -35.5868 -35.5868 -35.5847 -35.5847 -35.5847 -35.5847
   -35.5845 -35.5845 -35.5804 -35.5804 -35.5720 -35.5720 -35.5718 -35.5718
   -35.5681 -35.5681 -35.5681 -35.5681 -35.5336 -35.5336 -35.5336 -35.5335
   -35.5321 -35.5321 -35.5259 -35.5259 -35.5259 -35.5259 -35.5244 -35.5244
   -35.5244 -35.5244 -35.5119 -35.5119 -35.5119 -35.5119 -35.4998 -35.4998
   -35.4998 -35.4998 -35.4943 -35.4943 -35.4928 -35.4928 -35.4736 -35.4736
   -35.4407 -35.4407 -35.4407 -35.4406 -35.4248 -35.4248 -35.4248 -35.4248
   -35.4070 -35.4070 -35.4039 -35.4039 -35.4007 -35.4006 -35.4006 -35.4006
   -14.0183 -14.0183 -13.3739 -13.3739 -13.3738 -13.3738 -13.2240 -13.2239
   -13.0106 -13.0106 -12.6852 -12.6851 -12.6734 -12.6734 -12.6734 -12.6734
   -12.5822 -12.5821 -12.5821 -12.5821 -12.4983 -12.4983 -12.4983 -12.4982
   -12.4719 -12.4719 -12.4416 -12.4416 -12.4134 -12.4134 -12.2891 -12.2890
   -12.2890 -12.2890 -12.2500 -12.2499 -12.1128 -12.1128 -12.1128 -12.1128
   -11.9592 -11.9592 -11.9592 -11.9592 -11.7988 -11.7987 -11.7934 -11.7934
   -11.7597 -11.7597 -11.7596 -11.7596 -11.6305 -11.6305 -11.6305 -11.6305
   -11.5407 -11.5407 -11.4736 -11.4735 -11.4662 -11.4662 -11.4662 -11.4662
   -11.3287 -11.3286 -11.3286 -11.3286 -11.1905 -11.1905 -11.1905 -11.1905
    -4.8078  -4.8078  -4.8078  -4.8078  -4.6047  -4.6047  -4.6047  -4.6047
    -4.1240  -4.1240  -4.1240  -4.1240  -3.9326  -3.9326  -3.9326  -3.9326
    -3.8819  -3.8819  -3.8136  -3.8136  -3.8136  -3.8136  -3.7799  -3.7799
    -3.7799  -3.7799  -3.5889  -3.5889  -3.5822  -3.5822  -3.5822  -3.5821
    -3.5441  -3.5441  -3.4886  -3.4886  -3.4886  -3.4886  -3.4156  -3.4156
    -3.3664  -3.3664  -3.3664  -3.3664  -3.1797  -3.1797  -3.0766  -3.0766
    -3.0766  -3.0766  -3.0526  -3.0525  -3.0182  -3.0182  -2.6545  -2.6545
    -2.6545  -2.6545  -2.6479  -2.6479  -2.6448  -2.6448  -2.6448  -2.6448
    -2.5520  -2.5520  -2.5349  -2.5349  -2.5349  -2.5349  -2.5213  -2.5213
    -2.5201  -2.5201  -2.5201  -2.5201  -2.5149  -2.5148  -2.5148  -2.5148
    -2.4579  -2.4579  -2.3908  -2.3908  -2.3806  -2.3806  -2.3806  -2.3806
    -2.2639  -2.2639  -2.2639  -2.2639  -2.2326  -2.2326  -2.2326  -2.2326
    -2.1390  -2.1390  -2.0893  -2.0893  -2.0386  -2.0386  -2.0386  -2.0386
    -2.0363  -2.0363  -2.0363  -2.0363  -2.0030  -2.0030  -1.9199  -1.9199
    -1.9199  -1.9199  -1.9196  -1.9196  -1.9195  -1.9195  -1.8913  -1.8913
    -1.8913  -1.8913  -1.7557  -1.7557  -1.7557  -1.7557  -1.7123  -1.7122
    -1.6443  -1.6443  -1.6443  -1.6442  -1.5833  -1.5833  -1.5832  -1.5832
    -1.5509  -1.5509  -1.5509  -1.5509  -1.5358  -1.5358  -1.5355  -1.5355
    -1.5241  -1.5241  -1.5241  -1.5241  -1.4652  -1.4652  -1.3567  -1.3567
    -1.3567  -1.3567  -1.3549  -1.3549  -1.3060  -1.3060  -1.2357  -1.2356
    -1.2356  -1.2356  -1.2019  -1.2019  -1.1552  -1.1552  -1.1416  -1.1416
    -1.1416  -1.1416  -1.0166  -1.0166  -1.0166  -1.0166  -0.9956  -0.9956
    -0.9846  -0.9846  -0.9846  -0.9846  -0.8784  -0.8784  -0.8784  -0.8784
    -0.8781  -0.8781  -0.8582  -0.8582  -0.7960  -0.7960  -0.6939  -0.6938
    -0.6938  -0.6938  -0.6606  -0.6606  -0.6414  -0.6414  -0.5955  -0.5955
    -0.5955  -0.5955  -0.5433  -0.5433  -0.4546  -0.4546  -0.0981  -0.0981
    -0.0695  -0.0695   0.0840   0.0840   0.0971   0.0971   0.3468   0.3468
     0.6158   0.6158   1.2577   1.2577   1.3406   1.3406   1.4346   1.4347
     1.5035   1.5035   1.5035   1.5035   1.5442   1.5443   2.1064   2.1064
     2.2337   2.2337   2.2337   2.2337   2.3203   2.3203   2.4010   2.4010
     2.4844   2.4844   2.4844   2.4844   2.5693   2.5693   2.6475   2.6475
     2.6476   2.6476   2.6655   2.6655   2.6832   2.6832   2.7324   2.7324
     2.8179   2.8179   2.8180   2.8180   2.8189   2.8189   2.8189   2.8190
     2.8206   2.8206   2.8206   2.8206   3.0123   3.0123   3.1148   3.1148
     3.1148   3.1148   3.2335   3.2335   3.2335   3.2335   3.3178   3.3178
     3.3179   3.3179   3.3412   3.3412   3.3412   3.3412   3.3699   3.3699
     3.3821   3.3821   3.3821   3.3822   3.4437   3.4437   3.5164   3.5164
     3.5164   3.5164   3.6165   3.6165   3.6846   3.6846   3.6880   3.6880
     3.6880   3.6881   3.8538   3.8538   3.8538   3.8538   3.8581   3.8581
     3.8581   3.8581   3.8675   3.8675   3.8875   3.8875   3.9609   3.9609
     3.9684   3.9684   3.9684   3.9684   3.9949   3.9949   4.0373   4.0373
     4.0373   4.0373   4.0624   4.0624   4.0625   4.0625   4.0675   4.0675
     4.0687   4.0687   4.0687   4.0688   4.0707   4.0707   4.0934   4.0934
     4.1904   4.1904   4.1904   4.1904   4.2034   4.2034   4.2034   4.2034
     4.2228   4.2228   4.2228   4.2228   4.2482   4.2482   4.2482   4.2482
     4.2747   4.2747   4.3330   4.3330   4.3565   4.3565   4.3565   4.3565
     4.4107   4.4107   4.4192   4.4192   4.4825   4.4825   4.4826   4.4826
     4.4869   4.4869   4.4869   4.4869   4.5148   4.5148   4.5148   4.5148
     4.5460   4.5460   4.5476   4.5476   4.6193   4.6193   4.6374   4.6374
     4.6374   4.6374   4.6401   4.6401   4.6401   4.6401   4.6795   4.6795
     4.6887   4.6887   4.7121   4.7122   4.7382   4.7382   4.7745   4.7745
     4.7754   4.7754   4.7755   4.7755   4.7757   4.7757   4.7757   4.7757
     4.7823   4.7823

          k = 0.2500 0.2500 0.0000 (135083 PWs)   bands (ev):

   -61.9045 -61.8949 -61.8949 -61.8874 -61.8789 -61.8789 -61.8750 -61.8750
   -61.8693 -61.8646 -61.8624 -61.8623 -61.8618 -61.8618 -61.8530 -61.8484
   -61.8484 -61.8414 -61.8300 -61.8251 -61.8251 -61.8221 -61.8168 -61.8168
   -61.8166 -61.8166 -61.8156 -61.8151 -61.8130 -61.8093 -61.8093 -61.8066
   -61.8065 -61.8036 -61.8036 -61.8016 -61.7966 -61.7966 -61.7938 -61.7902
   -61.7837 -61.7837 -61.7774 -61.7774 -61.7679 -61.7621 -61.7621 -61.7614
   -61.7607 -61.7607 -61.7501 -61.7461 -61.7461 -61.7388 -61.7132 -61.7126
   -61.7109 -61.7101 -61.7098 -61.7098 -61.7097 -61.7097 -61.7071 -61.7071
   -61.7070 -61.7070 -61.7021 -61.7021 -61.7008 -61.6950 -61.6950 -61.6889
   -36.0106 -35.9988 -35.9854 -35.9766 -35.9761 -35.9761 -35.9732 -35.9604
   -35.9519 -35.9460 -35.9460 -35.9437 -35.9437 -35.9436 -35.9436 -35.9327
   -35.9221 -35.9221 -35.9193 -35.9163 -35.9163 -35.9094 -35.9094 -35.9060
   -35.9050 -35.8941 -35.8936 -35.8935 -35.8935 -35.8910 -35.8903 -35.8903
   -35.8859 -35.8780 -35.8779 -35.8747 -35.8747 -35.8681 -35.8680 -35.8680
   -35.8670 -35.8670 -35.8669 -35.8669 -35.8589 -35.8589 -35.8564 -35.8564
   -35.8540 -35.8485 -35.8485 -35.8449 -35.8449 -35.8268 -35.8268 -35.8255
   -35.8255 -35.8078 -35.8044 -35.8044 -35.8005 -35.8005 -35.7938 -35.7938
   -35.7911 -35.7811 -35.7811 -35.7789 -35.7759 -35.7759 -35.7702 -35.7611
   -35.7563 -35.7563 -35.7519 -35.7478 -35.7478 -35.7331 -35.7331 -35.7253
   -35.7252 -35.7205 -35.7205 -35.7140 -35.7080 -35.7080 -35.7080 -35.7079
   -35.6989 -35.6965 -35.6964 -35.6953 -35.6930 -35.6930 -35.6929 -35.6923
   -35.6923 -35.6902 -35.6902 -35.6797 -35.6740 -35.6740 -35.6722 -35.6722
   -35.6712 -35.6703 -35.6670 -35.6670 -35.6667 -35.6666 -35.6665 -35.6665
   -35.6652 -35.6643 -35.6621 -35.6585 -35.6585 -35.6509 -35.6509 -35.6482
   -35.6414 -35.6412 -35.6381 -35.6381 -35.6361 -35.6361 -35.6354 -35.6336
   -35.6336 -35.6322 -35.6322 -35.6312 -35.6224 -35.6169 -35.6169 -35.6136
   -35.6124 -35.6124 -35.6086 -35.6027 -35.6013 -35.5999 -35.5999 -35.5972
   -35.5963 -35.5963 -35.5960 -35.5960 -35.5930 -35.5930 -35.5929 -35.5929
   -35.5919 -35.5889 -35.5889 -35.5873 -35.5846 -35.5841 -35.5841 -35.5831
   -35.5831 -35.5819 -35.5819 -35.5817 -35.5791 -35.5738 -35.5689 -35.5626
   -35.5626 -35.5536 -35.5535 -35.5471 -35.5469 -35.5415 -35.5415 -35.5408
   -35.5388 -35.5388 -35.5267 -35.5260 -35.5245 -35.5245 -35.5218 -35.5218
   -35.5189 -35.5189 -35.5155 -35.5155 -35.5152 -35.5087 -35.5087 -35.5062
   -35.5046 -35.4951 -35.4951 -35.4935 -35.4859 -35.4811 -35.4808 -35.4570
   -35.4570 -35.4509 -35.4327 -35.4295 -35.4295 -35.4240 -35.4220 -35.4220
   -35.4106 -35.4106 -35.4081 -35.4025 -35.4001 -35.4001 -35.3988 -35.3988
   -14.1081 -13.7612 -13.7612 -13.4276 -13.3040 -13.2241 -13.2241 -12.9984
   -12.9984 -12.9201 -12.9201 -12.7789 -12.7789 -12.7121 -12.7025 -12.6396
   -12.6396 -12.5709 -12.5708 -12.5311 -12.5311 -12.5006 -12.4928 -12.4873
   -12.4813 -12.3940 -12.3940 -12.3350 -12.3350 -12.3348 -12.3348 -12.3201
   -12.2909 -12.2816 -12.2247 -12.2247 -12.1862 -12.1862 -12.0864 -12.0795
   -12.0510 -12.0509 -11.9859 -11.8880 -11.8880 -11.8251 -11.7939 -11.7272
   -11.7272 -11.7000 -11.6999 -11.6828 -11.6828 -11.6665 -11.6665 -11.6045
   -11.5351 -11.5351 -11.4965 -11.4418 -11.4418 -11.4413 -11.4172 -11.4172
   -11.4115 -11.4115 -11.3795 -11.2967 -11.2480 -11.2479 -11.1698 -11.0949
    -5.0019  -4.9088  -4.7667  -4.7054  -4.5243  -4.5243  -4.3263  -4.3263
    -4.2921  -4.2921  -4.1587  -4.1587  -4.1406  -4.0329  -4.0317  -4.0317
    -3.9988  -3.8813  -3.7884  -3.7870  -3.7870  -3.7751  -3.7751  -3.7665
    -3.7300  -3.7300  -3.6437  -3.6419  -3.6419  -3.5861  -3.5861  -3.5382
    -3.4970  -3.4960  -3.4960  -3.4727  -3.4727  -3.4099  -3.3677  -3.3677
    -3.2887  -3.2887  -3.2417  -3.2416  -3.1845  -3.1844  -3.1446  -3.1446
    -3.1211  -3.0651  -3.0651  -2.9157  -2.9157  -2.9058  -2.9058  -2.8332
    -2.8332  -2.8226  -2.8226  -2.7449  -2.7281  -2.6314  -2.6254  -2.6133
    -2.6133  -2.5989  -2.5919  -2.5694  -2.5694  -2.5676  -2.5110  -2.5080
    -2.5004  -2.4891  -2.4891  -2.4628  -2.4555  -2.4555  -2.4478  -2.4478
    -2.4287  -2.4023  -2.4023  -2.3238  -2.3238  -2.3125  -2.3096  -2.3096
    -2.2803  -2.2347  -2.2347  -2.2299  -2.2299  -2.2029  -2.1160  -2.1160
    -2.0953  -2.0953  -2.0900  -2.0898  -2.0898  -2.0713  -2.0713  -2.0601
    -2.0601  -2.0328  -2.0328  -2.0209  -2.0083  -1.9707  -1.9707  -1.9513
    -1.9488  -1.9488  -1.9206  -1.9206  -1.9059  -1.9059  -1.8658  -1.8658
    -1.8200  -1.8107  -1.8056  -1.7999  -1.7999  -1.7840  -1.7552  -1.7364
    -1.7023  -1.7023  -1.6339  -1.6339  -1.6309  -1.6290  -1.6290  -1.6108
    -1.6006  -1.5986  -1.5942  -1.5547  -1.5377  -1.5238  -1.5238  -1.4980
    -1.4980  -1.4598  -1.4525  -1.4524  -1.4233  -1.4233  -1.4111  -1.4111
    -1.3567  -1.3115  -1.3115  -1.3057  -1.3057  -1.2691  -1.2691  -1.2658
    -1.2405  -1.2405  -1.2200  -1.2200  -1.1714  -1.1506  -1.1117  -1.1117
    -1.0912  -1.0893  -1.0893  -1.0717  -1.0681  -1.0304  -1.0304  -1.0256
    -1.0256  -1.0219  -1.0219  -1.0209  -0.9918  -0.9162  -0.9069  -0.9069
    -0.8911  -0.8911  -0.7895  -0.7895  -0.7889  -0.7889  -0.7289  -0.7289
    -0.7202  -0.7191  -0.6045  -0.5945  -0.5945  -0.5852  -0.5852  -0.5781
    -0.5752  -0.5752  -0.4743  -0.4185  -0.4185  -0.2515  -0.2515  -0.2507
    -0.2161  -0.1306  -0.1306   0.0016   0.0509   0.3385   0.5077   0.7170
     0.8215   0.8430   0.9474   0.9474   0.9530   1.1509   1.2545   1.2545
     1.7131   1.7131   1.8160   1.8767   1.9206   1.9206   2.0078   2.0078
     2.0748   2.0748   2.1015   2.1534   2.1534   2.1924   2.2703   2.2703
     2.3341   2.3744   2.4142   2.4484   2.4484   2.4705   2.4705   2.5195
     2.5750   2.5988   2.5988   2.6081   2.7685   2.7685   2.7991   2.7991
     2.8015   2.8118   2.9223   2.9223   2.9256   2.9334   2.9334   2.9363
     2.9363   3.0053   3.0053   3.0054   3.0409   3.0533   3.1403   3.1697
     3.1697   3.1945   3.1945   3.2112   3.2113   3.2628   3.2628   3.2726
     3.2824   3.2974   3.3131   3.3131   3.3301   3.3301   3.3784   3.4006
     3.4006   3.4574   3.5174   3.5217   3.5217   3.5312   3.5312   3.5333
     3.5333   3.5502   3.5502   3.6307   3.6368   3.6368   3.6503   3.6503
     3.6742   3.6742   3.6979   3.7005   3.7005   3.7074   3.7226   3.7445
     3.7957   3.8228   3.8228   3.8411   3.8411   3.8631   3.9207   3.9207
     3.9272   3.9749   3.9908   3.9997   3.9998   4.0113   4.0254   4.0287
     4.0287   4.0391   4.0391   4.0694   4.0694   4.0714   4.0762   4.0762
     4.1069   4.1069   4.1268   4.1348   4.1562   4.1562   4.1620   4.1620
     4.1660   4.1709   4.1743   4.1743   4.1940   4.1940   4.2232   4.2232
     4.2346   4.2355   4.2447   4.2447   4.2480   4.2665   4.2665   4.2719
     4.2931   4.2931   4.2935   4.3249   4.3249   4.3268   4.3268   4.3384
     4.3389   4.3518   4.3720   4.3720   4.4185   4.4185   4.4292   4.4600
     4.4600   4.4797   4.4983   4.4983   4.5355   4.5406   4.5481   4.5487
     4.5487   4.5752   4.5762   4.5762   4.6307   4.6331   4.6331   4.6347
     4.6347   4.6663   4.6663   4.6674   4.6674   4.6717   4.6717   4.6785
     4.6785   4.6956   4.6956   4.7184   4.7330   4.7471   4.7559   4.7815
     4.7816   4.7868   4.7868   4.7940   4.7940   4.8014   4.8015   4.8048
     4.8053   4.8053

          k = 0.2500-0.5000 0.0000 (135080 PWs)   bands (ev):

   -61.9008 -61.9008 -61.8920 -61.8920 -61.8774 -61.8774 -61.8702 -61.8702
   -61.8685 -61.8685 -61.8667 -61.8667 -61.8619 -61.8619 -61.8501 -61.8501
   -61.8440 -61.8440 -61.8281 -61.8281 -61.8240 -61.8239 -61.8168 -61.8167
   -61.8145 -61.8145 -61.8131 -61.8131 -61.8118 -61.8118 -61.8107 -61.8107
   -61.8077 -61.8076 -61.7998 -61.7998 -61.7986 -61.7986 -61.7928 -61.7927
   -61.7812 -61.7812 -61.7726 -61.7726 -61.7686 -61.7686 -61.7639 -61.7639
   -61.7614 -61.7614 -61.7475 -61.7475 -61.7414 -61.7414 -61.7137 -61.7137
   -61.7105 -61.7105 -61.7099 -61.7099 -61.7089 -61.7089 -61.7081 -61.7081
   -61.7049 -61.7049 -61.7042 -61.7042 -61.6974 -61.6974 -61.6915 -61.6915
   -36.0107 -36.0107 -35.9872 -35.9872 -35.9642 -35.9642 -35.9605 -35.9605
   -35.9548 -35.9548 -35.9451 -35.9451 -35.9388 -35.9388 -35.9372 -35.9372
   -35.9184 -35.9184 -35.9178 -35.9178 -35.9119 -35.9119 -35.9056 -35.9056
   -35.9023 -35.9023 -35.8933 -35.8933 -35.8914 -35.8914 -35.8886 -35.8886
   -35.8837 -35.8837 -35.8819 -35.8819 -35.8781 -35.8781 -35.8744 -35.8744
   -35.8725 -35.8725 -35.8611 -35.8611 -35.8604 -35.8604 -35.8508 -35.8508
   -35.8500 -35.8500 -35.8451 -35.8451 -35.8369 -35.8369 -35.8280 -35.8280
   -35.8263 -35.8263 -35.8033 -35.8033 -35.7976 -35.7976 -35.7937 -35.7937
   -35.7833 -35.7833 -35.7814 -35.7814 -35.7744 -35.7744 -35.7662 -35.7662
   -35.7569 -35.7569 -35.7426 -35.7426 -35.7402 -35.7402 -35.7317 -35.7317
   -35.7232 -35.7231 -35.7113 -35.7113 -35.7076 -35.7076 -35.7030 -35.7030
   -35.6987 -35.6986 -35.6935 -35.6935 -35.6920 -35.6920 -35.6913 -35.6913
   -35.6846 -35.6846 -35.6845 -35.6845 -35.6825 -35.6825 -35.6787 -35.6787
   -35.6721 -35.6721 -35.6695 -35.6695 -35.6627 -35.6626 -35.6611 -35.6611
   -35.6596 -35.6596 -35.6593 -35.6593 -35.6580 -35.6580 -35.6553 -35.6553
   -35.6521 -35.6521 -35.6418 -35.6418 -35.6401 -35.6401 -35.6335 -35.6335
   -35.6302 -35.6302 -35.6191 -35.6191 -35.6191 -35.6191 -35.6142 -35.6142
   -35.6118 -35.6118 -35.6104 -35.6104 -35.6104 -35.6104 -35.6092 -35.6092
   -35.6042 -35.6042 -35.5959 -35.5959 -35.5908 -35.5908 -35.5887 -35.5887
   -35.5856 -35.5856 -35.5855 -35.5855 -35.5851 -35.5851 -35.5826 -35.5826
   -35.5806 -35.5806 -35.5762 -35.5762 -35.5726 -35.5726 -35.5652 -35.5652
   -35.5642 -35.5642 -35.5410 -35.5410 -35.5398 -35.5398 -35.5325 -35.5325
   -35.5313 -35.5313 -35.5308 -35.5307 -35.5301 -35.5301 -35.5222 -35.5222
   -35.5213 -35.5213 -35.5204 -35.5204 -35.5180 -35.5180 -35.5079 -35.5079
   -35.5052 -35.5052 -35.4873 -35.4873 -35.4848 -35.4848 -35.4720 -35.4720
   -35.4556 -35.4556 -35.4294 -35.4294 -35.4253 -35.4253 -35.4186 -35.4186
   -35.4085 -35.4085 -35.4044 -35.4044 -35.4033 -35.4033 -35.4003 -35.4003
   -13.9719 -13.9719 -13.6300 -13.6299 -13.1824 -13.1823 -13.1035 -13.1035
   -12.9713 -12.9713 -12.8836 -12.8836 -12.6911 -12.6911 -12.6777 -12.6777
   -12.6644 -12.6644 -12.5707 -12.5707 -12.4736 -12.4735 -12.4560 -12.4560
   -12.4115 -12.4115 -12.3776 -12.3776 -12.3501 -12.3501 -12.3268 -12.3268
   -12.2693 -12.2693 -12.2169 -12.2169 -12.2131 -12.2131 -12.1277 -12.1276
   -12.0552 -12.0552 -11.9482 -11.9481 -11.8037 -11.8036 -11.7805 -11.7805
   -11.7657 -11.7657 -11.6733 -11.6733 -11.6307 -11.6307 -11.5802 -11.5802
   -11.5751 -11.5750 -11.5112 -11.5112 -11.4565 -11.4565 -11.3780 -11.3780
   -11.3603 -11.3603 -11.3458 -11.3457 -11.3123 -11.3123 -11.0980 -11.0980
    -5.0394  -5.0394  -4.8070  -4.8070  -4.4893  -4.4893  -4.3081  -4.3081
    -4.2337  -4.2337  -4.0446  -4.0446  -4.0233  -4.0233  -3.9817  -3.9817
    -3.9581  -3.9581  -3.8781  -3.8781  -3.8033  -3.8033  -3.7881  -3.7881
    -3.7332  -3.7332  -3.7007  -3.7007  -3.6533  -3.6532  -3.5539  -3.5539
    -3.5350  -3.5350  -3.4425  -3.4425  -3.4381  -3.4381  -3.3254  -3.3254
    -3.2447  -3.2446  -3.2269  -3.2269  -3.2152  -3.2152  -3.1118  -3.1118
    -3.1038  -3.1038  -3.0196  -3.0196  -2.9695  -2.9695  -2.9561  -2.9561
    -2.8548  -2.8548  -2.7886  -2.7886  -2.7124  -2.7124  -2.6706  -2.6706
    -2.6049  -2.6049  -2.5661  -2.5661  -2.5425  -2.5425  -2.5195  -2.5195
    -2.5029  -2.5029  -2.4847  -2.4847  -2.4241  -2.4241  -2.4161  -2.4161
    -2.3490  -2.3490  -2.3407  -2.3407  -2.3338  -2.3338  -2.3219  -2.3219
    -2.2809  -2.2809  -2.2306  -2.2306  -2.2235  -2.2235  -2.2099  -2.2099
    -2.1680  -2.1679  -2.1384  -2.1384  -2.1243  -2.1243  -2.0859  -2.0859
    -2.0540  -2.0540  -2.0423  -2.0423  -2.0286  -2.0286  -2.0159  -2.0159
    -2.0006  -2.0005  -1.9017  -1.9016  -1.8791  -1.8791  -1.8255  -1.8255
    -1.6979  -1.6978  -1.6930  -1.6930  -1.6656  -1.6656  -1.6620  -1.6620
    -1.6501  -1.6501  -1.6268  -1.6268  -1.5914  -1.5914  -1.5526  -1.5526
    -1.5399  -1.5399  -1.4951  -1.4951  -1.4903  -1.4903  -1.4749  -1.4749
    -1.4484  -1.4484  -1.3758  -1.3758  -1.3651  -1.3651  -1.3550  -1.3549
    -1.3466  -1.3466  -1.3399  -1.3399  -1.3206  -1.3206  -1.3172  -1.3172
    -1.2566  -1.2566  -1.2517  -1.2517  -1.1969  -1.1969  -1.1249  -1.1249
    -1.0961  -1.0961  -1.0901  -1.0901  -1.0230  -1.0230  -1.0123  -1.0123
    -0.9958  -0.9958  -0.9865  -0.9865  -0.9693  -0.9693  -0.8643  -0.8643
    -0.8490  -0.8490  -0.8124  -0.8124  -0.7494  -0.7494  -0.7271  -0.7271
    -0.7087  -0.7087  -0.6522  -0.6522  -0.6506  -0.6506  -0.6496  -0.6496
    -0.4888  -0.4888  -0.4432  -0.4431  -0.4139  -0.4138  -0.3304  -0.3303
    -0.1857  -0.1856  -0.0917  -0.0917   0.0662   0.0662   0.2456   0.2456
     0.8819   0.8819   1.3107   1.3107   1.4091   1.4091   1.4297   1.4298
     1.4740   1.4740   1.5908   1.5908   1.6451   1.6451   1.9926   1.9926
     2.0310   2.0310   2.0716   2.0716   2.1758   2.1758   2.2740   2.2740
     2.3026   2.3026   2.3803   2.3803   2.4449   2.4449   2.4665   2.4665
     2.5804   2.5804   2.5839   2.5839   2.6484   2.6484   2.7168   2.7168
     2.7183   2.7183   2.7212   2.7212   2.7977   2.7977   2.9409   2.9410
     2.9487   2.9487   2.9598   2.9598   3.0332   3.0332   3.1044   3.1044
     3.1473   3.1473   3.2207   3.2207   3.2364   3.2364   3.3062   3.3062
     3.3635   3.3636   3.3827   3.3827   3.3916   3.3916   3.4105   3.4105
     3.4934   3.4934   3.5643   3.5643   3.5873   3.5873   3.5940   3.5940
     3.6426   3.6426   3.6492   3.6492   3.6874   3.6874   3.7351   3.7351
     3.7553   3.7553   3.7947   3.7947   3.8397   3.8397   3.8686   3.8686
     3.8835   3.8835   3.8975   3.8975   3.9081   3.9081   3.9250   3.9250
     3.9617   3.9617   3.9799   3.9799   3.9821   3.9821   3.9837   3.9837
     4.0176   4.0176   4.0335   4.0335   4.0364   4.0364   4.0575   4.0575
     4.0832   4.0832   4.0848   4.0848   4.0984   4.0984   4.1099   4.1099
     4.1444   4.1444   4.1556   4.1556   4.1559   4.1559   4.1847   4.1847
     4.2114   4.2114   4.2156   4.2156   4.2363   4.2364   4.2461   4.2461
     4.2813   4.2813   4.3886   4.3886   4.3914   4.3915   4.4074   4.4074
     4.4092   4.4092   4.4275   4.4275   4.4437   4.4437   4.4525   4.4525
     4.5079   4.5079   4.5558   4.5558   4.5574   4.5574   4.5710   4.5710
     4.5772   4.5773   4.5924   4.5924   4.6214   4.6214   4.6448   4.6448
     4.6571   4.6571   4.6939   4.6939   4.6943   4.6945   4.7303   4.7303
     4.7318   4.7318   4.7325   4.7325   4.7365   4.7365   4.7368   4.7368
     4.7404   4.7404   4.7563   4.7563   4.7743   4.7743   4.7944   4.7945
     4.7953   4.7953

          k =-0.5000-0.5000 0.0000 (135004 PWs)   bands (ev):

   -61.8973 -61.8973 -61.8973 -61.8973 -61.8695 -61.8695 -61.8695 -61.8695
   -61.8695 -61.8694 -61.8694 -61.8694 -61.8664 -61.8664 -61.8463 -61.8463
   -61.8463 -61.8463 -61.8265 -61.8265 -61.8265 -61.8264 -61.8147 -61.8147
   -61.8124 -61.8124 -61.8124 -61.8124 -61.8124 -61.8123 -61.8123 -61.8123
   -61.8066 -61.8065 -61.8065 -61.8065 -61.7951 -61.7950 -61.7950 -61.7950
   -61.7710 -61.7710 -61.7710 -61.7710 -61.7710 -61.7710 -61.7709 -61.7709
   -61.7631 -61.7631 -61.7436 -61.7436 -61.7436 -61.7435 -61.7145 -61.7145
   -61.7103 -61.7103 -61.7103 -61.7103 -61.7065 -61.7065 -61.7065 -61.7065
   -61.7065 -61.7065 -61.7065 -61.7065 -61.6940 -61.6940 -61.6940 -61.6939
   -36.0169 -36.0169 -35.9936 -35.9936 -35.9597 -35.9597 -35.9597 -35.9597
   -35.9280 -35.9280 -35.9280 -35.9280 -35.9280 -35.9280 -35.9280 -35.9280
   -35.9267 -35.9267 -35.9267 -35.9267 -35.9232 -35.9232 -35.9010 -35.9010
   -35.9010 -35.9010 -35.9010 -35.9010 -35.9010 -35.9010 -35.8996 -35.8996
   -35.8996 -35.8996 -35.8974 -35.8974 -35.8810 -35.8810 -35.8810 -35.8810
   -35.8521 -35.8521 -35.8521 -35.8521 -35.8501 -35.8501 -35.8501 -35.8501
   -35.8501 -35.8501 -35.8501 -35.8501 -35.8228 -35.8228 -35.8228 -35.8228
   -35.8228 -35.8228 -35.8227 -35.8227 -35.8086 -35.8086 -35.8086 -35.8085
   -35.7859 -35.7859 -35.7859 -35.7859 -35.7568 -35.7568 -35.7568 -35.7568
   -35.7476 -35.7476 -35.7476 -35.7476 -35.7249 -35.7249 -35.7249 -35.7249
   -35.7249 -35.7249 -35.7249 -35.7249 -35.7116 -35.7116 -35.7116 -35.7116
   -35.6936 -35.6936 -35.6936 -35.6936 -35.6936 -35.6936 -35.6936 -35.6936
   -35.6878 -35.6877 -35.6877 -35.6877 -35.6874 -35.6874 -35.6874 -35.6874
   -35.6621 -35.6621 -35.6621 -35.6621 -35.6596 -35.6596 -35.6596 -35.6596
   -35.6561 -35.6561 -35.6428 -35.6428 -35.6428 -35.6428 -35.6428 -35.6428
   -35.6428 -35.6428 -35.6411 -35.6411 -35.6411 -35.6411 -35.6364 -35.6364
   -35.6337 -35.6337 -35.6337 -35.6337 -35.6337 -35.6337 -35.6337 -35.6337
   -35.6176 -35.6176 -35.6176 -35.6176 -35.6170 -35.6169 -35.6169 -35.6169
   -35.6122 -35.6122 -35.5881 -35.5880 -35.5880 -35.5880 -35.5880 -35.5880
   -35.5880 -35.5880 -35.5873 -35.5873 -35.5873 -35.5872 -35.5782 -35.5782
   -35.5782 -35.5782 -35.5682 -35.5682 -35.5514 -35.5514 -35.5514 -35.5514
   -35.5476 -35.5476 -35.5476 -35.5476 -35.5476 -35.5476 -35.5476 -35.5476
   -35.5283 -35.5283 -35.5283 -35.5283 -35.5283 -35.5283 -35.5282 -35.5282
   -35.5247 -35.5247 -35.5240 -35.5240 -35.5157 -35.5157 -35.5157 -35.5157
   -35.5084 -35.5084 -35.4822 -35.4822 -35.4822 -35.4822 -35.4665 -35.4665
   -35.4665 -35.4664 -35.4310 -35.4310 -35.4127 -35.4126 -35.4126 -35.4126
   -35.4126 -35.4126 -35.4126 -35.4126 -35.4018 -35.4018 -35.4018 -35.4018
   -13.8376 -13.8376 -13.8375 -13.8375 -13.0631 -13.0631 -13.0631 -13.0631
   -12.8590 -12.8590 -12.8590 -12.8590 -12.8589 -12.8589 -12.8589 -12.8589
   -12.6142 -12.6141 -12.6141 -12.6141 -12.4123 -12.4123 -12.4123 -12.4123
   -12.3289 -12.3289 -12.3289 -12.3289 -12.3289 -12.3289 -12.3289 -12.3289
   -12.2764 -12.2764 -12.2764 -12.2764 -12.2489 -12.2489 -12.1076 -12.1076
   -12.1076 -12.1075 -12.0467 -12.0467 -11.7324 -11.7324 -11.7324 -11.7324
   -11.6888 -11.6888 -11.6888 -11.6888 -11.6888 -11.6888 -11.6888 -11.6888
   -11.4291 -11.4290 -11.4290 -11.4290 -11.4290 -11.4290 -11.4290 -11.4290
   -11.4123 -11.4123 -11.4123 -11.4122 -11.3443 -11.3443 -11.0636 -11.0636
    -5.1238  -5.1238  -4.8777  -4.8777  -4.1758  -4.1758  -4.1758  -4.1758
    -4.1758  -4.1758  -4.1757  -4.1757  -4.1334  -4.1334  -3.9781  -3.9781
    -3.9781  -3.9781  -3.9781  -3.9781  -3.9781  -3.9781  -3.8701  -3.8701
    -3.5863  -3.5863  -3.5863  -3.5863  -3.5741  -3.5741  -3.5741  -3.5741
    -3.5191  -3.5191  -3.5191  -3.5191  -3.3264  -3.3264  -3.3264  -3.3264
    -3.3264  -3.3264  -3.3264  -3.3264  -3.0771  -3.0771  -3.0771  -3.0771
    -3.0453  -3.0453  -3.0453  -3.0453  -3.0453  -3.0453  -3.0452  -3.0452
    -2.8171  -2.8170  -2.8170  -2.8170  -2.7832  -2.7832  -2.7832  -2.7832
    -2.7411  -2.7411  -2.5449  -2.5449  -2.5329  -2.5329  -2.4698  -2.4698
    -2.4698  -2.4698  -2.4698  -2.4698  -2.4698  -2.4698  -2.3867  -2.3867
    -2.3732  -2.3732  -2.3732  -2.3732  -2.3207  -2.3207  -2.3207  -2.3207
    -2.3207  -2.3207  -2.3207  -2.3207  -2.0893  -2.0893  -2.0893  -2.0893
    -2.0893  -2.0893  -2.0893  -2.0893  -2.0721  -2.0721  -2.0615  -2.0615
    -2.0615  -2.0615  -2.0615  -2.0615  -2.0615  -2.0615  -1.9857  -1.9857
    -1.9857  -1.9857  -1.9729  -1.9729  -1.9729  -1.9729  -1.8322  -1.8322
    -1.8322  -1.8322  -1.7121  -1.7121  -1.7121  -1.7121  -1.7094  -1.7094
    -1.7085  -1.7085  -1.4655  -1.4655  -1.4655  -1.4655  -1.4655  -1.4655
    -1.4655  -1.4655  -1.4590  -1.4590  -1.4590  -1.4590  -1.3956  -1.3956
    -1.3956  -1.3956  -1.2967  -1.2967  -1.2967  -1.2967  -1.2967  -1.2967
    -1.2967  -1.2967  -1.2919  -1.2919  -1.2804  -1.2804  -1.2804  -1.2804
    -1.2724  -1.2724  -1.2724  -1.2724  -1.1802  -1.1802  -1.1802  -1.1802
    -1.0945  -1.0945  -1.0945  -1.0945  -1.0945  -1.0945  -1.0945  -1.0945
    -0.9645  -0.9645  -0.9645  -0.9645  -0.8918  -0.8918  -0.8918  -0.8918
    -0.8091  -0.8091  -0.8091  -0.8091  -0.8091  -0.8091  -0.8091  -0.8091
    -0.6546  -0.6546  -0.6546  -0.6546  -0.6078  -0.6078  -0.6078  -0.6078
    -0.5448  -0.5448  -0.5448  -0.5448  -0.2897  -0.2897  -0.2897  -0.2897
    -0.2760  -0.2760  -0.2760  -0.2760  -0.0271  -0.0271  -0.0271  -0.0270
     1.2993   1.2993   1.2993   1.2993   1.5057   1.5057   1.5058   1.5058
     1.5788   1.5788   1.5788   1.5788   1.8265   1.8266   1.8266   1.8266
     1.8266   1.8266   1.8266   1.8266   1.8503   1.8503   1.8503   1.8503
     2.3971   2.3971   2.3971   2.3971   2.5519   2.5519   2.5519   2.5519
     2.6042   2.6042   2.6042   2.6042   2.6434   2.6434   2.6434   2.6434
     2.6573   2.6573   2.6573   2.6573   2.7333   2.7333   2.7333   2.7333
     2.8609   2.8609   2.8609   2.8609   2.8609   2.8609   2.8609   2.8609
     3.3046   3.3046   3.3046   3.3046   3.3864   3.3864   3.3864   3.3864
     3.5013   3.5013   3.5013   3.5013   3.5013   3.5013   3.5013   3.5013
     3.6503   3.6503   3.6998   3.6998   3.7146   3.7146   3.7146   3.7146
     3.7146   3.7146   3.7146   3.7146   3.7146   3.7146   3.7433   3.7433
     3.8151   3.8151   3.8151   3.8151   3.8151   3.8151   3.8151   3.8151
     3.8470   3.8470   3.8470   3.8470   3.8769   3.8770   3.8770   3.8770
     3.8770   3.8770   3.8770   3.8770   4.0190   4.0190   4.0190   4.0190
     4.0190   4.0190   4.0190   4.0190   4.0220   4.0220   4.0730   4.0730
     4.0730   4.0730   4.0730   4.0730   4.0730   4.0730   4.0804   4.0804
     4.0804   4.0804   4.0989   4.0989   4.1313   4.1313   4.1359   4.1359
     4.1359   4.1359   4.1906   4.1906   4.1906   4.1906   4.2501   4.2501
     4.4108   4.4108   4.4108   4.4108   4.4108   4.4108   4.4108   4.4108
     4.4750   4.4751   4.4751   4.4752   4.5152   4.5152   4.5152   4.5152
     4.5912   4.5912   4.5912   4.5912   4.5912   4.5912   4.5912   4.5912
     4.6051   4.6051   4.6213   4.6213   4.6213   4.6213   4.6213   4.6213
     4.6213   4.6213   4.6862   4.6862   4.6862   4.6862   4.6956   4.6956
     4.6957   4.6957   4.7129   4.7129   4.7131   4.7134   4.7412   4.7412
     4.7412   4.7412   4.7412   4.7412   4.7412   4.7413   4.7684   4.7684
     4.7864   4.7865

     the Fermi energy is     3.4186 ev

!    total energy              =  -11908.15378799 Ry
     estimated scf accuracy    <       0.00000021 Ry
     smearing contrib. (-TS)   =      -0.01762643 Ry
     internal energy E=F+TS    =  -11908.13616156 Ry

     The total energy is F=E-TS. E is the sum of the following terms:
     one-electron contribution = -157070.48418173 Ry
     hartree contribution      =   78624.48217902 Ry
     xc contribution           =   -1803.39694142 Ry
     ewald contribution        =   68344.68055437 Ry
     DFT-D3 Dispersion         =      -3.41777180 Ry

     convergence has been achieved in  25 iterations

     negative rho (up, down):  7.718E-02 0.000E+00

     Forces acting on atoms (cartesian axes, Ry/au):

     atom    1 type  1   force =     0.00000000    0.00000000    0.09596560
     atom    2 type  1   force =    -0.00000792    0.00000000   -0.01663706
     atom    3 type  1   force =     0.00000000   -0.00000792   -0.01663706
     atom    4 type  1   force =    -0.00000511   -0.00000511    0.09596663
     atom    5 type  1   force =     0.00000000    0.00000000   -0.00919337
     atom    6 type  1   force =    -0.00000729    0.00000000    0.00267970
     atom    7 type  1   force =     0.00000000   -0.00000729    0.00267970
     atom    8 type  1   force =    -0.00000473   -0.00000473   -0.00919893
     atom    9 type  1   force =     0.00000000    0.00000158    0.09596325
     atom   10 type  1   force =    -0.00000146    0.00000178   -0.01664571
     atom   11 type  1   force =     0.00000000    0.00000000   -0.01664298
     atom   12 type  1   force =    -0.00000263    0.00000000    0.09596518
     atom   13 type  1   force =    -0.00000000    0.00000225   -0.00919314
     atom   14 type  1   force =    -0.00000595    0.00000439    0.00268034
     atom   15 type  1   force =     0.00000000    0.00000000    0.00267551
     atom   16 type  1   force =    -0.00000334   -0.00000000   -0.00919499
     atom   17 type  1   force =     0.00000000   -0.00000158    0.09596325
     atom   18 type  1   force =    -0.00000146   -0.00000178   -0.01664571
     atom   19 type  1   force =     0.00000000    0.00000792   -0.01663706
     atom   20 type  1   force =    -0.00000511    0.00000511    0.09596663
     atom   21 type  1   force =     0.00000000   -0.00000225   -0.00919314
     atom   22 type  1   force =    -0.00000595   -0.00000439    0.00268034
     atom   23 type  1   force =     0.00000000    0.00000729    0.00267970
     atom   24 type  1   force =    -0.00000473    0.00000473   -0.00919893
     atom   25 type  1   force =     0.00000158    0.00000000    0.09596325
     atom   26 type  1   force =     0.00000000    0.00000000   -0.01664298
     atom   27 type  1   force =     0.00000178   -0.00000146   -0.01664571
     atom   28 type  1   force =     0.00000000   -0.00000263    0.09596518
     atom   29 type  1   force =     0.00000225   -0.00000000   -0.00919314
     atom   30 type  1   force =     0.00000000    0.00000000    0.00267551
     atom   31 type  1   force =     0.00000439   -0.00000595    0.00268034
     atom   32 type  1   force =     0.00000000   -0.00000334   -0.00919499
     atom   33 type  1   force =     0.00000335    0.00000335    0.09597097
     atom   34 type  1   force =    -0.00000000    0.00000801   -0.01663960
     atom   35 type  1   force =     0.00000801    0.00000000   -0.01663960
     atom   36 type  1   force =     0.00000000    0.00000000    0.09597337
     atom   37 type  1   force =     0.00000199    0.00000199   -0.00919881
     atom   38 type  1   force =     0.00000000    0.00000288    0.00268429
     atom   39 type  1   force =     0.00000288    0.00000000    0.00268429
     atom   40 type  1   force =     0.00000000    0.00000000   -0.00919886
     atom   41 type  1   force =     0.00000335   -0.00000335    0.09597097
     atom   42 type  1   force =     0.00000000   -0.00000801   -0.01663960
     atom   43 type  1   force =     0.00000178    0.00000146   -0.01664571
     atom   44 type  1   force =     0.00000000    0.00000263    0.09596518
     atom   45 type  1   force =     0.00000199   -0.00000199   -0.00919881
     atom   46 type  1   force =     0.00000000   -0.00000288    0.00268429
     atom   47 type  1   force =     0.00000439    0.00000595    0.00268034
     atom   48 type  1   force =    -0.00000000    0.00000334   -0.00919499
     atom   49 type  1   force =    -0.00000158    0.00000000    0.09596325
     atom   50 type  1   force =     0.00000792    0.00000000   -0.01663706
     atom   51 type  1   force =    -0.00000178   -0.00000146   -0.01664571
     atom   52 type  1   force =     0.00000511   -0.00000511    0.09596663
     atom   53 type  1   force =    -0.00000225   -0.00000000   -0.00919314
     atom   54 type  1   force =     0.00000729    0.00000000    0.00267970
     atom   55 type  1   force =    -0.00000439   -0.00000595    0.00268034
     atom   56 type  1   force =     0.00000473   -0.00000473   -0.00919893
     atom   57 type  1   force =    -0.00000335    0.00000335    0.09597097
     atom   58 type  1   force =     0.00000146    0.00000178   -0.01664571
     atom   59 type  1   force =    -0.00000801   -0.00000000   -0.01663960
     atom   60 type  1   force =     0.00000263    0.00000000    0.09596518
     atom   61 type  1   force =    -0.00000199    0.00000199   -0.00919881
     atom   62 type  1   force =     0.00000595    0.00000439    0.00268034
     atom   63 type  1   force =    -0.00000288    0.00000000    0.00268429
     atom   64 type  1   force =     0.00000334   -0.00000000   -0.00919499
     atom   65 type  1   force =    -0.00000335   -0.00000335    0.09597097
     atom   66 type  1   force =     0.00000146   -0.00000178   -0.01664571
     atom   67 type  1   force =    -0.00000178    0.00000146   -0.01664571
     atom   68 type  1   force =     0.00000511    0.00000511    0.09596663
     atom   69 type  1   force =    -0.00000199   -0.00000199   -0.00919881
     atom   70 type  1   force =     0.00000595   -0.00000439    0.00268034
     atom   71 type  1   force =    -0.00000439    0.00000595    0.00268034
     atom   72 type  1   force =     0.00000473    0.00000473   -0.00919893
     atom   73 type  2   force =     0.00000000   -0.00000242   -0.05067326
     atom   74 type  2   force =    -0.00000242    0.00000000   -0.05067326
     atom   75 type  2   force =     0.00000000    0.00000000   -0.00987081
     atom   76 type  2   force =    -0.00000073   -0.00000073   -0.00986992
     atom   77 type  2   force =    -0.00000000   -0.00000583   -0.00673636
     atom   78 type  2   force =    -0.00000583   -0.00000000   -0.00673636
     atom   79 type  2   force =     0.00000000    0.00000000   -0.00553986
     atom   80 type  2   force =    -0.00000716   -0.00000716   -0.00553483
     atom   81 type  2   force =     0.00000000    0.00000000   -0.05067456
     atom   82 type  2   force =    -0.00000409   -0.00000622   -0.05067126
     atom   83 type  2   force =     0.00000000   -0.00000659   -0.00986750
     atom   84 type  2   force =     0.00000396   -0.00000000   -0.00986704
     atom   85 type  2   force =     0.00000000    0.00000000   -0.00674111
     atom   86 type  2   force =    -0.00000495   -0.00000868   -0.00674095
     atom   87 type  2   force =     0.00000000   -0.00000692   -0.00552525
     atom   88 type  2   force =    -0.00000090    0.00000000   -0.00551931
     atom   89 type  2   force =     0.00000000    0.00000242   -0.05067326
     atom   90 type  2   force =    -0.00000409    0.00000622   -0.05067126
     atom   91 type  2   force =    -0.00000000    0.00000659   -0.00986750
     atom   92 type  2   force =    -0.00000073    0.00000073   -0.00986992
     atom   93 type  2   force =     0.00000000    0.00000583   -0.00673636
     atom   94 type  2   force =    -0.00000495    0.00000868   -0.00674095
     atom   95 type  2   force =     0.00000000    0.00000692   -0.00552525
     atom   96 type  2   force =    -0.00000716    0.00000716   -0.00553483
     atom   97 type  2   force =    -0.00000622   -0.00000409   -0.05067126
     atom   98 type  2   force =     0.00000000    0.00000000   -0.05067456
     atom   99 type  2   force =    -0.00000659   -0.00000000   -0.00986750
     atom  100 type  2   force =     0.00000000    0.00000396   -0.00986704
     atom  101 type  2   force =    -0.00000868   -0.00000495   -0.00674095
     atom  102 type  2   force =     0.00000000    0.00000000   -0.00674111
     atom  103 type  2   force =    -0.00000692    0.00000000   -0.00552525
     atom  104 type  2   force =     0.00000000   -0.00000090   -0.00551931
     atom  105 type  2   force =    -0.00000625    0.00000000   -0.05067687
     atom  106 type  2   force =     0.00000000   -0.00000625   -0.05067687
     atom  107 type  2   force =    -0.00000154   -0.00000154   -0.00986708
     atom  108 type  2   force =     0.00000000    0.00000000   -0.00986248
     atom  109 type  2   force =    -0.00000374   -0.00000000   -0.00674779
     atom  110 type  2   force =     0.00000000   -0.00000374   -0.00674779
     atom  111 type  2   force =    -0.00000028   -0.00000028   -0.00552379
     atom  112 type  2   force =     0.00000000    0.00000000   -0.00552069
     atom  113 type  2   force =    -0.00000622    0.00000409   -0.05067126
     atom  114 type  2   force =     0.00000000    0.00000625   -0.05067687
     atom  115 type  2   force =    -0.00000154    0.00000154   -0.00986708
     atom  116 type  2   force =     0.00000000   -0.00000396   -0.00986704
     atom  117 type  2   force =    -0.00000868    0.00000495   -0.00674095
     atom  118 type  2   force =     0.00000000    0.00000374   -0.00674779
     atom  119 type  2   force =    -0.00000028    0.00000028   -0.00552379
     atom  120 type  2   force =    -0.00000000    0.00000090   -0.00551931
     atom  121 type  2   force =     0.00000622   -0.00000409   -0.05067126
     atom  122 type  2   force =     0.00000242    0.00000000   -0.05067326
     atom  123 type  2   force =     0.00000659    0.00000000   -0.00986750
     atom  124 type  2   force =     0.00000073   -0.00000073   -0.00986992
     atom  125 type  2   force =     0.00000868   -0.00000495   -0.00674095
     atom  126 type  2   force =     0.00000583    0.00000000   -0.00673636
     atom  127 type  2   force =     0.00000692    0.00000000   -0.00552525
     atom  128 type  2   force =     0.00000716   -0.00000716   -0.00553483
     atom  129 type  2   force =     0.00000625    0.00000000   -0.05067687
     atom  130 type  2   force =     0.00000409   -0.00000622   -0.05067126
     atom  131 type  2   force =     0.00000154   -0.00000154   -0.00986708
     atom  132 type  2   force =    -0.00000396    0.00000000   -0.00986704
     atom  133 type  2   force =     0.00000374    0.00000000   -0.00674779
     atom  134 type  2   force =     0.00000495   -0.00000868   -0.00674095
     atom  135 type  2   force =     0.00000028   -0.00000028   -0.00552379
     atom  136 type  2   force =     0.00000090    0.00000000   -0.00551931
     atom  137 type  2   force =     0.00000622    0.00000409   -0.05067126
     atom  138 type  2   force =     0.00000409    0.00000622   -0.05067126
     atom  139 type  2   force =     0.00000154    0.00000154   -0.00986708
     atom  140 type  2   force =     0.00000073    0.00000073   -0.00986992
     atom  141 type  2   force =     0.00000868    0.00000495   -0.00674095
     atom  142 type  2   force =     0.00000495    0.00000868   -0.00674095
     atom  143 type  2   force =     0.00000028    0.00000028   -0.00552379
     atom  144 type  2   force =     0.00000716    0.00000716   -0.00553483

     Total force =     0.054949     Total SCF correction =     0.001017
     Energy error            =      6.6E-03 Ry
     Gradient error          =      9.2E-03 Ry/Bohr

     number of scf cycles    =   4
     number of bfgs steps    =   3

     energy             old  =  -11908.1471567031 Ry
     energy             new  =  -11908.1537879883 Ry

     CASE: energy            _new < energy            _old

     new trust radius        =       0.0403709121 bohr
     new conv_thr            =       0.0000005912 Ry


ATOMIC_POSITIONS (angstrom)
V                0.0000000000        0.0000000000       10.0000000000    0   0   0
V                2.0432625400        0.0000000000       12.0432625400    0   0   0
V                0.0000000000        2.0432625400       12.0432625400    0   0   0
V                2.0432625400        2.0432625400       10.0000000000    0   0   0
V                0.0000001400        0.0000001700       14.2119285389
V                2.0432402314        0.0000000600       16.0664017300
V               -0.0000000900        2.0432401514       16.0664015400
V                2.0432635268        2.0432634368       14.2119635521
V                0.0000000000        4.0865250700       10.0000000000    0   0   0
V                2.0432625400        4.0865250700       12.0432625400    0   0   0
V                0.0000000000        6.1297876100       12.0432625400    0   0   0
V                2.0432625400        6.1297876100       10.0000000000    0   0   0
V                0.0000001200        4.0865386498       14.2119585422
V                2.0432448227        4.0865534788       16.0663948695
V               -0.0000001500        6.1297875000       16.0663922684
V                2.0432675350        6.1297873900       14.2119536335
V                0.0000000000        8.1730501500       10.0000000000    0   0   0
V                2.0432625400        8.1730501500       12.0432625400    0   0   0
V                0.0000000000       10.2163126900       12.0432625400    0   0   0
V                2.0432625400       10.2163126900       10.0000000000    0   0   0
V               -0.0000002100        8.1730363202       14.2119585222
V                2.0432449027        8.1730219412       16.0663946895
V               -0.0000000100       10.2163349686       16.0664018100
V                2.0432634568       10.2163115432       14.2119633421
V                4.0865250700        0.0000000000       10.0000000000    0   0   0
V                6.1297876100        0.0000000000       12.0432625400    0   0   0
V                4.0865250700        2.0432625400       12.0432625400    0   0   0
V                6.1297876100        2.0432625400       10.0000000000    0   0   0
V                4.0865386698        0.0000001700       14.2119584522
V                6.1297876200        0.0000000500       16.0663928484
V                4.0865532888        2.0432449027       16.0663949795
V                6.1297873700        2.0432676150       14.2119536335
V                4.0865250700        4.0865250700       10.0000000000    0   0   0
V                6.1297876100        4.0865250700       12.0432625400    0   0   0
V                4.0865250700        6.1297876100       12.0432625400    0   0   0
V                6.1297876100        6.1297876100       10.0000000000    0   0   0
V                4.0865411464        4.0865409564       14.2119514905
V                6.1297875500        4.0865486789       16.0663830664
V                4.0865486289        6.1297875500       16.0663828264
V                6.1297874000        6.1297875000       14.2119173495
V                4.0865250700        8.1730501500       10.0000000000    0   0   0
V                6.1297876100        8.1730501500       12.0432625400    0   0   0
V                4.0865250700       10.2163126900       12.0432625400    0   0   0
V                6.1297876100       10.2163126900       10.0000000000    0   0   0
V                4.0865411664        8.1730343836       14.2119515005
V                6.1297875800        8.1730264611       16.0663827864
V                4.0865533088       10.2163302473       16.0663944495
V                6.1297875400       10.2163073850       14.2119537035
V                8.1730501500        0.0000000000       10.0000000000    0   0   0
V               10.2163126900        0.0000000000       12.0432625400    0   0   0
V                8.1730501500        2.0432625400       12.0432625400    0   0   0
V               10.2163126900        2.0432625400       10.0000000000    0   0   0
V                8.1730365202        0.0000000500       14.2119584322
V               10.2163350486        0.0000001000       16.0664016700
V                8.1730218912        2.0432449027       16.0663952195
V               10.2163117532        2.0432634568       14.2119632121
V                8.1730501500        4.0865250700       10.0000000000    0   0   0
V               10.2163126900        4.0865250700       12.0432625400    0   0   0
V                8.1730501500        6.1297876100       12.0432625400    0   0   0
V               10.2163126900        6.1297876100       10.0000000000    0   0   0
V                8.1730339036        4.0865411464       14.2119514105
V               10.2163303073        4.0865535088       16.0663946695
V                8.1730266311        6.1297876500       16.0663830564
V               10.2163077650        6.1297875900       14.2119537535
V                8.1730501500        8.1730501500       10.0000000000    0   0   0
V               10.2163126900        8.1730501500       12.0432625400    0   0   0
V                8.1730501500       10.2163126900       12.0432625400    0   0   0
V               10.2163126900       10.2163126900       10.0000000000    0   0   0
V                8.1730342536        8.1730341336       14.2119516105
V               10.2163303073        8.1730217412       16.0663948595
V                8.1730217612       10.2163303473       16.0663944695
V               10.2163116332       10.2163115032       14.2119633221
N                0.0000000000        2.0432625400       10.0000000000    0   0   0
N                2.0432625400        0.0000000000       10.0000000000    0   0   0
N                0.0000000000        0.0000000000       12.0432625400    0   0   0
N                2.0432625400        2.0432625400       12.0432625400    0   0   0
N                0.0000001100        2.0432641938       14.1633710906
N                2.0432639638        0.0000001000       14.1633707906
N               -0.0000000300       -0.0000000400       16.3479683610
N                2.0432822497        2.0432821697       16.3479447311
N                0.0000000000        6.1297876100       10.0000000000    0   0   0
N                2.0432625400        4.0865250700       10.0000000000    0   0   0
N                0.0000000000        4.0865250700       12.0432625400    0   0   0
N                2.0432625400        6.1297876100       12.0432625400    0   0   0
N               -0.0000000400        6.1297876300       14.1633764815
N                2.0432745773        4.0865273262       14.1633765518
N               -0.0000001500        4.0865241996       16.3479460819
N                2.0432834301        6.1297874600       16.3479336311
N                0.0000000000       10.2163126900       10.0000000000    0   0   0
N                2.0432625400        8.1730501500       10.0000000000    0   0   0
N                0.0000000000        8.1730501500       12.0432625400    0   0   0
N                2.0432625400       10.2163126900       12.0432625400    0   0   0
N                0.0000000200       10.2163110362       14.1633706106
N                2.0432745673        8.1730480538       14.1633766918
N                0.0000000800        8.1730511304       16.3479460519
N                2.0432821797       10.2162930703       16.3479446411
N                4.0865250700        2.0432625400       10.0000000000    0   0   0
N                6.1297876100        0.0000000000       10.0000000000    0   0   0
N                4.0865250700        0.0000000000       12.0432625400    0   0   0
N                6.1297876100        2.0432625400       12.0432625400    0   0   0
N                4.0865271362        2.0432746373       14.1633763818
N                6.1297875500        0.0000000900       14.1633763115
N                4.0865241496       -0.0000000300       16.3479465719
N                6.1297876600        2.0432835401       16.3479340511
N                4.0865250700        6.1297876100       10.0000000000    0   0   0
N                6.1297876100        4.0865250700       10.0000000000    0   0   0
N                4.0865250700        4.0865250700       12.0432625400    0   0   0
N                6.1297876100        6.1297876100       12.0432625400    0   0   0
N                4.0865369614        6.1297874900       14.1633672518
N                6.1297876500        4.0865368914       14.1633669218
N                4.0865261582        4.0865260382       16.3479119155
N                6.1297876300        6.1297875100       16.3479100282
N                4.0865250700       10.2163126900       10.0000000000    0   0   0
N                6.1297876100        8.1730501500       10.0000000000    0   0   0
N                4.0865250700        8.1730501500       12.0432625400    0   0   0
N                6.1297876100       10.2163126900       12.0432625400    0   0   0
N                4.0865271062       10.2163004127       14.1633768118
N                6.1297875600        8.1730383386       14.1633672518
N                4.0865261382        8.1730493118       16.3479114555
N                6.1297876400       10.2162918199       16.3479338011
N                8.1730501500        2.0432625400       10.0000000000    0   0   0
N               10.2163126900        0.0000000000       10.0000000000    0   0   0
N                8.1730501500        0.0000000000       12.0432625400    0   0   0
N               10.2163126900        2.0432625400       12.0432625400    0   0   0
N                8.1730479738        2.0432745173       14.1633762418
N               10.2163113262       -0.0000001200       14.1633708906
N                8.1730509604        0.0000000100       16.3479462819
N               10.2162931003        2.0432821797       16.3479446511
N                8.1730501500        6.1297876100       10.0000000000    0   0   0
N               10.2163126900        4.0865250700       10.0000000000    0   0   0
N                8.1730501500        4.0865250700       12.0432625400    0   0   0
N               10.2163126900        6.1297876100       12.0432625400    0   0   0
N                8.1730381186        6.1297873400       14.1633668218
N               10.2163007027        4.0865273062       14.1633768318
N                8.1730492418        4.0865260282       16.3479116255
N               10.2162917999        6.1297876700       16.3479335811
N                8.1730501500       10.2163126900       10.0000000000    0   0   0
N               10.2163126900        8.1730501500       10.0000000000    0   0   0
N                8.1730501500        8.1730501500       12.0432625400    0   0   0
N               10.2163126900       10.2163126900       12.0432625400    0   0   0
N                8.1730479038       10.2163007227       14.1633767818
N               10.2163006927        8.1730478538       14.1633762018
N                8.1730491518        8.1730492118       16.3479116155
N               10.2162930903       10.2162929903       16.3479446711



     Writing config-only to output data dir ./tmp/VN_slab.save/ :
     XML data file
     NEW-OLD atomic charge density approx. for the potential

     Check: negative core charge=   -0.000003

     negative rho (up, down):  7.743E-02 0.000E+00

     total cpu time spent up to now is    10046.7 secs

     per-process dynamical memory:   807.7 Mb

     Self-consistent Calculation

     iteration #  1     ecut=    45.00 Ry     beta= 0.25
     Davidson diagonalization with overlap
     ethr =  1.00E-06,  avg # of iterations = 11.2

     negative rho (up, down):  7.749E-02 0.000E+00

     total cpu time spent up to now is    10261.3 secs

     total energy              =  -11908.12552185 Ry
     estimated scf accuracy    <       0.08320841 Ry

     iteration #  2     ecut=    45.00 Ry     beta= 0.25
     Davidson diagonalization with overlap
     c_bands:  4 eigenvalues not converged
     ethr =  6.42E-06,  avg # of iterations = 27.5

     negative rho (up, down):  7.746E-02 0.000E+00

     total cpu time spent up to now is    10479.2 secs

     total energy              =  -11907.82599881 Ry
     estimated scf accuracy    <      28.60523975 Ry

     iteration #  3     ecut=    45.00 Ry     beta= 0.25
     Davidson diagonalization with overlap
     c_bands:  4 eigenvalues not converged
     ethr =  6.42E-06,  avg # of iterations = 17.5

     negative rho (up, down):  7.744E-02 0.000E+00

     total cpu time spent up to now is    10620.8 secs

     total energy              =  -11908.12805245 Ry
     estimated scf accuracy    <       1.82760931 Ry

     iteration #  4     ecut=    45.00 Ry     beta= 0.25
     Davidson diagonalization with overlap
     ethr =  6.42E-06,  avg # of iterations = 15.5

     negative rho (up, down):  7.745E-02 0.000E+00

     total cpu time spent up to now is    10717.1 secs

     total energy              =  -11908.15772359 Ry
     estimated scf accuracy    <       0.00330106 Ry

     iteration #  5     ecut=    45.00 Ry     beta= 0.25
     Davidson diagonalization with overlap
     c_bands:  1 eigenvalues not converged
     ethr =  2.55E-07,  avg # of iterations = 16.8

     negative rho (up, down):  7.746E-02 0.000E+00

     total cpu time spent up to now is    10824.0 secs

     total energy              =  -11908.15782393 Ry
     estimated scf accuracy    <       0.03637731 Ry

     iteration #  6     ecut=    45.00 Ry     beta= 0.25
     Davidson diagonalization with overlap
     ethr =  2.55E-07,  avg # of iterations =  5.7

     negative rho (up, down):  7.746E-02 0.000E+00

     total cpu time spent up to now is    10890.9 secs

     total energy              =  -11908.15817779 Ry
     estimated scf accuracy    <       0.01877787 Ry

     iteration #  7     ecut=    45.00 Ry     beta= 0.25
     Davidson diagonalization with overlap
     ethr =  2.55E-07,  avg # of iterations =  3.0

     negative rho (up, down):  7.746E-02 0.000E+00

     total cpu time spent up to now is    10954.1 secs

     total energy              =  -11908.15853760 Ry
     estimated scf accuracy    <       0.00213449 Ry

     iteration #  8     ecut=    45.00 Ry     beta= 0.25
     Davidson diagonalization with overlap
     ethr =  1.65E-07,  avg # of iterations =  5.3

     negative rho (up, down):  7.746E-02 0.000E+00

     total cpu time spent up to now is    11027.6 secs

     total energy              =  -11908.15852092 Ry
     estimated scf accuracy    <       0.00213626 Ry

     iteration #  9     ecut=    45.00 Ry     beta= 0.25
     Davidson diagonalization with overlap
     ethr =  1.65E-07,  avg # of iterations =  2.5

     negative rho (up, down):  7.747E-02 0.000E+00

     total cpu time spent up to now is    11096.7 secs

     total energy              =  -11908.15859712 Ry
     estimated scf accuracy    <       0.00046424 Ry

     iteration # 10     ecut=    45.00 Ry     beta= 0.25
     Davidson diagonalization with overlap
     c_bands:  1 eigenvalues not converged
     ethr =  3.58E-08,  avg # of iterations = 10.0

     negative rho (up, down):  7.747E-02 0.000E+00

     total cpu time spent up to now is    11186.1 secs

     total energy              =  -11908.15862286 Ry
     estimated scf accuracy    <       0.00069649 Ry

     iteration # 11     ecut=    45.00 Ry     beta= 0.25
     Davidson diagonalization with overlap
     ethr =  3.58E-08,  avg # of iterations =  1.2

     negative rho (up, down):  7.747E-02 0.000E+00

     total cpu time spent up to now is    11252.0 secs

     total energy              =  -11908.15862668 Ry
     estimated scf accuracy    <       0.00033655 Ry

     iteration # 12     ecut=    45.00 Ry     beta= 0.25
     Davidson diagonalization with overlap
     ethr =  2.60E-08,  avg # of iterations =  1.2

     negative rho (up, down):  7.748E-02 0.000E+00

     total cpu time spent up to now is    11318.2 secs

     total energy              =  -11908.15863024 Ry
     estimated scf accuracy    <       0.00013937 Ry

     iteration # 13     ecut=    45.00 Ry     beta= 0.25
     Davidson diagonalization with overlap
     ethr =  1.08E-08,  avg # of iterations =  4.0

     negative rho (up, down):  7.748E-02 0.000E+00

     total cpu time spent up to now is    11397.1 secs

     total energy              =  -11908.15862474 Ry
     estimated scf accuracy    <       0.00014365 Ry

     iteration # 14     ecut=    45.00 Ry     beta= 0.25
     Davidson diagonalization with overlap
     ethr =  1.08E-08,  avg # of iterations =  4.7

     negative rho (up, down):  7.748E-02 0.000E+00

     total cpu time spent up to now is    11473.3 secs

     total energy              =  -11908.15862218 Ry
     estimated scf accuracy    <       0.00107886 Ry

     iteration # 15     ecut=    45.00 Ry     beta= 0.25
     Davidson diagonalization with overlap
     ethr =  1.08E-08,  avg # of iterations =  5.0

     negative rho (up, down):  7.748E-02 0.000E+00

     total cpu time spent up to now is    11558.7 secs

     total energy              =  -11908.15863152 Ry
     estimated scf accuracy    <       0.00033043 Ry

     iteration # 16     ecut=    45.00 Ry     beta= 0.25
     Davidson diagonalization with overlap
     ethr =  1.08E-08,  avg # of iterations =  1.0

     negative rho (up, down):  7.748E-02 0.000E+00

     total cpu time spent up to now is    11619.9 secs

     total energy              =  -11908.15863652 Ry
     estimated scf accuracy    <       0.00005588 Ry

     iteration # 17     ecut=    45.00 Ry     beta= 0.25
     Davidson diagonalization with overlap
     ethr =  4.31E-09,  avg # of iterations =  2.5

     negative rho (up, down):  7.748E-02 0.000E+00

     total cpu time spent up to now is    11691.4 secs

     total energy              =  -11908.15863482 Ry
     estimated scf accuracy    <       0.00002139 Ry

     iteration # 18     ecut=    45.00 Ry     beta= 0.25
     Davidson diagonalization with overlap
     ethr =  1.65E-09,  avg # of iterations =  5.2

     negative rho (up, down):  7.748E-02 0.000E+00

     total cpu time spent up to now is    11768.0 secs

     total energy              =  -11908.15863607 Ry
     estimated scf accuracy    <       0.00001875 Ry

     iteration # 19     ecut=    45.00 Ry     beta= 0.25
     Davidson diagonalization with overlap
     ethr =  1.45E-09,  avg # of iterations =  1.2

     negative rho (up, down):  7.748E-02 0.000E+00

     total cpu time spent up to now is    11835.7 secs

     total energy              =  -11908.15863627 Ry
     estimated scf accuracy    <       0.00000717 Ry

     iteration # 20     ecut=    45.00 Ry     beta= 0.25
     Davidson diagonalization with overlap
     ethr =  5.53E-10,  avg # of iterations =  5.7

     negative rho (up, down):  7.749E-02 0.000E+00

     total cpu time spent up to now is    11914.2 secs

     total energy              =  -11908.15863553 Ry
     estimated scf accuracy    <       0.00006629 Ry

     iteration # 21     ecut=    45.00 Ry     beta= 0.25
     Davidson diagonalization with overlap
     ethr =  5.53E-10,  avg # of iterations =  5.0

     negative rho (up, down):  7.748E-02 0.000E+00

     total cpu time spent up to now is    11996.2 secs

     total energy              =  -11908.15863652 Ry
     estimated scf accuracy    <       0.00000669 Ry

     iteration # 22     ecut=    45.00 Ry     beta= 0.25
     Davidson diagonalization with overlap
     ethr =  5.16E-10,  avg # of iterations =  2.7

     negative rho (up, down):  7.749E-02 0.000E+00

     total cpu time spent up to now is    12080.8 secs

     total energy              =  -11908.15863668 Ry
     estimated scf accuracy    <       0.00000604 Ry

     iteration # 23     ecut=    45.00 Ry     beta= 0.25
     Davidson diagonalization with overlap
     ethr =  4.66E-10,  avg # of iterations =  2.0

     negative rho (up, down):  7.749E-02 0.000E+00

     total cpu time spent up to now is    12150.1 secs

     total energy              =  -11908.15863677 Ry
     estimated scf accuracy    <       0.00000603 Ry

     iteration # 24     ecut=    45.00 Ry     beta= 0.25
     Davidson diagonalization with overlap
     ethr =  4.65E-10,  avg # of iterations =  4.2

     negative rho (up, down):  7.749E-02 0.000E+00

     total cpu time spent up to now is    12223.6 secs

     total energy              =  -11908.15863645 Ry
     estimated scf accuracy    <       0.00004622 Ry

     iteration # 25     ecut=    45.00 Ry     beta= 0.25
     Davidson diagonalization with overlap
     ethr =  4.65E-10,  avg # of iterations =  1.5

     negative rho (up, down):  7.749E-02 0.000E+00

     total cpu time spent up to now is    12293.8 secs

     total energy              =  -11908.15863692 Ry
     estimated scf accuracy    <       0.00000372 Ry

     iteration # 26     ecut=    45.00 Ry     beta= 0.25
     Davidson diagonalization with overlap
     ethr =  2.87E-10,  avg # of iterations =  2.8

     negative rho (up, down):  7.749E-02 0.000E+00

     total cpu time spent up to now is    12366.7 secs

     total energy              =  -11908.15863694 Ry
     estimated scf accuracy    <       0.00000418 Ry

     iteration # 27     ecut=    45.00 Ry     beta= 0.25
     Davidson diagonalization with overlap
     ethr =  2.87E-10,  avg # of iterations =  1.0

     negative rho (up, down):  7.749E-02 0.000E+00

     total cpu time spent up to now is    12432.3 secs

     End of self-consistent calculation

          k = 0.0000 0.0000 0.0000 (135157 PWs)   bands (ev):

   -61.9171 -61.8980 -61.8980 -61.8980 -61.8980 -61.8867 -61.8867 -61.8867
   -61.8867 -61.8691 -61.8691 -61.8691 -61.8691 -61.8635 -61.8635 -61.8635
   -61.8635 -61.8489 -61.8430 -61.8331 -61.8328 -61.8328 -61.8328 -61.8327
   -61.8295 -61.8295 -61.8295 -61.8295 -61.8196 -61.8196 -61.8196 -61.8196
   -61.8122 -61.8122 -61.8122 -61.8121 -61.8120 -61.8119 -61.8119 -61.8119
   -61.7999 -61.7973 -61.7973 -61.7973 -61.7973 -61.7759 -61.7759 -61.7758
   -61.7758 -61.7717 -61.7717 -61.7717 -61.7716 -61.7563 -61.7256 -61.7236
   -61.7236 -61.7236 -61.7236 -61.7219 -61.7219 -61.7218 -61.7218 -61.7187
   -61.7186 -61.7186 -61.7186 -61.7094 -61.7094 -61.7094 -61.7094 -61.6981
   -36.0059 -36.0059 -36.0059 -36.0059 -35.9760 -35.9760 -35.9753 -35.9753
   -35.9753 -35.9753 -35.9625 -35.9625 -35.9625 -35.9625 -35.9426 -35.9426
   -35.9426 -35.9426 -35.9207 -35.9207 -35.9206 -35.9206 -35.9163 -35.9163
   -35.9163 -35.9163 -35.9102 -35.9102 -35.9102 -35.9102 -35.9051 -35.9051
   -35.8958 -35.8957 -35.8957 -35.8957 -35.8833 -35.8833 -35.8833 -35.8833
   -35.8708 -35.8702 -35.8702 -35.8701 -35.8701 -35.8565 -35.8565 -35.8565
   -35.8565 -35.8411 -35.8411 -35.8411 -35.8411 -35.8407 -35.8407 -35.8407
   -35.8407 -35.8203 -35.8203 -35.8203 -35.8203 -35.8157 -35.8157 -35.8157
   -35.8157 -35.7978 -35.7978 -35.7793 -35.7793 -35.7793 -35.7793 -35.7764
   -35.7764 -35.7764 -35.7764 -35.7620 -35.7470 -35.7470 -35.7470 -35.7470
   -35.7417 -35.7417 -35.7417 -35.7417 -35.7142 -35.7142 -35.7116 -35.7116
   -35.7116 -35.7116 -35.7109 -35.7109 -35.7109 -35.7109 -35.7081 -35.7013
   -35.7013 -35.7013 -35.7013 -35.6991 -35.6991 -35.6991 -35.6991 -35.6817
   -35.6817 -35.6817 -35.6816 -35.6790 -35.6790 -35.6679 -35.6679 -35.6679
   -35.6679 -35.6648 -35.6648 -35.6648 -35.6648 -35.6496 -35.6496 -35.6496
   -35.6496 -35.6459 -35.6459 -35.6455 -35.6455 -35.6455 -35.6455 -35.6452
   -35.6452 -35.6452 -35.6452 -35.6368 -35.6333 -35.6333 -35.6333 -35.6333
   -35.6259 -35.6259 -35.6259 -35.6259 -35.6191 -35.6137 -35.6137 -35.6137
   -35.6137 -35.6112 -35.6105 -35.6105 -35.6105 -35.6105 -35.6068 -35.6068
   -35.6068 -35.6068 -35.5940 -35.5940 -35.5937 -35.5937 -35.5937 -35.5937
   -35.5901 -35.5901 -35.5901 -35.5901 -35.5858 -35.5858 -35.5858 -35.5858
   -35.5798 -35.5798 -35.5798 -35.5798 -35.5691 -35.5691 -35.5691 -35.5691
   -35.5433 -35.5433 -35.5433 -35.5433 -35.5417 -35.5417 -35.5417 -35.5417
   -35.5321 -35.5321 -35.5321 -35.5320 -35.5281 -35.5280 -35.5280 -35.5280
   -35.5077 -35.5077 -35.5077 -35.5077 -35.5008 -35.4958 -35.4958 -35.4554
   -35.4554 -35.4554 -35.4554 -35.4549 -35.4549 -35.4549 -35.4549 -35.4294
   -35.4287 -35.4287 -35.4287 -35.4287 -35.4137 -35.4137 -35.4137 -35.4136
   -14.2319 -13.5743 -13.5742 -13.5742 -13.5742 -13.4141 -12.9729 -12.9729
   -12.9729 -12.9729 -12.8477 -12.8477 -12.8477 -12.8477 -12.7678 -12.7322
   -12.7322 -12.7322 -12.7322 -12.5731 -12.5692 -12.4016 -12.4016 -12.4016
   -12.4016 -12.3951 -12.3951 -12.3951 -12.3951 -12.3846 -12.3710 -12.3710
   -12.3710 -12.3710 -12.2052 -12.2052 -12.2052 -12.2052 -12.1002 -12.1001
   -12.1001 -12.1001 -11.8806 -11.8806 -11.8806 -11.8806 -11.8695 -11.7258
   -11.7257 -11.7257 -11.7257 -11.6952 -11.6952 -11.6952 -11.6952 -11.5101
   -11.4861 -11.4861 -11.4860 -11.4860 -11.4354 -11.4353 -11.4353 -11.4353
   -11.3968 -11.3968 -11.3967 -11.3967 -11.1666 -11.1665 -11.1665 -11.1664
    -4.6844  -4.6844  -4.6844  -4.6844  -4.4871  -4.4871  -4.4871  -4.4871
    -4.3687  -4.3687  -4.3687  -4.3687  -4.2569  -4.2569  -4.2569  -4.2569
    -3.9171  -3.9171  -3.9171  -3.9171  -3.7816  -3.7816  -3.7816  -3.7816
    -3.6366  -3.6366  -3.6366  -3.6366  -3.6347  -3.6347  -3.6347  -3.6347
    -3.5418  -3.4837  -3.4837  -3.4837  -3.4837  -3.2667  -3.2667  -3.2667
    -3.2667  -3.1190  -3.1190  -3.1190  -3.1190  -3.1091  -3.1091  -3.0877
    -3.0877  -3.0876  -3.0876  -3.0649  -3.0649  -3.0649  -3.0649  -2.9624
    -2.9624  -2.9624  -2.9624  -2.6881  -2.6881  -2.6881  -2.6881  -2.5776
    -2.5776  -2.4844  -2.4837  -2.4837  -2.4837  -2.4836  -2.4359  -2.4359
    -2.4359  -2.4359  -2.4354  -2.4354  -2.4354  -2.4354  -2.4301  -2.4301
    -2.4301  -2.4301  -2.3429  -2.3429  -2.3429  -2.3429  -2.3133  -2.3133
    -2.3133  -2.3133  -2.2421  -2.2421  -2.2421  -2.2421  -2.1491  -2.1491
    -2.1491  -2.1491  -2.1370  -2.1370  -2.1370  -2.1370  -2.1338  -2.1338
    -2.1338  -2.1338  -2.1213  -2.1213  -2.1213  -2.1213  -1.9817  -1.9817
    -1.9817  -1.9817  -1.9549  -1.9549  -1.9549  -1.9549  -1.9191  -1.8738
    -1.8738  -1.8738  -1.8738  -1.8157  -1.8157  -1.8157  -1.8157  -1.7379
    -1.7379  -1.7379  -1.7379  -1.7194  -1.7194  -1.7194  -1.7194  -1.6584
    -1.6584  -1.6583  -1.6583  -1.6059  -1.6059  -1.6059  -1.6059  -1.5947
    -1.5555  -1.5555  -1.4406  -1.4406  -1.4405  -1.4405  -1.4239  -1.4239
    -1.4239  -1.4239  -1.3948  -1.3948  -1.3948  -1.3948  -1.3920  -1.3209
    -1.3209  -1.3208  -1.3208  -1.2391  -1.2391  -1.2391  -1.2390  -1.2104
    -1.2104  -1.2104  -1.2104  -1.1606  -1.1606  -1.1606  -1.1605  -0.9189
    -0.9188  -0.9188  -0.9188  -0.9149  -0.9149  -0.8878  -0.8877  -0.8877
    -0.8877  -0.8570  -0.8570  -0.8569  -0.8569  -0.7418  -0.7418  -0.7417
    -0.7417  -0.6660  -0.6660  -0.6660  -0.6660  -0.4662  -0.3398  -0.3398
    -0.3398  -0.3398  -0.3317  -0.3317  -0.2865  -0.2865  -0.2864  -0.2864
    -0.2275   0.0133   0.0133   0.0749   0.3056   0.4009   0.5171   0.5171
     0.8770   0.8770   0.8770   0.8770   0.8933   0.8933   1.1489   1.1489
     1.2904   1.8050   1.8159   1.8159   1.8159   1.8159   2.3134   2.3134
     2.4817   2.4817   2.4817   2.4817   2.4867   2.4867   2.4867   2.4867
     2.5354   2.5354   2.5354   2.5354   2.5517   2.5517   2.6102   2.6102
     2.6102   2.6103   2.6502   2.6502   2.6503   2.6503   2.6888   2.6888
     2.6888   2.6888   2.8978   3.0494   3.0494   3.0494   3.0494   3.0657
     3.0657   3.0657   3.0657   3.1240   3.1755   3.1756   3.1757   3.1757
     3.1992   3.1992   3.1992   3.1992   3.2423   3.2423   3.2423   3.2424
     3.3297   3.3297   3.3297   3.3297   3.3513   3.3513   3.3513   3.3513
     3.3557   3.3724   3.3724   3.3724   3.3724   3.3752   3.3752   3.3752
     3.3752   3.3987   3.3987   3.3987   3.3987   3.4522   3.4522   3.4522
     3.4522   3.4949   3.4949   3.4949   3.4949   3.6796   3.6797   3.6797
     3.6797   3.6933   3.6933   3.8042   3.8049   3.8049   3.8049   3.8049
     3.8627   3.8628   3.8628   3.8629   3.9417   3.9417   3.9417   3.9417
     3.9732   3.9732   3.9732   3.9732   4.0241   4.0241   4.0241   4.0241
     4.0438   4.0438   4.0438   4.0438   4.0544   4.1157   4.1157   4.1598
     4.1598   4.1598   4.1598   4.1980   4.1980   4.1980   4.1980   4.2015
     4.2015   4.2015   4.2015   4.2048   4.3371   4.3371   4.3372   4.3372
     4.3399   4.3399   4.3399   4.3399   4.3785   4.3785   4.3785   4.3786
     4.3949   4.4114   4.4114   4.4114   4.4115   4.4727   4.4727   4.4727
     4.4728   4.4729   4.4730   4.4730   4.4730   4.5082   4.5082   4.5083
     4.5083   4.5382   4.5382   4.5382   4.5382   4.5661   4.5661   4.5661
     4.5661   4.5823   4.5823   4.5823   4.5823   4.6362   4.6362   4.6935
     4.6935   4.6935   4.6935   4.7213   4.7213   4.7213   4.7213   4.7343
     4.7518   4.8001   4.8001   4.8001   4.8001   4.8127   4.8626   4.8710
     4.8871   4.8874

          k = 0.0000 0.2500 0.0000 (135097 PWs)   bands (ev):

   -61.9157 -61.9058 -61.8972 -61.8972 -61.8912 -61.8912 -61.8892 -61.8817
   -61.8817 -61.8726 -61.8726 -61.8712 -61.8665 -61.8665 -61.8638 -61.8638
   -61.8572 -61.8499 -61.8422 -61.8368 -61.8326 -61.8326 -61.8317 -61.8309
   -61.8309 -61.8281 -61.8276 -61.8276 -61.8225 -61.8225 -61.8209 -61.8175
   -61.8167 -61.8167 -61.8127 -61.8127 -61.8109 -61.8109 -61.8073 -61.8032
   -61.8032 -61.8016 -61.8008 -61.7908 -61.7908 -61.7805 -61.7795 -61.7795
   -61.7736 -61.7736 -61.7718 -61.7718 -61.7648 -61.7572 -61.7254 -61.7237
   -61.7237 -61.7235 -61.7231 -61.7231 -61.7220 -61.7220 -61.7214 -61.7213
   -61.7196 -61.7154 -61.7153 -61.7134 -61.7102 -61.7102 -61.7053 -61.6990
   -36.0109 -36.0109 -35.9909 -35.9909 -35.9884 -35.9884 -35.9841 -35.9841
   -35.9717 -35.9715 -35.9672 -35.9672 -35.9559 -35.9559 -35.9398 -35.9398
   -35.9398 -35.9374 -35.9295 -35.9295 -35.9210 -35.9210 -35.9129 -35.9129
   -35.9101 -35.9101 -35.9041 -35.9027 -35.9027 -35.9007 -35.8957 -35.8957
   -35.8949 -35.8949 -35.8944 -35.8939 -35.8939 -35.8936 -35.8872 -35.8872
   -35.8786 -35.8689 -35.8677 -35.8664 -35.8664 -35.8664 -35.8656 -35.8656
   -35.8627 -35.8585 -35.8578 -35.8578 -35.8423 -35.8423 -35.8395 -35.8395
   -35.8275 -35.8197 -35.8159 -35.8115 -35.8115 -35.8108 -35.8101 -35.8015
   -35.8010 -35.8000 -35.7984 -35.7984 -35.7943 -35.7930 -35.7930 -35.7690
   -35.7681 -35.7649 -35.7649 -35.7523 -35.7486 -35.7430 -35.7423 -35.7413
   -35.7413 -35.7388 -35.7388 -35.7328 -35.7225 -35.7225 -35.7225 -35.7203
   -35.7203 -35.7186 -35.7182 -35.7144 -35.7089 -35.7022 -35.7022 -35.6938
   -35.6938 -35.6899 -35.6899 -35.6866 -35.6866 -35.6844 -35.6842 -35.6830
   -35.6826 -35.6816 -35.6794 -35.6794 -35.6793 -35.6793 -35.6788 -35.6788
   -35.6758 -35.6709 -35.6709 -35.6698 -35.6693 -35.6693 -35.6679 -35.6625
   -35.6625 -35.6574 -35.6551 -35.6551 -35.6522 -35.6504 -35.6445 -35.6445
   -35.6356 -35.6312 -35.6306 -35.6306 -35.6266 -35.6266 -35.6256 -35.6256
   -35.6249 -35.6249 -35.6245 -35.6240 -35.6142 -35.6142 -35.6128 -35.6128
   -35.6112 -35.6105 -35.6092 -35.6092 -35.6057 -35.6057 -35.6051 -35.6051
   -35.6036 -35.6030 -35.6030 -35.6024 -35.5995 -35.5975 -35.5967 -35.5967
   -35.5951 -35.5919 -35.5919 -35.5914 -35.5871 -35.5871 -35.5856 -35.5856
   -35.5805 -35.5770 -35.5770 -35.5649 -35.5649 -35.5638 -35.5634 -35.5634
   -35.5585 -35.5432 -35.5432 -35.5413 -35.5413 -35.5407 -35.5407 -35.5397
   -35.5397 -35.5371 -35.5296 -35.5296 -35.5240 -35.5240 -35.5227 -35.5196
   -35.5170 -35.5170 -35.5074 -35.5074 -35.5000 -35.4990 -35.4976 -35.4731
   -35.4575 -35.4575 -35.4560 -35.4560 -35.4489 -35.4488 -35.4385 -35.4347
   -35.4346 -35.4267 -35.4232 -35.4232 -35.4167 -35.4155 -35.4149 -35.4149
   -14.1847 -13.8362 -13.5303 -13.5303 -13.3717 -13.2960 -13.2090 -13.2090
   -13.0655 -12.8458 -12.8099 -12.8099 -12.7522 -12.7316 -12.7316 -12.7007
   -12.7006 -12.6980 -12.6359 -12.5530 -12.5454 -12.5453 -12.5363 -12.4962
   -12.4962 -12.4466 -12.4069 -12.4069 -12.3938 -12.3756 -12.3756 -12.3470
   -12.2771 -12.2624 -12.2624 -12.2242 -12.2242 -12.1539 -12.1539 -12.0755
   -12.0675 -12.0675 -11.9337 -11.8528 -11.8460 -11.8460 -11.8425 -11.8425
   -11.7583 -11.7373 -11.7031 -11.7031 -11.6866 -11.6018 -11.6018 -11.5646
   -11.5646 -11.5598 -11.5598 -11.4951 -11.4517 -11.4517 -11.4293 -11.4150
   -11.3744 -11.3744 -11.2828 -11.2828 -11.2350 -11.2349 -11.1401 -11.1400
    -4.8407  -4.8407  -4.6678  -4.6678  -4.6296  -4.6296  -4.5076  -4.5076
    -4.4224  -4.4224  -4.2456  -4.2456  -4.0427  -4.0427  -3.9888  -3.9748
    -3.9748  -3.9128  -3.9128  -3.8891  -3.8891  -3.7483  -3.7280  -3.7280
    -3.7134  -3.7124  -3.6768  -3.6768  -3.6053  -3.6053  -3.5978  -3.5978
    -3.5907  -3.5907  -3.5842  -3.5460  -3.4025  -3.3898  -3.3896  -3.3895
    -3.2912  -3.2912  -3.2497  -3.2044  -3.1936  -3.1936  -3.1935  -3.1935
    -3.1026  -3.0370  -2.9800  -2.9799  -2.9083  -2.9067  -2.9067  -2.8745
    -2.8745  -2.8462  -2.7857  -2.7612  -2.7247  -2.7078  -2.7078  -2.6217
    -2.6217  -2.6002  -2.6002  -2.5711  -2.5148  -2.5148  -2.5092  -2.5071
    -2.5058  -2.5058  -2.4929  -2.4929  -2.4556  -2.4556  -2.4502  -2.4477
    -2.4061  -2.4061  -2.3574  -2.3574  -2.3244  -2.3088  -2.3088  -2.2916
    -2.2916  -2.2684  -2.2597  -2.2597  -2.2497  -2.2497  -2.2444  -2.2444
    -2.2228  -2.2227  -2.1769  -2.1769  -2.1128  -2.1127  -2.1076  -2.0687
    -2.0357  -2.0220  -2.0220  -2.0034  -2.0033  -1.9879  -1.9878  -1.9653
    -1.9440  -1.9303  -1.9303  -1.9292  -1.9292  -1.9217  -1.9063  -1.8680
    -1.8680  -1.8670  -1.8670  -1.8455  -1.8455  -1.8074  -1.7978  -1.7974
    -1.7974  -1.7781  -1.7098  -1.7098  -1.7010  -1.7010  -1.6914  -1.6487
    -1.6487  -1.6364  -1.6364  -1.6092  -1.5507  -1.5370  -1.5253  -1.5253
    -1.5179  -1.5179  -1.5006  -1.4663  -1.4663  -1.4445  -1.4445  -1.4282
    -1.4195  -1.4056  -1.4055  -1.3438  -1.3299  -1.3299  -1.3031  -1.2864
    -1.2864  -1.2454  -1.2454  -1.2187  -1.2187  -1.2161  -1.1755  -1.1754
    -1.1674  -1.0813  -1.0796  -1.0796  -1.0638  -1.0629  -1.0566  -1.0566
    -1.0245  -1.0245  -1.0013  -0.9536  -0.9536  -0.9135  -0.8984  -0.8984
    -0.8920  -0.8274  -0.7901  -0.7813  -0.7813  -0.7376  -0.7375  -0.7325
    -0.7324  -0.7252  -0.6978  -0.6497  -0.5764  -0.5290  -0.5242  -0.5130
    -0.4997  -0.4229  -0.4157  -0.4156  -0.4122  -0.4121  -0.3989  -0.1994
    -0.1331  -0.1204  -0.0009   0.1310   0.2531   0.5381   0.5714   0.6030
     0.7156   0.7178   0.8082   0.8851   1.0549   1.0549   1.0827   1.1206
     1.5752   1.6474   1.8500   1.9222   1.9222   2.0074   2.0074   2.0103
     2.0187   2.0474   2.2072   2.3223   2.3740   2.4054   2.4594   2.4594
     2.5354   2.5354   2.5386   2.5467   2.5468   2.5497   2.5904   2.6116
     2.6116   2.6620   2.6621   2.6770   2.6771   2.6818   2.6818   2.7556
     2.7834   2.8715   2.8716   2.9294   2.9294   2.9350   2.9469   2.9949
     3.0494   3.0494   3.0674   3.0674   3.0718   3.0851   3.0851   3.0867
     3.0909   3.0909   3.1237   3.1716   3.1716   3.1819   3.2231   3.2231
     3.2571   3.2666   3.2666   3.2815   3.2815   3.3107   3.3314   3.3314
     3.3428   3.3429   3.4610   3.4610   3.4762   3.4762   3.5015   3.5015
     3.5117   3.5117   3.5136   3.5137   3.5496   3.5742   3.6314   3.6318
     3.6319   3.6474   3.6497   3.6497   3.6697   3.6764   3.6869   3.6921
     3.6921   3.7674   3.7674   3.7847   3.7847   3.7916   3.7936   3.7936
     3.7976   3.9010   3.9010   3.9301   3.9363   3.9781   3.9781   4.0303
     4.0593   4.0638   4.0638   4.0666   4.0666   4.0838   4.0982   4.0982
     4.1030   4.1066   4.1175   4.1175   4.1319   4.1407   4.1498   4.1498
     4.1552   4.1555   4.1555   4.1571   4.1572   4.1977   4.1977   4.2534
     4.2540   4.2540   4.2540   4.2551   4.2551   4.2603   4.2624   4.2624
     4.2632   4.2632   4.2874   4.3023   4.3023   4.3400   4.3401   4.3443
     4.3443   4.3499   4.3499   4.3964   4.3964   4.3978   4.4172   4.4398
     4.4472   4.4512   4.4513   4.4577   4.4578   4.4838   4.4839   4.5005
     4.5376   4.5376   4.5513   4.5513   4.5693   4.5956   4.5974   4.6005
     4.6038   4.6306   4.6318   4.6592   4.6704   4.6704   4.6730   4.7092
     4.7092   4.7213   4.7213   4.7303   4.7303   4.7329   4.7329   4.7362
     4.7366   4.7367   4.7829   4.7841   4.7981   4.8047   4.8126   4.8126
     4.8186   4.8263

          k = 0.0000-0.5000 0.0000 (135178 PWs)   bands (ev):

   -61.9119 -61.9118 -61.8949 -61.8949 -61.8948 -61.8948 -61.8800 -61.8800
   -61.8769 -61.8769 -61.8769 -61.8769 -61.8648 -61.8648 -61.8648 -61.8648
   -61.8527 -61.8526 -61.8401 -61.8400 -61.8320 -61.8319 -61.8319 -61.8319
   -61.8277 -61.8276 -61.8253 -61.8253 -61.8253 -61.8253 -61.8229 -61.8229
   -61.8143 -61.8143 -61.8143 -61.8143 -61.8079 -61.8079 -61.8079 -61.8079
   -61.8034 -61.8033 -61.7908 -61.7908 -61.7847 -61.7847 -61.7847 -61.7847
   -61.7724 -61.7724 -61.7723 -61.7723 -61.7600 -61.7600 -61.7247 -61.7246
   -61.7231 -61.7231 -61.7231 -61.7230 -61.7225 -61.7225 -61.7225 -61.7224
   -61.7168 -61.7168 -61.7124 -61.7123 -61.7123 -61.7123 -61.7016 -61.7015
   -36.0050 -36.0050 -36.0050 -36.0050 -35.9814 -35.9814 -35.9814 -35.9814
   -35.9677 -35.9677 -35.9677 -35.9677 -35.9592 -35.9591 -35.9584 -35.9583
   -35.9283 -35.9283 -35.9283 -35.9283 -35.9124 -35.9124 -35.9124 -35.9124
   -35.9020 -35.9020 -35.9020 -35.9020 -35.9009 -35.9009 -35.8937 -35.8937
   -35.8937 -35.8936 -35.8880 -35.8880 -35.8856 -35.8856 -35.8856 -35.8856
   -35.8757 -35.8757 -35.8744 -35.8744 -35.8744 -35.8744 -35.8735 -35.8735
   -35.8735 -35.8735 -35.8641 -35.8641 -35.8453 -35.8453 -35.8447 -35.8447
   -35.8167 -35.8167 -35.8167 -35.8166 -35.8136 -35.8136 -35.8084 -35.8084
   -35.7845 -35.7845 -35.7842 -35.7842 -35.7817 -35.7817 -35.7817 -35.7817
   -35.7766 -35.7766 -35.7695 -35.7695 -35.7695 -35.7695 -35.7339 -35.7339
   -35.7316 -35.7316 -35.7245 -35.7245 -35.7188 -35.7188 -35.7121 -35.7121
   -35.7121 -35.7121 -35.7029 -35.7029 -35.7029 -35.7029 -35.6962 -35.6962
   -35.6935 -35.6935 -35.6935 -35.6935 -35.6924 -35.6924 -35.6924 -35.6924
   -35.6849 -35.6848 -35.6848 -35.6848 -35.6848 -35.6847 -35.6799 -35.6799
   -35.6716 -35.6715 -35.6704 -35.6704 -35.6704 -35.6704 -35.6686 -35.6686
   -35.6685 -35.6685 -35.6667 -35.6667 -35.6636 -35.6635 -35.6320 -35.6319
   -35.6304 -35.6304 -35.6304 -35.6304 -35.6259 -35.6259 -35.6259 -35.6259
   -35.6156 -35.6156 -35.6156 -35.6156 -35.6139 -35.6139 -35.6137 -35.6137
   -35.6136 -35.6136 -35.6077 -35.6077 -35.6037 -35.6037 -35.6037 -35.6037
   -35.6007 -35.6007 -35.6007 -35.6007 -35.5974 -35.5974 -35.5961 -35.5961
   -35.5961 -35.5961 -35.5947 -35.5947 -35.5928 -35.5928 -35.5875 -35.5875
   -35.5815 -35.5815 -35.5815 -35.5815 -35.5542 -35.5541 -35.5541 -35.5541
   -35.5476 -35.5476 -35.5414 -35.5414 -35.5414 -35.5414 -35.5390 -35.5390
   -35.5389 -35.5389 -35.5309 -35.5309 -35.5309 -35.5309 -35.5145 -35.5145
   -35.5145 -35.5145 -35.5097 -35.5096 -35.5082 -35.5081 -35.4881 -35.4881
   -35.4572 -35.4572 -35.4572 -35.4571 -35.4415 -35.4415 -35.4415 -35.4414
   -35.4252 -35.4251 -35.4208 -35.4207 -35.4184 -35.4184 -35.4183 -35.4183
   -14.0479 -14.0478 -13.4035 -13.4035 -13.4034 -13.4034 -13.2498 -13.2498
   -13.0409 -13.0409 -12.7178 -12.7178 -12.7027 -12.7027 -12.7027 -12.7027
   -12.6136 -12.6136 -12.6136 -12.6135 -12.5285 -12.5285 -12.5285 -12.5285
   -12.5082 -12.5082 -12.4741 -12.4741 -12.4318 -12.4318 -12.3247 -12.3247
   -12.3247 -12.3247 -12.2391 -12.2390 -12.1476 -12.1476 -12.1476 -12.1476
   -11.9757 -11.9757 -11.9757 -11.9757 -11.8095 -11.8095 -11.8071 -11.8071
   -11.7477 -11.7477 -11.7476 -11.7476 -11.6416 -11.6416 -11.6416 -11.6416
   -11.5278 -11.5278 -11.4777 -11.4777 -11.4777 -11.4777 -11.4570 -11.4569
   -11.3140 -11.3140 -11.3140 -11.3139 -11.1779 -11.1779 -11.1779 -11.1778
    -4.8377  -4.8377  -4.8377  -4.8377  -4.6389  -4.6388  -4.6388  -4.6388
    -4.1526  -4.1526  -4.1526  -4.1526  -3.9649  -3.9649  -3.9648  -3.9648
    -3.9089  -3.9089  -3.8337  -3.8337  -3.8337  -3.8337  -3.8072  -3.8072
    -3.8071  -3.8071  -3.6241  -3.6241  -3.5731  -3.5731  -3.5731  -3.5730
    -3.5589  -3.5589  -3.5174  -3.5174  -3.5174  -3.5173  -3.4411  -3.4411
    -3.3867  -3.3867  -3.3867  -3.3867  -3.2026  -3.2026  -3.0961  -3.0961
    -3.0961  -3.0960  -3.0807  -3.0806  -3.0490  -3.0490  -2.6784  -2.6784
    -2.6783  -2.6783  -2.6777  -2.6777  -2.6675  -2.6675  -2.6675  -2.6674
    -2.5905  -2.5905  -2.5619  -2.5619  -2.5618  -2.5618  -2.5495  -2.5494
    -2.5447  -2.5447  -2.5447  -2.5447  -2.5272  -2.5272  -2.5272  -2.5272
    -2.4623  -2.4623  -2.4166  -2.4166  -2.4137  -2.4137  -2.4137  -2.4137
    -2.2932  -2.2932  -2.2932  -2.2932  -2.2658  -2.2658  -2.2658  -2.2657
    -2.1637  -2.1637  -2.0961  -2.0961  -2.0653  -2.0652  -2.0652  -2.0652
    -2.0536  -2.0536  -2.0536  -2.0536  -2.0301  -2.0301  -1.9473  -1.9473
    -1.9473  -1.9473  -1.9456  -1.9456  -1.9456  -1.9456  -1.9033  -1.9033
    -1.9033  -1.9033  -1.7637  -1.7637  -1.7637  -1.7637  -1.7361  -1.7360
    -1.6334  -1.6334  -1.6334  -1.6334  -1.6060  -1.6060  -1.6060  -1.6060
    -1.5545  -1.5545  -1.5545  -1.5545  -1.5461  -1.5461  -1.5397  -1.5397
    -1.5397  -1.5396  -1.5344  -1.5344  -1.4898  -1.4898  -1.3792  -1.3792
    -1.3741  -1.3741  -1.3740  -1.3740  -1.3349  -1.3349  -1.2352  -1.2352
    -1.2351  -1.2351  -1.2003  -1.2003  -1.1633  -1.1633  -1.1244  -1.1244
    -1.1244  -1.1243  -1.0353  -1.0353  -1.0353  -1.0353  -1.0309  -1.0309
    -1.0011  -1.0011  -1.0011  -1.0011  -0.9077  -0.9077  -0.8943  -0.8942
    -0.8942  -0.8942  -0.8794  -0.8794  -0.8096  -0.8096  -0.6805  -0.6805
    -0.6805  -0.6805  -0.6789  -0.6789  -0.6483  -0.6483  -0.5823  -0.5823
    -0.5730  -0.5730  -0.5730  -0.5729  -0.4634  -0.4634  -0.1126  -0.1126
    -0.0671  -0.0671   0.0934   0.0934   0.1140   0.1140   0.3248   0.3248
     0.6030   0.6030   1.2317   1.2317   1.3214   1.3214   1.4168   1.4168
     1.4810   1.4810   1.4810   1.4811   1.5419   1.5419   2.0862   2.0863
     2.2102   2.2102   2.2102   2.2102   2.3513   2.3514   2.3741   2.3741
     2.4712   2.4712   2.4713   2.4713   2.5899   2.5899   2.6299   2.6299
     2.6299   2.6300   2.6644   2.6644   2.6983   2.6984   2.7088   2.7089
     2.7930   2.7930   2.7930   2.7931   2.8118   2.8118   2.8118   2.8119
     2.8239   2.8240   2.8240   2.8240   2.9958   2.9959   3.1007   3.1007
     3.1007   3.1007   3.2142   3.2142   3.2142   3.2142   3.3241   3.3241
     3.3242   3.3242   3.3247   3.3247   3.3247   3.3247   3.3533   3.3533
     3.3683   3.3683   3.3684   3.3684   3.4332   3.4332   3.5053   3.5053
     3.5054   3.5054   3.6374   3.6375   3.6653   3.6653   3.6834   3.6834
     3.6834   3.6834   3.8347   3.8347   3.8347   3.8347   3.8487   3.8487
     3.8487   3.8487   3.8576   3.8576   3.8888   3.8889   3.9394   3.9394
     3.9539   3.9539   3.9539   3.9539   3.9778   3.9778   4.0260   4.0260
     4.0260   4.0260   4.0530   4.0530   4.0531   4.0531   4.0546   4.0546
     4.0567   4.0568   4.0574   4.0574   4.0574   4.0574   4.0851   4.0851
     4.1782   4.1782   4.1782   4.1782   4.2021   4.2021   4.2021   4.2022
     4.2134   4.2134   4.2134   4.2134   4.2351   4.2351   4.2351   4.2351
     4.2825   4.2825   4.3162   4.3162   4.3407   4.3407   4.3407   4.3407
     4.4077   4.4077   4.4178   4.4178   4.4656   4.4656   4.4657   4.4657
     4.4694   4.4695   4.4695   4.4695   4.4966   4.4966   4.4966   4.4967
     4.5273   4.5273   4.5280   4.5280   4.6154   4.6154   4.6257   4.6257
     4.6258   4.6258   4.6279   4.6279   4.6279   4.6279   4.6732   4.6732
     4.6804   4.6804   4.6954   4.6954   4.7475   4.7475   4.7584   4.7585
     4.7652   4.7717   4.7717   4.7717   4.7718   4.7775   4.7775   4.8020
     4.8024   4.8025

          k = 0.2500 0.2500 0.0000 (135083 PWs)   bands (ev):

   -61.9144 -61.9048 -61.9047 -61.8971 -61.8886 -61.8886 -61.8846 -61.8846
   -61.8788 -61.8740 -61.8718 -61.8718 -61.8713 -61.8713 -61.8624 -61.8578
   -61.8578 -61.8507 -61.8415 -61.8364 -61.8364 -61.8334 -61.8304 -61.8281
   -61.8281 -61.8279 -61.8279 -61.8270 -61.8244 -61.8207 -61.8206 -61.8197
   -61.8197 -61.8179 -61.8179 -61.8130 -61.8105 -61.8080 -61.8080 -61.8016
   -61.8008 -61.8008 -61.7951 -61.7950 -61.7866 -61.7806 -61.7804 -61.7803
   -61.7795 -61.7795 -61.7693 -61.7652 -61.7652 -61.7581 -61.7252 -61.7247
   -61.7236 -61.7235 -61.7235 -61.7234 -61.7223 -61.7223 -61.7200 -61.7200
   -61.7185 -61.7185 -61.7140 -61.7140 -61.7118 -61.7061 -61.7061 -61.6999
   -36.0229 -36.0113 -35.9984 -35.9897 -35.9882 -35.9882 -35.9850 -35.9723
   -35.9638 -35.9586 -35.9586 -35.9564 -35.9564 -35.9553 -35.9553 -35.9445
   -35.9349 -35.9349 -35.9296 -35.9280 -35.9280 -35.9212 -35.9212 -35.9162
   -35.9159 -35.9044 -35.9041 -35.9041 -35.9026 -35.9006 -35.9006 -35.8996
   -35.8990 -35.8889 -35.8888 -35.8872 -35.8872 -35.8807 -35.8806 -35.8806
   -35.8782 -35.8781 -35.8764 -35.8764 -35.8701 -35.8701 -35.8675 -35.8668
   -35.8668 -35.8612 -35.8612 -35.8575 -35.8575 -35.8382 -35.8382 -35.8364
   -35.8363 -35.8197 -35.8192 -35.8192 -35.8125 -35.8125 -35.8042 -35.8042
   -35.8019 -35.7933 -35.7932 -35.7901 -35.7859 -35.7859 -35.7817 -35.7778
   -35.7697 -35.7697 -35.7616 -35.7591 -35.7591 -35.7433 -35.7433 -35.7364
   -35.7364 -35.7330 -35.7330 -35.7263 -35.7226 -35.7226 -35.7184 -35.7184
   -35.7100 -35.7082 -35.7081 -35.7081 -35.7041 -35.7038 -35.7038 -35.7033
   -35.7032 -35.7029 -35.7029 -35.6918 -35.6847 -35.6846 -35.6838 -35.6838
   -35.6826 -35.6822 -35.6819 -35.6796 -35.6796 -35.6795 -35.6794 -35.6794
   -35.6781 -35.6757 -35.6733 -35.6702 -35.6702 -35.6621 -35.6620 -35.6587
   -35.6586 -35.6534 -35.6534 -35.6515 -35.6474 -35.6474 -35.6473 -35.6449
   -35.6448 -35.6429 -35.6429 -35.6413 -35.6344 -35.6312 -35.6312 -35.6259
   -35.6243 -35.6243 -35.6201 -35.6150 -35.6125 -35.6118 -35.6117 -35.6082
   -35.6082 -35.6082 -35.6070 -35.6070 -35.6065 -35.6064 -35.6063 -35.6059
   -35.6059 -35.6032 -35.6031 -35.6028 -35.5999 -35.5967 -35.5967 -35.5958
   -35.5957 -35.5957 -35.5953 -35.5953 -35.5927 -35.5847 -35.5800 -35.5759
   -35.5759 -35.5749 -35.5749 -35.5643 -35.5594 -35.5570 -35.5570 -35.5563
   -35.5563 -35.5510 -35.5490 -35.5421 -35.5421 -35.5420 -35.5392 -35.5392
   -35.5366 -35.5366 -35.5364 -35.5308 -35.5308 -35.5260 -35.5229 -35.5229
   -35.5198 -35.5102 -35.5102 -35.5090 -35.5006 -35.4961 -35.4949 -35.4728
   -35.4727 -35.4664 -35.4486 -35.4463 -35.4463 -35.4406 -35.4397 -35.4396
   -35.4282 -35.4282 -35.4247 -35.4201 -35.4182 -35.4182 -35.4161 -35.4161
   -14.1377 -13.7908 -13.7908 -13.4572 -13.3295 -13.2540 -13.2540 -13.0255
   -13.0255 -12.9500 -12.9500 -12.8099 -12.8099 -12.7410 -12.7353 -12.6717
   -12.6717 -12.6014 -12.6014 -12.5618 -12.5618 -12.5369 -12.5243 -12.5173
   -12.4997 -12.4301 -12.4301 -12.3694 -12.3694 -12.3671 -12.3671 -12.3272
   -12.3115 -12.3096 -12.2427 -12.2427 -12.2215 -12.2215 -12.1211 -12.1157
   -12.0394 -12.0394 -12.0027 -11.9034 -11.9034 -11.8358 -11.7820 -11.7381
   -11.7381 -11.7120 -11.7120 -11.6966 -11.6966 -11.6542 -11.6542 -11.6153
   -11.5464 -11.5464 -11.4796 -11.4528 -11.4296 -11.4296 -11.4034 -11.4034
   -11.3958 -11.3958 -11.3905 -11.2816 -11.2344 -11.2344 -11.1575 -11.0819
    -5.0314  -4.9386  -4.8022  -4.7396  -4.5541  -4.5541  -4.3601  -4.3600
    -4.3231  -4.3231  -4.1893  -4.1892  -4.1705  -4.0592  -4.0592  -4.0521
    -4.0294  -3.8997  -3.8155  -3.8141  -3.8141  -3.8093  -3.8093  -3.7561
    -3.7561  -3.7543  -3.6621  -3.6621  -3.6336  -3.6053  -3.6053  -3.5517
    -3.5277  -3.5277  -3.5250  -3.5040  -3.5040  -3.4300  -3.3678  -3.3677
    -3.3098  -3.3098  -3.2665  -3.2665  -3.2135  -3.2098  -3.1460  -3.1460
    -3.1414  -3.0882  -3.0882  -2.9436  -2.9436  -2.9276  -2.9276  -2.8658
    -2.8658  -2.8559  -2.8559  -2.7698  -2.7543  -2.6648  -2.6613  -2.6268
    -2.6268  -2.6141  -2.6125  -2.5899  -2.5899  -2.5682  -2.5470  -2.5415
    -2.5398  -2.5023  -2.5022  -2.4951  -2.4731  -2.4731  -2.4605  -2.4564
    -2.4564  -2.4349  -2.4349  -2.3458  -2.3452  -2.3452  -2.3375  -2.3374
    -2.3147  -2.2616  -2.2616  -2.2543  -2.2543  -2.2444  -2.1461  -2.1461
    -2.1250  -2.1250  -2.1080  -2.1069  -2.1069  -2.0962  -2.0962  -2.0885
    -2.0885  -2.0657  -2.0657  -2.0388  -2.0319  -2.0028  -2.0028  -1.9634
    -1.9634  -1.9621  -1.9374  -1.9374  -1.9318  -1.9318  -1.8877  -1.8877
    -1.8373  -1.8345  -1.8333  -1.8145  -1.8085  -1.8085  -1.7607  -1.7219
    -1.7158  -1.7158  -1.6566  -1.6566  -1.6461  -1.6289  -1.6251  -1.6251
    -1.6118  -1.6044  -1.5881  -1.5751  -1.5427  -1.5385  -1.5385  -1.5256
    -1.5255  -1.4654  -1.4602  -1.4602  -1.4231  -1.4231  -1.4107  -1.4107
    -1.3776  -1.3303  -1.3303  -1.3252  -1.3252  -1.2730  -1.2730  -1.2536
    -1.2533  -1.2533  -1.2405  -1.2405  -1.1551  -1.1548  -1.1214  -1.1204
    -1.1204  -1.1008  -1.1008  -1.0987  -1.0861  -1.0538  -1.0538  -1.0338
    -1.0246  -1.0246  -1.0209  -1.0072  -1.0072  -0.9290  -0.9290  -0.9277
    -0.8688  -0.8688  -0.8089  -0.8089  -0.7777  -0.7777  -0.7425  -0.7424
    -0.7329  -0.7024  -0.6099  -0.6097  -0.6097  -0.5978  -0.5978  -0.5778
    -0.5676  -0.5676  -0.5091  -0.4203  -0.4203  -0.2853  -0.2366  -0.2366
    -0.2329  -0.1367  -0.1367   0.0021   0.0676   0.3174   0.4901   0.7289
     0.8081   0.8202   0.9299   0.9299   0.9395   1.1522   1.2342   1.2342
     1.6916   1.6916   1.7999   1.8524   1.8943   1.8943   1.9877   1.9877
     2.0702   2.0702   2.0797   2.1284   2.1284   2.1732   2.2507   2.2507
     2.3627   2.3972   2.4027   2.4453   2.4453   2.4707   2.4707   2.5010
     2.5576   2.5997   2.6125   2.6125   2.7516   2.7516   2.7801   2.7862
     2.8050   2.8050   2.9110   2.9110   2.9227   2.9227   2.9375   2.9472
     2.9472   2.9765   2.9765   3.0127   3.0269   3.0330   3.1106   3.1503
     3.1503   3.1752   3.1752   3.2043   3.2043   3.2544   3.2545   3.2545
     3.2676   3.2867   3.3075   3.3075   3.3165   3.3165   3.3585   3.3847
     3.3848   3.4285   3.5082   3.5083   3.5126   3.5156   3.5156   3.5325
     3.5325   3.5403   3.5403   3.6165   3.6165   3.6210   3.6484   3.6484
     3.6776   3.6776   3.6796   3.6796   3.6796   3.7228   3.7251   3.7396
     3.7913   3.8076   3.8076   3.8533   3.8533   3.8534   3.9054   3.9054
     3.9133   3.9789   3.9847   3.9848   3.9858   4.0019   4.0125   4.0125
     4.0139   4.0261   4.0261   4.0612   4.0613   4.0613   4.0653   4.0653
     4.0963   4.0963   4.1192   4.1446   4.1446   4.1493   4.1493   4.1494
     4.1527   4.1606   4.1686   4.1686   4.1802   4.1802   4.2122   4.2122
     4.2151   4.2224   4.2237   4.2313   4.2313   4.2464   4.2464   4.2617
     4.2782   4.2965   4.2965   4.2999   4.2999   4.3156   4.3215   4.3223
     4.3223   4.3412   4.3558   4.3558   4.4032   4.4032   4.4095   4.4401
     4.4401   4.4638   4.4815   4.4815   4.5179   4.5304   4.5464   4.5464
     4.5517   4.5590   4.5803   4.5803   4.6170   4.6170   4.6262   4.6339
     4.6339   4.6510   4.6510   4.6617   4.6617   4.6624   4.6624   4.6636
     4.6636   4.6786   4.6786   4.7002   4.7197   4.7415   4.7436   4.7740
     4.7740   4.7768   4.7779   4.7793   4.7793   4.7868   4.7871   4.7902
     4.7903   4.7909

          k = 0.2500-0.5000 0.0000 (135080 PWs)   bands (ev):

   -61.9107 -61.9107 -61.9018 -61.9017 -61.8870 -61.8870 -61.8797 -61.8797
   -61.8780 -61.8780 -61.8761 -61.8761 -61.8714 -61.8714 -61.8595 -61.8595
   -61.8534 -61.8534 -61.8395 -61.8394 -61.8352 -61.8352 -61.8281 -61.8280
   -61.8264 -61.8263 -61.8259 -61.8259 -61.8245 -61.8245 -61.8231 -61.8231
   -61.8190 -61.8190 -61.8161 -61.8161 -61.8100 -61.8100 -61.8042 -61.8041
   -61.7985 -61.7985 -61.7903 -61.7903 -61.7869 -61.7869 -61.7830 -61.7830
   -61.7799 -61.7799 -61.7667 -61.7666 -61.7607 -61.7607 -61.7248 -61.7248
   -61.7246 -61.7245 -61.7235 -61.7235 -61.7210 -61.7209 -61.7209 -61.7208
   -61.7173 -61.7173 -61.7159 -61.7158 -61.7085 -61.7084 -61.7025 -61.7024
   -36.0231 -36.0231 -36.0003 -36.0003 -35.9765 -35.9765 -35.9722 -35.9722
   -35.9666 -35.9666 -35.9570 -35.9570 -35.9516 -35.9516 -35.9490 -35.9490
   -35.9298 -35.9298 -35.9281 -35.9281 -35.9243 -35.9243 -35.9183 -35.9182
   -35.9132 -35.9132 -35.9026 -35.9026 -35.9022 -35.9022 -35.9007 -35.9007
   -35.8963 -35.8963 -35.8909 -35.8908 -35.8885 -35.8885 -35.8849 -35.8849
   -35.8833 -35.8833 -35.8739 -35.8739 -35.8731 -35.8731 -35.8639 -35.8638
   -35.8612 -35.8612 -35.8563 -35.8563 -35.8504 -35.8504 -35.8391 -35.8391
   -35.8371 -35.8371 -35.8150 -35.8150 -35.8094 -35.8093 -35.8043 -35.8043
   -35.7972 -35.7972 -35.7963 -35.7963 -35.7841 -35.7841 -35.7775 -35.7775
   -35.7670 -35.7670 -35.7530 -35.7530 -35.7513 -35.7513 -35.7448 -35.7448
   -35.7345 -35.7345 -35.7233 -35.7232 -35.7188 -35.7188 -35.7141 -35.7140
   -35.7133 -35.7133 -35.7053 -35.7053 -35.7034 -35.7034 -35.7033 -35.7033
   -35.6984 -35.6983 -35.6953 -35.6953 -35.6928 -35.6928 -35.6902 -35.6902
   -35.6841 -35.6841 -35.6825 -35.6825 -35.6743 -35.6743 -35.6731 -35.6731
   -35.6729 -35.6729 -35.6709 -35.6709 -35.6708 -35.6708 -35.6701 -35.6701
   -35.6659 -35.6659 -35.6541 -35.6541 -35.6519 -35.6519 -35.6440 -35.6440
   -35.6423 -35.6423 -35.6311 -35.6310 -35.6303 -35.6303 -35.6249 -35.6249
   -35.6237 -35.6236 -35.6219 -35.6219 -35.6214 -35.6214 -35.6214 -35.6214
   -35.6176 -35.6176 -35.6080 -35.6080 -35.6027 -35.6027 -35.6027 -35.6027
   -35.5992 -35.5992 -35.5985 -35.5985 -35.5964 -35.5964 -35.5950 -35.5950
   -35.5916 -35.5916 -35.5905 -35.5905 -35.5880 -35.5880 -35.5837 -35.5837
   -35.5797 -35.5797 -35.5619 -35.5619 -35.5549 -35.5549 -35.5496 -35.5496
   -35.5470 -35.5470 -35.5463 -35.5463 -35.5462 -35.5462 -35.5402 -35.5402
   -35.5377 -35.5377 -35.5347 -35.5347 -35.5326 -35.5325 -35.5280 -35.5280
   -35.5208 -35.5208 -35.5021 -35.5021 -35.5000 -35.5000 -35.4866 -35.4865
   -35.4711 -35.4711 -35.4455 -35.4455 -35.4426 -35.4426 -35.4359 -35.4359
   -35.4265 -35.4265 -35.4223 -35.4222 -35.4203 -35.4202 -35.4178 -35.4177
   -14.0015 -14.0014 -13.6595 -13.6594 -13.2084 -13.2084 -13.1334 -13.1333
   -13.0016 -13.0016 -12.9114 -12.9113 -12.7214 -12.7213 -12.7086 -12.7085
   -12.6970 -12.6969 -12.6027 -12.6026 -12.5048 -12.5047 -12.4923 -12.4923
   -12.4442 -12.4442 -12.3960 -12.3960 -12.3863 -12.3862 -12.3568 -12.3568
   -12.3041 -12.3041 -12.2510 -12.2509 -12.2021 -12.2021 -12.1453 -12.1453
   -12.0908 -12.0908 -11.9365 -11.9364 -11.8184 -11.8184 -11.7913 -11.7913
   -11.7792 -11.7792 -11.6842 -11.6841 -11.6424 -11.6424 -11.5924 -11.5924
   -11.5628 -11.5627 -11.4983 -11.4983 -11.4401 -11.4400 -11.3891 -11.3891
   -11.3448 -11.3447 -11.3321 -11.3320 -11.2996 -11.2996 -11.0854 -11.0854
    -5.0691  -5.0691  -4.8424  -4.8424  -4.5194  -4.5194  -4.3413  -4.3413
    -4.2627  -4.2627  -4.0636  -4.0636  -4.0571  -4.0570  -4.0117  -4.0116
    -3.9860  -3.9860  -3.9069  -3.9069  -3.8335  -3.8335  -3.7747  -3.7747
    -3.7631  -3.7631  -3.7351  -3.7351  -3.6756  -3.6756  -3.5696  -3.5696
    -3.5572  -3.5572  -3.4688  -3.4688  -3.4582  -3.4581  -3.3225  -3.3225
    -3.2738  -3.2738  -3.2472  -3.2472  -3.2376  -3.2376  -3.1337  -3.1337
    -3.1224  -3.1224  -3.0462  -3.0461  -2.9945  -2.9945  -2.9878  -2.9878
    -2.8661  -2.8660  -2.8066  -2.8066  -2.7435  -2.7435  -2.7076  -2.7075
    -2.6422  -2.6421  -2.5822  -2.5822  -2.5706  -2.5706  -2.5346  -2.5346
    -2.5312  -2.5312  -2.4870  -2.4870  -2.4526  -2.4526  -2.4317  -2.4317
    -2.3753  -2.3753  -2.3683  -2.3683  -2.3555  -2.3555  -2.3359  -2.3359
    -2.3120  -2.3120  -2.2497  -2.2497  -2.2457  -2.2457  -2.2405  -2.2405
    -2.1937  -2.1937  -2.1690  -2.1690  -2.1483  -2.1483  -2.1226  -2.1225
    -2.0766  -2.0766  -2.0726  -2.0726  -2.0394  -2.0394  -2.0383  -2.0383
    -2.0193  -2.0193  -1.9233  -1.9232  -1.9022  -1.9022  -1.8551  -1.8550
    -1.7193  -1.7192  -1.6880  -1.6880  -1.6850  -1.6850  -1.6681  -1.6681
    -1.6645  -1.6645  -1.6360  -1.6359  -1.6159  -1.6159  -1.5471  -1.5471
    -1.5410  -1.5410  -1.5144  -1.5144  -1.5044  -1.5044  -1.4961  -1.4961
    -1.4553  -1.4553  -1.4013  -1.4013  -1.3790  -1.3790  -1.3647  -1.3647
    -1.3560  -1.3560  -1.3557  -1.3557  -1.3361  -1.3361  -1.3216  -1.3216
    -1.2819  -1.2819  -1.2384  -1.2384  -1.2111  -1.2111  -1.1329  -1.1329
    -1.1160  -1.1159  -1.1009  -1.1009  -1.0492  -1.0492  -1.0310  -1.0310
    -0.9991  -0.9991  -0.9925  -0.9925  -0.9663  -0.9663  -0.8824  -0.8824
    -0.8713  -0.8713  -0.7980  -0.7980  -0.7711  -0.7711  -0.7327  -0.7327
    -0.7075  -0.7075  -0.6831  -0.6830  -0.6627  -0.6627  -0.6486  -0.6486
    -0.5028  -0.5028  -0.4181  -0.4180  -0.3984  -0.3983  -0.3432  -0.3432
    -0.1862  -0.1862  -0.0748  -0.0748   0.0554   0.0554   0.2509   0.2509
     0.8666   0.8666   1.2864   1.2864   1.3879   1.3879   1.4116   1.4117
     1.4530   1.4530   1.5879   1.5879   1.6220   1.6220   1.9714   1.9715
     2.0072   2.0072   2.0515   2.0515   2.1583   2.1584   2.2677   2.2677
     2.2774   2.2774   2.4066   2.4066   2.4180   2.4181   2.4436   2.4436
     2.5751   2.5751   2.6004   2.6004   2.6638   2.6638   2.6926   2.6926
     2.7202   2.7202   2.7320   2.7320   2.7837   2.7837   2.9189   2.9189
     2.9526   2.9526   2.9595   2.9595   3.0180   3.0180   3.0990   3.0990
     3.1348   3.1348   3.2072   3.2072   3.2188   3.2189   3.2807   3.2807
     3.3581   3.3581   3.3760   3.3760   3.3800   3.3800   3.3963   3.3963
     3.4825   3.4825   3.5556   3.5556   3.5684   3.5684   3.5866   3.5866
     3.6204   3.6205   3.6497   3.6497   3.6687   3.6687   3.7391   3.7391
     3.7525   3.7525   3.7772   3.7772   3.8260   3.8260   3.8510   3.8510
     3.8667   3.8667   3.8855   3.8855   3.8956   3.8956   3.9172   3.9172
     3.9491   3.9491   3.9668   3.9668   3.9787   3.9787   3.9967   3.9967
     3.9994   3.9994   4.0226   4.0226   4.0238   4.0238   4.0453   4.0453
     4.0713   4.0713   4.0719   4.0719   4.0867   4.0867   4.0955   4.0955
     4.1319   4.1319   4.1341   4.1341   4.1406   4.1406   4.1721   4.1721
     4.1954   4.1954   4.2037   4.2037   4.2280   4.2280   4.2343   4.2343
     4.2597   4.2597   4.3730   4.3730   4.3971   4.3971   4.3997   4.3997
     4.4004   4.4005   4.4128   4.4128   4.4249   4.4249   4.4475   4.4475
     4.5078   4.5078   4.5447   4.5447   4.5455   4.5455   4.5569   4.5569
     4.5616   4.5616   4.5822   4.5822   4.5987   4.5988   4.6367   4.6367
     4.6516   4.6516   4.6814   4.6814   4.6872   4.6874   4.7097   4.7097
     4.7191   4.7191   4.7210   4.7210   4.7245   4.7246   4.7277   4.7277
     4.7336   4.7336   4.7341   4.7342   4.7660   4.7667   4.7885   4.7908
     4.7918   4.7919

          k =-0.5000-0.5000 0.0000 (135004 PWs)   bands (ev):

   -61.9072 -61.9072 -61.9072 -61.9072 -61.8790 -61.8790 -61.8790 -61.8790
   -61.8790 -61.8790 -61.8790 -61.8790 -61.8758 -61.8758 -61.8557 -61.8557
   -61.8557 -61.8556 -61.8378 -61.8378 -61.8378 -61.8377 -61.8261 -61.8261
   -61.8237 -61.8237 -61.8237 -61.8237 -61.8237 -61.8237 -61.8236 -61.8236
   -61.8225 -61.8224 -61.8224 -61.8224 -61.8065 -61.8065 -61.8065 -61.8064
   -61.7889 -61.7889 -61.7889 -61.7889 -61.7888 -61.7888 -61.7888 -61.7888
   -61.7823 -61.7823 -61.7629 -61.7628 -61.7628 -61.7628 -61.7254 -61.7254
   -61.7242 -61.7242 -61.7242 -61.7241 -61.7188 -61.7188 -61.7188 -61.7188
   -61.7188 -61.7188 -61.7187 -61.7187 -61.7050 -61.7049 -61.7049 -61.7049
   -36.0293 -36.0293 -36.0067 -36.0067 -35.9715 -35.9715 -35.9715 -35.9715
   -35.9402 -35.9402 -35.9402 -35.9402 -35.9402 -35.9402 -35.9402 -35.9402
   -35.9383 -35.9383 -35.9383 -35.9383 -35.9335 -35.9335 -35.9137 -35.9137
   -35.9137 -35.9137 -35.9137 -35.9137 -35.9137 -35.9137 -35.9098 -35.9097
   -35.9097 -35.9097 -35.9081 -35.9081 -35.8908 -35.8908 -35.8908 -35.8907
   -35.8648 -35.8648 -35.8648 -35.8648 -35.8607 -35.8607 -35.8607 -35.8607
   -35.8607 -35.8607 -35.8607 -35.8607 -35.8342 -35.8342 -35.8342 -35.8342
   -35.8342 -35.8342 -35.8342 -35.8341 -35.8232 -35.8232 -35.8232 -35.8232
   -35.7957 -35.7957 -35.7957 -35.7957 -35.7701 -35.7701 -35.7701 -35.7701
   -35.7590 -35.7590 -35.7590 -35.7590 -35.7358 -35.7357 -35.7357 -35.7357
   -35.7357 -35.7357 -35.7357 -35.7357 -35.7223 -35.7223 -35.7222 -35.7222
   -35.7056 -35.7056 -35.7056 -35.7056 -35.7056 -35.7056 -35.7056 -35.7056
   -35.7023 -35.7023 -35.7023 -35.7023 -35.6983 -35.6983 -35.6983 -35.6983
   -35.6766 -35.6766 -35.6766 -35.6766 -35.6729 -35.6729 -35.6728 -35.6728
   -35.6679 -35.6679 -35.6559 -35.6559 -35.6559 -35.6559 -35.6559 -35.6559
   -35.6559 -35.6558 -35.6525 -35.6525 -35.6525 -35.6525 -35.6465 -35.6465
   -35.6448 -35.6448 -35.6448 -35.6448 -35.6448 -35.6448 -35.6448 -35.6448
   -35.6288 -35.6288 -35.6288 -35.6287 -35.6280 -35.6280 -35.6280 -35.6280
   -35.6245 -35.6245 -35.6007 -35.6007 -35.6007 -35.6007 -35.6007 -35.6007
   -35.6007 -35.6007 -35.6006 -35.6006 -35.6006 -35.6006 -35.5892 -35.5892
   -35.5891 -35.5891 -35.5793 -35.5793 -35.5742 -35.5742 -35.5742 -35.5742
   -35.5627 -35.5626 -35.5626 -35.5626 -35.5626 -35.5626 -35.5626 -35.5626
   -35.5451 -35.5451 -35.5451 -35.5451 -35.5451 -35.5451 -35.5451 -35.5451
   -35.5399 -35.5399 -35.5348 -35.5348 -35.5313 -35.5313 -35.5313 -35.5313
   -35.5310 -35.5310 -35.4973 -35.4973 -35.4972 -35.4972 -35.4813 -35.4812
   -35.4812 -35.4812 -35.4469 -35.4469 -35.4305 -35.4305 -35.4305 -35.4304
   -35.4304 -35.4304 -35.4304 -35.4304 -35.4190 -35.4189 -35.4189 -35.4189
   -13.8671 -13.8671 -13.8671 -13.8670 -13.0898 -13.0898 -13.0898 -13.0897
   -12.8893 -12.8893 -12.8893 -12.8892 -12.8892 -12.8892 -12.8892 -12.8892
   -12.6465 -12.6464 -12.6464 -12.6463 -12.4486 -12.4486 -12.4486 -12.4485
   -12.3622 -12.3622 -12.3621 -12.3621 -12.3621 -12.3621 -12.3621 -12.3621
   -12.2946 -12.2946 -12.2946 -12.2946 -12.2785 -12.2785 -12.0963 -12.0962
   -12.0962 -12.0961 -12.0829 -12.0829 -11.7432 -11.7432 -11.7432 -11.7431
   -11.7018 -11.7018 -11.7018 -11.7018 -11.7018 -11.7018 -11.7018 -11.7018
   -11.4163 -11.4162 -11.4162 -11.4162 -11.4162 -11.4161 -11.4161 -11.4161
   -11.3963 -11.3962 -11.3962 -11.3961 -11.3554 -11.3554 -11.0509 -11.0509
    -5.1534  -5.1534  -4.9137  -4.9137  -4.2054  -4.2054  -4.2054  -4.2054
    -4.2054  -4.2054  -4.2054  -4.2054  -4.1524  -4.1524  -4.0113  -4.0113
    -4.0113  -4.0113  -4.0112  -4.0112  -4.0112  -4.0112  -3.8549  -3.8549
    -3.6046  -3.6046  -3.6046  -3.6046  -3.6046  -3.6045  -3.6045  -3.6045
    -3.5450  -3.5450  -3.5450  -3.5450  -3.3485  -3.3485  -3.3485  -3.3485
    -3.3485  -3.3485  -3.3485  -3.3485  -3.0979  -3.0978  -3.0978  -3.0978
    -3.0525  -3.0525  -3.0525  -3.0525  -3.0525  -3.0525  -3.0525  -3.0525
    -2.8577  -2.8577  -2.8577  -2.8577  -2.8167  -2.8167  -2.8166  -2.8166
    -2.7749  -2.7748  -2.5764  -2.5764  -2.5603  -2.5603  -2.4859  -2.4859
    -2.4859  -2.4858  -2.4858  -2.4858  -2.4858  -2.4858  -2.4213  -2.4213
    -2.3728  -2.3728  -2.3728  -2.3728  -2.3427  -2.3427  -2.3427  -2.3427
    -2.3427  -2.3427  -2.3426  -2.3426  -2.1127  -2.1127  -2.1127  -2.1127
    -2.1127  -2.1127  -2.1127  -2.1127  -2.0902  -2.0902  -2.0902  -2.0902
    -2.0902  -2.0901  -2.0901  -2.0901  -2.0827  -2.0827  -2.0242  -2.0242
    -2.0242  -2.0242  -2.0070  -2.0070  -2.0070  -2.0070  -1.8531  -1.8531
    -1.8531  -1.8531  -1.7281  -1.7281  -1.7281  -1.7281  -1.7241  -1.7241
    -1.6892  -1.6892  -1.4839  -1.4838  -1.4838  -1.4838  -1.4659  -1.4659
    -1.4659  -1.4659  -1.4659  -1.4659  -1.4659  -1.4659  -1.4080  -1.4080
    -1.4080  -1.4080  -1.3115  -1.3115  -1.3115  -1.3115  -1.3115  -1.3115
    -1.3115  -1.3115  -1.2920  -1.2920  -1.2920  -1.2920  -1.2824  -1.2824
    -1.2824  -1.2824  -1.2804  -1.2804  -1.2115  -1.2115  -1.2115  -1.2115
    -1.1146  -1.1146  -1.1145  -1.1145  -1.1145  -1.1145  -1.1145  -1.1145
    -0.9790  -0.9790  -0.9790  -0.9790  -0.9259  -0.9259  -0.9259  -0.9259
    -0.7923  -0.7923  -0.7923  -0.7923  -0.7923  -0.7922  -0.7922  -0.7922
    -0.6733  -0.6733  -0.6733  -0.6733  -0.6301  -0.6301  -0.6301  -0.6301
    -0.5437  -0.5437  -0.5437  -0.5437  -0.2915  -0.2915  -0.2915  -0.2915
    -0.2643  -0.2643  -0.2642  -0.2642  -0.0105  -0.0105  -0.0105  -0.0105
     1.2804   1.2804   1.2804   1.2804   1.4860   1.4860   1.4860   1.4860
     1.5576   1.5577   1.5577   1.5577   1.8029   1.8030   1.8030   1.8030
     1.8030   1.8030   1.8030   1.8030   1.8457   1.8457   1.8457   1.8458
     2.3820   2.3820   2.3820   2.3820   2.5710   2.5710   2.5710   2.5710
     2.5831   2.5831   2.5831   2.5831   2.6253   2.6253   2.6253   2.6253
     2.6606   2.6606   2.6606   2.6606   2.7201   2.7201   2.7201   2.7201
     2.8634   2.8634   2.8634   2.8634   2.8634   2.8634   2.8634   2.8634
     3.2930   3.2930   3.2930   3.2930   3.3807   3.3807   3.3807   3.3807
     3.4910   3.4910   3.4910   3.4910   3.4910   3.4910   3.4910   3.4910
     3.6345   3.6345   3.6755   3.6755   3.6901   3.6901   3.6967   3.6967
     3.6967   3.6967   3.6967   3.6967   3.6967   3.6967   3.7227   3.7227
     3.7992   3.7992   3.7992   3.7992   3.7992   3.7992   3.7992   3.7992
     3.8643   3.8643   3.8643   3.8643   3.8683   3.8683   3.8683   3.8683
     3.8683   3.8683   3.8683   3.8683   4.0068   4.0068   4.0068   4.0068
     4.0068   4.0068   4.0068   4.0068   4.0119   4.0119   4.0511   4.0511
     4.0511   4.0511   4.0511   4.0511   4.0511   4.0511   4.0680   4.0680
     4.0680   4.0680   4.0842   4.0842   4.1234   4.1234   4.1247   4.1247
     4.1247   4.1247   4.1791   4.1791   4.1791   4.1791   4.2359   4.2359
     4.3971   4.3971   4.3971   4.3971   4.3971   4.3971   4.3971   4.3971
     4.4542   4.4542   4.4542   4.4542   4.5156   4.5156   4.5156   4.5156
     4.5773   4.5773   4.5773   4.5773   4.5773   4.5773   4.5773   4.5773
     4.5907   4.5907   4.6207   4.6207   4.6208   4.6208   4.6208   4.6208
     4.6208   4.6208   4.6723   4.6723   4.6723   4.6724   4.6756   4.6757
     4.6757   4.6757   4.7035   4.7035   4.7035   4.7036   4.7375   4.7375
     4.7375   4.7375   4.7375   4.7375   4.7377   4.7379   4.7513   4.7513
     4.7814   4.7817

     the Fermi energy is     3.4077 ev

!    total energy              =  -11908.15863668 Ry
     estimated scf accuracy    <       0.00000044 Ry
     smearing contrib. (-TS)   =      -0.01614810 Ry
     internal energy E=F+TS    =  -11908.14248858 Ry

     The total energy is F=E-TS. E is the sum of the following terms:
     one-electron contribution = -157297.44070284 Ry
     hartree contribution      =   78737.28550406 Ry
     xc contribution           =   -1803.44268025 Ry
     ewald contribution        =   68458.87777490 Ry
     DFT-D3 Dispersion         =      -3.42238444 Ry

     convergence has been achieved in  27 iterations

     negative rho (up, down):  7.749E-02 0.000E+00

     Forces acting on atoms (cartesian axes, Ry/au):

     atom    1 type  1   force =     0.00000000    0.00000000    0.09536501
     atom    2 type  1   force =    -0.00000294    0.00000000   -0.01644364
     atom    3 type  1   force =     0.00000000   -0.00000294   -0.01644364
     atom    4 type  1   force =    -0.00000391   -0.00000391    0.09537388
     atom    5 type  1   force =     0.00000000    0.00000000   -0.00450003
     atom    6 type  1   force =    -0.00000325    0.00000000    0.00428445
     atom    7 type  1   force =    -0.00000000   -0.00000325    0.00428445
     atom    8 type  1   force =    -0.00000504   -0.00000504   -0.00450144
     atom    9 type  1   force =     0.00000000    0.00000133    0.09537373
     atom   10 type  1   force =    -0.00000752    0.00000331   -0.01644427
     atom   11 type  1   force =     0.00000000    0.00000000   -0.01644329
     atom   12 type  1   force =    -0.00000549    0.00000000    0.09536967
     atom   13 type  1   force =     0.00000000   -0.00000476   -0.00450269
     atom   14 type  1   force =    -0.00000365    0.00000615    0.00428664
     atom   15 type  1   force =     0.00000000    0.00000000    0.00429153
     atom   16 type  1   force =    -0.00000275   -0.00000000   -0.00449579
     atom   17 type  1   force =     0.00000000   -0.00000133    0.09537373
     atom   18 type  1   force =    -0.00000752   -0.00000331   -0.01644427
     atom   19 type  1   force =     0.00000000    0.00000294   -0.01644364
     atom   20 type  1   force =    -0.00000391    0.00000391    0.09537388
     atom   21 type  1   force =    -0.00000000    0.00000476   -0.00450269
     atom   22 type  1   force =    -0.00000365   -0.00000615    0.00428664
     atom   23 type  1   force =     0.00000000    0.00000325    0.00428445
     atom   24 type  1   force =    -0.00000504    0.00000504   -0.00450144
     atom   25 type  1   force =     0.00000133    0.00000000    0.09537373
     atom   26 type  1   force =     0.00000000    0.00000000   -0.01644329
     atom   27 type  1   force =     0.00000331   -0.00000752   -0.01644427
     atom   28 type  1   force =     0.00000000   -0.00000549    0.09536967
     atom   29 type  1   force =    -0.00000476    0.00000000   -0.00450269
     atom   30 type  1   force =     0.00000000    0.00000000    0.00429153
     atom   31 type  1   force =     0.00000615   -0.00000365    0.00428664
     atom   32 type  1   force =     0.00000000   -0.00000275   -0.00449579
     atom   33 type  1   force =    -0.00000078   -0.00000078    0.09537172
     atom   34 type  1   force =     0.00000000   -0.00000086   -0.01644455
     atom   35 type  1   force =    -0.00000086    0.00000000   -0.01644455
     atom   36 type  1   force =     0.00000000    0.00000000    0.09535789
     atom   37 type  1   force =     0.00000067    0.00000067   -0.00449364
     atom   38 type  1   force =     0.00000000    0.00000911    0.00428868
     atom   39 type  1   force =     0.00000911    0.00000000    0.00428868
     atom   40 type  1   force =     0.00000000    0.00000000   -0.00449755
     atom   41 type  1   force =    -0.00000078    0.00000078    0.09537172
     atom   42 type  1   force =     0.00000000    0.00000086   -0.01644455
     atom   43 type  1   force =     0.00000331    0.00000752   -0.01644427
     atom   44 type  1   force =     0.00000000    0.00000549    0.09536967
     atom   45 type  1   force =     0.00000067   -0.00000067   -0.00449364
     atom   46 type  1   force =    -0.00000000   -0.00000911    0.00428868
     atom   47 type  1   force =     0.00000615    0.00000365    0.00428664
     atom   48 type  1   force =    -0.00000000    0.00000275   -0.00449579
     atom   49 type  1   force =    -0.00000133    0.00000000    0.09537373
     atom   50 type  1   force =     0.00000294   -0.00000000   -0.01644364
     atom   51 type  1   force =    -0.00000331   -0.00000752   -0.01644427
     atom   52 type  1   force =     0.00000391   -0.00000391    0.09537388
     atom   53 type  1   force =     0.00000476    0.00000000   -0.00450269
     atom   54 type  1   force =     0.00000325   -0.00000000    0.00428445
     atom   55 type  1   force =    -0.00000615   -0.00000365    0.00428664
     atom   56 type  1   force =     0.00000504   -0.00000504   -0.00450144
     atom   57 type  1   force =     0.00000078   -0.00000078    0.09537172
     atom   58 type  1   force =     0.00000752    0.00000331   -0.01644427
     atom   59 type  1   force =     0.00000086    0.00000000   -0.01644455
     atom   60 type  1   force =     0.00000549    0.00000000    0.09536967
     atom   61 type  1   force =    -0.00000067    0.00000067   -0.00449364
     atom   62 type  1   force =     0.00000365    0.00000615    0.00428664
     atom   63 type  1   force =    -0.00000911   -0.00000000    0.00428868
     atom   64 type  1   force =     0.00000275   -0.00000000   -0.00449579
     atom   65 type  1   force =     0.00000078    0.00000078    0.09537172
     atom   66 type  1   force =     0.00000752   -0.00000331   -0.01644427
     atom   67 type  1   force =    -0.00000331    0.00000752   -0.01644427
     atom   68 type  1   force =     0.00000391    0.00000391    0.09537388
     atom   69 type  1   force =    -0.00000067   -0.00000067   -0.00449364
     atom   70 type  1   force =     0.00000365   -0.00000615    0.00428664
     atom   71 type  1   force =    -0.00000615    0.00000365    0.00428664
     atom   72 type  1   force =     0.00000504    0.00000504   -0.00450144
     atom   73 type  2   force =     0.00000000   -0.00000399   -0.05060137
     atom   74 type  2   force =    -0.00000399    0.00000000   -0.05060137
     atom   75 type  2   force =     0.00000000    0.00000000   -0.01093919
     atom   76 type  2   force =    -0.00000288   -0.00000288   -0.01094061
     atom   77 type  2   force =     0.00000000   -0.00000317   -0.00926767
     atom   78 type  2   force =    -0.00000317    0.00000000   -0.00926767
     atom   79 type  2   force =     0.00000000    0.00000000   -0.00791161
     atom   80 type  2   force =    -0.00000641   -0.00000641   -0.00790950
     atom   81 type  2   force =     0.00000000    0.00000000   -0.05060887
     atom   82 type  2   force =     0.00000348   -0.00000292   -0.05060124
     atom   83 type  2   force =     0.00000000   -0.00000736   -0.01093919
     atom   84 type  2   force =    -0.00000200    0.00000000   -0.01094242
     atom   85 type  2   force =     0.00000000    0.00000000   -0.00927358
     atom   86 type  2   force =    -0.00001309   -0.00000725   -0.00927499
     atom   87 type  2   force =     0.00000000   -0.00000344   -0.00790455
     atom   88 type  2   force =    -0.00001288    0.00000000   -0.00788965
     atom   89 type  2   force =     0.00000000    0.00000399   -0.05060137
     atom   90 type  2   force =     0.00000348    0.00000292   -0.05060124
     atom   91 type  2   force =     0.00000000    0.00000736   -0.01093919
     atom   92 type  2   force =    -0.00000288    0.00000288   -0.01094061
     atom   93 type  2   force =    -0.00000000    0.00000317   -0.00926767
     atom   94 type  2   force =    -0.00001309    0.00000725   -0.00927499
     atom   95 type  2   force =     0.00000000    0.00000344   -0.00790455
     atom   96 type  2   force =    -0.00000641    0.00000641   -0.00790950
     atom   97 type  2   force =    -0.00000292    0.00000348   -0.05060124
     atom   98 type  2   force =     0.00000000    0.00000000   -0.05060887
     atom   99 type  2   force =    -0.00000736    0.00000000   -0.01093919
     atom  100 type  2   force =    -0.00000000   -0.00000200   -0.01094242
     atom  101 type  2   force =    -0.00000725   -0.00001309   -0.00927499
     atom  102 type  2   force =     0.00000000    0.00000000   -0.00927358
     atom  103 type  2   force =    -0.00000344    0.00000000   -0.00790455
     atom  104 type  2   force =     0.00000000   -0.00001288   -0.00788965
     atom  105 type  2   force =     0.00000179    0.00000000   -0.05060881
     atom  106 type  2   force =     0.00000000    0.00000179   -0.05060881
     atom  107 type  2   force =    -0.00000657   -0.00000657   -0.01094806
     atom  108 type  2   force =     0.00000000    0.00000000   -0.01095652
     atom  109 type  2   force =    -0.00001614    0.00000000   -0.00927854
     atom  110 type  2   force =     0.00000000   -0.00001614   -0.00927854
     atom  111 type  2   force =    -0.00000909   -0.00000909   -0.00788037
     atom  112 type  2   force =     0.00000000    0.00000000   -0.00785730
     atom  113 type  2   force =    -0.00000292   -0.00000348   -0.05060124
     atom  114 type  2   force =     0.00000000   -0.00000179   -0.05060881
     atom  115 type  2   force =    -0.00000657    0.00000657   -0.01094806
     atom  116 type  2   force =    -0.00000000    0.00000200   -0.01094242
     atom  117 type  2   force =    -0.00000725    0.00001309   -0.00927499
     atom  118 type  2   force =     0.00000000    0.00001614   -0.00927854
     atom  119 type  2   force =    -0.00000909    0.00000909   -0.00788037
     atom  120 type  2   force =     0.00000000    0.00001288   -0.00788965
     atom  121 type  2   force =     0.00000292    0.00000348   -0.05060124
     atom  122 type  2   force =     0.00000399    0.00000000   -0.05060137
     atom  123 type  2   force =     0.00000736    0.00000000   -0.01093919
     atom  124 type  2   force =     0.00000288   -0.00000288   -0.01094061
     atom  125 type  2   force =     0.00000725   -0.00001309   -0.00927499
     atom  126 type  2   force =     0.00000317    0.00000000   -0.00926767
     atom  127 type  2   force =     0.00000344    0.00000000   -0.00790455
     atom  128 type  2   force =     0.00000641   -0.00000641   -0.00790950
     atom  129 type  2   force =    -0.00000179    0.00000000   -0.05060881
     atom  130 type  2   force =    -0.00000348   -0.00000292   -0.05060124
     atom  131 type  2   force =     0.00000657   -0.00000657   -0.01094806
     atom  132 type  2   force =     0.00000200    0.00000000   -0.01094242
     atom  133 type  2   force =     0.00001614    0.00000000   -0.00927854
     atom  134 type  2   force =     0.00001309   -0.00000725   -0.00927499
     atom  135 type  2   force =     0.00000909   -0.00000909   -0.00788037
     atom  136 type  2   force =     0.00001288   -0.00000000   -0.00788965
     atom  137 type  2   force =     0.00000292   -0.00000348   -0.05060124
     atom  138 type  2   force =    -0.00000348    0.00000292   -0.05060124
     atom  139 type  2   force =     0.00000657    0.00000657   -0.01094806
     atom  140 type  2   force =     0.00000288    0.00000288   -0.01094061
     atom  141 type  2   force =     0.00000725    0.00001309   -0.00927499
     atom  142 type  2   force =     0.00001309    0.00000725   -0.00927499
     atom  143 type  2   force =     0.00000909    0.00000909   -0.00788037
     atom  144 type  2   force =     0.00000641    0.00000641   -0.00790950

     Total force =     0.058009     Total SCF correction =     0.003014
     Energy error            =      4.8E-03 Ry
     Gradient error          =      9.3E-03 Ry/Bohr

     number of scf cycles    =   5
     number of bfgs steps    =   4

     energy             old  =  -11908.1537879883 Ry
     energy             new  =  -11908.1586366792 Ry

     CASE: energy            _new < energy            _old

     new trust radius        =       0.0455750063 bohr
     new conv_thr            =       0.0000005963 Ry


ATOMIC_POSITIONS (angstrom)
V                0.0000000000        0.0000000000       10.0000000000    0   0   0
V                2.0432625400        0.0000000000       12.0432625400    0   0   0
V                0.0000000000        2.0432625400       12.0432625400    0   0   0
V                2.0432625400        2.0432625400       10.0000000000    0   0   0
V                0.0000001400        0.0000001700       14.1878131627
V                2.0432294651        0.0000000600       16.0591443866
V               -0.0000000900        2.0432293851       16.0591441966
V                2.0432587583        2.0432586683       14.1878511153
V                0.0000000000        4.0865250700       10.0000000000    0   0   0
V                2.0432625400        4.0865250700       12.0432625400    0   0   0
V                0.0000000000        6.1297876100       12.0432625400    0   0   0
V                2.0432625400        6.1297876100       10.0000000000    0   0   0
V                0.0000001200        4.0865397500       14.1878436543
V                2.0432351084        4.0865700954       16.0591348784
V               -0.0000001500        6.1297875000       16.0591363586
V                2.0432633116        6.1297873900       14.1878446826
V                0.0000000000        8.1730501500       10.0000000000    0   0   0
V                2.0432625400        8.1730501500       12.0432625400    0   0   0
V                0.0000000000       10.2163126900       12.0432625400    0   0   0
V                2.0432625400       10.2163126900       10.0000000000    0   0   0
V               -0.0000002100        8.1730352200       14.1878436343
V                2.0432351884        8.1730053246       16.0591346984
V               -0.0000000100       10.2163457349       16.0591444666
V                2.0432586883       10.2163163117       14.1878509053
V                4.0865250700        0.0000000000       10.0000000000    0   0   0
V                6.1297876100        0.0000000000       12.0432625400    0   0   0
V                4.0865250700        2.0432625400       12.0432625400    0   0   0
V                6.1297876100        2.0432625400       10.0000000000    0   0   0
V                4.0865397700        0.0000001700       14.1878435643
V                6.1297876200        0.0000000500       16.0591369386
V                4.0865699054        2.0432351884       16.0591349884
V                6.1297873700        2.0432633916       14.1878446826
V                4.0865250700        4.0865250700       10.0000000000    0   0   0
V                6.1297876100        4.0865250700       12.0432625400    0   0   0
V                4.0865250700        6.1297876100       12.0432625400    0   0   0
V                6.1297876100        6.1297876100       10.0000000000    0   0   0
V                4.0865457439        4.0865455539       14.1878451416
V                6.1297875500        4.0865659940       16.0591272716
V                4.0865659440        6.1297875500       16.0591270316
V                6.1297874000        6.1297875000       14.1878000948
V                4.0865250700        8.1730501500       10.0000000000    0   0   0
V                6.1297876100        8.1730501500       12.0432625400    0   0   0
V                4.0865250700       10.2163126900       12.0432625400    0   0   0
V                6.1297876100       10.2163126900       10.0000000000    0   0   0
V                4.0865457639        8.1730297861       14.1878451516
V                6.1297875800        8.1730091460       16.0591269916
V                4.0865699254       10.2163399616       16.0591344584
V                6.1297875400       10.2163116084       14.1878447526
V                8.1730501500        0.0000000000       10.0000000000    0   0   0
V               10.2163126900        0.0000000000       12.0432625400    0   0   0
V                8.1730501500        2.0432625400       12.0432625400    0   0   0
V               10.2163126900        2.0432625400       10.0000000000    0   0   0
V                8.1730354200        0.0000000500       14.1878435443
V               10.2163458149        0.0000001000       16.0591443266
V                8.1730052746        2.0432351884       16.0591352284
V               10.2163165217        2.0432586883       14.1878507753
V                8.1730501500        4.0865250700       10.0000000000    0   0   0
V               10.2163126900        4.0865250700       12.0432625400    0   0   0
V                8.1730501500        6.1297876100       12.0432625400    0   0   0
V               10.2163126900        6.1297876100       10.0000000000    0   0   0
V                8.1730293061        4.0865457439       14.1878450616
V               10.2163400216        4.0865701254       16.0591346784
V                8.1730093160        6.1297876500       16.0591272616
V               10.2163119884        6.1297875900       14.1878448026
V                8.1730501500        8.1730501500       10.0000000000    0   0   0
V               10.2163126900        8.1730501500       12.0432625400    0   0   0
V                8.1730501500       10.2163126900       12.0432625400    0   0   0
V               10.2163126900       10.2163126900       10.0000000000    0   0   0
V                8.1730296561        8.1730295361       14.1878452616
V               10.2163400216        8.1730051246       16.0591348684
V                8.1730051446       10.2163400616       16.0591344784
V               10.2163164017       10.2163162717       14.1878508853
N                0.0000000000        2.0432625400       10.0000000000    0   0   0
N                2.0432625400        0.0000000000       10.0000000000    0   0   0
N                0.0000000000        0.0000000000       12.0432625400    0   0   0
N                2.0432625400        2.0432625400       12.0432625400    0   0   0
N                0.0000001100        2.0432615800       14.1572997574
N                2.0432613500        0.0000001000       14.1572994574
N               -0.0000000300       -0.0000000400       16.3399072495
N                2.0432787509        2.0432786709       16.3398809532
N                0.0000000000        6.1297876100       10.0000000000    0   0   0
N                2.0432625400        4.0865250700       10.0000000000    0   0   0
N                0.0000000000        4.0865250700       12.0432625400    0   0   0
N                2.0432625400        6.1297876100       12.0432625400    0   0   0
N               -0.0000000400        6.1297876300       14.1572991306
N                2.0432595108        4.0865182711       14.1572975977
N               -0.0000001500        4.0865186545       16.3398881748
N                2.0432749286        6.1297874600       16.3398915210
N                0.0000000000       10.2163126900       10.0000000000    0   0   0
N                2.0432625400        8.1730501500       10.0000000000    0   0   0
N                0.0000000000        8.1730501500       12.0432625400    0   0   0
N                2.0432625400       10.2163126900       12.0432625400    0   0   0
N                0.0000000200       10.2163136500       14.1572992774
N                2.0432595008        8.1730571089       14.1572977377
N                0.0000000800        8.1730566755       16.3398881448
N                2.0432786809       10.2162965691       16.3398808632
N                4.0865250700        2.0432625400       10.0000000000    0   0   0
N                6.1297876100        0.0000000000       10.0000000000    0   0   0
N                4.0865250700        0.0000000000       12.0432625400    0   0   0
N                6.1297876100        2.0432625400       12.0432625400    0   0   0
N                4.0865180811        2.0432595708       14.1572974277
N                6.1297875500        0.0000000900       14.1572989606
N                4.0865186045       -0.0000000300       16.3398886648
N                6.1297876600        2.0432750386       16.3398919410
N                4.0865250700        6.1297876100       10.0000000000    0   0   0
N                6.1297876100        4.0865250700       10.0000000000    0   0   0
N                4.0865250700        4.0865250700       12.0432625400    0   0   0
N                6.1297876100        6.1297876100       12.0432625400    0   0   0
N                4.0865186163        6.1297874900       14.1572790716
N                6.1297876500        4.0865185463       14.1572787416
N                4.0865170074        4.0865168874       16.3398747627
N                6.1297876300        6.1297875100       16.3398980881
N                4.0865250700       10.2163126900       10.0000000000    0   0   0
N                6.1297876100        8.1730501500       10.0000000000    0   0   0
N                4.0865250700        8.1730501500       12.0432625400    0   0   0
N                6.1297876100       10.2163126900       12.0432625400    0   0   0
N                4.0865180511       10.2163154792       14.1572978577
N                6.1297875600        8.1730566837       14.1572790716
N                4.0865169874        8.1730584626       16.3398743027
N                6.1297876400       10.2163003214       16.3398916910
N                8.1730501500        2.0432625400       10.0000000000    0   0   0
N               10.2163126900        0.0000000000       10.0000000000    0   0   0
N                8.1730501500        0.0000000000       12.0432625400    0   0   0
N               10.2163126900        2.0432625400       12.0432625400    0   0   0
N                8.1730570289        2.0432594508       14.1572972877
N               10.2163139400       -0.0000001200       14.1572995574
N                8.1730565055        0.0000000100       16.3398883748
N               10.2162965991        2.0432786809       16.3398808732
N                8.1730501500        6.1297876100       10.0000000000    0   0   0
N               10.2163126900        4.0865250700       10.0000000000    0   0   0
N                8.1730501500        4.0865250700       12.0432625400    0   0   0
N               10.2163126900        6.1297876100       12.0432625400    0   0   0
N                8.1730564637        6.1297873400       14.1572786416
N               10.2163157692        4.0865182511       14.1572978777
N                8.1730583926        4.0865168774       16.3398744727
N               10.2163003014        6.1297876700       16.3398914710
N                8.1730501500       10.2163126900       10.0000000000    0   0   0
N               10.2163126900        8.1730501500       10.0000000000    0   0   0
N                8.1730501500        8.1730501500       12.0432625400    0   0   0
N               10.2163126900       10.2163126900       12.0432625400    0   0   0
N                8.1730569589       10.2163157892       14.1572978277
N               10.2163157592        8.1730569089       14.1572972477
N                8.1730583026        8.1730583626       16.3398744627
N               10.2162965891       10.2162964891       16.3398808932



     Writing config-only to output data dir ./tmp/VN_slab.save/ :
     XML data file
     NEW-OLD atomic charge density approx. for the potential

     Check: negative core charge=   -0.000003

     negative rho (up, down):  7.715E-02 0.000E+00

     total cpu time spent up to now is    12459.6 secs

     per-process dynamical memory:   807.7 Mb

     Self-consistent Calculation

     iteration #  1     ecut=    45.00 Ry     beta= 0.25
     Davidson diagonalization with overlap
     ethr =  1.00E-06,  avg # of iterations = 11.8

     negative rho (up, down):  7.722E-02 0.000E+00

     total cpu time spent up to now is    12673.7 secs

     total energy              =  -11908.11425483 Ry
     estimated scf accuracy    <       0.12280975 Ry

     iteration #  2     ecut=    45.00 Ry     beta= 0.25
     Davidson diagonalization with overlap
     c_bands:  3 eigenvalues not converged
     c_bands:  5 eigenvalues not converged
     ethr =  9.48E-06,  avg # of iterations = 19.7

     negative rho (up, down):  7.720E-02 0.000E+00

     total cpu time spent up to now is    12867.4 secs

     total energy              =  -11907.67196353 Ry
     estimated scf accuracy    <      42.05477580 Ry

     iteration #  3     ecut=    45.00 Ry     beta= 0.25
     Davidson diagonalization with overlap
     c_bands:  2 eigenvalues not converged
     ethr =  9.48E-06,  avg # of iterations = 20.5

     negative rho (up, down):  7.723E-02 0.000E+00

     total cpu time spent up to now is    13039.9 secs

     total energy              =  -11908.11760144 Ry
     estimated scf accuracy    <       2.79714534 Ry

     iteration #  4     ecut=    45.00 Ry     beta= 0.25
     Davidson diagonalization with overlap
     c_bands:  1 eigenvalues not converged
     ethr =  9.48E-06,  avg # of iterations = 16.5

     negative rho (up, down):  7.726E-02 0.000E+00

     total cpu time spent up to now is    13146.1 secs

     total energy              =  -11908.16207324 Ry
     estimated scf accuracy    <       0.00393852 Ry

     iteration #  5     ecut=    45.00 Ry     beta= 0.25
     Davidson diagonalization with overlap
     c_bands:  3 eigenvalues not converged
     c_bands:  1 eigenvalues not converged
     ethr =  3.04E-07,  avg # of iterations = 17.7

     negative rho (up, down):  7.726E-02 0.000E+00

     total cpu time spent up to now is    13275.3 secs

     total energy              =  -11908.16205301 Ry
     estimated scf accuracy    <       0.07814195 Ry

     iteration #  6     ecut=    45.00 Ry     beta= 0.25
     Davidson diagonalization with overlap
     c_bands:  1 eigenvalues not converged
     ethr =  3.04E-07,  avg # of iterations = 10.2

     negative rho (up, down):  7.727E-02 0.000E+00

     total cpu time spent up to now is    13357.7 secs

     total energy              =  -11908.16322375 Ry
     estimated scf accuracy    <       0.00880192 Ry

     iteration #  7     ecut=    45.00 Ry     beta= 0.25
     Davidson diagonalization with overlap
     ethr =  3.04E-07,  avg # of iterations =  3.5

     negative rho (up, down):  7.728E-02 0.000E+00

     total cpu time spent up to now is    13437.4 secs

     total energy              =  -11908.16330136 Ry
     estimated scf accuracy    <       0.00424060 Ry

     iteration #  8     ecut=    45.00 Ry     beta= 0.25
     Davidson diagonalization with overlap
     ethr =  3.04E-07,  avg # of iterations =  2.2

     negative rho (up, down):  7.728E-02 0.000E+00

     total cpu time spent up to now is    13508.5 secs

     total energy              =  -11908.16324646 Ry
     estimated scf accuracy    <       0.00346760 Ry

     iteration #  9     ecut=    45.00 Ry     beta= 0.25
     Davidson diagonalization with overlap
     ethr =  2.68E-07,  avg # of iterations =  2.0

     negative rho (up, down):  7.729E-02 0.000E+00

     total cpu time spent up to now is    13580.1 secs

     total energy              =  -11908.16332290 Ry
     estimated scf accuracy    <       0.00059581 Ry

     iteration # 10     ecut=    45.00 Ry     beta= 0.25
     Davidson diagonalization with overlap
     ethr =  4.60E-08,  avg # of iterations =  6.0

     negative rho (up, down):  7.730E-02 0.000E+00

     total cpu time spent up to now is    13671.9 secs

     total energy              =  -11908.16337448 Ry
     estimated scf accuracy    <       0.00029554 Ry

     iteration # 11     ecut=    45.00 Ry     beta= 0.25
     Davidson diagonalization with overlap
     ethr =  2.28E-08,  avg # of iterations =  3.0

     negative rho (up, down):  7.731E-02 0.000E+00

     total cpu time spent up to now is    13742.0 secs

     total energy              =  -11908.16337363 Ry
     estimated scf accuracy    <       0.00034928 Ry

     iteration # 12     ecut=    45.00 Ry     beta= 0.25
     Davidson diagonalization with overlap
     ethr =  2.28E-08,  avg # of iterations =  1.2

     negative rho (up, down):  7.731E-02 0.000E+00

     total cpu time spent up to now is    13812.8 secs

     total energy              =  -11908.16338378 Ry
     estimated scf accuracy    <       0.00007387 Ry

     iteration # 13     ecut=    45.00 Ry     beta= 0.25
     Davidson diagonalization with overlap
     ethr =  5.70E-09,  avg # of iterations =  4.2

     negative rho (up, down):  7.732E-02 0.000E+00

     total cpu time spent up to now is    13885.3 secs

     total energy              =  -11908.16337912 Ry
     estimated scf accuracy    <       0.00040992 Ry

     iteration # 14     ecut=    45.00 Ry     beta= 0.25
     Davidson diagonalization with overlap
     ethr =  5.70E-09,  avg # of iterations =  5.0

     negative rho (up, down):  7.733E-02 0.000E+00

     total cpu time spent up to now is    13962.7 secs

     total energy              =  -11908.16338312 Ry
     estimated scf accuracy    <       0.00034706 Ry

     iteration # 15     ecut=    45.00 Ry     beta= 0.25
     Davidson diagonalization with overlap
     ethr =  5.70E-09,  avg # of iterations =  2.0

     negative rho (up, down):  7.732E-02 0.000E+00

     total cpu time spent up to now is    14033.1 secs

     total energy              =  -11908.16338814 Ry
     estimated scf accuracy    <       0.00002984 Ry

     iteration # 16     ecut=    45.00 Ry     beta= 0.25
     Davidson diagonalization with overlap
     ethr =  2.30E-09,  avg # of iterations =  3.8

     negative rho (up, down):  7.733E-02 0.000E+00

     total cpu time spent up to now is    14117.3 secs

     total energy              =  -11908.16338861 Ry
     estimated scf accuracy    <       0.00002210 Ry

     iteration # 17     ecut=    45.00 Ry     beta= 0.25
     Davidson diagonalization with overlap
     ethr =  1.71E-09,  avg # of iterations =  4.5

     negative rho (up, down):  7.733E-02 0.000E+00

     total cpu time spent up to now is    14197.6 secs

     total energy              =  -11908.16338842 Ry
     estimated scf accuracy    <       0.00000929 Ry

     iteration # 18     ecut=    45.00 Ry     beta= 0.25
     Davidson diagonalization with overlap
     ethr =  7.17E-10,  avg # of iterations =  5.0

     negative rho (up, down):  7.733E-02 0.000E+00

     total cpu time spent up to now is    14271.5 secs

     total energy              =  -11908.16338799 Ry
     estimated scf accuracy    <       0.00002755 Ry

     iteration # 19     ecut=    45.00 Ry     beta= 0.25
     Davidson diagonalization with overlap
     ethr =  7.17E-10,  avg # of iterations =  5.0

     negative rho (up, down):  7.733E-02 0.000E+00

     total cpu time spent up to now is    14343.9 secs

     total energy              =  -11908.16338793 Ry
     estimated scf accuracy    <       0.00003977 Ry

     iteration # 20     ecut=    45.00 Ry     beta= 0.25
     Davidson diagonalization with overlap
     ethr =  7.17E-10,  avg # of iterations =  5.0

     negative rho (up, down):  7.733E-02 0.000E+00

     total cpu time spent up to now is    14417.2 secs

     total energy              =  -11908.16338876 Ry
     estimated scf accuracy    <       0.00001355 Ry

     iteration # 21     ecut=    45.00 Ry     beta= 0.25
     Davidson diagonalization with overlap
     ethr =  7.17E-10,  avg # of iterations =  2.7

     negative rho (up, down):  7.733E-02 0.000E+00

     total cpu time spent up to now is    14488.8 secs

     total energy              =  -11908.16338904 Ry
     estimated scf accuracy    <       0.00000166 Ry

     iteration # 22     ecut=    45.00 Ry     beta= 0.25
     Davidson diagonalization with overlap
     ethr =  1.28E-10,  avg # of iterations =  5.2

     negative rho (up, down):  7.733E-02 0.000E+00

     total cpu time spent up to now is    14566.5 secs

     total energy              =  -11908.16338911 Ry
     estimated scf accuracy    <       0.00000437 Ry

     iteration # 23     ecut=    45.00 Ry     beta= 0.25
     Davidson diagonalization with overlap
     ethr =  1.28E-10,  avg # of iterations =  5.0

     negative rho (up, down):  7.733E-02 0.000E+00

     total cpu time spent up to now is    14643.2 secs

     total energy              =  -11908.16338917 Ry
     estimated scf accuracy    <       0.00000723 Ry

     iteration # 24     ecut=    45.00 Ry     beta= 0.25
     Davidson diagonalization with overlap
     ethr =  1.28E-10,  avg # of iterations =  2.5

     negative rho (up, down):  7.733E-02 0.000E+00

     total cpu time spent up to now is    14716.0 secs

     total energy              =  -11908.16338926 Ry
     estimated scf accuracy    <       0.00000223 Ry

     iteration # 25     ecut=    45.00 Ry     beta= 0.25
     Davidson diagonalization with overlap
     ethr =  1.28E-10,  avg # of iterations =  1.2

     negative rho (up, down):  7.733E-02 0.000E+00

     total cpu time spent up to now is    14781.2 secs

     End of self-consistent calculation

          k = 0.0000 0.0000 0.0000 (135157 PWs)   bands (ev):

   -61.9182 -61.8989 -61.8989 -61.8989 -61.8989 -61.8873 -61.8873 -61.8873
   -61.8873 -61.8695 -61.8695 -61.8695 -61.8694 -61.8639 -61.8639 -61.8639
   -61.8639 -61.8493 -61.8472 -61.8400 -61.8352 -61.8352 -61.8352 -61.8351
   -61.8319 -61.8318 -61.8318 -61.8318 -61.8221 -61.8221 -61.8220 -61.8220
   -61.8217 -61.8217 -61.8217 -61.8217 -61.8146 -61.8146 -61.8146 -61.8146
   -61.8082 -61.8082 -61.8082 -61.8082 -61.8023 -61.7881 -61.7881 -61.7880
   -61.7880 -61.7835 -61.7835 -61.7835 -61.7835 -61.7686 -61.7345 -61.7309
   -61.7309 -61.7309 -61.7309 -61.7300 -61.7300 -61.7300 -61.7300 -61.7247
   -61.7247 -61.7247 -61.7247 -61.7159 -61.7159 -61.7159 -61.7159 -61.7042
   -36.0097 -36.0097 -36.0097 -36.0097 -35.9804 -35.9804 -35.9804 -35.9804
   -35.9798 -35.9798 -35.9672 -35.9672 -35.9672 -35.9672 -35.9477 -35.9477
   -35.9477 -35.9477 -35.9223 -35.9223 -35.9223 -35.9223 -35.9193 -35.9193
   -35.9193 -35.9193 -35.9138 -35.9138 -35.9138 -35.9138 -35.9054 -35.9054
   -35.8999 -35.8999 -35.8999 -35.8999 -35.8872 -35.8872 -35.8872 -35.8872
   -35.8772 -35.8715 -35.8715 -35.8715 -35.8715 -35.8613 -35.8613 -35.8613
   -35.8613 -35.8449 -35.8449 -35.8449 -35.8449 -35.8420 -35.8419 -35.8419
   -35.8419 -35.8237 -35.8237 -35.8237 -35.8237 -35.8230 -35.8230 -35.8230
   -35.8230 -35.8000 -35.8000 -35.7822 -35.7822 -35.7822 -35.7822 -35.7807
   -35.7807 -35.7806 -35.7806 -35.7714 -35.7492 -35.7492 -35.7492 -35.7492
   -35.7485 -35.7485 -35.7485 -35.7485 -35.7167 -35.7167 -35.7136 -35.7136
   -35.7136 -35.7136 -35.7121 -35.7121 -35.7121 -35.7121 -35.7113 -35.7063
   -35.7063 -35.7063 -35.7063 -35.7027 -35.7027 -35.7027 -35.7027 -35.6894
   -35.6894 -35.6861 -35.6861 -35.6861 -35.6861 -35.6709 -35.6709 -35.6709
   -35.6709 -35.6663 -35.6663 -35.6663 -35.6663 -35.6526 -35.6526 -35.6526
   -35.6526 -35.6486 -35.6486 -35.6478 -35.6478 -35.6477 -35.6477 -35.6472
   -35.6472 -35.6472 -35.6472 -35.6435 -35.6435 -35.6435 -35.6435 -35.6402
   -35.6344 -35.6298 -35.6298 -35.6298 -35.6298 -35.6205 -35.6205 -35.6205
   -35.6204 -35.6170 -35.6170 -35.6170 -35.6170 -35.6167 -35.6125 -35.6125
   -35.6125 -35.6125 -35.5997 -35.5996 -35.5996 -35.5996 -35.5960 -35.5960
   -35.5943 -35.5943 -35.5943 -35.5943 -35.5900 -35.5900 -35.5900 -35.5900
   -35.5826 -35.5826 -35.5826 -35.5826 -35.5805 -35.5805 -35.5805 -35.5805
   -35.5538 -35.5537 -35.5537 -35.5537 -35.5515 -35.5515 -35.5515 -35.5515
   -35.5466 -35.5466 -35.5466 -35.5465 -35.5354 -35.5354 -35.5354 -35.5354
   -35.5158 -35.5158 -35.5158 -35.5157 -35.5114 -35.5053 -35.5053 -35.4687
   -35.4687 -35.4687 -35.4686 -35.4674 -35.4674 -35.4674 -35.4674 -35.4420
   -35.4420 -35.4419 -35.4419 -35.4408 -35.4269 -35.4269 -35.4269 -35.4269
   -14.2565 -13.5986 -13.5986 -13.5986 -13.5985 -13.4289 -12.9969 -12.9969
   -12.9969 -12.9969 -12.8660 -12.8660 -12.8660 -12.8660 -12.7894 -12.7556
   -12.7556 -12.7556 -12.7556 -12.6008 -12.5831 -12.4233 -12.4232 -12.4232
   -12.4232 -12.4223 -12.4222 -12.4222 -12.4222 -12.3935 -12.3935 -12.3935
   -12.3935 -12.3759 -12.2368 -12.2368 -12.2368 -12.2368 -12.1088 -12.1087
   -12.1087 -12.1087 -11.8704 -11.8700 -11.8700 -11.8700 -11.8700 -11.7276
   -11.7276 -11.7276 -11.7276 -11.7009 -11.7009 -11.7009 -11.7009 -11.4973
   -11.4871 -11.4871 -11.4871 -11.4871 -11.4239 -11.4238 -11.4238 -11.4238
   -11.3846 -11.3846 -11.3845 -11.3845 -11.1542 -11.1541 -11.1541 -11.1540
    -4.7038  -4.7038  -4.7037  -4.7037  -4.5174  -4.5174  -4.5174  -4.5174
    -4.3899  -4.3898  -4.3898  -4.3898  -4.2826  -4.2826  -4.2826  -4.2826
    -3.9359  -3.9359  -3.9359  -3.9359  -3.7907  -3.7907  -3.7907  -3.7907
    -3.6602  -3.6602  -3.6602  -3.6602  -3.6501  -3.6501  -3.6501  -3.6501
    -3.5453  -3.4829  -3.4829  -3.4829  -3.4829  -3.2769  -3.2768  -3.2768
    -3.2768  -3.1324  -3.1324  -3.1201  -3.1200  -3.1200  -3.1200  -3.1051
    -3.1051  -3.1051  -3.1051  -3.0939  -3.0939  -3.0939  -3.0939  -2.9862
    -2.9862  -2.9862  -2.9862  -2.6896  -2.6896  -2.6896  -2.6896  -2.5964
    -2.5964  -2.5249  -2.4873  -2.4872  -2.4872  -2.4872  -2.4614  -2.4614
    -2.4614  -2.4614  -2.4569  -2.4569  -2.4569  -2.4569  -2.4522  -2.4522
    -2.4522  -2.4522  -2.3610  -2.3610  -2.3610  -2.3610  -2.3380  -2.3380
    -2.3380  -2.3380  -2.2373  -2.2373  -2.2373  -2.2373  -2.1724  -2.1724
    -2.1724  -2.1724  -2.1600  -2.1600  -2.1600  -2.1600  -2.1554  -2.1554
    -2.1554  -2.1554  -2.1481  -2.1481  -2.1481  -2.1481  -1.9939  -1.9939
    -1.9938  -1.9938  -1.9790  -1.9790  -1.9790  -1.9790  -1.9451  -1.8758
    -1.8758  -1.8758  -1.8758  -1.8419  -1.8419  -1.8419  -1.8419  -1.7416
    -1.7416  -1.7416  -1.7416  -1.7109  -1.7109  -1.7109  -1.7109  -1.6706
    -1.6706  -1.6706  -1.6706  -1.6394  -1.6078  -1.6078  -1.6078  -1.6078
    -1.5561  -1.5561  -1.4393  -1.4393  -1.4393  -1.4392  -1.4301  -1.4301
    -1.4301  -1.4301  -1.4100  -1.4100  -1.4100  -1.4100  -1.3877  -1.3129
    -1.3128  -1.3126  -1.3126  -1.2269  -1.2268  -1.2268  -1.2267  -1.2116
    -1.2116  -1.2116  -1.2116  -1.1534  -1.1533  -1.1533  -1.1533  -0.9284
    -0.9284  -0.9241  -0.9241  -0.9240  -0.9240  -0.8790  -0.8789  -0.8789
    -0.8788  -0.8655  -0.8655  -0.8654  -0.8654  -0.7402  -0.7402  -0.7401
    -0.7401  -0.6729  -0.6729  -0.6729  -0.6729  -0.4834  -0.3544  -0.3544
    -0.3344  -0.3344  -0.3343  -0.3343  -0.2911  -0.2911  -0.2910  -0.2910
    -0.2356  -0.0136  -0.0136   0.0726   0.3162   0.4177   0.5159   0.5159
     0.8706   0.8706   0.8706   0.8706   0.8812   0.8812   1.1595   1.1595
     1.2769   1.7947   1.8045   1.8045   1.8045   1.8045   2.3554   2.3554
     2.4671   2.4671   2.4671   2.4671   2.5190   2.5190   2.5190   2.5190
     2.5272   2.5272   2.5272   2.5272   2.5482   2.5482   2.5981   2.5981
     2.5982   2.5982   2.6502   2.6502   2.6503   2.6503   2.6749   2.6749
     2.6749   2.6749   2.8888   3.0353   3.0353   3.0353   3.0353   3.0504
     3.0505   3.0505   3.0505   3.1196   3.1646   3.1646   3.1648   3.1648
     3.1930   3.1930   3.1930   3.1930   3.2328   3.2328   3.2328   3.2329
     3.3145   3.3145   3.3146   3.3146   3.3621   3.3709   3.3709   3.3709
     3.3709   3.3727   3.3727   3.3727   3.3727   3.3902   3.3903   3.3903
     3.3903   3.4100   3.4100   3.4100   3.4100   3.4512   3.4512   3.4512
     3.4512   3.4931   3.4932   3.4932   3.4932   3.6824   3.6825   3.6825
     3.6825   3.7196   3.7196   3.7987   3.8283   3.8283   3.8284   3.8284
     3.8557   3.8559   3.8559   3.8560   3.9421   3.9421   3.9421   3.9421
     3.9625   3.9625   3.9625   3.9625   4.0147   4.0147   4.0147   4.0147
     4.0408   4.0458   4.0458   4.0458   4.0458   4.1184   4.1184   4.1597
     4.1597   4.1597   4.1597   4.1893   4.1970   4.1970   4.1971   4.1971
     4.1996   4.1996   4.1996   4.1996   4.3282   4.3282   4.3282   4.3283
     4.3470   4.3470   4.3470   4.3470   4.3582   4.3582   4.3582   4.3583
     4.3899   4.3900   4.3900   4.3900   4.3983   4.4619   4.4619   4.4620
     4.4620   4.4706   4.4706   4.4706   4.4706   4.5004   4.5004   4.5005
     4.5005   4.5529   4.5529   4.5529   4.5529   4.5560   4.5560   4.5561
     4.5561   4.5908   4.5908   4.5908   4.5908   4.6427   4.6427   4.6655
     4.6655   4.6656   4.6656   4.7310   4.7330   4.7330   4.7330   4.7330
     4.7907   4.7971   4.7971   4.7971   4.7972   4.8084   4.8419   4.8619
     4.8623   4.8649

          k = 0.0000 0.2500 0.0000 (135097 PWs)   bands (ev):

   -61.9169 -61.9068 -61.8980 -61.8980 -61.8919 -61.8919 -61.8899 -61.8823
   -61.8823 -61.8730 -61.8730 -61.8718 -61.8669 -61.8669 -61.8642 -61.8642
   -61.8576 -61.8502 -61.8461 -61.8394 -61.8390 -61.8349 -61.8349 -61.8333
   -61.8332 -61.8304 -61.8300 -61.8300 -61.8300 -61.8250 -61.8250 -61.8207
   -61.8207 -61.8199 -61.8192 -61.8192 -61.8152 -61.8151 -61.8136 -61.8136
   -61.8119 -61.8097 -61.8032 -61.8022 -61.8022 -61.7919 -61.7916 -61.7916
   -61.7857 -61.7857 -61.7837 -61.7837 -61.7769 -61.7695 -61.7342 -61.7320
   -61.7307 -61.7307 -61.7306 -61.7306 -61.7301 -61.7301 -61.7275 -61.7275
   -61.7274 -61.7215 -61.7215 -61.7202 -61.7166 -61.7166 -61.7115 -61.7051
   -36.0149 -36.0149 -35.9945 -35.9945 -35.9929 -35.9929 -35.9894 -35.9894
   -35.9755 -35.9753 -35.9725 -35.9725 -35.9607 -35.9607 -35.9432 -35.9430
   -35.9430 -35.9412 -35.9345 -35.9345 -35.9225 -35.9225 -35.9150 -35.9150
   -35.9149 -35.9149 -35.9072 -35.9071 -35.9047 -35.9011 -35.8998 -35.8997
   -35.8967 -35.8965 -35.8965 -35.8964 -35.8962 -35.8962 -35.8914 -35.8914
   -35.8820 -35.8752 -35.8719 -35.8705 -35.8705 -35.8705 -35.8705 -35.8683
   -35.8672 -35.8638 -35.8606 -35.8606 -35.8453 -35.8453 -35.8441 -35.8441
   -35.8335 -35.8231 -35.8191 -35.8160 -35.8160 -35.8139 -35.8112 -35.8097
   -35.8045 -35.8034 -35.7998 -35.7998 -35.7974 -35.7973 -35.7965 -35.7781
   -35.7703 -35.7687 -35.7687 -35.7551 -35.7523 -35.7480 -35.7456 -35.7456
   -35.7447 -35.7405 -35.7398 -35.7398 -35.7274 -35.7274 -35.7246 -35.7224
   -35.7224 -35.7222 -35.7212 -35.7171 -35.7140 -35.7068 -35.7068 -35.6985
   -35.6985 -35.6923 -35.6918 -35.6918 -35.6901 -35.6901 -35.6879 -35.6867
   -35.6863 -35.6861 -35.6856 -35.6839 -35.6839 -35.6823 -35.6823 -35.6806
   -35.6806 -35.6734 -35.6734 -35.6723 -35.6723 -35.6720 -35.6719 -35.6640
   -35.6640 -35.6625 -35.6610 -35.6583 -35.6583 -35.6532 -35.6532 -35.6530
   -35.6401 -35.6401 -35.6390 -35.6337 -35.6306 -35.6306 -35.6298 -35.6298
   -35.6277 -35.6272 -35.6272 -35.6260 -35.6256 -35.6213 -35.6176 -35.6176
   -35.6157 -35.6157 -35.6137 -35.6137 -35.6115 -35.6115 -35.6106 -35.6106
   -35.6075 -35.6075 -35.6075 -35.6070 -35.6031 -35.6031 -35.6017 -35.6008
   -35.6001 -35.6001 -35.5995 -35.5967 -35.5937 -35.5893 -35.5893 -35.5884
   -35.5884 -35.5822 -35.5822 -35.5770 -35.5770 -35.5737 -35.5691 -35.5691
   -35.5680 -35.5556 -35.5555 -35.5520 -35.5520 -35.5514 -35.5514 -35.5493
   -35.5493 -35.5442 -35.5435 -35.5434 -35.5324 -35.5322 -35.5321 -35.5279
   -35.5247 -35.5247 -35.5158 -35.5158 -35.5094 -35.5085 -35.5085 -35.4855
   -35.4701 -35.4701 -35.4691 -35.4691 -35.4616 -35.4615 -35.4523 -35.4478
   -35.4478 -35.4382 -35.4365 -35.4365 -35.4304 -35.4282 -35.4282 -35.4281
   -14.2093 -13.8606 -13.5546 -13.5546 -13.3867 -13.3202 -13.2331 -13.2331
   -13.0823 -12.8697 -12.8284 -12.8284 -12.7739 -12.7553 -12.7553 -12.7239
   -12.7239 -12.7206 -12.6564 -12.5846 -12.5660 -12.5660 -12.5463 -12.5180
   -12.5179 -12.4767 -12.4287 -12.4287 -12.4196 -12.4040 -12.4040 -12.3381
   -12.2928 -12.2928 -12.2866 -12.2491 -12.2490 -12.1839 -12.1839 -12.0760
   -12.0760 -12.0655 -11.9408 -11.8538 -11.8496 -11.8496 -11.8354 -11.8353
   -11.7595 -11.7405 -11.7049 -11.7049 -11.6755 -11.5907 -11.5906 -11.5685
   -11.5685 -11.5610 -11.5610 -11.4824 -11.4530 -11.4530 -11.4174 -11.4025
   -11.3622 -11.3620 -11.2711 -11.2710 -11.2226 -11.2225 -11.1278 -11.1277
    -4.8598  -4.8598  -4.6878  -4.6878  -4.6604  -4.6604  -4.5357  -4.5357
    -4.4422  -4.4422  -4.2748  -4.2748  -4.0642  -4.0642  -4.0068  -3.9939
    -3.9939  -3.9365  -3.9365  -3.8977  -3.8977  -3.7653  -3.7547  -3.7547
    -3.7422  -3.7321  -3.6916  -3.6916  -3.6156  -3.6156  -3.6010  -3.6009
    -3.5936  -3.5914  -3.5913  -3.5502  -3.4300  -3.4134  -3.3825  -3.3825
    -3.2988  -3.2988  -3.2638  -3.2269  -3.2208  -3.2208  -3.2086  -3.2085
    -3.1259  -3.0607  -3.0024  -3.0024  -2.9266  -2.9116  -2.9115  -2.8917
    -2.8917  -2.8701  -2.8058  -2.7961  -2.7453  -2.7148  -2.7148  -2.6185
    -2.6185  -2.6093  -2.6093  -2.5897  -2.5493  -2.5328  -2.5327  -2.5257
    -2.5257  -2.5247  -2.5200  -2.5200  -2.4714  -2.4660  -2.4660  -2.4455
    -2.4309  -2.4309  -2.3880  -2.3880  -2.3402  -2.3355  -2.3355  -2.3138
    -2.3138  -2.2740  -2.2685  -2.2684  -2.2635  -2.2635  -2.2525  -2.2525
    -2.2475  -2.2475  -2.2002  -2.2002  -2.1304  -2.1304  -2.1148  -2.0907
    -2.0551  -2.0420  -2.0420  -2.0185  -2.0184  -2.0005  -2.0005  -1.9916
    -1.9573  -1.9476  -1.9476  -1.9357  -1.9317  -1.9317  -1.9059  -1.8917
    -1.8917  -1.8910  -1.8910  -1.8578  -1.8578  -1.8147  -1.8027  -1.8007
    -1.7995  -1.7995  -1.7209  -1.7062  -1.7062  -1.7005  -1.7005  -1.6448
    -1.6447  -1.6418  -1.6418  -1.6328  -1.5630  -1.5511  -1.5317  -1.5317
    -1.5260  -1.5260  -1.4998  -1.4659  -1.4659  -1.4440  -1.4370  -1.4370
    -1.4162  -1.4044  -1.4043  -1.3423  -1.3337  -1.3337  -1.3146  -1.2978
    -1.2978  -1.2527  -1.2526  -1.2217  -1.2188  -1.2187  -1.1828  -1.1689
    -1.1688  -1.0780  -1.0769  -1.0769  -1.0755  -1.0701  -1.0642  -1.0641
    -1.0176  -1.0175  -0.9998  -0.9409  -0.9409  -0.9266  -0.9065  -0.9065
    -0.9023  -0.8473  -0.7969  -0.7835  -0.7835  -0.7449  -0.7448  -0.7285
    -0.7208  -0.7207  -0.7005  -0.6358  -0.6026  -0.5390  -0.5212  -0.5177
    -0.5083  -0.4207  -0.4128  -0.4103  -0.4102  -0.4056  -0.4056  -0.2300
    -0.1343  -0.1117  -0.0064   0.1340   0.2670   0.5364   0.5615   0.5838
     0.7060   0.7110   0.8226   0.8833   1.0461   1.0461   1.0746   1.1304
     1.5647   1.6359   1.8313   1.9098   1.9098   1.9939   1.9939   2.0002
     2.0169   2.0358   2.1997   2.3634   2.4117   2.4412   2.4701   2.4701
     2.5229   2.5229   2.5358   2.5359   2.5376   2.5390   2.5971   2.5971
     2.6188   2.6469   2.6470   2.6830   2.6831   2.6849   2.6850   2.7721
     2.7730   2.8617   2.8618   2.9141   2.9142   2.9270   2.9721   2.9785
     3.0509   3.0509   3.0704   3.0739   3.0739   3.0802   3.0844   3.0844
     3.0850   3.0850   3.1126   3.1577   3.1577   3.1668   3.2165   3.2166
     3.2544   3.2624   3.2624   3.2662   3.2663   3.3054   3.3462   3.3462
     3.3633   3.3633   3.4499   3.4499   3.4746   3.4746   3.4996   3.4997
     3.5116   3.5117   3.5216   3.5216   3.5396   3.5794   3.6271   3.6272
     3.6355   3.6406   3.6407   3.6621   3.6706   3.6990   3.6990   3.6996
     3.7033   3.7677   3.7677   3.7828   3.7828   3.7886   3.8005   3.8005
     3.8209   3.9022   3.9022   3.9217   3.9226   3.9702   3.9702   4.0193
     4.0541   4.0616   4.0616   4.0809   4.0812   4.0812   4.0957   4.0957
     4.0975   4.1066   4.1066   4.1081   4.1352   4.1470   4.1470   4.1474
     4.1517   4.1518   4.1529   4.1529   4.1657   4.1964   4.1964   4.2405
     4.2431   4.2468   4.2468   4.2478   4.2488   4.2488   4.2533   4.2533
     4.2666   4.2666   4.2785   4.2786   4.2820   4.3266   4.3266   4.3480
     4.3480   4.3596   4.3597   4.3908   4.3909   4.3940   4.4232   4.4306
     4.4346   4.4361   4.4361   4.4386   4.4386   4.4715   4.4716   4.5092
     4.5288   4.5289   4.5465   4.5465   4.5729   4.5888   4.6032   4.6062
     4.6146   4.6203   4.6373   4.6648   4.6663   4.6736   4.6736   4.6881
     4.6881   4.7164   4.7164   4.7242   4.7242   4.7319   4.7398   4.7398
     4.7462   4.7463   4.7556   4.7890   4.7986   4.7990   4.8108   4.8108
     4.8180   4.8296

          k = 0.0000-0.5000 0.0000 (135178 PWs)   bands (ev):

   -61.9129 -61.9129 -61.8956 -61.8956 -61.8956 -61.8956 -61.8806 -61.8806
   -61.8774 -61.8773 -61.8773 -61.8773 -61.8652 -61.8652 -61.8652 -61.8652
   -61.8530 -61.8530 -61.8432 -61.8432 -61.8358 -61.8358 -61.8343 -61.8343
   -61.8343 -61.8343 -61.8277 -61.8277 -61.8277 -61.8277 -61.8253 -61.8253
   -61.8180 -61.8180 -61.8180 -61.8180 -61.8168 -61.8168 -61.8168 -61.8168
   -61.8058 -61.8058 -61.8017 -61.8017 -61.7965 -61.7965 -61.7965 -61.7965
   -61.7844 -61.7844 -61.7843 -61.7843 -61.7722 -61.7722 -61.7334 -61.7334
   -61.7304 -61.7304 -61.7304 -61.7304 -61.7296 -61.7295 -61.7295 -61.7295
   -61.7241 -61.7241 -61.7187 -61.7186 -61.7186 -61.7186 -61.7077 -61.7077
   -36.0092 -36.0092 -36.0092 -36.0092 -35.9868 -35.9868 -35.9867 -35.9867
   -35.9711 -35.9711 -35.9711 -35.9711 -35.9629 -35.9629 -35.9621 -35.9621
   -35.9329 -35.9329 -35.9329 -35.9329 -35.9138 -35.9138 -35.9138 -35.9138
   -35.9042 -35.9042 -35.9042 -35.9042 -35.9021 -35.9021 -35.8987 -35.8987
   -35.8987 -35.8987 -35.8896 -35.8896 -35.8896 -35.8896 -35.8884 -35.8884
   -35.8794 -35.8794 -35.8794 -35.8794 -35.8793 -35.8793 -35.8774 -35.8773
   -35.8773 -35.8773 -35.8700 -35.8700 -35.8511 -35.8511 -35.8479 -35.8479
   -35.8198 -35.8197 -35.8197 -35.8197 -35.8173 -35.8173 -35.8112 -35.8112
   -35.7931 -35.7931 -35.7864 -35.7864 -35.7859 -35.7859 -35.7859 -35.7859
   -35.7780 -35.7780 -35.7705 -35.7705 -35.7705 -35.7705 -35.7386 -35.7386
   -35.7343 -35.7343 -35.7277 -35.7277 -35.7267 -35.7267 -35.7156 -35.7156
   -35.7156 -35.7156 -35.7054 -35.7054 -35.7054 -35.7054 -35.6983 -35.6983
   -35.6972 -35.6972 -35.6972 -35.6972 -35.6968 -35.6968 -35.6968 -35.6968
   -35.6894 -35.6894 -35.6889 -35.6889 -35.6889 -35.6889 -35.6847 -35.6847
   -35.6771 -35.6771 -35.6764 -35.6764 -35.6764 -35.6764 -35.6754 -35.6754
   -35.6701 -35.6701 -35.6701 -35.6701 -35.6661 -35.6661 -35.6354 -35.6354
   -35.6345 -35.6345 -35.6345 -35.6345 -35.6330 -35.6330 -35.6330 -35.6330
   -35.6193 -35.6193 -35.6193 -35.6193 -35.6178 -35.6178 -35.6178 -35.6178
   -35.6162 -35.6162 -35.6097 -35.6097 -35.6091 -35.6091 -35.6084 -35.6084
   -35.6084 -35.6084 -35.6048 -35.6048 -35.6048 -35.6048 -35.6023 -35.6023
   -35.5988 -35.5988 -35.5988 -35.5988 -35.5975 -35.5975 -35.5973 -35.5973
   -35.5882 -35.5882 -35.5882 -35.5882 -35.5674 -35.5674 -35.5674 -35.5674
   -35.5554 -35.5554 -35.5493 -35.5493 -35.5493 -35.5493 -35.5485 -35.5485
   -35.5485 -35.5484 -35.5412 -35.5412 -35.5411 -35.5411 -35.5231 -35.5231
   -35.5231 -35.5231 -35.5188 -35.5188 -35.5177 -35.5177 -35.4996 -35.4995
   -35.4701 -35.4701 -35.4701 -35.4701 -35.4545 -35.4544 -35.4544 -35.4544
   -35.4391 -35.4391 -35.4327 -35.4327 -35.4316 -35.4316 -35.4316 -35.4316
   -14.0724 -14.0724 -13.4277 -13.4277 -13.4277 -13.4277 -13.2654 -13.2654
   -13.0650 -13.0650 -12.7396 -12.7396 -12.7220 -12.7220 -12.7220 -12.7220
   -12.6364 -12.6364 -12.6363 -12.6363 -12.5516 -12.5516 -12.5516 -12.5516
   -12.5394 -12.5394 -12.4973 -12.4973 -12.4416 -12.4416 -12.3539 -12.3539
   -12.3539 -12.3539 -12.2297 -12.2297 -12.1750 -12.1750 -12.1750 -12.1750
   -11.9837 -11.9837 -11.9837 -11.9837 -11.8122 -11.8122 -11.8105 -11.8105
   -11.7368 -11.7368 -11.7367 -11.7367 -11.6431 -11.6431 -11.6431 -11.6431
   -11.5163 -11.5163 -11.4800 -11.4800 -11.4800 -11.4800 -11.4443 -11.4443
   -11.3017 -11.3017 -11.3015 -11.3015 -11.1659 -11.1659 -11.1658 -11.1658
    -4.8570  -4.8570  -4.8570  -4.8570  -4.6689  -4.6689  -4.6689  -4.6689
    -4.1723  -4.1723  -4.1723  -4.1723  -3.9931  -3.9931  -3.9931  -3.9931
    -3.9266  -3.9266  -3.8431  -3.8431  -3.8431  -3.8431  -3.8254  -3.8254
    -3.8254  -3.8254  -3.6544  -3.6544  -3.5651  -3.5651  -3.5642  -3.5642
    -3.5642  -3.5642  -3.5422  -3.5422  -3.5422  -3.5422  -3.4620  -3.4620
    -3.3986  -3.3986  -3.3986  -3.3986  -3.2160  -3.2160  -3.1127  -3.1127
    -3.1127  -3.1127  -3.1041  -3.1041  -3.0715  -3.0715  -2.7016  -2.7016
    -2.6930  -2.6930  -2.6930  -2.6930  -2.6779  -2.6779  -2.6779  -2.6779
    -2.6291  -2.6291  -2.5806  -2.5806  -2.5805  -2.5805  -2.5677  -2.5677
    -2.5649  -2.5649  -2.5649  -2.5649  -2.5256  -2.5256  -2.5255  -2.5255
    -2.4609  -2.4609  -2.4401  -2.4401  -2.4401  -2.4401  -2.4380  -2.4380
    -2.3147  -2.3147  -2.3147  -2.3147  -2.2910  -2.2910  -2.2910  -2.2910
    -2.1783  -2.1782  -2.1027  -2.1027  -2.0844  -2.0844  -2.0844  -2.0844
    -2.0615  -2.0615  -2.0615  -2.0615  -2.0494  -2.0494  -1.9669  -1.9669
    -1.9669  -1.9669  -1.9643  -1.9643  -1.9643  -1.9643  -1.9059  -1.9059
    -1.9059  -1.9059  -1.7694  -1.7694  -1.7694  -1.7694  -1.7567  -1.7567
    -1.6262  -1.6262  -1.6262  -1.6262  -1.6194  -1.6193  -1.6193  -1.6193
    -1.5543  -1.5543  -1.5543  -1.5543  -1.5477  -1.5477  -1.5451  -1.5451
    -1.5451  -1.5451  -1.5342  -1.5342  -1.5021  -1.5021  -1.3952  -1.3952
    -1.3798  -1.3798  -1.3798  -1.3798  -1.3565  -1.3564  -1.2384  -1.2384
    -1.2384  -1.2384  -1.1987  -1.1987  -1.1698  -1.1698  -1.1182  -1.1182
    -1.1182  -1.1182  -1.0571  -1.0571  -1.0439  -1.0439  -1.0439  -1.0439
    -1.0099  -1.0099  -1.0099  -1.0099  -0.9197  -0.9197  -0.8984  -0.8984
    -0.8984  -0.8984  -0.8908  -0.8908  -0.8167  -0.8167  -0.6844  -0.6844
    -0.6681  -0.6681  -0.6681  -0.6680  -0.6478  -0.6478  -0.6078  -0.6078
    -0.5594  -0.5594  -0.5594  -0.5593  -0.4646  -0.4646  -0.1172  -0.1172
    -0.0625  -0.0625   0.1053   0.1053   0.1283   0.1283   0.3155   0.3155
     0.6001   0.6001   1.2111   1.2112   1.3119   1.3119   1.4102   1.4102
     1.4692   1.4692   1.4693   1.4693   1.5480   1.5480   2.0716   2.0716
     2.1963   2.1964   2.1964   2.1964   2.3597   2.3598   2.3903   2.3903
     2.4662   2.4662   2.4662   2.4662   2.6190   2.6190   2.6190   2.6191
     2.6204   2.6204   2.6684   2.6684   2.6937   2.6937   2.7222   2.7222
     2.7778   2.7778   2.7779   2.7779   2.8151   2.8151   2.8151   2.8152
     2.8392   2.8392   2.8392   2.8392   2.9886   2.9886   3.0970   3.0970
     3.0970   3.0970   3.2039   3.2039   3.2039   3.2039   3.3144   3.3144
     3.3145   3.3145   3.3422   3.3422   3.3423   3.3423   3.3473   3.3473
     3.3647   3.3647   3.3647   3.3647   3.4327   3.4327   3.5028   3.5029
     3.5029   3.5029   3.6501   3.6502   3.6662   3.6662   3.6888   3.6888
     3.6888   3.6888   3.8248   3.8249   3.8249   3.8249   3.8496   3.8496
     3.8496   3.8496   3.8562   3.8562   3.8993   3.8993   3.9280   3.9280
     3.9479   3.9480   3.9480   3.9480   3.9652   3.9652   4.0231   4.0231
     4.0231   4.0231   4.0478   4.0478   4.0509   4.0509   4.0514   4.0514
     4.0514   4.0514   4.0527   4.0527   4.0527   4.0527   4.0836   4.0836
     4.1571   4.1571   4.1572   4.1572   4.2110   4.2110   4.2110   4.2110
     4.2222   4.2222   4.2222   4.2222   4.2263   4.2263   4.2263   4.2263
     4.2993   4.2993   4.3089   4.3089   4.3332   4.3332   4.3332   4.3332
     4.4041   4.4041   4.4340   4.4340   4.4502   4.4502   4.4503   4.4503
     4.4654   4.4654   4.4654   4.4655   4.4834   4.4834   4.4835   4.4835
     4.5129   4.5129   4.5187   4.5187   4.6193   4.6194   4.6194   4.6194
     4.6223   4.6224   4.6276   4.6276   4.6276   4.6276   4.6763   4.6763
     4.6782   4.6782   4.6848   4.6848   4.7497   4.7498   4.7560   4.7561
     4.7627   4.7627   4.7628   4.7629   4.7686   4.7687   4.7691   4.7696
     4.7792   4.7793

          k = 0.2500 0.2500 0.0000 (135083 PWs)   bands (ev):

   -61.9155 -61.9057 -61.9057 -61.8979 -61.8893 -61.8893 -61.8852 -61.8852
   -61.8792 -61.8744 -61.8722 -61.8722 -61.8718 -61.8718 -61.8627 -61.8581
   -61.8581 -61.8511 -61.8451 -61.8390 -61.8390 -61.8380 -61.8357 -61.8304
   -61.8304 -61.8303 -61.8303 -61.8294 -61.8289 -61.8289 -61.8268 -61.8231
   -61.8231 -61.8204 -61.8203 -61.8203 -61.8155 -61.8112 -61.8112 -61.8105
   -61.8104 -61.8060 -61.8060 -61.8041 -61.7984 -61.7928 -61.7918 -61.7918
   -61.7914 -61.7914 -61.7816 -61.7773 -61.7773 -61.7703 -61.7340 -61.7319
   -61.7319 -61.7314 -61.7312 -61.7297 -61.7295 -61.7295 -61.7276 -61.7276
   -61.7249 -61.7249 -61.7208 -61.7208 -61.7179 -61.7123 -61.7123 -61.7060
   -36.0270 -36.0156 -36.0038 -35.9951 -35.9921 -35.9921 -35.9884 -35.9761
   -35.9677 -35.9637 -35.9637 -35.9609 -35.9609 -35.9587 -35.9587 -35.9490
   -35.9400 -35.9400 -35.9319 -35.9319 -35.9309 -35.9246 -35.9246 -35.9180
   -35.9175 -35.9084 -35.9058 -35.9058 -35.9042 -35.9032 -35.9028 -35.9028
   -35.9004 -35.8928 -35.8927 -35.8921 -35.8921 -35.8858 -35.8852 -35.8852
   -35.8823 -35.8823 -35.8784 -35.8784 -35.8736 -35.8728 -35.8728 -35.8683
   -35.8683 -35.8664 -35.8663 -35.8625 -35.8625 -35.8425 -35.8425 -35.8400
   -35.8400 -35.8263 -35.8263 -35.8226 -35.8158 -35.8158 -35.8059 -35.8059
   -35.8041 -35.7978 -35.7978 -35.7926 -35.7873 -35.7873 -35.7864 -35.7858
   -35.7739 -35.7739 -35.7622 -35.7616 -35.7616 -35.7453 -35.7453 -35.7397
   -35.7397 -35.7381 -35.7381 -35.7302 -35.7302 -35.7295 -35.7200 -35.7200
   -35.7142 -35.7125 -35.7121 -35.7120 -35.7077 -35.7077 -35.7068 -35.7068
   -35.7064 -35.7055 -35.7055 -35.6957 -35.6898 -35.6891 -35.6873 -35.6873
   -35.6870 -35.6865 -35.6865 -35.6844 -35.6844 -35.6838 -35.6837 -35.6837
   -35.6818 -35.6792 -35.6764 -35.6743 -35.6743 -35.6682 -35.6653 -35.6653
   -35.6629 -35.6629 -35.6604 -35.6529 -35.6528 -35.6499 -35.6499 -35.6472
   -35.6471 -35.6455 -35.6455 -35.6441 -35.6388 -35.6388 -35.6378 -35.6296
   -35.6276 -35.6276 -35.6234 -35.6190 -35.6180 -35.6153 -35.6153 -35.6152
   -35.6152 -35.6147 -35.6140 -35.6140 -35.6133 -35.6122 -35.6099 -35.6099
   -35.6091 -35.6091 -35.6079 -35.6078 -35.6045 -35.6026 -35.6026 -35.6012
   -35.6012 -35.5987 -35.5986 -35.5979 -35.5947 -35.5885 -35.5885 -35.5868
   -35.5828 -35.5828 -35.5820 -35.5744 -35.5664 -35.5664 -35.5664 -35.5664
   -35.5656 -35.5638 -35.5553 -35.5522 -35.5522 -35.5520 -35.5520 -35.5502
   -35.5500 -35.5439 -35.5439 -35.5399 -35.5394 -35.5394 -35.5309 -35.5309
   -35.5269 -35.5192 -35.5192 -35.5185 -35.5093 -35.5059 -35.5055 -35.4851
   -35.4851 -35.4786 -35.4611 -35.4594 -35.4594 -35.4535 -35.4534 -35.4534
   -35.4416 -35.4416 -35.4364 -35.4331 -35.4319 -35.4319 -35.4288 -35.4288
   -14.1622 -13.8152 -13.8152 -13.4814 -13.3447 -13.2782 -13.2782 -13.0425
   -13.0425 -12.9740 -12.9739 -12.8337 -12.8337 -12.7598 -12.7569 -12.6941
   -12.6940 -12.6222 -12.6222 -12.5848 -12.5848 -12.5686 -12.5453 -12.5405
   -12.5097 -12.4604 -12.4603 -12.3954 -12.3954 -12.3901 -12.3901 -12.3588
   -12.3319 -12.3005 -12.2521 -12.2521 -12.2496 -12.2496 -12.1482 -12.1473
   -12.0293 -12.0293 -12.0111 -11.9103 -11.9103 -11.8367 -11.7712 -11.7393
   -11.7393 -11.7150 -11.7150 -11.7019 -11.7019 -11.6431 -11.6430 -11.6163
   -11.5483 -11.5483 -11.4669 -11.4553 -11.4180 -11.4180 -11.3917 -11.3914
   -11.3914 -11.3832 -11.3832 -11.2691 -11.2223 -11.2223 -11.1455 -11.0696
    -5.0502  -4.9578  -4.8337  -4.7694  -4.5734  -4.5734  -4.3902  -4.3902
    -4.3438  -4.3438  -4.2159  -4.2159  -4.1910  -4.0776  -4.0776  -4.0598
    -4.0569  -3.9084  -3.8388  -3.8388  -3.8337  -3.8322  -3.8322  -3.7762
    -3.7762  -3.7437  -3.6718  -3.6718  -3.6225  -3.6158  -3.6158  -3.5566
    -3.5546  -3.5545  -3.5495  -3.5288  -3.5288  -3.4414  -3.3680  -3.3680
    -3.3225  -3.3225  -3.2813  -3.2813  -3.2369  -3.2318  -3.1591  -3.1436
    -3.1436  -3.1057  -3.1057  -2.9611  -2.9611  -2.9455  -2.9455  -2.8918
    -2.8918  -2.8885  -2.8885  -2.7863  -2.7668  -2.6872  -2.6829  -2.6293
    -2.6293  -2.6281  -2.6184  -2.6051  -2.6051  -2.5793  -2.5733  -2.5695
    -2.5603  -2.5170  -2.5079  -2.5079  -2.4871  -2.4834  -2.4834  -2.4599
    -2.4598  -2.4570  -2.4570  -2.3706  -2.3595  -2.3595  -2.3549  -2.3549
    -2.3409  -2.2848  -2.2848  -2.2793  -2.2638  -2.2638  -2.1686  -2.1686
    -2.1478  -2.1478  -2.1215  -2.1175  -2.1174  -2.1160  -2.1160  -2.1100
    -2.1100  -2.0851  -2.0851  -2.0581  -2.0333  -2.0282  -2.0282  -1.9734
    -1.9734  -1.9633  -1.9517  -1.9517  -1.9486  -1.9486  -1.9004  -1.9004
    -1.8556  -1.8533  -1.8447  -1.8413  -1.8127  -1.8127  -1.7591  -1.7218
    -1.7218  -1.7116  -1.6733  -1.6733  -1.6516  -1.6373  -1.6175  -1.6175
    -1.6152  -1.6150  -1.6004  -1.5630  -1.5446  -1.5441  -1.5441  -1.5429
    -1.5429  -1.4640  -1.4639  -1.4639  -1.4245  -1.4245  -1.4090  -1.4090
    -1.3955  -1.3393  -1.3393  -1.3387  -1.3387  -1.2757  -1.2757  -1.2566
    -1.2566  -1.2529  -1.2529  -1.2504  -1.1646  -1.1507  -1.1444  -1.1229
    -1.1229  -1.1083  -1.1083  -1.1083  -1.0930  -1.0628  -1.0628  -1.0371
    -1.0341  -1.0274  -1.0274  -0.9962  -0.9962  -0.9379  -0.9379  -0.9270
    -0.8585  -0.8585  -0.8165  -0.8165  -0.7687  -0.7687  -0.7482  -0.7482
    -0.7366  -0.6896  -0.6311  -0.6203  -0.6203  -0.5936  -0.5936  -0.5639
    -0.5592  -0.5592  -0.5313  -0.4214  -0.4214  -0.3123  -0.2370  -0.2239
    -0.2239  -0.1341  -0.1341   0.0068   0.0841   0.3089   0.4798   0.7429
     0.8017   0.8054   0.9227   0.9227   0.9364   1.1611   1.2242   1.2242
     1.6797   1.6797   1.7898   1.8406   1.8759   1.8759   1.9778   1.9779
     2.0657   2.0718   2.0718   2.1142   2.1142   2.1616   2.2409   2.2409
     2.3866   2.3999   2.4305   2.4305   2.4395   2.4906   2.5022   2.5022
     2.5490   2.6014   2.6348   2.6348   2.7439   2.7440   2.7658   2.7710
     2.8201   2.8201   2.9089   2.9089   2.9160   2.9160   2.9576   2.9576
     2.9603   2.9718   2.9718   3.0218   3.0259   3.0305   3.0940   3.1425
     3.1425   3.1616   3.1616   3.2080   3.2080   3.2433   3.2549   3.2549
     3.2573   3.2856   3.3125   3.3125   3.3129   3.3129   3.3454   3.3759
     3.3759   3.4125   3.5026   3.5026   3.5094   3.5094   3.5172   3.5404
     3.5404   3.5417   3.5417   3.6038   3.6038   3.6218   3.6567   3.6567
     3.6676   3.6676   3.6740   3.6908   3.6908   3.7309   3.7459   3.7511
     3.7958   3.8016   3.8016   3.8511   3.8741   3.8741   3.8955   3.8955
     3.9070   3.9757   3.9778   3.9778   4.0001   4.0002   4.0018   4.0064
     4.0110   4.0190   4.0190   4.0574   4.0611   4.0612   4.0615   4.0615
     4.0942   4.0942   4.1186   4.1411   4.1411   4.1416   4.1416   4.1453
     4.1566   4.1707   4.1714   4.1714   4.1724   4.1724   4.2005   4.2033
     4.2086   4.2087   4.2200   4.2264   4.2264   4.2352   4.2352   4.2594
     4.2696   4.2792   4.2792   4.3025   4.3056   4.3056   4.3100   4.3275
     4.3275   4.3391   4.3451   4.3451   4.3958   4.3975   4.3975   4.4279
     4.4279   4.4542   4.4717   4.4717   4.5053   4.5297   4.5328   4.5514
     4.5514   4.5713   4.5919   4.5919   4.6051   4.6051   4.6303   4.6365
     4.6365   4.6425   4.6425   4.6570   4.6571   4.6627   4.6627   4.6670
     4.6671   4.6780   4.6780   4.6937   4.7160   4.7474   4.7579   4.7581
     4.7668   4.7722   4.7723   4.7756   4.7759   4.7851   4.7892   4.7893
     4.7932   4.7994

          k = 0.2500-0.5000 0.0000 (135080 PWs)   bands (ev):

   -61.9117 -61.9117 -61.9027 -61.9027 -61.8877 -61.8877 -61.8803 -61.8803
   -61.8785 -61.8785 -61.8765 -61.8765 -61.8719 -61.8719 -61.8599 -61.8598
   -61.8537 -61.8537 -61.8425 -61.8425 -61.8377 -61.8377 -61.8348 -61.8348
   -61.8304 -61.8304 -61.8284 -61.8283 -61.8269 -61.8268 -61.8257 -61.8256
   -61.8255 -61.8255 -61.8214 -61.8214 -61.8124 -61.8124 -61.8092 -61.8091
   -61.8066 -61.8066 -61.8012 -61.8012 -61.7983 -61.7983 -61.7951 -61.7951
   -61.7916 -61.7915 -61.7789 -61.7788 -61.7729 -61.7729 -61.7332 -61.7332
   -61.7318 -61.7318 -61.7310 -61.7310 -61.7284 -61.7284 -61.7276 -61.7276
   -61.7246 -61.7245 -61.7225 -61.7225 -61.7146 -61.7146 -61.7086 -61.7086
   -36.0273 -36.0273 -36.0058 -36.0058 -35.9807 -35.9807 -35.9755 -35.9755
   -35.9701 -35.9701 -35.9607 -35.9607 -35.9567 -35.9567 -35.9529 -35.9529
   -35.9342 -35.9342 -35.9294 -35.9294 -35.9292 -35.9292 -35.9229 -35.9229
   -35.9152 -35.9152 -35.9061 -35.9061 -35.9046 -35.9046 -35.9038 -35.9038
   -35.9013 -35.9013 -35.8921 -35.8921 -35.8900 -35.8900 -35.8882 -35.8882
   -35.8853 -35.8853 -35.8789 -35.8789 -35.8782 -35.8782 -35.8696 -35.8696
   -35.8654 -35.8654 -35.8604 -35.8604 -35.8564 -35.8564 -35.8419 -35.8419
   -35.8391 -35.8391 -35.8194 -35.8194 -35.8139 -35.8139 -35.8062 -35.8062
   -35.8051 -35.8051 -35.8003 -35.8003 -35.7848 -35.7848 -35.7799 -35.7799
   -35.7688 -35.7688 -35.7549 -35.7549 -35.7546 -35.7546 -35.7485 -35.7485
   -35.7369 -35.7369 -35.7277 -35.7277 -35.7217 -35.7217 -35.7213 -35.7213
   -35.7168 -35.7168 -35.7093 -35.7093 -35.7070 -35.7070 -35.7065 -35.7065
   -35.7055 -35.7055 -35.6974 -35.6974 -35.6959 -35.6959 -35.6932 -35.6932
   -35.6883 -35.6883 -35.6873 -35.6872 -35.6804 -35.6804 -35.6783 -35.6783
   -35.6775 -35.6775 -35.6770 -35.6770 -35.6744 -35.6744 -35.6734 -35.6734
   -35.6715 -35.6715 -35.6617 -35.6617 -35.6531 -35.6531 -35.6473 -35.6473
   -35.6471 -35.6471 -35.6344 -35.6344 -35.6327 -35.6327 -35.6285 -35.6285
   -35.6270 -35.6270 -35.6259 -35.6259 -35.6252 -35.6252 -35.6236 -35.6236
   -35.6227 -35.6227 -35.6119 -35.6119 -35.6094 -35.6094 -35.6061 -35.6061
   -35.6050 -35.6049 -35.6036 -35.6036 -35.6028 -35.6027 -35.6006 -35.6006
   -35.5987 -35.5987 -35.5977 -35.5977 -35.5937 -35.5937 -35.5892 -35.5892
   -35.5858 -35.5858 -35.5764 -35.5764 -35.5631 -35.5631 -35.5611 -35.5611
   -35.5552 -35.5552 -35.5552 -35.5552 -35.5540 -35.5540 -35.5517 -35.5517
   -35.5458 -35.5458 -35.5451 -35.5451 -35.5406 -35.5406 -35.5373 -35.5373
   -35.5300 -35.5300 -35.5111 -35.5111 -35.5092 -35.5092 -35.4980 -35.4980
   -35.4833 -35.4833 -35.4581 -35.4580 -35.4561 -35.4561 -35.4493 -35.4493
   -35.4404 -35.4404 -35.4359 -35.4359 -35.4323 -35.4323 -35.4306 -35.4306
   -14.0259 -14.0259 -13.6838 -13.6838 -13.2242 -13.2242 -13.1574 -13.1574
   -13.0256 -13.0256 -12.9290 -12.9290 -12.7450 -12.7450 -12.7321 -12.7321
   -12.7187 -12.7186 -12.6243 -12.6243 -12.5263 -12.5263 -12.5237 -12.5237
   -12.4676 -12.4676 -12.4172 -12.4172 -12.4058 -12.4058 -12.3786 -12.3786
   -12.3309 -12.3309 -12.2766 -12.2765 -12.1926 -12.1926 -12.1543 -12.1543
   -12.1204 -12.1204 -11.9260 -11.9260 -11.8247 -11.8247 -11.7922 -11.7922
   -11.7841 -11.7841 -11.6852 -11.6852 -11.6449 -11.6449 -11.5958 -11.5958
   -11.5514 -11.5514 -11.4868 -11.4868 -11.4274 -11.4274 -11.3906 -11.3906
   -11.3322 -11.3322 -11.3200 -11.3200 -11.2878 -11.2878 -11.0732 -11.0732
    -5.0878  -5.0878  -4.8736  -4.8736  -4.5391  -4.5391  -4.3705  -4.3705
    -4.2819  -4.2818  -4.0870  -4.0870  -4.0715  -4.0715  -4.0318  -4.0318
    -4.0044  -4.0044  -3.9277  -3.9277  -3.8595  -3.8595  -3.7889  -3.7889
    -3.7651  -3.7651  -3.7625  -3.7625  -3.6892  -3.6892  -3.5767  -3.5767
    -3.5685  -3.5685  -3.4902  -3.4902  -3.4689  -3.4689  -3.3192  -3.3192
    -3.2975  -3.2975  -3.2600  -3.2600  -3.2504  -3.2504  -3.1615  -3.1615
    -3.1312  -3.1312  -3.0621  -3.0621  -3.0138  -3.0138  -3.0129  -3.0129
    -2.8726  -2.8726  -2.8207  -2.8207  -2.7599  -2.7599  -2.7349  -2.7348
    -2.6795  -2.6795  -2.5902  -2.5902  -2.5880  -2.5880  -2.5604  -2.5604
    -2.5326  -2.5326  -2.4830  -2.4830  -2.4728  -2.4728  -2.4383  -2.4383
    -2.3953  -2.3953  -2.3941  -2.3941  -2.3620  -2.3620  -2.3456  -2.3456
    -2.3329  -2.3329  -2.2673  -2.2673  -2.2637  -2.2637  -2.2568  -2.2568
    -2.2130  -2.2130  -2.1924  -2.1924  -2.1648  -2.1648  -2.1522  -2.1522
    -2.0959  -2.0959  -2.0937  -2.0937  -2.0532  -2.0532  -2.0407  -2.0407
    -2.0338  -2.0338  -1.9356  -1.9356  -1.9168  -1.9168  -1.8817  -1.8817
    -1.7349  -1.7349  -1.6993  -1.6993  -1.6884  -1.6884  -1.6707  -1.6707
    -1.6596  -1.6596  -1.6382  -1.6382  -1.6298  -1.6297  -1.5406  -1.5406
    -1.5396  -1.5396  -1.5328  -1.5328  -1.5111  -1.5111  -1.5065  -1.5065
    -1.4556  -1.4556  -1.4229  -1.4229  -1.3815  -1.3815  -1.3707  -1.3707
    -1.3615  -1.3615  -1.3568  -1.3568  -1.3447  -1.3447  -1.3205  -1.3205
    -1.2999  -1.2999  -1.2355  -1.2355  -1.2194  -1.2194  -1.1401  -1.1401
    -1.1258  -1.1258  -1.1038  -1.1037  -1.0597  -1.0597  -1.0382  -1.0382
    -1.0189  -1.0189  -0.9940  -0.9940  -0.9562  -0.9562  -0.8898  -0.8897
    -0.8800  -0.8800  -0.7857  -0.7857  -0.7780  -0.7779  -0.7513  -0.7513
    -0.7036  -0.7036  -0.6951  -0.6951  -0.6674  -0.6674  -0.6414  -0.6414
    -0.5069  -0.5069  -0.4023  -0.4023  -0.3853  -0.3852  -0.3486  -0.3486
    -0.1797  -0.1797  -0.0594  -0.0594   0.0488   0.0488   0.2609   0.2609
     0.8617   0.8617   1.2675   1.2676   1.3775   1.3776   1.4043   1.4043
     1.4419   1.4419   1.5941   1.5942   1.6093   1.6093   1.9598   1.9598
     1.9934   1.9934   2.0378   2.0378   2.1466   2.1466   2.2629   2.2629
     2.2709   2.2709   2.4032   2.4033   2.4297   2.4298   2.4416   2.4416
     2.5711   2.5712   2.6303   2.6303   2.6775   2.6775   2.6896   2.6896
     2.7311   2.7311   2.7518   2.7518   2.7782   2.7782   2.9010   2.9010
     2.9691   2.9691   2.9748   2.9748   3.0078   3.0078   3.1039   3.1039
     3.1313   3.1313   3.2050   3.2050   3.2080   3.2080   3.2654   3.2655
     3.3618   3.3618   3.3786   3.3786   3.3791   3.3791   3.3927   3.3927
     3.4811   3.4811   3.5571   3.5571   3.5590   3.5590   3.5894   3.5894
     3.6048   3.6048   3.6552   3.6552   3.6602   3.6602   3.7332   3.7332
     3.7695   3.7695   3.7780   3.7780   3.8214   3.8214   3.8417   3.8417
     3.8588   3.8588   3.8822   3.8822   3.8900   3.8900   3.9159   3.9159
     3.9455   3.9455   3.9602   3.9602   3.9819   3.9819   3.9840   3.9840
     4.0200   4.0200   4.0205   4.0205   4.0222   4.0222   4.0390   4.0390
     4.0653   4.0653   4.0697   4.0697   4.0811   4.0811   4.0855   4.0855
     4.1123   4.1123   4.1299   4.1299   4.1314   4.1314   4.1687   4.1687
     4.1873   4.1873   4.1998   4.1999   4.2273   4.2273   4.2284   4.2284
     4.2441   4.2441   4.3639   4.3639   4.3931   4.3931   4.3981   4.3981
     4.4067   4.4067   4.4138   4.4138   4.4148   4.4149   4.4561   4.4561
     4.5140   4.5141   4.5413   4.5413   4.5423   4.5423   4.5532   4.5532
     4.5534   4.5534   4.5807   4.5807   4.5812   4.5812   4.6373   4.6373
     4.6570   4.6571   4.6771   4.6772   4.6835   4.6835   4.6954   4.6954
     4.7063   4.7063   4.7148   4.7148   4.7212   4.7212   4.7216   4.7216
     4.7331   4.7332   4.7377   4.7377   4.7664   4.7664   4.7873   4.7973
     4.7990   4.7995

          k =-0.5000-0.5000 0.0000 (135004 PWs)   bands (ev):

   -61.9082 -61.9082 -61.9082 -61.9082 -61.8796 -61.8796 -61.8796 -61.8796
   -61.8796 -61.8796 -61.8795 -61.8795 -61.8762 -61.8762 -61.8560 -61.8560
   -61.8560 -61.8560 -61.8405 -61.8405 -61.8405 -61.8404 -61.8314 -61.8314
   -61.8314 -61.8314 -61.8286 -61.8286 -61.8261 -61.8261 -61.8261 -61.8261
   -61.8260 -61.8260 -61.8260 -61.8260 -61.8089 -61.8089 -61.8089 -61.8089
   -61.8001 -61.8001 -61.8001 -61.8001 -61.8000 -61.8000 -61.8000 -61.8000
   -61.7945 -61.7945 -61.7751 -61.7751 -61.7751 -61.7750 -61.7327 -61.7327
   -61.7327 -61.7327 -61.7316 -61.7315 -61.7258 -61.7258 -61.7258 -61.7258
   -61.7258 -61.7258 -61.7258 -61.7258 -61.7111 -61.7110 -61.7110 -61.7110
   -36.0335 -36.0335 -36.0122 -36.0122 -35.9749 -35.9749 -35.9749 -35.9749
   -35.9443 -35.9443 -35.9443 -35.9443 -35.9443 -35.9443 -35.9443 -35.9443
   -35.9423 -35.9423 -35.9423 -35.9423 -35.9347 -35.9347 -35.9187 -35.9187
   -35.9187 -35.9187 -35.9187 -35.9187 -35.9187 -35.9187 -35.9120 -35.9120
   -35.9115 -35.9115 -35.9114 -35.9114 -35.8933 -35.8933 -35.8932 -35.8932
   -35.8701 -35.8701 -35.8701 -35.8701 -35.8626 -35.8626 -35.8626 -35.8626
   -35.8626 -35.8626 -35.8626 -35.8626 -35.8385 -35.8385 -35.8385 -35.8385
   -35.8385 -35.8385 -35.8385 -35.8385 -35.8302 -35.8302 -35.8302 -35.8302
   -35.7967 -35.7967 -35.7967 -35.7967 -35.7742 -35.7742 -35.7742 -35.7742
   -35.7615 -35.7615 -35.7615 -35.7615 -35.7381 -35.7381 -35.7381 -35.7381
   -35.7381 -35.7381 -35.7381 -35.7381 -35.7257 -35.7257 -35.7257 -35.7257
   -35.7105 -35.7105 -35.7105 -35.7105 -35.7096 -35.7096 -35.7096 -35.7095
   -35.7095 -35.7095 -35.7095 -35.7095 -35.7006 -35.7006 -35.7006 -35.7006
   -35.6822 -35.6822 -35.6822 -35.6822 -35.6804 -35.6804 -35.6804 -35.6804
   -35.6717 -35.6717 -35.6619 -35.6619 -35.6619 -35.6619 -35.6619 -35.6619
   -35.6618 -35.6618 -35.6552 -35.6552 -35.6552 -35.6552 -35.6476 -35.6476
   -35.6470 -35.6470 -35.6470 -35.6470 -35.6470 -35.6470 -35.6470 -35.6470
   -35.6321 -35.6321 -35.6320 -35.6320 -35.6313 -35.6313 -35.6313 -35.6313
   -35.6283 -35.6283 -35.6065 -35.6065 -35.6065 -35.6065 -35.6052 -35.6052
   -35.6052 -35.6052 -35.6052 -35.6052 -35.6052 -35.6052 -35.5912 -35.5912
   -35.5911 -35.5911 -35.5892 -35.5892 -35.5892 -35.5892 -35.5814 -35.5814
   -35.5718 -35.5718 -35.5718 -35.5718 -35.5718 -35.5718 -35.5718 -35.5718
   -35.5543 -35.5543 -35.5543 -35.5543 -35.5543 -35.5543 -35.5543 -35.5543
   -35.5489 -35.5489 -35.5459 -35.5459 -35.5401 -35.5401 -35.5401 -35.5401
   -35.5393 -35.5393 -35.5064 -35.5064 -35.5064 -35.5064 -35.4929 -35.4929
   -35.4929 -35.4929 -35.4593 -35.4593 -35.4442 -35.4442 -35.4442 -35.4441
   -35.4441 -35.4441 -35.4441 -35.4441 -35.4313 -35.4313 -35.4313 -35.4313
   -13.8915 -13.8915 -13.8915 -13.8915 -13.1063 -13.1063 -13.1063 -13.1063
   -12.9132 -12.9132 -12.9132 -12.9132 -12.9132 -12.9132 -12.9132 -12.9131
   -12.6678 -12.6678 -12.6678 -12.6678 -12.4802 -12.4802 -12.4802 -12.4802
   -12.3864 -12.3864 -12.3864 -12.3864 -12.3864 -12.3864 -12.3864 -12.3864
   -12.3042 -12.3042 -12.3042 -12.3042 -12.2987 -12.2987 -12.1145 -12.1145
   -12.0864 -12.0863 -12.0863 -12.0863 -11.7441 -11.7441 -11.7441 -11.7441
   -11.7061 -11.7061 -11.7061 -11.7061 -11.7061 -11.7061 -11.7061 -11.7061
   -11.4046 -11.4045 -11.4045 -11.4045 -11.4044 -11.4044 -11.4044 -11.4044
   -11.3836 -11.3835 -11.3835 -11.3835 -11.3566 -11.3566 -11.0387 -11.0387
    -5.1719  -5.1719  -4.9455  -4.9455  -4.2248  -4.2248  -4.2248  -4.2248
    -4.2248  -4.2247  -4.2247  -4.2247  -4.1597  -4.1597  -4.0405  -4.0405
    -4.0405  -4.0405  -4.0405  -4.0405  -4.0405  -4.0405  -3.8416  -3.8416
    -3.6269  -3.6269  -3.6269  -3.6269  -3.6141  -3.6141  -3.6141  -3.6141
    -3.5684  -3.5684  -3.5684  -3.5684  -3.3605  -3.3605  -3.3605  -3.3605
    -3.3605  -3.3605  -3.3605  -3.3605  -3.1115  -3.1115  -3.1115  -3.1115
    -3.0574  -3.0574  -3.0574  -3.0574  -3.0574  -3.0574  -3.0574  -3.0574
    -2.8896  -2.8896  -2.8896  -2.8896  -2.8499  -2.8499  -2.8499  -2.8499
    -2.7930  -2.7930  -2.6029  -2.6029  -2.5791  -2.5791  -2.4920  -2.4920
    -2.4920  -2.4920  -2.4920  -2.4920  -2.4920  -2.4919  -2.4468  -2.4468
    -2.3681  -2.3681  -2.3681  -2.3681  -2.3594  -2.3594  -2.3594  -2.3594
    -2.3594  -2.3594  -2.3594  -2.3594  -2.1294  -2.1294  -2.1294  -2.1294
    -2.1294  -2.1294  -2.1294  -2.1294  -2.1114  -2.1114  -2.1114  -2.1114
    -2.1114  -2.1114  -2.1114  -2.1114  -2.0838  -2.0838  -2.0585  -2.0585
    -2.0585  -2.0585  -2.0288  -2.0288  -2.0288  -2.0288  -1.8673  -1.8673
    -1.8673  -1.8673  -1.7355  -1.7355  -1.7355  -1.7355  -1.7295  -1.7295
    -1.6772  -1.6772  -1.5034  -1.5033  -1.5033  -1.5033  -1.4644  -1.4644
    -1.4644  -1.4644  -1.4644  -1.4644  -1.4644  -1.4644  -1.4083  -1.4083
    -1.4083  -1.4083  -1.3189  -1.3189  -1.3189  -1.3189  -1.3189  -1.3189
    -1.3189  -1.3189  -1.3002  -1.3002  -1.3002  -1.3002  -1.2789  -1.2789
    -1.2786  -1.2786  -1.2786  -1.2786  -1.2308  -1.2307  -1.2307  -1.2307
    -1.1240  -1.1240  -1.1240  -1.1240  -1.1240  -1.1240  -1.1240  -1.1240
    -0.9895  -0.9895  -0.9895  -0.9895  -0.9530  -0.9530  -0.9530  -0.9529
    -0.7801  -0.7801  -0.7801  -0.7801  -0.7801  -0.7801  -0.7801  -0.7801
    -0.6800  -0.6800  -0.6800  -0.6800  -0.6442  -0.6442  -0.6442  -0.6442
    -0.5343  -0.5343  -0.5343  -0.5343  -0.2976  -0.2976  -0.2975  -0.2975
    -0.2465  -0.2465  -0.2465  -0.2465   0.0032   0.0033   0.0033   0.0033
     1.2730   1.2730   1.2731   1.2731   1.4756   1.4756   1.4756   1.4756
     1.5425   1.5425   1.5425   1.5425   1.7897   1.7897   1.7897   1.7897
     1.7897   1.7897   1.7897   1.7897   1.8509   1.8509   1.8509   1.8510
     2.3733   2.3733   2.3733   2.3733   2.5695   2.5695   2.5695   2.5695
     2.6006   2.6006   2.6006   2.6006   2.6078   2.6079   2.6079   2.6079
     2.6875   2.6875   2.6875   2.6875   2.7111   2.7111   2.7111   2.7111
     2.8757   2.8757   2.8757   2.8757   2.8757   2.8757   2.8757   2.8757
     3.2910   3.2910   3.2910   3.2910   3.3847   3.3847   3.3847   3.3847
     3.4912   3.4912   3.4912   3.4912   3.4912   3.4912   3.4912   3.4912
     3.6260   3.6260   3.6531   3.6531   3.6865   3.6865   3.6865   3.6866
     3.6866   3.6866   3.6866   3.6866   3.6891   3.6891   3.7086   3.7086
     3.7926   3.7927   3.7927   3.7927   3.7927   3.7927   3.7927   3.7927
     3.8652   3.8652   3.8652   3.8652   3.8652   3.8652   3.8652   3.8652
     3.8891   3.8891   3.8891   3.8891   4.0035   4.0035   4.0035   4.0035
     4.0035   4.0035   4.0036   4.0036   4.0104   4.0104   4.0341   4.0341
     4.0341   4.0341   4.0341   4.0341   4.0341   4.0341   4.0615   4.0615
     4.0615   4.0616   4.0750   4.0750   4.1219   4.1219   4.1219   4.1219
     4.1239   4.1239   4.1742   4.1742   4.1743   4.1743   4.2293   4.2293
     4.3919   4.3919   4.3919   4.3919   4.3920   4.3920   4.3920   4.3920
     4.4417   4.4418   4.4418   4.4418   4.5234   4.5234   4.5234   4.5234
     4.5722   4.5723   4.5723   4.5723   4.5723   4.5723   4.5723   4.5723
     4.5880   4.5880   4.6269   4.6269   4.6269   4.6269   4.6269   4.6269
     4.6269   4.6269   4.6536   4.6536   4.6536   4.6537   4.6737   4.6737
     4.6737   4.6737   4.7012   4.7012   4.7013   4.7016   4.7431   4.7431
     4.7436   4.7436   4.7436   4.7436   4.7436   4.7437   4.7438   4.7450
     4.7844   4.7846

     the Fermi energy is     3.4064 ev

!    total energy              =  -11908.16338917 Ry
     estimated scf accuracy    <       0.00000016 Ry
     smearing contrib. (-TS)   =      -0.01433484 Ry
     internal energy E=F+TS    =  -11908.14905433 Ry

     The total energy is F=E-TS. E is the sum of the following terms:
     one-electron contribution = -157561.31085626 Ry
     hartree contribution      =   78868.90602663 Ry
     xc contribution           =   -1803.50635986 Ry
     ewald contribution        =   68591.18984010 Ry
     DFT-D3 Dispersion         =      -3.42770494 Ry

     convergence has been achieved in  25 iterations

     negative rho (up, down):  7.733E-02 0.000E+00

     Forces acting on atoms (cartesian axes, Ry/au):

     atom    1 type  1   force =     0.00000000    0.00000000    0.09473133
     atom    2 type  1   force =    -0.00000505    0.00000000   -0.01664401
     atom    3 type  1   force =     0.00000000   -0.00000505   -0.01664401
     atom    4 type  1   force =    -0.00000341   -0.00000341    0.09473603
     atom    5 type  1   force =     0.00000000    0.00000000    0.00100412
     atom    6 type  1   force =    -0.00000384    0.00000000    0.00146203
     atom    7 type  1   force =     0.00000000   -0.00000384    0.00146203
     atom    8 type  1   force =    -0.00000534   -0.00000534    0.00100173
     atom    9 type  1   force =     0.00000000   -0.00000123    0.09472692
     atom   10 type  1   force =    -0.00000299    0.00000292   -0.01664410
     atom   11 type  1   force =     0.00000000    0.00000000   -0.01664370
     atom   12 type  1   force =     0.00000056    0.00000000    0.09472511
     atom   13 type  1   force =     0.00000000   -0.00000623    0.00099569
     atom   14 type  1   force =    -0.00000312    0.00000055    0.00147805
     atom   15 type  1   force =     0.00000000    0.00000000    0.00146323
     atom   16 type  1   force =    -0.00000086   -0.00000000    0.00099722
     atom   17 type  1   force =     0.00000000    0.00000123    0.09472692
     atom   18 type  1   force =    -0.00000299   -0.00000292   -0.01664410
     atom   19 type  1   force =     0.00000000    0.00000505   -0.01664401
     atom   20 type  1   force =    -0.00000341    0.00000341    0.09473603
     atom   21 type  1   force =    -0.00000000    0.00000623    0.00099569
     atom   22 type  1   force =    -0.00000312   -0.00000055    0.00147805
     atom   23 type  1   force =     0.00000000    0.00000384    0.00146203
     atom   24 type  1   force =    -0.00000534    0.00000534    0.00100173
     atom   25 type  1   force =    -0.00000123    0.00000000    0.09472692
     atom   26 type  1   force =     0.00000000    0.00000000   -0.01664370
     atom   27 type  1   force =     0.00000292   -0.00000299   -0.01664410
     atom   28 type  1   force =     0.00000000    0.00000056    0.09472511
     atom   29 type  1   force =    -0.00000623   -0.00000000    0.00099569
     atom   30 type  1   force =     0.00000000    0.00000000    0.00146323
     atom   31 type  1   force =     0.00000055   -0.00000312    0.00147805
     atom   32 type  1   force =     0.00000000   -0.00000086    0.00099722
     atom   33 type  1   force =     0.00000368    0.00000368    0.09473472
     atom   34 type  1   force =    -0.00000000    0.00000187   -0.01664613
     atom   35 type  1   force =     0.00000187    0.00000000   -0.01664613
     atom   36 type  1   force =     0.00000000    0.00000000    0.09472672
     atom   37 type  1   force =    -0.00000692   -0.00000692    0.00100288
     atom   38 type  1   force =     0.00000000   -0.00000378    0.00146655
     atom   39 type  1   force =    -0.00000378    0.00000000    0.00146655
     atom   40 type  1   force =     0.00000000    0.00000000    0.00100049
     atom   41 type  1   force =     0.00000368   -0.00000368    0.09473472
     atom   42 type  1   force =     0.00000000   -0.00000187   -0.01664613
     atom   43 type  1   force =     0.00000292    0.00000299   -0.01664410
     atom   44 type  1   force =     0.00000000   -0.00000056    0.09472511
     atom   45 type  1   force =    -0.00000692    0.00000692    0.00100288
     atom   46 type  1   force =    -0.00000000    0.00000378    0.00146655
     atom   47 type  1   force =     0.00000055    0.00000312    0.00147805
     atom   48 type  1   force =    -0.00000000    0.00000086    0.00099722
     atom   49 type  1   force =     0.00000123    0.00000000    0.09472692
     atom   50 type  1   force =     0.00000505    0.00000000   -0.01664401
     atom   51 type  1   force =    -0.00000292   -0.00000299   -0.01664410
     atom   52 type  1   force =     0.00000341   -0.00000341    0.09473603
     atom   53 type  1   force =     0.00000623   -0.00000000    0.00099569
     atom   54 type  1   force =     0.00000384   -0.00000000    0.00146203
     atom   55 type  1   force =    -0.00000055   -0.00000312    0.00147805
     atom   56 type  1   force =     0.00000534   -0.00000534    0.00100173
     atom   57 type  1   force =    -0.00000368    0.00000368    0.09473472
     atom   58 type  1   force =     0.00000299    0.00000292   -0.01664410
     atom   59 type  1   force =    -0.00000187   -0.00000000   -0.01664613
     atom   60 type  1   force =    -0.00000056    0.00000000    0.09472511
     atom   61 type  1   force =     0.00000692   -0.00000692    0.00100288
     atom   62 type  1   force =     0.00000312    0.00000055    0.00147805
     atom   63 type  1   force =     0.00000378    0.00000000    0.00146655
     atom   64 type  1   force =     0.00000086    0.00000000    0.00099722
     atom   65 type  1   force =    -0.00000368   -0.00000368    0.09473472
     atom   66 type  1   force =     0.00000299   -0.00000292   -0.01664410
     atom   67 type  1   force =    -0.00000292    0.00000299   -0.01664410
     atom   68 type  1   force =     0.00000341    0.00000341    0.09473603
     atom   69 type  1   force =     0.00000692    0.00000692    0.00100288
     atom   70 type  1   force =     0.00000312   -0.00000055    0.00147805
     atom   71 type  1   force =    -0.00000055    0.00000312    0.00147805
     atom   72 type  1   force =     0.00000534    0.00000534    0.00100173
     atom   73 type  2   force =     0.00000000    0.00000705   -0.05082402
     atom   74 type  2   force =     0.00000705    0.00000000   -0.05082402
     atom   75 type  2   force =     0.00000000    0.00000000   -0.01316168
     atom   76 type  2   force =     0.00000323    0.00000323   -0.01316541
     atom   77 type  2   force =     0.00000000    0.00000423   -0.00816171
     atom   78 type  2   force =     0.00000423    0.00000000   -0.00816171
     atom   79 type  2   force =     0.00000000    0.00000000   -0.00839658
     atom   80 type  2   force =     0.00000195    0.00000195   -0.00840702
     atom   81 type  2   force =     0.00000000    0.00000000   -0.05082521
     atom   82 type  2   force =     0.00000025    0.00000048   -0.05082008
     atom   83 type  2   force =     0.00000000    0.00000041   -0.01316478
     atom   84 type  2   force =     0.00000214    0.00000000   -0.01316522
     atom   85 type  2   force =     0.00000000    0.00000000   -0.00816635
     atom   86 type  2   force =     0.00000834    0.00000571   -0.00816724
     atom   87 type  2   force =    -0.00000000   -0.00000222   -0.00840145
     atom   88 type  2   force =     0.00000507   -0.00000000   -0.00840244
     atom   89 type  2   force =     0.00000000   -0.00000705   -0.05082402
     atom   90 type  2   force =     0.00000025   -0.00000048   -0.05082008
     atom   91 type  2   force =     0.00000000   -0.00000041   -0.01316478
     atom   92 type  2   force =     0.00000323   -0.00000323   -0.01316541
     atom   93 type  2   force =     0.00000000   -0.00000423   -0.00816171
     atom   94 type  2   force =     0.00000834   -0.00000571   -0.00816724
     atom   95 type  2   force =     0.00000000    0.00000222   -0.00840145
     atom   96 type  2   force =     0.00000195   -0.00000195   -0.00840702
     atom   97 type  2   force =     0.00000048    0.00000025   -0.05082008
     atom   98 type  2   force =     0.00000000    0.00000000   -0.05082521
     atom   99 type  2   force =     0.00000041    0.00000000   -0.01316478
     atom  100 type  2   force =     0.00000000    0.00000214   -0.01316522
     atom  101 type  2   force =     0.00000571    0.00000834   -0.00816724
     atom  102 type  2   force =     0.00000000    0.00000000   -0.00816635
     atom  103 type  2   force =    -0.00000222    0.00000000   -0.00840145
     atom  104 type  2   force =     0.00000000    0.00000507   -0.00840244
     atom  105 type  2   force =    -0.00000535    0.00000000   -0.05082125
     atom  106 type  2   force =     0.00000000   -0.00000535   -0.05082125
     atom  107 type  2   force =    -0.00000038   -0.00000038   -0.01316452
     atom  108 type  2   force =     0.00000000    0.00000000   -0.01316119
     atom  109 type  2   force =     0.00001046    0.00000000   -0.00815642
     atom  110 type  2   force =     0.00000000    0.00001046   -0.00815642
     atom  111 type  2   force =     0.00000315    0.00000315   -0.00841427
     atom  112 type  2   force =     0.00000000    0.00000000   -0.00841318
     atom  113 type  2   force =     0.00000048   -0.00000025   -0.05082008
     atom  114 type  2   force =     0.00000000    0.00000535   -0.05082125
     atom  115 type  2   force =    -0.00000038    0.00000038   -0.01316452
     atom  116 type  2   force =     0.00000000   -0.00000214   -0.01316522
     atom  117 type  2   force =     0.00000571   -0.00000834   -0.00816724
     atom  118 type  2   force =     0.00000000   -0.00001046   -0.00815642
     atom  119 type  2   force =     0.00000315   -0.00000315   -0.00841427
     atom  120 type  2   force =     0.00000000   -0.00000507   -0.00840244
     atom  121 type  2   force =    -0.00000048    0.00000025   -0.05082008
     atom  122 type  2   force =    -0.00000705    0.00000000   -0.05082402
     atom  123 type  2   force =    -0.00000041    0.00000000   -0.01316478
     atom  124 type  2   force =    -0.00000323    0.00000323   -0.01316541
     atom  125 type  2   force =    -0.00000571    0.00000834   -0.00816724
     atom  126 type  2   force =    -0.00000423    0.00000000   -0.00816171
     atom  127 type  2   force =     0.00000222   -0.00000000   -0.00840145
     atom  128 type  2   force =    -0.00000195    0.00000195   -0.00840702
     atom  129 type  2   force =     0.00000535    0.00000000   -0.05082125
     atom  130 type  2   force =    -0.00000025    0.00000048   -0.05082008
     atom  131 type  2   force =     0.00000038   -0.00000038   -0.01316452
     atom  132 type  2   force =    -0.00000214    0.00000000   -0.01316522
     atom  133 type  2   force =    -0.00001046    0.00000000   -0.00815642
     atom  134 type  2   force =    -0.00000834    0.00000571   -0.00816724
     atom  135 type  2   force =    -0.00000315    0.00000315   -0.00841427
     atom  136 type  2   force =    -0.00000507    0.00000000   -0.00840244
     atom  137 type  2   force =    -0.00000048   -0.00000025   -0.05082008
     atom  138 type  2   force =    -0.00000025   -0.00000048   -0.05082008
     atom  139 type  2   force =     0.00000038    0.00000038   -0.01316452
     atom  140 type  2   force =    -0.00000323   -0.00000323   -0.01316541
     atom  141 type  2   force =    -0.00000571   -0.00000834   -0.00816724
     atom  142 type  2   force =    -0.00000834   -0.00000571   -0.00816724
     atom  143 type  2   force =    -0.00000315   -0.00000315   -0.00841427
     atom  144 type  2   force =    -0.00000195   -0.00000195   -0.00840702

     Total force =     0.050283     Total SCF correction =     0.001581
     Energy error            =      4.8E-03 Ry
     Gradient error          =      8.4E-03 Ry/Bohr

     number of scf cycles    =   6
     number of bfgs steps    =   5

     energy             old  =  -11908.1586366792 Ry
     energy             new  =  -11908.1633891717 Ry

     CASE: energy            _new < energy            _old

     new trust radius        =       0.0322532654 bohr
     new conv_thr            =       0.0000005408 Ry


ATOMIC_POSITIONS (angstrom)
V                0.0000000000        0.0000000000       10.0000000000    0   0   0
V                2.0432625400        0.0000000000       12.0432625400    0   0   0
V                0.0000000000        2.0432625400       12.0432625400    0   0   0
V                2.0432625400        2.0432625400       10.0000000000    0   0   0
V                0.0000001400        0.0000001700       14.1707530971
V                2.0432180699        0.0000000600       16.0534851126
V               -0.0000000900        2.0432179899       16.0534849226
V                2.0432519236        2.0432518336       14.1707901471
V                0.0000000000        4.0865250700       10.0000000000    0   0   0
V                2.0432625400        4.0865250700       12.0432625400    0   0   0
V                0.0000000000        6.1297876100       12.0432625400    0   0   0
V                2.0432625400        6.1297876100       10.0000000000    0   0   0
V                0.0000001200        4.0865373191       14.1707759614
V                2.0432256994        4.0865821731       16.0534867868
V               -0.0000001500        6.1297875000       16.0534763471
V                2.0432594780        6.1297873900       14.1707809525
V                0.0000000000        8.1730501500       10.0000000000    0   0   0
V                2.0432625400        8.1730501500       12.0432625400    0   0   0
V                0.0000000000       10.2163126900       12.0432625400    0   0   0
V                2.0432625400       10.2163126900       10.0000000000    0   0   0
V               -0.0000002100        8.1730376509       14.1707759414
V                2.0432257794        8.1729932469       16.0534866068
V               -0.0000000100       10.2163571301       16.0534851926
V                2.0432518536       10.2163231464       14.1707899371
V                4.0865250700        0.0000000000       10.0000000000    0   0   0
V                6.1297876100        0.0000000000       12.0432625400    0   0   0
V                4.0865250700        2.0432625400       12.0432625400    0   0   0
V                6.1297876100        2.0432625400       10.0000000000    0   0   0
V                4.0865373391        0.0000001700       14.1707758714
V                6.1297876200        0.0000000500       16.0534769271
V                4.0865819831        2.0432257794       16.0534868968
V                6.1297873700        2.0432595580       14.1707809525
V                4.0865250700        4.0865250700       10.0000000000    0   0   0
V                6.1297876100        4.0865250700       12.0432625400    0   0   0
V                4.0865250700        6.1297876100       12.0432625400    0   0   0
V                6.1297876100        6.1297876100       10.0000000000    0   0   0
V                4.0865425263        4.0865423363       14.1707880958
V                6.1297875500        4.0865735545       16.0534725295
V                4.0865735045        6.1297875500       16.0534722895
V                6.1297874000        6.1297875000       14.1707344948
V                4.0865250700        8.1730501500       10.0000000000    0   0   0
V                6.1297876100        8.1730501500       12.0432625400    0   0   0
V                4.0865250700       10.2163126900       12.0432625400    0   0   0
V                6.1297876100       10.2163126900       10.0000000000    0   0   0
V                4.0865425463        8.1730330037       14.1707881058
V                6.1297875800        8.1730015855       16.0534722495
V                4.0865820031       10.2163493706       16.0534863668
V                6.1297875400       10.2163154420       14.1707810225
V                8.1730501500        0.0000000000       10.0000000000    0   0   0
V               10.2163126900        0.0000000000       12.0432625400    0   0   0
V                8.1730501500        2.0432625400       12.0432625400    0   0   0
V               10.2163126900        2.0432625400       10.0000000000    0   0   0
V                8.1730378509        0.0000000500       14.1707758514
V               10.2163572101        0.0000001000       16.0534850526
V                8.1729931969        2.0432257794       16.0534871368
V               10.2163233564        2.0432518536       14.1707898071
V                8.1730501500        4.0865250700       10.0000000000    0   0   0
V               10.2163126900        4.0865250700       12.0432625400    0   0   0
V                8.1730501500        6.1297876100       12.0432625400    0   0   0
V               10.2163126900        6.1297876100       10.0000000000    0   0   0
V                8.1730325237        4.0865425263       14.1707880158
V               10.2163494306        4.0865822031       16.0534865868
V                8.1730017555        6.1297876500       16.0534725195
V               10.2163158220        6.1297875900       14.1707810725
V                8.1730501500        8.1730501500       10.0000000000    0   0   0
V               10.2163126900        8.1730501500       12.0432625400    0   0   0
V                8.1730501500       10.2163126900       12.0432625400    0   0   0
V               10.2163126900       10.2163126900       10.0000000000    0   0   0
V                8.1730328737        8.1730327537       14.1707882158
V               10.2163494306        8.1729930469       16.0534867768
V                8.1729930669       10.2163494706       16.0534863868
V               10.2163232364       10.2163231064       14.1707899171
N                0.0000000000        2.0432625400       10.0000000000    0   0   0
N                2.0432625400        0.0000000000       10.0000000000    0   0   0
N                0.0000000000        0.0000000000       12.0432625400    0   0   0
N                2.0432625400        2.0432625400       12.0432625400    0   0   0
N                0.0000001100        2.0432645977       14.1477457256
N                2.0432643677        0.0000001000       14.1477454256
N               -0.0000000300       -0.0000000400       16.3281891135
N                2.0432789124        2.0432788324       16.3281515051
N                0.0000000000        6.1297876100       10.0000000000    0   0   0
N                2.0432625400        4.0865250700       10.0000000000    0   0   0
N                0.0000000000        4.0865250700       12.0432625400    0   0   0
N                2.0432625400        6.1297876100       12.0432625400    0   0   0
N               -0.0000000400        6.1297876300       14.1477374265
N                2.0432580048        4.0865182361       14.1477339966
N               -0.0000001500        4.0865126872       16.3281669520
N                2.0432764662        6.1297874600       16.3281784457
N                0.0000000000       10.2163126900       10.0000000000    0   0   0
N                2.0432625400        8.1730501500       10.0000000000    0   0   0
N                0.0000000000        8.1730501500       12.0432625400    0   0   0
N                2.0432625400       10.2163126900       12.0432625400    0   0   0
N                0.0000000200       10.2163106323       14.1477452456
N                2.0432579948        8.1730571439       14.1477341366
N                0.0000000800        8.1730626428       16.3281669220
N                2.0432788424       10.2162964076       16.3281514151
N                4.0865250700        2.0432625400       10.0000000000    0   0   0
N                6.1297876100        0.0000000000       10.0000000000    0   0   0
N                4.0865250700        0.0000000000       12.0432625400    0   0   0
N                6.1297876100        2.0432625400       12.0432625400    0   0   0
N                4.0865180461        2.0432580648       14.1477338266
N                6.1297875500        0.0000000900       14.1477372565
N                4.0865126372       -0.0000000300       16.3281674420
N                6.1297876600        2.0432765762       16.3281788657
N                4.0865250700        6.1297876100       10.0000000000    0   0   0
N                6.1297876100        4.0865250700       10.0000000000    0   0   0
N                4.0865250700        4.0865250700       12.0432625400    0   0   0
N                6.1297876100        6.1297876100       12.0432625400    0   0   0
N                4.0865174734        6.1297874900       14.1477179907
N                6.1297876500        4.0865174034       14.1477176607
N                4.0865153520        4.0865152320       16.3281525508
N                6.1297876300        6.1297875100       16.3281901075
N                4.0865250700       10.2163126900       10.0000000000    0   0   0
N                6.1297876100        8.1730501500       10.0000000000    0   0   0
N                4.0865250700        8.1730501500       12.0432625400    0   0   0
N                6.1297876100       10.2163126900       12.0432625400    0   0   0
N                4.0865180161       10.2163169852       14.1477342566
N                6.1297875600        8.1730578266       14.1477179907
N                4.0865153320        8.1730601180       16.3281520908
N                6.1297876400       10.2162987838       16.3281786157
N                8.1730501500        2.0432625400       10.0000000000    0   0   0
N               10.2163126900        0.0000000000       10.0000000000    0   0   0
N                8.1730501500        0.0000000000       12.0432625400    0   0   0
N               10.2163126900        2.0432625400       12.0432625400    0   0   0
N                8.1730570639        2.0432579448       14.1477336866
N               10.2163109223       -0.0000001200       14.1477455256
N                8.1730624728        0.0000000100       16.3281671520
N               10.2162964376        2.0432788424       16.3281514251
N                8.1730501500        6.1297876100       10.0000000000    0   0   0
N               10.2163126900        4.0865250700       10.0000000000    0   0   0
N                8.1730501500        4.0865250700       12.0432625400    0   0   0
N               10.2163126900        6.1297876100       12.0432625400    0   0   0
N                8.1730576066        6.1297873400       14.1477175607
N               10.2163172752        4.0865182161       14.1477342766
N                8.1730600480        4.0865152220       16.3281522608
N               10.2162987638        6.1297876700       16.3281783957
N                8.1730501500       10.2163126900       10.0000000000    0   0   0
N               10.2163126900        8.1730501500       10.0000000000    0   0   0
N                8.1730501500        8.1730501500       12.0432625400    0   0   0
N               10.2163126900       10.2163126900       12.0432625400    0   0   0
N                8.1730569939       10.2163172952       14.1477342266
N               10.2163172652        8.1730569439       14.1477336466
N                8.1730599580        8.1730600180       16.3281522508
N               10.2162964276       10.2162963276       16.3281514451



     Writing config-only to output data dir ./tmp/VN_slab.save/ :
     XML data file
     NEW-OLD atomic charge density approx. for the potential

     Check: negative core charge=   -0.000003

     negative rho (up, down):  7.727E-02 0.000E+00

     total cpu time spent up to now is    14809.7 secs

     per-process dynamical memory:   807.7 Mb

     Self-consistent Calculation

     iteration #  1     ecut=    45.00 Ry     beta= 0.25
     Davidson diagonalization with overlap
     ethr =  1.00E-06,  avg # of iterations =  6.7

     negative rho (up, down):  7.729E-02 0.000E+00

     total cpu time spent up to now is    15001.1 secs

     total energy              =  -11908.13738534 Ry
     estimated scf accuracy    <       0.07477982 Ry

     iteration #  2     ecut=    45.00 Ry     beta= 0.25
     Davidson diagonalization with overlap
     ethr =  5.77E-06,  avg # of iterations = 24.7

     negative rho (up, down):  7.732E-02 0.000E+00

     total cpu time spent up to now is    15212.1 secs

     total energy              =  -11907.86310183 Ry
     estimated scf accuracy    <      26.35127919 Ry

     iteration #  3     ecut=    45.00 Ry     beta= 0.25
     Davidson diagonalization with overlap
     c_bands:  3 eigenvalues not converged
     c_bands:  3 eigenvalues not converged
     ethr =  5.77E-06,  avg # of iterations = 17.8

     negative rho (up, down):  7.734E-02 0.000E+00

     total cpu time spent up to now is    15356.1 secs

     total energy              =  -11908.14063665 Ry
     estimated scf accuracy    <       1.54578403 Ry

     iteration #  4     ecut=    45.00 Ry     beta= 0.25
     Davidson diagonalization with overlap
     ethr =  5.77E-06,  avg # of iterations = 13.8

     negative rho (up, down):  7.733E-02 0.000E+00

     total cpu time spent up to now is    15449.4 secs

     total energy              =  -11908.16624334 Ry
     estimated scf accuracy    <       0.00164434 Ry

     iteration #  5     ecut=    45.00 Ry     beta= 0.25
     Davidson diagonalization with overlap
     c_bands:  4 eigenvalues not converged
     ethr =  1.27E-07,  avg # of iterations = 13.2

     negative rho (up, down):  7.731E-02 0.000E+00

     total cpu time spent up to now is    15570.1 secs

     total energy              =  -11908.16576074 Ry
     estimated scf accuracy    <       0.07370327 Ry

     iteration #  6     ecut=    45.00 Ry     beta= 0.25
     Davidson diagonalization with overlap
     c_bands:  1 eigenvalues not converged
     ethr =  1.27E-07,  avg # of iterations = 10.7

     negative rho (up, down):  7.731E-02 0.000E+00

     total cpu time spent up to now is    15660.3 secs

     total energy              =  -11908.16694054 Ry
     estimated scf accuracy    <       0.00637252 Ry

     iteration #  7     ecut=    45.00 Ry     beta= 0.25
     Davidson diagonalization with overlap
     ethr =  1.27E-07,  avg # of iterations =  6.0

     negative rho (up, down):  7.731E-02 0.000E+00

     total cpu time spent up to now is    15735.0 secs

     total energy              =  -11908.16697425 Ry
     estimated scf accuracy    <       0.00266488 Ry

     iteration #  8     ecut=    45.00 Ry     beta= 0.25
     Davidson diagonalization with overlap
     ethr =  1.27E-07,  avg # of iterations =  6.8

     negative rho (up, down):  7.731E-02 0.000E+00

     total cpu time spent up to now is    15811.5 secs

     total energy              =  -11908.16696046 Ry
     estimated scf accuracy    <       0.00174840 Ry

     iteration #  9     ecut=    45.00 Ry     beta= 0.25
     Davidson diagonalization with overlap
     ethr =  1.27E-07,  avg # of iterations =  5.5

     negative rho (up, down):  7.731E-02 0.000E+00

     total cpu time spent up to now is    15895.8 secs

     total energy              =  -11908.16700419 Ry
     estimated scf accuracy    <       0.00032945 Ry

     iteration # 10     ecut=    45.00 Ry     beta= 0.25
     Davidson diagonalization with overlap
     ethr =  2.54E-08,  avg # of iterations =  5.8

     negative rho (up, down):  7.731E-02 0.000E+00

     total cpu time spent up to now is    15978.0 secs

     total energy              =  -11908.16703499 Ry
     estimated scf accuracy    <       0.00032103 Ry

     iteration # 11     ecut=    45.00 Ry     beta= 0.25
     Davidson diagonalization with overlap
     ethr =  2.48E-08,  avg # of iterations =  1.2

     negative rho (up, down):  7.732E-02 0.000E+00

     total cpu time spent up to now is    16043.2 secs

     total energy              =  -11908.16703824 Ry
     estimated scf accuracy    <       0.00014830 Ry

     iteration # 12     ecut=    45.00 Ry     beta= 0.25
     Davidson diagonalization with overlap
     ethr =  1.14E-08,  avg # of iterations =  1.7

     negative rho (up, down):  7.732E-02 0.000E+00

     total cpu time spent up to now is    16114.6 secs

     total energy              =  -11908.16704132 Ry
     estimated scf accuracy    <       0.00006316 Ry

     iteration # 13     ecut=    45.00 Ry     beta= 0.25
     Davidson diagonalization with overlap
     ethr =  4.87E-09,  avg # of iterations =  3.5

     negative rho (up, down):  7.732E-02 0.000E+00

     total cpu time spent up to now is    16189.5 secs

     total energy              =  -11908.16704018 Ry
     estimated scf accuracy    <       0.00019534 Ry

     iteration # 14     ecut=    45.00 Ry     beta= 0.25
     Davidson diagonalization with overlap
     ethr =  4.87E-09,  avg # of iterations =  5.0

     negative rho (up, down):  7.732E-02 0.000E+00

     total cpu time spent up to now is    16265.5 secs

     total energy              =  -11908.16704438 Ry
     estimated scf accuracy    <       0.00006658 Ry

     iteration # 15     ecut=    45.00 Ry     beta= 0.25
     Davidson diagonalization with overlap
     ethr =  4.87E-09,  avg # of iterations =  1.3

     negative rho (up, down):  7.732E-02 0.000E+00

     total cpu time spent up to now is    16341.6 secs

     total energy              =  -11908.16704515 Ry
     estimated scf accuracy    <       0.00004622 Ry

     iteration # 16     ecut=    45.00 Ry     beta= 0.25
     Davidson diagonalization with overlap
     ethr =  3.57E-09,  avg # of iterations =  1.7

     negative rho (up, down):  7.732E-02 0.000E+00

     total cpu time spent up to now is    16415.5 secs

     total energy              =  -11908.16704543 Ry
     estimated scf accuracy    <       0.00002558 Ry

     iteration # 17     ecut=    45.00 Ry     beta= 0.25
     Davidson diagonalization with overlap
     ethr =  1.97E-09,  avg # of iterations =  1.0

     negative rho (up, down):  7.732E-02 0.000E+00

     total cpu time spent up to now is    16483.9 secs

     total energy              =  -11908.16704496 Ry
     estimated scf accuracy    <       0.00001896 Ry

     iteration # 18     ecut=    45.00 Ry     beta= 0.25
     Davidson diagonalization with overlap
     ethr =  1.46E-09,  avg # of iterations =  2.2

     negative rho (up, down):  7.732E-02 0.000E+00

     total cpu time spent up to now is    16562.8 secs

     total energy              =  -11908.16704399 Ry
     estimated scf accuracy    <       0.00003075 Ry

     iteration # 19     ecut=    45.00 Ry     beta= 0.25
     Davidson diagonalization with overlap
     ethr =  1.46E-09,  avg # of iterations =  4.0

     negative rho (up, down):  7.732E-02 0.000E+00

     total cpu time spent up to now is    16637.2 secs

     total energy              =  -11908.16704441 Ry
     estimated scf accuracy    <       0.00004021 Ry

     iteration # 20     ecut=    45.00 Ry     beta= 0.25
     Davidson diagonalization with overlap
     ethr =  1.46E-09,  avg # of iterations =  1.5

     negative rho (up, down):  7.732E-02 0.000E+00

     total cpu time spent up to now is    16707.3 secs

     total energy              =  -11908.16704523 Ry
     estimated scf accuracy    <       0.00001562 Ry

     iteration # 21     ecut=    45.00 Ry     beta= 0.25
     Davidson diagonalization with overlap
     ethr =  1.21E-09,  avg # of iterations =  2.0

     negative rho (up, down):  7.732E-02 0.000E+00

     total cpu time spent up to now is    16778.8 secs

     total energy              =  -11908.16704534 Ry
     estimated scf accuracy    <       0.00001280 Ry

     iteration # 22     ecut=    45.00 Ry     beta= 0.25
     Davidson diagonalization with overlap
     ethr =  9.87E-10,  avg # of iterations =  1.0

     negative rho (up, down):  7.732E-02 0.000E+00

     total cpu time spent up to now is    16845.1 secs

     total energy              =  -11908.16704564 Ry
     estimated scf accuracy    <       0.00000192 Ry

     iteration # 23     ecut=    45.00 Ry     beta= 0.25
     Davidson diagonalization with overlap
     ethr =  1.48E-10,  avg # of iterations =  4.2

     negative rho (up, down):  7.732E-02 0.000E+00

     total cpu time spent up to now is    16923.5 secs

     total energy              =  -11908.16704557 Ry
     estimated scf accuracy    <       0.00001227 Ry

     iteration # 24     ecut=    45.00 Ry     beta= 0.25
     Davidson diagonalization with overlap
     ethr =  1.48E-10,  avg # of iterations =  2.7

     negative rho (up, down):  7.732E-02 0.000E+00

     total cpu time spent up to now is    16994.4 secs

     total energy              =  -11908.16704570 Ry
     estimated scf accuracy    <       0.00000443 Ry

     iteration # 25     ecut=    45.00 Ry     beta= 0.25
     Davidson diagonalization with overlap
     ethr =  1.48E-10,  avg # of iterations =  1.2

     negative rho (up, down):  7.733E-02 0.000E+00

     total cpu time spent up to now is    17059.4 secs

     total energy              =  -11908.16704582 Ry
     estimated scf accuracy    <       0.00000071 Ry

     iteration # 26     ecut=    45.00 Ry     beta= 0.25
     Davidson diagonalization with overlap
     ethr =  5.48E-11,  avg # of iterations =  2.5

     negative rho (up, down):  7.733E-02 0.000E+00

     total cpu time spent up to now is    17132.6 secs

     total energy              =  -11908.16704577 Ry
     estimated scf accuracy    <       0.00000123 Ry

     iteration # 27     ecut=    45.00 Ry     beta= 0.25
     Davidson diagonalization with overlap
     ethr =  5.48E-11,  avg # of iterations =  1.7

     negative rho (up, down):  7.733E-02 0.000E+00

     total cpu time spent up to now is    17206.3 secs

     total energy              =  -11908.16704581 Ry
     estimated scf accuracy    <       0.00000062 Ry

     iteration # 28     ecut=    45.00 Ry     beta= 0.25
     Davidson diagonalization with overlap
     ethr =  4.78E-11,  avg # of iterations =  4.7

     negative rho (up, down):  7.733E-02 0.000E+00

     total cpu time spent up to now is    17280.7 secs

     total energy              =  -11908.16704578 Ry
     estimated scf accuracy    <       0.00000267 Ry

     iteration # 29     ecut=    45.00 Ry     beta= 0.25
     Davidson diagonalization with overlap
     ethr =  4.78E-11,  avg # of iterations =  3.0

     negative rho (up, down):  7.733E-02 0.000E+00

     total cpu time spent up to now is    17352.5 secs

     End of self-consistent calculation

          k = 0.0000 0.0000 0.0000 (135157 PWs)   bands (ev):

   -61.9113 -61.8917 -61.8917 -61.8917 -61.8917 -61.8800 -61.8800 -61.8800
   -61.8800 -61.8619 -61.8619 -61.8619 -61.8619 -61.8565 -61.8564 -61.8564
   -61.8564 -61.8441 -61.8417 -61.8353 -61.8289 -61.8289 -61.8289 -61.8289
   -61.8254 -61.8254 -61.8254 -61.8254 -61.8206 -61.8206 -61.8206 -61.8205
   -61.8156 -61.8156 -61.8156 -61.8156 -61.8082 -61.8082 -61.8082 -61.8082
   -61.8079 -61.8078 -61.8078 -61.8077 -61.7959 -61.7884 -61.7882 -61.7882
   -61.7881 -61.7836 -61.7836 -61.7835 -61.7834 -61.7687 -61.7345 -61.7302
   -61.7302 -61.7302 -61.7302 -61.7296 -61.7296 -61.7296 -61.7296 -61.7237
   -61.7236 -61.7236 -61.7236 -61.7149 -61.7149 -61.7149 -61.7149 -61.7031
   -36.0049 -36.0049 -36.0049 -36.0049 -35.9773 -35.9773 -35.9773 -35.9772
   -35.9753 -35.9753 -35.9632 -35.9632 -35.9632 -35.9632 -35.9444 -35.9444
   -35.9444 -35.9444 -35.9156 -35.9156 -35.9156 -35.9156 -35.9139 -35.9139
   -35.9139 -35.9139 -35.9090 -35.9090 -35.9090 -35.9090 -35.8986 -35.8986
   -35.8962 -35.8962 -35.8962 -35.8962 -35.8832 -35.8832 -35.8832 -35.8832
   -35.8751 -35.8645 -35.8645 -35.8645 -35.8645 -35.8578 -35.8578 -35.8578
   -35.8578 -35.8410 -35.8410 -35.8410 -35.8410 -35.8356 -35.8356 -35.8356
   -35.8356 -35.8208 -35.8208 -35.8208 -35.8208 -35.8187 -35.8187 -35.8187
   -35.8187 -35.7936 -35.7936 -35.7768 -35.7768 -35.7768 -35.7768 -35.7753
   -35.7753 -35.7753 -35.7753 -35.7691 -35.7456 -35.7456 -35.7455 -35.7455
   -35.7427 -35.7427 -35.7427 -35.7427 -35.7110 -35.7110 -35.7082 -35.7082
   -35.7081 -35.7081 -35.7067 -35.7052 -35.7052 -35.7052 -35.7052 -35.7024
   -35.7024 -35.7024 -35.7024 -35.6982 -35.6982 -35.6982 -35.6981 -35.6898
   -35.6898 -35.6815 -35.6815 -35.6815 -35.6815 -35.6657 -35.6657 -35.6657
   -35.6657 -35.6597 -35.6597 -35.6596 -35.6596 -35.6469 -35.6468 -35.6468
   -35.6468 -35.6438 -35.6438 -35.6438 -35.6438 -35.6436 -35.6436 -35.6412
   -35.6412 -35.6412 -35.6412 -35.6406 -35.6406 -35.6406 -35.6406 -35.6347
   -35.6347 -35.6250 -35.6250 -35.6250 -35.6250 -35.6193 -35.6193 -35.6193
   -35.6193 -35.6130 -35.6115 -35.6115 -35.6115 -35.6115 -35.6089 -35.6089
   -35.6089 -35.6089 -35.5965 -35.5965 -35.5964 -35.5964 -35.5912 -35.5912
   -35.5912 -35.5912 -35.5893 -35.5893 -35.5864 -35.5864 -35.5864 -35.5864
   -35.5802 -35.5802 -35.5802 -35.5802 -35.5762 -35.5762 -35.5762 -35.5762
   -35.5524 -35.5524 -35.5524 -35.5524 -35.5514 -35.5514 -35.5514 -35.5514
   -35.5480 -35.5479 -35.5479 -35.5479 -35.5330 -35.5330 -35.5329 -35.5329
   -35.5148 -35.5147 -35.5147 -35.5147 -35.5147 -35.5051 -35.5051 -35.4726
   -35.4726 -35.4725 -35.4725 -35.4710 -35.4710 -35.4710 -35.4710 -35.4454
   -35.4454 -35.4454 -35.4454 -35.4425 -35.4300 -35.4299 -35.4299 -35.4299
   -14.2693 -13.6109 -13.6109 -13.6109 -13.6109 -13.4295 -13.0086 -13.0086
   -13.0086 -13.0086 -12.8689 -12.8689 -12.8689 -12.8689 -12.7963 -12.7654
   -12.7654 -12.7654 -12.7653 -12.6161 -12.5816 -12.4347 -12.4347 -12.4347
   -12.4347 -12.4292 -12.4292 -12.4292 -12.4291 -12.3996 -12.3996 -12.3996
   -12.3996 -12.3740 -12.2522 -12.2522 -12.2522 -12.2522 -12.1065 -12.1065
   -12.1065 -12.1065 -11.8666 -11.8666 -11.8665 -11.8665 -11.8621 -11.7203
   -11.7203 -11.7203 -11.7203 -11.6968 -11.6968 -11.6968 -11.6968 -11.4952
   -11.4789 -11.4789 -11.4789 -11.4789 -11.4191 -11.4190 -11.4190 -11.4190
   -11.3812 -11.3812 -11.3811 -11.3811 -11.1497 -11.1495 -11.1495 -11.1494
    -4.7100  -4.7099  -4.7099  -4.7099  -4.5332  -4.5332  -4.5332  -4.5332
    -4.3969  -4.3969  -4.3969  -4.3969  -4.2955  -4.2955  -4.2955  -4.2955
    -3.9449  -3.9449  -3.9449  -3.9449  -3.7873  -3.7873  -3.7873  -3.7873
    -3.6702  -3.6702  -3.6701  -3.6701  -3.6524  -3.6524  -3.6524  -3.6524
    -3.5413  -3.4842  -3.4842  -3.4842  -3.4842  -3.2770  -3.2769  -3.2769
    -3.2769  -3.1457  -3.1457  -3.1154  -3.1154  -3.1154  -3.1153  -3.1107
    -3.1107  -3.1107  -3.1107  -3.1104  -3.1104  -3.1103  -3.1103  -2.9991
    -2.9991  -2.9991  -2.9991  -2.6850  -2.6850  -2.6850  -2.6850  -2.5996
    -2.5996  -2.5488  -2.4851  -2.4851  -2.4851  -2.4850  -2.4745  -2.4745
    -2.4745  -2.4745  -2.4600  -2.4600  -2.4600  -2.4600  -2.4543  -2.4543
    -2.4542  -2.4542  -2.3639  -2.3638  -2.3638  -2.3638  -2.3450  -2.3450
    -2.3450  -2.3450  -2.2299  -2.2299  -2.2299  -2.2299  -2.1838  -2.1838
    -2.1838  -2.1838  -2.1680  -2.1679  -2.1679  -2.1679  -2.1640  -2.1640
    -2.1640  -2.1640  -2.1596  -2.1596  -2.1596  -2.1596  -1.9973  -1.9973
    -1.9973  -1.9973  -1.9873  -1.9873  -1.9873  -1.9873  -1.9576  -1.8687
    -1.8687  -1.8687  -1.8687  -1.8518  -1.8518  -1.8518  -1.8518  -1.7358
    -1.7358  -1.7358  -1.7358  -1.7057  -1.7057  -1.7057  -1.7057  -1.6700
    -1.6700  -1.6700  -1.6700  -1.6650  -1.6004  -1.6004  -1.6004  -1.6004
    -1.5582  -1.5582  -1.4396  -1.4396  -1.4396  -1.4396  -1.4247  -1.4247
    -1.4247  -1.4247  -1.4125  -1.4125  -1.4125  -1.4125  -1.3804  -1.3125
    -1.3125  -1.3122  -1.3122  -1.2269  -1.2267  -1.2267  -1.2265  -1.2138
    -1.2138  -1.2138  -1.2138  -1.1534  -1.1533  -1.1533  -1.1532  -0.9236
    -0.9236  -0.9235  -0.9235  -0.9195  -0.9195  -0.8876  -0.8875  -0.8875
    -0.8874  -0.8572  -0.8572  -0.8572  -0.8572  -0.7391  -0.7391  -0.7390
    -0.7389  -0.6672  -0.6671  -0.6671  -0.6671  -0.4794  -0.3637  -0.3637
    -0.3304  -0.3304  -0.3303  -0.3303  -0.2840  -0.2840  -0.2838  -0.2838
    -0.2367  -0.0228  -0.0228   0.0836   0.3313   0.4304   0.5223   0.5223
     0.8745   0.8745   0.8745   0.8745   0.8788   0.8788   1.1710   1.1710
     1.2742   1.7952   1.8057   1.8057   1.8058   1.8058   2.3852   2.3852
     2.4702   2.4702   2.4702   2.4702   2.5243   2.5243   2.5244   2.5244
     2.5444   2.5444   2.5444   2.5444   2.5517   2.5517   2.6012   2.6012
     2.6013   2.6013   2.6582   2.6583   2.6584   2.6584   2.6733   2.6733
     2.6733   2.6733   2.8917   3.0328   3.0328   3.0328   3.0329   3.0543
     3.0543   3.0543   3.0544   3.1216   3.1679   3.1679   3.1682   3.1682
     3.1972   3.1973   3.1973   3.1973   3.2333   3.2334   3.2334   3.2335
     3.3143   3.3143   3.3143   3.3143   3.3740   3.3775   3.3775   3.3775
     3.3776   3.3953   3.3953   3.3953   3.3953   3.4086   3.4086   3.4086
     3.4086   3.4267   3.4268   3.4268   3.4268   3.4585   3.4585   3.4585
     3.4585   3.5025   3.5025   3.5025   3.5025   3.6923   3.6923   3.6923
     3.6924   3.7411   3.7411   3.8022   3.8467   3.8467   3.8468   3.8468
     3.8581   3.8582   3.8582   3.8584   3.9505   3.9505   3.9505   3.9505
     3.9599   3.9599   3.9599   3.9599   4.0145   4.0145   4.0145   4.0146
     4.0381   4.0557   4.0557   4.0557   4.0557   4.1267   4.1267   4.1678
     4.1678   4.1678   4.1678   4.1888   4.2046   4.2046   4.2046   4.2046
     4.2050   4.2050   4.2050   4.2050   4.3262   4.3262   4.3262   4.3262
     4.3512   4.3513   4.3513   4.3513   4.3601   4.3601   4.3601   4.3601
     4.3827   4.3827   4.3827   4.3828   4.4004   4.4630   4.4630   4.4632
     4.4632   4.4776   4.4776   4.4776   4.4776   4.5032   4.5032   4.5033
     4.5034   4.5567   4.5567   4.5568   4.5568   4.5685   4.5685   4.5685
     4.5685   4.6051   4.6051   4.6051   4.6051   4.6558   4.6558   4.6558
     4.6558   4.6559   4.6559   4.7365   4.7480   4.7480   4.7480   4.7480
     4.8028   4.8028   4.8028   4.8028   4.8103   4.8111   4.8445   4.8677
     4.8913   4.8932

          k = 0.0000 0.2500 0.0000 (135097 PWs)   bands (ev):

   -61.9099 -61.8997 -61.8909 -61.8909 -61.8847 -61.8847 -61.8827 -61.8749
   -61.8749 -61.8655 -61.8655 -61.8643 -61.8594 -61.8594 -61.8567 -61.8567
   -61.8501 -61.8427 -61.8427 -61.8346 -61.8339 -61.8286 -61.8286 -61.8279
   -61.8268 -61.8268 -61.8240 -61.8235 -61.8235 -61.8198 -61.8197 -61.8186
   -61.8186 -61.8135 -61.8131 -61.8130 -61.8128 -61.8128 -61.8113 -61.8087
   -61.8087 -61.8033 -61.8021 -61.8020 -61.7968 -61.7919 -61.7918 -61.7917
   -61.7859 -61.7858 -61.7838 -61.7837 -61.7770 -61.7696 -61.7342 -61.7318
   -61.7302 -61.7302 -61.7298 -61.7298 -61.7297 -61.7297 -61.7268 -61.7265
   -61.7265 -61.7205 -61.7205 -61.7194 -61.7156 -61.7156 -61.7105 -61.7040
   -36.0103 -36.0103 -35.9895 -35.9895 -35.9887 -35.9887 -35.9863 -35.9863
   -35.9709 -35.9708 -35.9693 -35.9693 -35.9575 -35.9575 -35.9382 -35.9378
   -35.9378 -35.9365 -35.9307 -35.9307 -35.9156 -35.9156 -35.9117 -35.9117
   -35.9083 -35.9083 -35.9037 -35.9037 -35.8981 -35.8959 -35.8959 -35.8944
   -35.8916 -35.8908 -35.8907 -35.8907 -35.8892 -35.8892 -35.8877 -35.8876
   -35.8771 -35.8730 -35.8689 -35.8669 -35.8669 -35.8665 -35.8665 -35.8631
   -35.8618 -35.8609 -35.8559 -35.8559 -35.8423 -35.8423 -35.8374 -35.8374
   -35.8310 -35.8182 -35.8138 -35.8121 -35.8121 -35.8086 -35.8075 -35.8051
   -35.7993 -35.7972 -35.7932 -35.7932 -35.7920 -35.7919 -35.7901 -35.7758
   -35.7643 -35.7643 -35.7638 -35.7495 -35.7466 -35.7445 -35.7413 -35.7413
   -35.7391 -35.7382 -35.7327 -35.7327 -35.7226 -35.7226 -35.7181 -35.7178
   -35.7164 -35.7164 -35.7155 -35.7112 -35.7111 -35.7027 -35.7027 -35.6945
   -35.6945 -35.6902 -35.6867 -35.6856 -35.6856 -35.6853 -35.6853 -35.6835
   -35.6819 -35.6815 -35.6808 -35.6795 -35.6794 -35.6770 -35.6770 -35.6742
   -35.6742 -35.6671 -35.6671 -35.6670 -35.6668 -35.6668 -35.6653 -35.6628
   -35.6572 -35.6572 -35.6568 -35.6532 -35.6532 -35.6516 -35.6516 -35.6481
   -35.6399 -35.6399 -35.6336 -35.6274 -35.6269 -35.6269 -35.6261 -35.6243
   -35.6243 -35.6222 -35.6215 -35.6207 -35.6207 -35.6194 -35.6122 -35.6122
   -35.6098 -35.6098 -35.6092 -35.6092 -35.6086 -35.6086 -35.6071 -35.6071
   -35.6037 -35.6037 -35.6028 -35.6026 -35.6001 -35.6001 -35.5981 -35.5981
   -35.5972 -35.5951 -35.5941 -35.5931 -35.5928 -35.5833 -35.5833 -35.5827
   -35.5827 -35.5779 -35.5779 -35.5770 -35.5769 -35.5737 -35.5669 -35.5668
   -35.5666 -35.5568 -35.5568 -35.5510 -35.5510 -35.5498 -35.5498 -35.5480
   -35.5480 -35.5445 -35.5445 -35.5414 -35.5323 -35.5306 -35.5306 -35.5264
   -35.5235 -35.5234 -35.5150 -35.5150 -35.5119 -35.5092 -35.5083 -35.4892
   -35.4738 -35.4738 -35.4730 -35.4730 -35.4651 -35.4651 -35.4562 -35.4513
   -35.4513 -35.4400 -35.4398 -35.4398 -35.4339 -35.4312 -35.4312 -35.4307
   -14.2220 -13.8731 -13.5669 -13.5669 -13.3873 -13.3322 -13.2451 -13.2451
   -13.0840 -12.8805 -12.8315 -12.8315 -12.7808 -12.7665 -12.7665 -12.7335
   -12.7335 -12.7289 -12.6609 -12.5999 -12.5706 -12.5705 -12.5447 -12.5260
   -12.5259 -12.4902 -12.4372 -12.4371 -12.4287 -12.4157 -12.4157 -12.3361
   -12.3069 -12.3069 -12.2849 -12.2573 -12.2573 -12.1974 -12.1974 -12.0737
   -12.0737 -12.0626 -11.9376 -11.8465 -11.8465 -11.8455 -11.8318 -11.8317
   -11.7516 -11.7343 -11.6975 -11.6975 -11.6716 -11.5863 -11.5862 -11.5630
   -11.5630 -11.5529 -11.5529 -11.4802 -11.4451 -11.4451 -11.4136 -11.3996
   -11.3587 -11.3586 -11.2660 -11.2659 -11.2185 -11.2183 -11.1229 -11.1228
    -4.8655  -4.8655  -4.6944  -4.6943  -4.6763  -4.6763  -4.5495  -4.5495
    -4.4490  -4.4490  -4.2903  -4.2903  -4.0704  -4.0704  -4.0139  -4.0026
    -4.0026  -3.9499  -3.9499  -3.8935  -3.8935  -3.7702  -3.7663  -3.7663
    -3.7552  -3.7428  -3.6946  -3.6946  -3.6137  -3.6137  -3.5989  -3.5989
    -3.5931  -3.5902  -3.5902  -3.5466  -3.4441  -3.4213  -3.3777  -3.3777
    -3.3035  -3.3035  -3.2660  -3.2398  -3.2367  -3.2367  -3.2119  -3.2119
    -3.1392  -3.0737  -3.0139  -3.0138  -2.9297  -2.9130  -2.9130  -2.8903
    -2.8903  -2.8827  -2.8175  -2.8136  -2.7502  -2.7127  -2.7127  -2.6121
    -2.6121  -2.6093  -2.6092  -2.5928  -2.5731  -2.5359  -2.5359  -2.5308
    -2.5308  -2.5283  -2.5283  -2.5272  -2.4833  -2.4659  -2.4658  -2.4392
    -2.4388  -2.4388  -2.4002  -2.4002  -2.3467  -2.3467  -2.3416  -2.3230
    -2.3230  -2.2765  -2.2765  -2.2710  -2.2609  -2.2609  -2.2572  -2.2572
    -2.2491  -2.2490  -2.2071  -2.2071  -2.1347  -2.1347  -2.1163  -2.1014
    -2.0600  -2.0485  -2.0485  -2.0239  -2.0239  -2.0050  -2.0050  -2.0024
    -1.9574  -1.9527  -1.9527  -1.9332  -1.9250  -1.9250  -1.9010  -1.9009
    -1.9009  -1.8986  -1.8986  -1.8577  -1.8577  -1.8188  -1.8114  -1.8049
    -1.7922  -1.7922  -1.7376  -1.7021  -1.7021  -1.6972  -1.6972  -1.6447
    -1.6447  -1.6411  -1.6341  -1.6341  -1.5734  -1.5530  -1.5267  -1.5267
    -1.5253  -1.5253  -1.5007  -1.4651  -1.4651  -1.4522  -1.4358  -1.4357
    -1.4090  -1.4032  -1.4030  -1.3422  -1.3276  -1.3276  -1.3135  -1.3035
    -1.3035  -1.2476  -1.2476  -1.2240  -1.2215  -1.2215  -1.1872  -1.1734
    -1.1733  -1.0721  -1.0721  -1.0711  -1.0703  -1.0678  -1.0591  -1.0590
    -1.0262  -1.0261  -0.9990  -0.9401  -0.9400  -0.9178  -0.9034  -0.9033
    -0.8939  -0.8559  -0.7889  -0.7833  -0.7832  -0.7393  -0.7392  -0.7273
    -0.7272  -0.7257  -0.6943  -0.6328  -0.6088  -0.5354  -0.5168  -0.5102
    -0.5051  -0.4190  -0.4133  -0.4031  -0.4029  -0.4026  -0.4026  -0.2413
    -0.1251  -0.1067   0.0003   0.1382   0.2774   0.5427   0.5624   0.5829
     0.7042   0.7159   0.8317   0.8910   1.0492   1.0493   1.0776   1.1397
     1.5662   1.6338   1.8280   1.9107   1.9108   1.9958   1.9959   2.0043
     2.0169   2.0377   2.2034   2.3929   2.4401   2.4683   2.4824   2.4825
     2.5236   2.5237   2.5321   2.5322   2.5395   2.5421   2.5977   2.5977
     2.6425   2.6483   2.6484   2.6945   2.6946   2.6976   2.6977   2.7746
     2.7912   2.8611   2.8612   2.9147   2.9147   2.9304   2.9768   2.9966
     3.0587   3.0588   3.0755   3.0755   3.0773   3.0848   3.0912   3.0913
     3.1043   3.1043   3.1165   3.1584   3.1585   3.1608   3.2201   3.2203
     3.2595   3.2657   3.2657   3.2708   3.2708   3.3108   3.3647   3.3647
     3.3851   3.3852   3.4545   3.4545   3.4809   3.4809   3.5065   3.5065
     3.5181   3.5182   3.5371   3.5372   3.5428   3.5902   3.6308   3.6309
     3.6367   3.6413   3.6414   3.6798   3.6842   3.7125   3.7125   3.7153
     3.7250   3.7771   3.7771   3.7890   3.7890   3.7947   3.8124   3.8125
     3.8405   3.9124   3.9124   3.9186   3.9215   3.9707   3.9707   4.0165
     4.0569   4.0682   4.0682   4.0847   4.0966   4.0967   4.1005   4.1020
     4.1020   4.1042   4.1042   4.1156   4.1379   4.1524   4.1524   4.1557
     4.1558   4.1576   4.1576   4.1631   4.1793   4.2035   4.2035   4.2418
     4.2453   4.2462   4.2463   4.2463   4.2471   4.2472   4.2603   4.2603
     4.2699   4.2700   4.2760   4.2761   4.2863   4.3236   4.3236   4.3555
     4.3555   4.3737   4.3737   4.3954   4.3954   4.4012   4.4315   4.4331
     4.4332   4.4333   4.4344   4.4344   4.4362   4.4714   4.4716   4.5149
     4.5298   4.5299   4.5507   4.5507   4.5817   4.5887   4.6136   4.6169
     4.6209   4.6384   4.6504   4.6672   4.6784   4.6827   4.6827   4.6841
     4.6841   4.7206   4.7206   4.7285   4.7285   4.7364   4.7432   4.7524
     4.7524   4.7609   4.7610   4.7998   4.8062   4.8068   4.8179   4.8179
     4.8376   4.8555

          k = 0.0000-0.5000 0.0000 (135178 PWs)   bands (ev):

   -61.9060 -61.9059 -61.8884 -61.8884 -61.8884 -61.8884 -61.8733 -61.8733
   -61.8699 -61.8699 -61.8699 -61.8699 -61.8577 -61.8577 -61.8577 -61.8577
   -61.8454 -61.8454 -61.8390 -61.8390 -61.8323 -61.8323 -61.8279 -61.8279
   -61.8279 -61.8279 -61.8213 -61.8213 -61.8213 -61.8213 -61.8188 -61.8188
   -61.8172 -61.8172 -61.8171 -61.8171 -61.8103 -61.8103 -61.8103 -61.8103
   -61.8013 -61.8013 -61.7994 -61.7994 -61.7966 -61.7966 -61.7965 -61.7964
   -61.7845 -61.7845 -61.7844 -61.7844 -61.7724 -61.7724 -61.7333 -61.7332
   -61.7300 -61.7300 -61.7299 -61.7299 -61.7286 -61.7286 -61.7285 -61.7285
   -61.7234 -61.7234 -61.7177 -61.7176 -61.7176 -61.7176 -61.7067 -61.7066
   -36.0048 -36.0048 -36.0048 -36.0048 -35.9837 -35.9837 -35.9837 -35.9837
   -35.9659 -35.9659 -35.9659 -35.9659 -35.9581 -35.9581 -35.9575 -35.9575
   -35.9297 -35.9296 -35.9296 -35.9296 -35.9068 -35.9068 -35.9068 -35.9068
   -35.8978 -35.8978 -35.8978 -35.8978 -35.8961 -35.8961 -35.8951 -35.8950
   -35.8950 -35.8950 -35.8857 -35.8857 -35.8857 -35.8857 -35.8818 -35.8818
   -35.8762 -35.8761 -35.8761 -35.8761 -35.8746 -35.8746 -35.8734 -35.8734
   -35.8734 -35.8734 -35.8676 -35.8675 -35.8481 -35.8481 -35.8429 -35.8429
   -35.8138 -35.8138 -35.8138 -35.8138 -35.8124 -35.8124 -35.8055 -35.8055
   -35.7909 -35.7909 -35.7818 -35.7818 -35.7818 -35.7818 -35.7800 -35.7800
   -35.7721 -35.7721 -35.7634 -35.7634 -35.7634 -35.7634 -35.7346 -35.7346
   -35.7286 -35.7286 -35.7249 -35.7249 -35.7216 -35.7216 -35.7108 -35.7107
   -35.7107 -35.7107 -35.6996 -35.6996 -35.6996 -35.6996 -35.6922 -35.6922
   -35.6922 -35.6922 -35.6920 -35.6920 -35.6920 -35.6920 -35.6917 -35.6917
   -35.6850 -35.6850 -35.6845 -35.6844 -35.6844 -35.6844 -35.6803 -35.6803
   -35.6775 -35.6774 -35.6726 -35.6726 -35.6726 -35.6726 -35.6715 -35.6715
   -35.6634 -35.6634 -35.6634 -35.6634 -35.6610 -35.6610 -35.6315 -35.6315
   -35.6315 -35.6315 -35.6305 -35.6305 -35.6305 -35.6305 -35.6299 -35.6299
   -35.6142 -35.6142 -35.6142 -35.6142 -35.6129 -35.6129 -35.6129 -35.6129
   -35.6098 -35.6098 -35.6097 -35.6097 -35.6054 -35.6054 -35.6054 -35.6054
   -35.6031 -35.6031 -35.5984 -35.5984 -35.5984 -35.5984 -35.5982 -35.5981
   -35.5976 -35.5976 -35.5930 -35.5930 -35.5929 -35.5929 -35.5929 -35.5929
   -35.5853 -35.5852 -35.5852 -35.5852 -35.5681 -35.5681 -35.5681 -35.5681
   -35.5530 -35.5530 -35.5481 -35.5481 -35.5481 -35.5481 -35.5469 -35.5469
   -35.5469 -35.5469 -35.5403 -35.5402 -35.5402 -35.5402 -35.5223 -35.5223
   -35.5223 -35.5223 -35.5182 -35.5182 -35.5176 -35.5175 -35.5032 -35.5031
   -35.4740 -35.4739 -35.4739 -35.4739 -35.4580 -35.4580 -35.4580 -35.4580
   -35.4429 -35.4429 -35.4349 -35.4348 -35.4348 -35.4348 -35.4348 -35.4348
   -14.0851 -14.0850 -13.4399 -13.4399 -13.4399 -13.4399 -13.2665 -13.2665
   -13.0766 -13.0766 -12.7469 -12.7469 -12.7256 -12.7256 -12.7256 -12.7256
   -12.6455 -12.6454 -12.6454 -12.6454 -12.5618 -12.5618 -12.5618 -12.5618
   -12.5543 -12.5543 -12.5039 -12.5039 -12.4401 -12.4401 -12.3665 -12.3664
   -12.3664 -12.3664 -12.2273 -12.2273 -12.1858 -12.1858 -12.1858 -12.1858
   -11.9812 -11.9811 -11.9811 -11.9811 -11.8076 -11.8076 -11.8023 -11.8023
   -11.7329 -11.7329 -11.7328 -11.7328 -11.6354 -11.6354 -11.6354 -11.6354
   -11.5123 -11.5123 -11.4731 -11.4731 -11.4731 -11.4731 -11.4418 -11.4418
   -11.2979 -11.2979 -11.2978 -11.2978 -11.1607 -11.1607 -11.1606 -11.1606
    -4.8628  -4.8628  -4.8628  -4.8628  -4.6841  -4.6840  -4.6840  -4.6840
    -4.1800  -4.1800  -4.1800  -4.1799  -4.0074  -4.0074  -4.0074  -4.0074
    -3.9326  -3.9326  -3.8394  -3.8394  -3.8394  -3.8394  -3.8301  -3.8301
    -3.8300  -3.8300  -3.6692  -3.6692  -3.5627  -3.5627  -3.5611  -3.5611
    -3.5611  -3.5611  -3.5566  -3.5566  -3.5565  -3.5565  -3.4740  -3.4739
    -3.3988  -3.3988  -3.3987  -3.3987  -3.2167  -3.2167  -3.1211  -3.1211
    -3.1210  -3.1210  -3.1173  -3.1173  -3.0781  -3.0781  -2.7139  -2.7139
    -2.6935  -2.6935  -2.6935  -2.6934  -2.6775  -2.6775  -2.6775  -2.6775
    -2.6524  -2.6524  -2.5860  -2.5860  -2.5860  -2.5860  -2.5706  -2.5706
    -2.5706  -2.5706  -2.5706  -2.5706  -2.5203  -2.5203  -2.5203  -2.5203
    -2.4553  -2.4553  -2.4506  -2.4506  -2.4506  -2.4506  -2.4476  -2.4475
    -2.3217  -2.3217  -2.3217  -2.3217  -2.3001  -2.3001  -2.3001  -2.3001
    -2.1790  -2.1790  -2.1051  -2.1051  -2.0911  -2.0911  -2.0911  -2.0911
    -2.0597  -2.0597  -2.0596  -2.0596  -2.0584  -2.0584  -1.9737  -1.9737
    -1.9737  -1.9737  -1.9694  -1.9693  -1.9693  -1.9693  -1.8991  -1.8991
    -1.8991  -1.8991  -1.7721  -1.7721  -1.7721  -1.7721  -1.7674  -1.7673
    -1.6245  -1.6245  -1.6244  -1.6244  -1.6207  -1.6207  -1.6207  -1.6207
    -1.5516  -1.5516  -1.5516  -1.5516  -1.5413  -1.5413  -1.5413  -1.5413
    -1.5410  -1.5410  -1.5357  -1.5357  -1.5021  -1.5021  -1.3964  -1.3964
    -1.3735  -1.3735  -1.3734  -1.3734  -1.3662  -1.3662  -1.2429  -1.2429
    -1.2429  -1.2429  -1.1982  -1.1982  -1.1718  -1.1718  -1.1255  -1.1255
    -1.1254  -1.1254  -1.0668  -1.0667  -1.0402  -1.0402  -1.0402  -1.0402
    -1.0077  -1.0077  -1.0077  -1.0077  -0.9111  -0.9110  -0.8931  -0.8930
    -0.8930  -0.8930  -0.8898  -0.8898  -0.8168  -0.8168  -0.6766  -0.6766
    -0.6636  -0.6636  -0.6636  -0.6636  -0.6423  -0.6423  -0.6117  -0.6117
    -0.5612  -0.5612  -0.5611  -0.5611  -0.4584  -0.4584  -0.1113  -0.1113
    -0.0593  -0.0592   0.1130   0.1130   0.1328   0.1328   0.3210   0.3210
     0.6058   0.6058   1.2027   1.2028   1.3141   1.3141   1.4162   1.4162
     1.4714   1.4714   1.4715   1.4715   1.5575   1.5576   2.0669   2.0669
     2.1969   2.1969   2.1969   2.1970   2.3631   2.3631   2.4188   2.4188
     2.4710   2.4710   2.4711   2.4711   2.6166   2.6167   2.6167   2.6168
     2.6465   2.6466   2.6753   2.6753   2.6924   2.6924   2.7438   2.7439
     2.7786   2.7786   2.7787   2.7787   2.8243   2.8243   2.8244   2.8244
     2.8583   2.8583   2.8583   2.8583   2.9924   2.9924   3.1046   3.1046
     3.1046   3.1046   3.2062   3.2063   3.2063   3.2063   3.3161   3.3161
     3.3162   3.3163   3.3536   3.3536   3.3623   3.3623   3.3623   3.3623
     3.3720   3.3720   3.3720   3.3720   3.4409   3.4409   3.5084   3.5084
     3.5085   3.5085   3.6440   3.6440   3.6884   3.6884   3.7010   3.7010
     3.7010   3.7010   3.8279   3.8279   3.8279   3.8279   3.8595   3.8595
     3.8595   3.8595   3.8632   3.8632   3.9127   3.9127   3.9306   3.9306
     3.9520   3.9520   3.9520   3.9520   3.9623   3.9623   4.0290   4.0290
     4.0290   4.0290   4.0468   4.0468   4.0560   4.0560   4.0560   4.0560
     4.0566   4.0566   4.0566   4.0566   4.0567   4.0567   4.0891   4.0891
     4.1502   4.1502   4.1502   4.1502   4.2177   4.2177   4.2177   4.2177
     4.2250   4.2251   4.2251   4.2251   4.2400   4.2400   4.2400   4.2400
     4.3138   4.3138   4.3165   4.3165   4.3367   4.3367   4.3367   4.3367
     4.4091   4.4091   4.4475   4.4475   4.4477   4.4477   4.4509   4.4509
     4.4717   4.4717   4.4718   4.4718   4.4816   4.4816   4.4817   4.4817
     4.5095   4.5095   4.5225   4.5225   4.6224   4.6224   4.6224   4.6225
     4.6357   4.6357   4.6360   4.6360   4.6361   4.6361   4.6788   4.6788
     4.6845   4.6845   4.6903   4.6903   4.7519   4.7520   4.7583   4.7583
     4.7692   4.7693   4.7693   4.7693   4.7704   4.7707   4.7708   4.7711
     4.7874   4.7874

          k = 0.2500 0.2500 0.0000 (135083 PWs)   bands (ev):

   -61.9086 -61.8987 -61.8986 -61.8908 -61.8821 -61.8821 -61.8779 -61.8779
   -61.8718 -61.8668 -61.8647 -61.8647 -61.8644 -61.8643 -61.8552 -61.8506
   -61.8506 -61.8435 -61.8415 -61.8339 -61.8332 -61.8332 -61.8294 -61.8271
   -61.8271 -61.8240 -61.8240 -61.8238 -61.8238 -61.8230 -61.8204 -61.8195
   -61.8167 -61.8166 -61.8139 -61.8138 -61.8106 -61.8106 -61.8091 -61.8057
   -61.8057 -61.8040 -61.8040 -61.7984 -61.7977 -61.7930 -61.7917 -61.7917
   -61.7914 -61.7914 -61.7817 -61.7775 -61.7775 -61.7705 -61.7339 -61.7317
   -61.7317 -61.7310 -61.7303 -61.7288 -61.7288 -61.7286 -61.7271 -61.7271
   -61.7239 -61.7239 -61.7199 -61.7199 -61.7168 -61.7113 -61.7113 -61.7049
   -36.0225 -36.0113 -36.0008 -35.9920 -35.9873 -35.9873 -35.9832 -35.9713
   -35.9632 -35.9605 -35.9605 -35.9568 -35.9568 -35.9535 -35.9535 -35.9458
   -35.9367 -35.9367 -35.9277 -35.9276 -35.9239 -35.9195 -35.9194 -35.9115
   -35.9104 -35.9046 -35.9007 -35.8991 -35.8991 -35.8972 -35.8972 -35.8965
   -35.8941 -35.8889 -35.8888 -35.8888 -35.8888 -35.8826 -35.8812 -35.8811
   -35.8785 -35.8785 -35.8731 -35.8731 -35.8713 -35.8671 -35.8671 -35.8633
   -35.8633 -35.8614 -35.8613 -35.8591 -35.8591 -35.8387 -35.8387 -35.8357
   -35.8357 -35.8237 -35.8237 -35.8165 -35.8101 -35.8100 -35.7994 -35.7994
   -35.7977 -35.7940 -35.7940 -35.7863 -35.7840 -35.7816 -35.7807 -35.7807
   -35.7683 -35.7683 -35.7555 -35.7555 -35.7548 -35.7393 -35.7393 -35.7350
   -35.7350 -35.7345 -35.7345 -35.7279 -35.7279 -35.7235 -35.7134 -35.7134
   -35.7118 -35.7076 -35.7076 -35.7066 -35.7038 -35.7038 -35.7010 -35.7010
   -35.6998 -35.6998 -35.6998 -35.6908 -35.6890 -35.6871 -35.6828 -35.6825
   -35.6825 -35.6801 -35.6801 -35.6799 -35.6799 -35.6791 -35.6791 -35.6778
   -35.6775 -35.6751 -35.6712 -35.6697 -35.6697 -35.6662 -35.6626 -35.6626
   -35.6604 -35.6604 -35.6538 -35.6507 -35.6458 -35.6436 -35.6436 -35.6407
   -35.6407 -35.6398 -35.6398 -35.6393 -35.6365 -35.6365 -35.6322 -35.6245
   -35.6221 -35.6221 -35.6189 -35.6183 -35.6151 -35.6151 -35.6141 -35.6113
   -35.6113 -35.6109 -35.6100 -35.6100 -35.6082 -35.6082 -35.6049 -35.6049
   -35.6030 -35.6030 -35.6025 -35.6025 -35.6003 -35.5992 -35.5992 -35.5981
   -35.5981 -35.5927 -35.5927 -35.5912 -35.5893 -35.5892 -35.5880 -35.5811
   -35.5811 -35.5801 -35.5752 -35.5735 -35.5659 -35.5659 -35.5653 -35.5653
   -35.5652 -35.5632 -35.5529 -35.5529 -35.5528 -35.5506 -35.5506 -35.5505
   -35.5479 -35.5414 -35.5414 -35.5408 -35.5379 -35.5379 -35.5299 -35.5299
   -35.5253 -35.5186 -35.5186 -35.5182 -35.5094 -35.5086 -35.5052 -35.4888
   -35.4888 -35.4823 -35.4645 -35.4631 -35.4631 -35.4573 -35.4573 -35.4569
   -35.4451 -35.4451 -35.4383 -35.4361 -35.4354 -35.4353 -35.4314 -35.4314
   -14.1749 -13.8277 -13.8276 -13.4936 -13.3455 -13.2902 -13.2902 -13.0444
   -13.0444 -12.9856 -12.9856 -12.8445 -12.8445 -12.7638 -12.7630 -12.7022
   -12.7022 -12.6269 -12.6269 -12.5946 -12.5946 -12.5839 -12.5522 -12.5508
   -12.5081 -12.4741 -12.4741 -12.4048 -12.4048 -12.3966 -12.3966 -12.3741
   -12.3388 -12.2983 -12.2611 -12.2611 -12.2503 -12.2503 -12.1627 -12.1587
   -12.0263 -12.0263 -12.0087 -11.9070 -11.9070 -11.8284 -11.7673 -11.7313
   -11.7313 -11.7088 -11.7088 -11.6975 -11.6975 -11.6391 -11.6391 -11.6081
   -11.5410 -11.5410 -11.4646 -11.4485 -11.4133 -11.4133 -11.3876 -11.3876
   -11.3834 -11.3802 -11.3802 -11.2654 -11.2177 -11.2177 -11.1402 -11.0644
    -5.0555  -4.9637  -4.8499  -4.7842  -4.5796  -4.5796  -4.4060  -4.4060
    -4.3504  -4.3503  -4.2297  -4.2296  -4.1987  -4.0845  -4.0845  -4.0720
    -4.0547  -3.9048  -3.8529  -3.8529  -3.8380  -3.8376  -3.8375  -3.7866
    -3.7866  -3.7409  -3.6688  -3.6688  -3.6176  -3.6159  -3.6159  -3.5687
    -3.5687  -3.5641  -3.5534  -3.5391  -3.5391  -3.4408  -3.3695  -3.3694
    -3.3235  -3.3235  -3.2812  -3.2812  -3.2496  -3.2447  -3.1676  -3.1408
    -3.1407  -3.1129  -3.1129  -2.9634  -2.9634  -2.9546  -2.9546  -2.9087
    -2.9087  -2.9022  -2.9022  -2.7892  -2.7667  -2.6948  -2.6853  -2.6306
    -2.6257  -2.6257  -2.6152  -2.6107  -2.6107  -2.6029  -2.5817  -2.5813
    -2.5524  -2.5234  -2.5064  -2.5064  -2.4989  -2.4840  -2.4840  -2.4690
    -2.4690  -2.4528  -2.4528  -2.3783  -2.3621  -2.3621  -2.3598  -2.3598
    -2.3503  -2.2938  -2.2925  -2.2925  -2.2634  -2.2634  -2.1762  -2.1762
    -2.1568  -2.1568  -2.1272  -2.1225  -2.1225  -2.1200  -2.1200  -2.1175
    -2.1175  -2.0869  -2.0869  -2.0622  -2.0382  -2.0382  -2.0256  -1.9759
    -1.9759  -1.9589  -1.9589  -1.9555  -1.9519  -1.9519  -1.9013  -1.9013
    -1.8611  -1.8601  -1.8595  -1.8405  -1.8147  -1.8147  -1.7547  -1.7184
    -1.7184  -1.7104  -1.6781  -1.6781  -1.6464  -1.6338  -1.6260  -1.6112
    -1.6112  -1.6089  -1.5928  -1.5638  -1.5476  -1.5475  -1.5453  -1.5393
    -1.5393  -1.4643  -1.4643  -1.4570  -1.4250  -1.4250  -1.4074  -1.4074
    -1.4057  -1.3421  -1.3421  -1.3347  -1.3347  -1.2760  -1.2760  -1.2570
    -1.2549  -1.2549  -1.2532  -1.2532  -1.1725  -1.1598  -1.1543  -1.1195
    -1.1194  -1.1088  -1.1088  -1.0988  -1.0873  -1.0553  -1.0553  -1.0306
    -1.0287  -1.0287  -1.0274  -0.9977  -0.9977  -0.9319  -0.9319  -0.9204
    -0.8646  -0.8646  -0.8108  -0.8108  -0.7676  -0.7676  -0.7446  -0.7446
    -0.7317  -0.6880  -0.6389  -0.6152  -0.6151  -0.5864  -0.5864  -0.5689
    -0.5553  -0.5553  -0.5321  -0.4207  -0.4207  -0.3219  -0.2283  -0.2203
    -0.2203  -0.1269  -0.1269   0.0110   0.0921   0.3140   0.4806   0.7514
     0.7939   0.8124   0.9268   0.9268   0.9431   1.1717   1.2266   1.2266
     1.6809   1.6809   1.7887   1.8445   1.8712   1.8712   1.9814   1.9814
     2.0646   2.0766   2.0766   2.1155   2.1155   2.1631   2.2428   2.2428
     2.3847   2.4283   2.4311   2.4311   2.4673   2.4906   2.5281   2.5281
     2.5510   2.6108   2.6553   2.6553   2.7480   2.7480   2.7633   2.7718
     2.8371   2.8371   2.9162   2.9162   2.9187   2.9187   2.9558   2.9558
     2.9837   2.9958   2.9958   3.0268   3.0331   3.0505   3.0961   3.1483
     3.1483   3.1570   3.1571   3.2200   3.2200   3.2432   3.2562   3.2626
     3.2626   3.2929   3.3189   3.3190   3.3261   3.3261   3.3437   3.3758
     3.3758   3.4165   3.5075   3.5075   3.5143   3.5143   3.5286   3.5511
     3.5511   3.5530   3.5530   3.6038   3.6038   3.6317   3.6688   3.6688
     3.6710   3.6710   3.6813   3.7076   3.7076   3.7428   3.7598   3.7727
     3.8063   3.8063   3.8071   3.8569   3.8930   3.8930   3.8946   3.8946
     3.9098   3.9814   3.9814   3.9816   3.9964   3.9964   4.0092   4.0170
     4.0202   4.0202   4.0249   4.0609   4.0655   4.0655   4.0684   4.0684
     4.1007   4.1008   4.1244   4.1406   4.1406   4.1470   4.1475   4.1475
     4.1599   4.1725   4.1725   4.1804   4.1804   4.1901   4.1980   4.1992
     4.2132   4.2132   4.2254   4.2308   4.2308   4.2369   4.2369   4.2651
     4.2700   4.2729   4.2729   4.3037   4.3084   4.3157   4.3157   4.3391
     4.3392   4.3460   4.3460   4.3465   4.3938   4.4031   4.4031   4.4289
     4.4289   4.4549   4.4726   4.4726   4.5038   4.5275   4.5379   4.5611
     4.5611   4.5789   4.6048   4.6048   4.6057   4.6057   4.6405   4.6430
     4.6430   4.6442   4.6442   4.6612   4.6612   4.6712   4.6712   4.6787
     4.6788   4.6905   4.6905   4.7002   4.7196   4.7410   4.7513   4.7513
     4.7609   4.7764   4.7764   4.7827   4.7827   4.7836   4.7892   4.7973
     4.7973   4.8042

          k = 0.2500-0.5000 0.0000 (135080 PWs)   bands (ev):

   -61.9047 -61.9047 -61.8956 -61.8956 -61.8804 -61.8804 -61.8730 -61.8730
   -61.8710 -61.8710 -61.8690 -61.8690 -61.8644 -61.8644 -61.8523 -61.8523
   -61.8462 -61.8462 -61.8379 -61.8379 -61.8316 -61.8316 -61.8316 -61.8316
   -61.8243 -61.8243 -61.8239 -61.8239 -61.8219 -61.8219 -61.8204 -61.8204
   -61.8190 -61.8190 -61.8150 -61.8150 -61.8087 -61.8086 -61.8060 -61.8060
   -61.8009 -61.8009 -61.8002 -61.8002 -61.7982 -61.7982 -61.7952 -61.7952
   -61.7915 -61.7915 -61.7790 -61.7790 -61.7731 -61.7731 -61.7331 -61.7330
   -61.7315 -61.7314 -61.7299 -61.7299 -61.7279 -61.7278 -61.7268 -61.7268
   -61.7238 -61.7238 -61.7216 -61.7215 -61.7136 -61.7135 -61.7075 -61.7075
   -36.0229 -36.0229 -36.0028 -36.0028 -35.9762 -35.9762 -35.9703 -35.9703
   -35.9652 -35.9652 -35.9558 -35.9558 -35.9535 -35.9535 -35.9485 -35.9485
   -35.9309 -35.9309 -35.9259 -35.9259 -35.9223 -35.9223 -35.9188 -35.9188
   -35.9087 -35.9087 -35.9022 -35.9022 -35.8999 -35.8999 -35.8979 -35.8979
   -35.8977 -35.8977 -35.8862 -35.8862 -35.8839 -35.8839 -35.8832 -35.8832
   -35.8790 -35.8790 -35.8755 -35.8755 -35.8748 -35.8748 -35.8670 -35.8670
   -35.8615 -35.8615 -35.8565 -35.8565 -35.8535 -35.8535 -35.8362 -35.8361
   -35.8326 -35.8326 -35.8155 -35.8155 -35.8102 -35.8101 -35.8027 -35.8027
   -35.7998 -35.7998 -35.7947 -35.7947 -35.7775 -35.7775 -35.7736 -35.7736
   -35.7625 -35.7625 -35.7505 -35.7505 -35.7479 -35.7479 -35.7426 -35.7426
   -35.7306 -35.7306 -35.7236 -35.7236 -35.7196 -35.7196 -35.7163 -35.7163
   -35.7115 -35.7115 -35.7051 -35.7051 -35.7033 -35.7033 -35.7020 -35.7020
   -35.7014 -35.7014 -35.6913 -35.6913 -35.6911 -35.6911 -35.6875 -35.6875
   -35.6836 -35.6836 -35.6830 -35.6830 -35.6801 -35.6801 -35.6741 -35.6741
   -35.6725 -35.6725 -35.6718 -35.6718 -35.6706 -35.6706 -35.6676 -35.6676
   -35.6659 -35.6659 -35.6603 -35.6603 -35.6461 -35.6461 -35.6438 -35.6438
   -35.6425 -35.6425 -35.6289 -35.6289 -35.6263 -35.6263 -35.6242 -35.6242
   -35.6230 -35.6230 -35.6216 -35.6216 -35.6201 -35.6201 -35.6170 -35.6170
   -35.6167 -35.6167 -35.6073 -35.6073 -35.6069 -35.6069 -35.6038 -35.6038
   -35.6014 -35.6014 -35.6009 -35.6009 -35.5997 -35.5997 -35.5974 -35.5974
   -35.5966 -35.5966 -35.5911 -35.5911 -35.5888 -35.5888 -35.5870 -35.5870
   -35.5790 -35.5790 -35.5777 -35.5777 -35.5618 -35.5618 -35.5608 -35.5607
   -35.5537 -35.5537 -35.5531 -35.5531 -35.5530 -35.5530 -35.5510 -35.5510
   -35.5453 -35.5453 -35.5436 -35.5436 -35.5391 -35.5391 -35.5357 -35.5357
   -35.5293 -35.5293 -35.5105 -35.5105 -35.5089 -35.5089 -35.5017 -35.5016
   -35.4871 -35.4870 -35.4615 -35.4615 -35.4599 -35.4599 -35.4529 -35.4529
   -35.4442 -35.4442 -35.4394 -35.4393 -35.4345 -35.4345 -35.4334 -35.4334
   -14.0386 -14.0386 -13.6962 -13.6962 -13.2254 -13.2254 -13.1693 -13.1693
   -13.0372 -13.0372 -12.9313 -12.9313 -12.7560 -12.7560 -12.7426 -12.7426
   -12.7258 -12.7257 -12.6318 -12.6318 -12.5388 -12.5387 -12.5317 -12.5317
   -12.4745 -12.4745 -12.4318 -12.4318 -12.4042 -12.4042 -12.3873 -12.3873
   -12.3411 -12.3411 -12.2855 -12.2855 -12.1901 -12.1900 -12.1524 -12.1524
   -12.1337 -12.1337 -11.9227 -11.9226 -11.8211 -11.8211 -11.7840 -11.7840
   -11.7794 -11.7794 -11.6770 -11.6770 -11.6383 -11.6383 -11.5898 -11.5898
   -11.5472 -11.5471 -11.4827 -11.4827 -11.4248 -11.4248 -11.3828 -11.3828
   -11.3290 -11.3289 -11.3159 -11.3158 -11.2830 -11.2830 -11.0678 -11.0678
    -5.0931  -5.0931  -4.8894  -4.8894  -4.5452  -4.5452  -4.3856  -4.3856
    -4.2883  -4.2883  -4.1025  -4.1025  -4.0665  -4.0665  -4.0379  -4.0378
    -4.0104  -4.0104  -3.9369  -3.9369  -3.8736  -3.8736  -3.8023  -3.8023
    -3.7802  -3.7802  -3.7585  -3.7585  -3.6910  -3.6910  -3.5747  -3.5747
    -3.5660  -3.5660  -3.5021  -3.5020  -3.4677  -3.4677  -3.3183  -3.3183
    -3.3095  -3.3095  -3.2615  -3.2615  -3.2506  -3.2506  -3.1788  -3.1788
    -3.1358  -3.1358  -3.0630  -3.0630  -3.0253  -3.0253  -3.0185  -3.0185
    -2.8733  -2.8733  -2.8269  -2.8269  -2.7615  -2.7615  -2.7437  -2.7437
    -2.7024  -2.7024  -2.5965  -2.5965  -2.5859  -2.5859  -2.5709  -2.5709
    -2.5287  -2.5287  -2.4796  -2.4796  -2.4778  -2.4778  -2.4371  -2.4371
    -2.4025  -2.4025  -2.4022  -2.4022  -2.3603  -2.3603  -2.3485  -2.3484
    -2.3363  -2.3363  -2.2719  -2.2719  -2.2714  -2.2714  -2.2595  -2.2595
    -2.2205  -2.2204  -2.2012  -2.2012  -2.1696  -2.1696  -2.1641  -2.1640
    -2.1042  -2.1042  -2.0991  -2.0991  -2.0589  -2.0588  -2.0406  -2.0406
    -2.0329  -2.0329  -1.9370  -1.9370  -1.9197  -1.9197  -1.8947  -1.8947
    -1.7393  -1.7393  -1.6983  -1.6983  -1.6842  -1.6842  -1.6670  -1.6670
    -1.6593  -1.6593  -1.6359  -1.6359  -1.6318  -1.6318  -1.5392  -1.5391
    -1.5369  -1.5369  -1.5366  -1.5366  -1.5144  -1.5144  -1.5031  -1.5031
    -1.4523  -1.4522  -1.4329  -1.4328  -1.3745  -1.3745  -1.3638  -1.3638
    -1.3567  -1.3567  -1.3566  -1.3566  -1.3416  -1.3416  -1.3183  -1.3183
    -1.3045  -1.3045  -1.2438  -1.2438  -1.2189  -1.2189  -1.1432  -1.1432
    -1.1232  -1.1231  -1.1000  -1.0999  -1.0519  -1.0519  -1.0339  -1.0339
    -1.0257  -1.0257  -0.9986  -0.9986  -0.9605  -0.9605  -0.8845  -0.8845
    -0.8739  -0.8739  -0.7822  -0.7822  -0.7718  -0.7718  -0.7577  -0.7577
    -0.7050  -0.7050  -0.6958  -0.6958  -0.6631  -0.6631  -0.6355  -0.6355
    -0.5005  -0.5005  -0.4034  -0.4034  -0.3812  -0.3812  -0.3462  -0.3462
    -0.1719  -0.1719  -0.0537  -0.0537   0.0498   0.0498   0.2680   0.2680
     0.8672   0.8672   1.2600   1.2601   1.3807   1.3808   1.4093   1.4093
     1.4436   1.4436   1.6044   1.6044   1.6109   1.6109   1.9615   1.9615
     1.9941   1.9941   2.0341   2.0341   2.1440   2.1440   2.2638   2.2638
     2.2800   2.2800   2.4058   2.4058   2.4291   2.4292   2.4690   2.4690
     2.5736   2.5736   2.6560   2.6561   2.6767   2.6768   2.7137   2.7138
     2.7457   2.7457   2.7715   2.7715   2.7821   2.7821   2.9020   2.9021
     2.9839   2.9839   2.9974   2.9975   3.0071   3.0072   3.1164   3.1164
     3.1374   3.1374   3.2060   3.2060   3.2139   3.2139   3.2662   3.2662
     3.3721   3.3721   3.3866   3.3866   3.3894   3.3894   3.4006   3.4006
     3.4887   3.4887   3.5622   3.5622   3.5672   3.5672   3.6005   3.6005
     3.6023   3.6023   3.6509   3.6509   3.6758   3.6758   3.7392   3.7392
     3.7730   3.7730   3.7994   3.7994   3.8272   3.8272   3.8438   3.8438
     3.8624   3.8624   3.8884   3.8884   3.8929   3.8929   3.9205   3.9205
     3.9515   3.9515   3.9620   3.9620   3.9796   3.9796   3.9943   3.9943
     4.0257   4.0257   4.0270   4.0270   4.0407   4.0407   4.0425   4.0425
     4.0693   4.0693   4.0765   4.0765   4.0830   4.0830   4.0836   4.0836
     4.1063   4.1063   4.1323   4.1323   4.1331   4.1331   4.1746   4.1746
     4.1887   4.1887   4.2049   4.2049   4.2302   4.2302   4.2336   4.2336
     4.2417   4.2417   4.3674   4.3674   4.3946   4.3946   4.4047   4.4047
     4.4112   4.4112   4.4147   4.4147   4.4329   4.4329   4.4694   4.4695
     4.5245   4.5245   4.5451   4.5451   4.5507   4.5507   4.5558   4.5558
     4.5600   4.5600   4.5769   4.5769   4.5887   4.5887   4.6451   4.6451
     4.6695   4.6695   4.6818   4.6819   4.6859   4.6859   4.6923   4.6923
     4.7032   4.7032   4.7212   4.7212   4.7240   4.7240   4.7269   4.7269
     4.7450   4.7453   4.7472   4.7472   4.7752   4.7771   4.7926   4.7931
     4.7969   4.7969

          k =-0.5000-0.5000 0.0000 (135004 PWs)   bands (ev):

   -61.9012 -61.9012 -61.9012 -61.9011 -61.8722 -61.8722 -61.8722 -61.8722
   -61.8722 -61.8722 -61.8722 -61.8722 -61.8686 -61.8686 -61.8485 -61.8485
   -61.8485 -61.8485 -61.8351 -61.8351 -61.8351 -61.8351 -61.8292 -61.8292
   -61.8292 -61.8292 -61.8222 -61.8222 -61.8196 -61.8196 -61.8196 -61.8196
   -61.8196 -61.8196 -61.8196 -61.8196 -61.8025 -61.8025 -61.8025 -61.8025
   -61.7999 -61.7999 -61.7999 -61.7999 -61.7998 -61.7998 -61.7997 -61.7997
   -61.7947 -61.7947 -61.7753 -61.7753 -61.7752 -61.7752 -61.7325 -61.7325
   -61.7325 -61.7324 -61.7305 -61.7305 -61.7251 -61.7251 -61.7251 -61.7251
   -61.7251 -61.7250 -61.7250 -61.7250 -61.7100 -61.7100 -61.7099 -61.7099
   -36.0291 -36.0291 -36.0093 -36.0093 -35.9697 -35.9697 -35.9697 -35.9697
   -35.9398 -35.9398 -35.9398 -35.9398 -35.9398 -35.9398 -35.9397 -35.9397
   -35.9384 -35.9384 -35.9384 -35.9383 -35.9276 -35.9276 -35.9154 -35.9154
   -35.9154 -35.9154 -35.9154 -35.9154 -35.9154 -35.9154 -35.9080 -35.9080
   -35.9052 -35.9052 -35.9052 -35.9052 -35.8884 -35.8884 -35.8884 -35.8884
   -35.8673 -35.8673 -35.8673 -35.8673 -35.8561 -35.8561 -35.8561 -35.8561
   -35.8561 -35.8561 -35.8561 -35.8561 -35.8348 -35.8347 -35.8347 -35.8347
   -35.8347 -35.8347 -35.8347 -35.8347 -35.8276 -35.8275 -35.8275 -35.8275
   -35.7896 -35.7895 -35.7895 -35.7895 -35.7685 -35.7685 -35.7685 -35.7685
   -35.7552 -35.7552 -35.7552 -35.7552 -35.7321 -35.7320 -35.7320 -35.7320
   -35.7320 -35.7320 -35.7320 -35.7320 -35.7213 -35.7213 -35.7213 -35.7213
   -35.7089 -35.7089 -35.7089 -35.7089 -35.7051 -35.7051 -35.7050 -35.7050
   -35.7050 -35.7050 -35.7050 -35.7050 -35.6946 -35.6946 -35.6945 -35.6945
   -35.6793 -35.6793 -35.6793 -35.6793 -35.6781 -35.6780 -35.6780 -35.6780
   -35.6671 -35.6671 -35.6588 -35.6588 -35.6587 -35.6587 -35.6587 -35.6587
   -35.6587 -35.6587 -35.6490 -35.6490 -35.6490 -35.6489 -35.6405 -35.6405
   -35.6405 -35.6405 -35.6405 -35.6405 -35.6405 -35.6405 -35.6405 -35.6405
   -35.6268 -35.6268 -35.6268 -35.6268 -35.6265 -35.6265 -35.6265 -35.6265
   -35.6233 -35.6232 -35.6035 -35.6035 -35.6035 -35.6035 -35.6008 -35.6008
   -35.6008 -35.6008 -35.6008 -35.6008 -35.6008 -35.6008 -35.5906 -35.5906
   -35.5906 -35.5906 -35.5844 -35.5844 -35.5844 -35.5844 -35.5746 -35.5746
   -35.5713 -35.5713 -35.5713 -35.5713 -35.5712 -35.5712 -35.5712 -35.5712
   -35.5526 -35.5526 -35.5526 -35.5526 -35.5526 -35.5526 -35.5526 -35.5526
   -35.5476 -35.5476 -35.5472 -35.5471 -35.5387 -35.5387 -35.5387 -35.5387
   -35.5368 -35.5368 -35.5060 -35.5060 -35.5060 -35.5060 -35.4966 -35.4965
   -35.4965 -35.4965 -35.4627 -35.4627 -35.4479 -35.4479 -35.4479 -35.4479
   -35.4479 -35.4478 -35.4478 -35.4478 -35.4338 -35.4338 -35.4337 -35.4337
   -13.9041 -13.9041 -13.9040 -13.9040 -13.1079 -13.1079 -13.1079 -13.1079
   -12.9245 -12.9245 -12.9245 -12.9245 -12.9245 -12.9245 -12.9245 -12.9245
   -12.6747 -12.6747 -12.6746 -12.6746 -12.4956 -12.4955 -12.4955 -12.4955
   -12.3940 -12.3940 -12.3940 -12.3940 -12.3940 -12.3940 -12.3940 -12.3940
   -12.3057 -12.3057 -12.3025 -12.3025 -12.3025 -12.3025 -12.1299 -12.1299
   -12.0835 -12.0834 -12.0834 -12.0834 -11.7359 -11.7359 -11.7358 -11.7358
   -11.7009 -11.7009 -11.7009 -11.7009 -11.7009 -11.7009 -11.7009 -11.7009
   -11.4002 -11.4002 -11.4002 -11.4002 -11.4001 -11.4001 -11.4000 -11.4000
   -11.3807 -11.3807 -11.3807 -11.3807 -11.3483 -11.3483 -11.0332 -11.0332
    -5.1769  -5.1769  -4.9617  -4.9617  -4.2308  -4.2308  -4.2308  -4.2308
    -4.2308  -4.2307  -4.2307  -4.2307  -4.1541  -4.1541  -4.0559  -4.0559
    -4.0559  -4.0559  -4.0559  -4.0559  -4.0559  -4.0559  -3.8375  -3.8375
    -3.6370  -3.6370  -3.6370  -3.6370  -3.6135  -3.6135  -3.6135  -3.6135
    -3.5820  -3.5820  -3.5820  -3.5820  -3.3594  -3.3594  -3.3594  -3.3594
    -3.3594  -3.3594  -3.3594  -3.3594  -3.1136  -3.1136  -3.1136  -3.1136
    -3.0592  -3.0592  -3.0592  -3.0592  -3.0592  -3.0591  -3.0591  -3.0591
    -2.9022  -2.9021  -2.9021  -2.9021  -2.8709  -2.8708  -2.8708  -2.8708
    -2.7952  -2.7952  -2.6149  -2.6149  -2.5846  -2.5846  -2.4901  -2.4901
    -2.4901  -2.4901  -2.4901  -2.4901  -2.4901  -2.4901  -2.4543  -2.4543
    -2.3660  -2.3660  -2.3660  -2.3660  -2.3660  -2.3660  -2.3660  -2.3660
    -2.3636  -2.3636  -2.3636  -2.3636  -2.1352  -2.1352  -2.1352  -2.1352
    -2.1352  -2.1352  -2.1352  -2.1352  -2.1183  -2.1183  -2.1183  -2.1183
    -2.1182  -2.1182  -2.1182  -2.1182  -2.0758  -2.0758  -2.0742  -2.0742
    -2.0742  -2.0742  -2.0334  -2.0334  -2.0334  -2.0333  -1.8696  -1.8696
    -1.8696  -1.8696  -1.7352  -1.7352  -1.7352  -1.7352  -1.7244  -1.7244
    -1.6783  -1.6783  -1.5109  -1.5109  -1.5109  -1.5109  -1.4617  -1.4617
    -1.4617  -1.4617  -1.4617  -1.4617  -1.4617  -1.4617  -1.3993  -1.3993
    -1.3993  -1.3993  -1.3171  -1.3171  -1.3171  -1.3171  -1.3171  -1.3171
    -1.3171  -1.3171  -1.2949  -1.2949  -1.2949  -1.2949  -1.2874  -1.2874
    -1.2723  -1.2723  -1.2723  -1.2723  -1.2362  -1.2361  -1.2361  -1.2361
    -1.1209  -1.1209  -1.1209  -1.1209  -1.1209  -1.1209  -1.1209  -1.1209
    -0.9905  -0.9905  -0.9905  -0.9905  -0.9633  -0.9633  -0.9633  -0.9633
    -0.7788  -0.7788  -0.7788  -0.7788  -0.7787  -0.7787  -0.7787  -0.7787
    -0.6733  -0.6733  -0.6733  -0.6733  -0.6447  -0.6447  -0.6447  -0.6447
    -0.5261  -0.5261  -0.5261  -0.5261  -0.2929  -0.2929  -0.2929  -0.2929
    -0.2449  -0.2449  -0.2449  -0.2449   0.0075   0.0075   0.0075   0.0075
     1.2783   1.2783   1.2783   1.2784   1.4777   1.4777   1.4777   1.4777
     1.5373   1.5373   1.5373   1.5373   1.7907   1.7907   1.7908   1.7908
     1.7908   1.7908   1.7908   1.7908   1.8612   1.8612   1.8612   1.8612
     2.3734   2.3734   2.3734   2.3734   2.5675   2.5675   2.5676   2.5676
     2.6115   2.6115   2.6115   2.6116   2.6270   2.6270   2.6270   2.6270
     2.7103   2.7104   2.7104   2.7104   2.7114   2.7114   2.7114   2.7114
     2.8919   2.8919   2.8919   2.8919   2.8920   2.8920   2.8920   2.8920
     3.2987   3.2987   3.2987   3.2987   3.3959   3.3959   3.3959   3.3959
     3.5013   3.5013   3.5013   3.5013   3.5013   3.5013   3.5013   3.5013
     3.6272   3.6272   3.6559   3.6559   3.6861   3.6861   3.6861   3.6861
     3.6862   3.6862   3.6862   3.6862   3.6962   3.6962   3.7062   3.7062
     3.7974   3.7974   3.7974   3.7974   3.7974   3.7974   3.7974   3.7974
     3.8683   3.8683   3.8683   3.8683   3.8683   3.8683   3.8683   3.8683
     3.9106   3.9106   3.9106   3.9106   4.0096   4.0096   4.0096   4.0096
     4.0096   4.0096   4.0096   4.0096   4.0176   4.0176   4.0300   4.0300
     4.0300   4.0300   4.0301   4.0301   4.0301   4.0301   4.0632   4.0632
     4.0632   4.0632   4.0763   4.0763   4.1275   4.1275   4.1275   4.1276
     4.1319   4.1319   4.1775   4.1775   4.1775   4.1775   4.2316   4.2316
     4.3968   4.3968   4.3968   4.3968   4.3968   4.3968   4.3968   4.3968
     4.4423   4.4423   4.4423   4.4424   4.5349   4.5349   4.5349   4.5349
     4.5786   4.5786   4.5786   4.5786   4.5786   4.5786   4.5786   4.5786
     4.5969   4.5969   4.6369   4.6369   4.6369   4.6369   4.6369   4.6369
     4.6370   4.6370   4.6483   4.6483   4.6483   4.6483   4.6802   4.6802
     4.6802   4.6802   4.7065   4.7065   4.7065   4.7067   4.7476   4.7476
     4.7553   4.7553   4.7553   4.7553   4.7553   4.7554   4.7556   4.7568
     4.7930   4.7973

     the Fermi energy is     3.4141 ev

!    total energy              =  -11908.16704560 Ry
     estimated scf accuracy    <       0.00000028 Ry
     smearing contrib. (-TS)   =      -0.01302775 Ry
     internal energy E=F+TS    =  -11908.15401785 Ry

     The total energy is F=E-TS. E is the sum of the following terms:
     one-electron contribution = -157798.67582351 Ry
     hartree contribution      =   78987.72237081 Ry
     xc contribution           =   -1803.59728669 Ry
     ewald contribution        =   68709.82903425 Ry
     DFT-D3 Dispersion         =      -3.43231271 Ry

     convergence has been achieved in  29 iterations

     negative rho (up, down):  7.733E-02 0.000E+00

     Forces acting on atoms (cartesian axes, Ry/au):

     atom    1 type  1   force =     0.00000000    0.00000000    0.09436078
     atom    2 type  1   force =    -0.00000405   -0.00000000   -0.01725195
     atom    3 type  1   force =     0.00000000   -0.00000405   -0.01725195
     atom    4 type  1   force =    -0.00000122   -0.00000122    0.09436528
     atom    5 type  1   force =     0.00000000    0.00000000    0.00466695
     atom    6 type  1   force =    -0.00000065    0.00000000   -0.00342504
     atom    7 type  1   force =     0.00000000   -0.00000065   -0.00342504
     atom    8 type  1   force =    -0.00000110   -0.00000110    0.00465754
     atom    9 type  1   force =     0.00000000    0.00000253    0.09435739
     atom   10 type  1   force =    -0.00000722    0.00000329   -0.01726002
     atom   11 type  1   force =     0.00000000    0.00000000   -0.01725586
     atom   12 type  1   force =    -0.00000231    0.00000000    0.09435732
     atom   13 type  1   force =     0.00000000   -0.00000927    0.00465670
     atom   14 type  1   force =    -0.00000062   -0.00000468   -0.00342428
     atom   15 type  1   force =     0.00000000    0.00000000   -0.00342358
     atom   16 type  1   force =    -0.00000502   -0.00000000    0.00465533
     atom   17 type  1   force =     0.00000000   -0.00000253    0.09435739
     atom   18 type  1   force =    -0.00000722   -0.00000329   -0.01726002
     atom   19 type  1   force =     0.00000000    0.00000405   -0.01725195
     atom   20 type  1   force =    -0.00000122    0.00000122    0.09436528
     atom   21 type  1   force =     0.00000000    0.00000927    0.00465670
     atom   22 type  1   force =    -0.00000062    0.00000468   -0.00342428
     atom   23 type  1   force =     0.00000000    0.00000065   -0.00342504
     atom   24 type  1   force =    -0.00000110    0.00000110    0.00465754
     atom   25 type  1   force =     0.00000253    0.00000000    0.09435739
     atom   26 type  1   force =     0.00000000    0.00000000   -0.01725586
     atom   27 type  1   force =     0.00000329   -0.00000722   -0.01726002
     atom   28 type  1   force =     0.00000000   -0.00000231    0.09435732
     atom   29 type  1   force =    -0.00000927   -0.00000000    0.00465670
     atom   30 type  1   force =     0.00000000    0.00000000   -0.00342358
     atom   31 type  1   force =    -0.00000468   -0.00000062   -0.00342428
     atom   32 type  1   force =     0.00000000   -0.00000502    0.00465533
     atom   33 type  1   force =     0.00000124    0.00000124    0.09436056
     atom   34 type  1   force =     0.00000000   -0.00000037   -0.01726145
     atom   35 type  1   force =    -0.00000037    0.00000000   -0.01726145
     atom   36 type  1   force =     0.00000000    0.00000000    0.09435111
     atom   37 type  1   force =    -0.00001016   -0.00001016    0.00465514
     atom   38 type  1   force =     0.00000000   -0.00000655   -0.00342754
     atom   39 type  1   force =    -0.00000655   -0.00000000   -0.00342754
     atom   40 type  1   force =     0.00000000    0.00000000    0.00466595
     atom   41 type  1   force =     0.00000124   -0.00000124    0.09436056
     atom   42 type  1   force =     0.00000000    0.00000037   -0.01726145
     atom   43 type  1   force =     0.00000329    0.00000722   -0.01726002
     atom   44 type  1   force =     0.00000000    0.00000231    0.09435732
     atom   45 type  1   force =    -0.00001016    0.00001016    0.00465514
     atom   46 type  1   force =    -0.00000000    0.00000655   -0.00342754
     atom   47 type  1   force =    -0.00000468    0.00000062   -0.00342428
     atom   48 type  1   force =    -0.00000000    0.00000502    0.00465533
     atom   49 type  1   force =    -0.00000253    0.00000000    0.09435739
     atom   50 type  1   force =     0.00000405    0.00000000   -0.01725195
     atom   51 type  1   force =    -0.00000329   -0.00000722   -0.01726002
     atom   52 type  1   force =     0.00000122   -0.00000122    0.09436528
     atom   53 type  1   force =     0.00000927    0.00000000    0.00465670
     atom   54 type  1   force =     0.00000065   -0.00000000   -0.00342504
     atom   55 type  1   force =     0.00000468   -0.00000062   -0.00342428
     atom   56 type  1   force =     0.00000110   -0.00000110    0.00465754
     atom   57 type  1   force =    -0.00000124    0.00000124    0.09436056
     atom   58 type  1   force =     0.00000722    0.00000329   -0.01726002
     atom   59 type  1   force =     0.00000037    0.00000000   -0.01726145
     atom   60 type  1   force =     0.00000231    0.00000000    0.09435732
     atom   61 type  1   force =     0.00001016   -0.00001016    0.00465514
     atom   62 type  1   force =     0.00000062   -0.00000468   -0.00342428
     atom   63 type  1   force =     0.00000655    0.00000000   -0.00342754
     atom   64 type  1   force =     0.00000502    0.00000000    0.00465533
     atom   65 type  1   force =    -0.00000124   -0.00000124    0.09436056
     atom   66 type  1   force =     0.00000722   -0.00000329   -0.01726002
     atom   67 type  1   force =    -0.00000329    0.00000722   -0.01726002
     atom   68 type  1   force =     0.00000122    0.00000122    0.09436528
     atom   69 type  1   force =     0.00001016    0.00001016    0.00465514
     atom   70 type  1   force =     0.00000062    0.00000468   -0.00342428
     atom   71 type  1   force =     0.00000468    0.00000062   -0.00342428
     atom   72 type  1   force =     0.00000110    0.00000110    0.00465754
     atom   73 type  2   force =     0.00000000    0.00000636   -0.05126900
     atom   74 type  2   force =     0.00000636    0.00000000   -0.05126900
     atom   75 type  2   force =     0.00000000    0.00000000   -0.01569071
     atom   76 type  2   force =     0.00000081    0.00000081   -0.01569724
     atom   77 type  2   force =     0.00000000   -0.00000524   -0.00443497
     atom   78 type  2   force =    -0.00000524    0.00000000   -0.00443497
     atom   79 type  2   force =     0.00000000    0.00000000   -0.00694071
     atom   80 type  2   force =    -0.00000346   -0.00000346   -0.00694160
     atom   81 type  2   force =     0.00000000    0.00000000   -0.05127503
     atom   82 type  2   force =    -0.00000013   -0.00000157   -0.05127040
     atom   83 type  2   force =     0.00000000   -0.00000215   -0.01569848
     atom   84 type  2   force =    -0.00000553    0.00000000   -0.01569750
     atom   85 type  2   force =     0.00000000    0.00000000   -0.00443537
     atom   86 type  2   force =     0.00000145   -0.00000105   -0.00443084
     atom   87 type  2   force =     0.00000000   -0.00000279   -0.00693205
     atom   88 type  2   force =    -0.00000428    0.00000000   -0.00692901
     atom   89 type  2   force =     0.00000000   -0.00000636   -0.05126900
     atom   90 type  2   force =    -0.00000013    0.00000157   -0.05127040
     atom   91 type  2   force =    -0.00000000    0.00000215   -0.01569848
     atom   92 type  2   force =     0.00000081   -0.00000081   -0.01569724
     atom   93 type  2   force =    -0.00000000    0.00000524   -0.00443497
     atom   94 type  2   force =     0.00000145    0.00000105   -0.00443084
     atom   95 type  2   force =     0.00000000    0.00000279   -0.00693205
     atom   96 type  2   force =    -0.00000346    0.00000346   -0.00694160
     atom   97 type  2   force =    -0.00000157   -0.00000013   -0.05127040
     atom   98 type  2   force =     0.00000000    0.00000000   -0.05127503
     atom   99 type  2   force =    -0.00000215    0.00000000   -0.01569848
     atom  100 type  2   force =     0.00000000   -0.00000553   -0.01569750
     atom  101 type  2   force =    -0.00000105    0.00000145   -0.00443084
     atom  102 type  2   force =     0.00000000    0.00000000   -0.00443537
     atom  103 type  2   force =    -0.00000279    0.00000000   -0.00693205
     atom  104 type  2   force =     0.00000000   -0.00000428   -0.00692901
     atom  105 type  2   force =    -0.00000576    0.00000000   -0.05127549
     atom  106 type  2   force =     0.00000000   -0.00000576   -0.05127549
     atom  107 type  2   force =    -0.00000818   -0.00000818   -0.01570141
     atom  108 type  2   force =     0.00000000    0.00000000   -0.01570224
     atom  109 type  2   force =    -0.00000354   -0.00000000   -0.00442564
     atom  110 type  2   force =    -0.00000000   -0.00000354   -0.00442564
     atom  111 type  2   force =    -0.00000294   -0.00000294   -0.00692884
     atom  112 type  2   force =     0.00000000    0.00000000   -0.00691939
     atom  113 type  2   force =    -0.00000157    0.00000013   -0.05127040
     atom  114 type  2   force =     0.00000000    0.00000576   -0.05127549
     atom  115 type  2   force =    -0.00000818    0.00000818   -0.01570141
     atom  116 type  2   force =     0.00000000    0.00000553   -0.01569750
     atom  117 type  2   force =    -0.00000105   -0.00000145   -0.00443084
     atom  118 type  2   force =    -0.00000000    0.00000354   -0.00442564
     atom  119 type  2   force =    -0.00000294    0.00000294   -0.00692884
     atom  120 type  2   force =     0.00000000    0.00000428   -0.00692901
     atom  121 type  2   force =     0.00000157   -0.00000013   -0.05127040
     atom  122 type  2   force =    -0.00000636    0.00000000   -0.05126900
     atom  123 type  2   force =     0.00000215    0.00000000   -0.01569848
     atom  124 type  2   force =    -0.00000081    0.00000081   -0.01569724
     atom  125 type  2   force =     0.00000105    0.00000145   -0.00443084
     atom  126 type  2   force =     0.00000524   -0.00000000   -0.00443497
     atom  127 type  2   force =     0.00000279   -0.00000000   -0.00693205
     atom  128 type  2   force =     0.00000346   -0.00000346   -0.00694160
     atom  129 type  2   force =     0.00000576    0.00000000   -0.05127549
     atom  130 type  2   force =     0.00000013   -0.00000157   -0.05127040
     atom  131 type  2   force =     0.00000818   -0.00000818   -0.01570141
     atom  132 type  2   force =     0.00000553    0.00000000   -0.01569750
     atom  133 type  2   force =     0.00000354   -0.00000000   -0.00442564
     atom  134 type  2   force =    -0.00000145   -0.00000105   -0.00443084
     atom  135 type  2   force =     0.00000294   -0.00000294   -0.00692884
     atom  136 type  2   force =     0.00000428    0.00000000   -0.00692901
     atom  137 type  2   force =     0.00000157    0.00000013   -0.05127040
     atom  138 type  2   force =     0.00000013    0.00000157   -0.05127040
     atom  139 type  2   force =     0.00000818    0.00000818   -0.01570141
     atom  140 type  2   force =    -0.00000081   -0.00000081   -0.01569724
     atom  141 type  2   force =     0.00000105   -0.00000145   -0.00443084
     atom  142 type  2   force =    -0.00000145    0.00000105   -0.00443084
     atom  143 type  2   force =     0.00000294    0.00000294   -0.00692884
     atom  144 type  2   force =     0.00000346    0.00000346   -0.00694160

     Total force =     0.042663     Total SCF correction =     0.001842
     Energy error            =      3.7E-03 Ry
     Gradient error          =      6.9E-03 Ry/Bohr

     number of scf cycles    =   7
     number of bfgs steps    =   6

     energy             old  =  -11908.1633891717 Ry
     energy             new  =  -11908.1670456004 Ry

     CASE: energy            _new < energy            _old

     new trust radius        =       0.0272508588 bohr
     new conv_thr            =       0.0000004461 Ry


ATOMIC_POSITIONS (angstrom)
V                0.0000000000        0.0000000000       10.0000000000    0   0   0
V                2.0432625400        0.0000000000       12.0432625400    0   0   0
V                0.0000000000        2.0432625400       12.0432625400    0   0   0
V                2.0432625400        2.0432625400       10.0000000000    0   0   0
V                0.0000001400        0.0000001700       14.1616016933
V                2.0432091750        0.0000000600       16.0469311276
V               -0.0000000900        2.0432090950       16.0469309376
V                2.0432461914        2.0432461014       14.1616287347
V                0.0000000000        4.0865250700       10.0000000000    0   0   0
V                2.0432625400        4.0865250700       12.0432625400    0   0   0
V                0.0000000000        6.1297876100       12.0432625400    0   0   0
V                2.0432625400        6.1297876100       10.0000000000    0   0   0
V                0.0000001200        4.0865281745       14.1616106001
V                2.0432181971        4.0865873787       16.0469384888
V               -0.0000001500        6.1297875000       16.0469230779
V                2.0432515428        6.1297873900       14.1616174145
V                0.0000000000        8.1730501500       10.0000000000    0   0   0
V                2.0432625400        8.1730501500       12.0432625400    0   0   0
V                0.0000000000       10.2163126900       12.0432625400    0   0   0
V                2.0432625400       10.2163126900       10.0000000000    0   0   0
V               -0.0000002100        8.1730467955       14.1616105801
V                2.0432182771        8.1729880413       16.0469383088
V               -0.0000000100       10.2163660250       16.0469312076
V                2.0432461214       10.2163288786       14.1616285247
V                4.0865250700        0.0000000000       10.0000000000    0   0   0
V                6.1297876100        0.0000000000       12.0432625400    0   0   0
V                4.0865250700        2.0432625400       12.0432625400    0   0   0
V                6.1297876100        2.0432625400       10.0000000000    0   0   0
V                4.0865281945        0.0000001700       14.1616105101
V                6.1297876200        0.0000000500       16.0469236579
V                4.0865871887        2.0432182771       16.0469385988
V                6.1297873700        2.0432516228       14.1616174145
V                4.0865250700        4.0865250700       10.0000000000    0   0   0
V                6.1297876100        4.0865250700       12.0432625400    0   0   0
V                4.0865250700        6.1297876100       12.0432625400    0   0   0
V                6.1297876100        6.1297876100       10.0000000000    0   0   0
V                4.0865323776        4.0865321876       14.1616280286
V                6.1297875500        4.0865747732       16.0469197142
V                4.0865747232        6.1297875500       16.0469194742
V                6.1297874000        6.1297875000       14.1615786823
V                4.0865250700        8.1730501500       10.0000000000    0   0   0
V                6.1297876100        8.1730501500       12.0432625400    0   0   0
V                4.0865250700       10.2163126900       12.0432625400    0   0   0
V                6.1297876100       10.2163126900       10.0000000000    0   0   0
V                4.0865323976        8.1730431524       14.1616280386
V                6.1297875800        8.1730003668       16.0469194342
V                4.0865872087       10.2163568729       16.0469380688
V                6.1297875400       10.2163233772       14.1616174845
V                8.1730501500        0.0000000000       10.0000000000    0   0   0
V               10.2163126900        0.0000000000       12.0432625400    0   0   0
V                8.1730501500        2.0432625400       12.0432625400    0   0   0
V               10.2163126900        2.0432625400       10.0000000000    0   0   0
V                8.1730469955        0.0000000500       14.1616104901
V               10.2163661050        0.0000001000       16.0469310676
V                8.1729879913        2.0432182771       16.0469388388
V               10.2163290886        2.0432461214       14.1616283947
V                8.1730501500        4.0865250700       10.0000000000    0   0   0
V               10.2163126900        4.0865250700       12.0432625400    0   0   0
V                8.1730501500        6.1297876100       12.0432625400    0   0   0
V               10.2163126900        6.1297876100       10.0000000000    0   0   0
V                8.1730426724        4.0865323776       14.1616279486
V               10.2163569329        4.0865874087       16.0469382888
V                8.1730005368        6.1297876500       16.0469197042
V               10.2163237572        6.1297875900       14.1616175345
V                8.1730501500        8.1730501500       10.0000000000    0   0   0
V               10.2163126900        8.1730501500       12.0432625400    0   0   0
V                8.1730501500       10.2163126900       12.0432625400    0   0   0
V               10.2163126900       10.2163126900       10.0000000000    0   0   0
V                8.1730430224        8.1730429024       14.1616281486
V               10.2163569329        8.1729878413       16.0469384788
V                8.1729878613       10.2163569729       16.0469380888
V               10.2163289686       10.2163288386       14.1616285047
N                0.0000000000        2.0432625400       10.0000000000    0   0   0
N                2.0432625400        0.0000000000       10.0000000000    0   0   0
N                0.0000000000        0.0000000000       12.0432625400    0   0   0
N                2.0432625400        2.0432625400       12.0432625400    0   0   0
N                0.0000001100        2.0432603694       14.1368025951
N                2.0432601394        0.0000001000       14.1368022951
N               -0.0000000300       -0.0000000400       16.3137745047
N                2.0432739415        2.0432738615       16.3137309733
N                0.0000000000        6.1297876100       10.0000000000    0   0   0
N                2.0432625400        4.0865250700       10.0000000000    0   0   0
N                0.0000000000        4.0865250700       12.0432625400    0   0   0
N                2.0432625400        6.1297876100       12.0432625400    0   0   0
N               -0.0000000400        6.1297876300       14.1367881997
N                2.0432545195        4.0865145400       14.1367875813
N               -0.0000001500        4.0865052400       16.3137612520
N                2.0432711537        6.1297874600       16.3137838666
N                0.0000000000       10.2163126900       10.0000000000    0   0   0
N                2.0432625400        8.1730501500       10.0000000000    0   0   0
N                0.0000000000        8.1730501500       12.0432625400    0   0   0
N                2.0432625400       10.2163126900       12.0432625400    0   0   0
N                0.0000000200       10.2163148606       14.1368021151
N                2.0432545095        8.1730608400       14.1367877213
N                0.0000000800        8.1730700900       16.3137612220
N                2.0432738715       10.2163013785       16.3137308833
N                4.0865250700        2.0432625400       10.0000000000    0   0   0
N                6.1297876100        0.0000000000       10.0000000000    0   0   0
N                4.0865250700        0.0000000000       12.0432625400    0   0   0
N                6.1297876100        2.0432625400       12.0432625400    0   0   0
N                4.0865143500        2.0432545795       14.1367874113
N                6.1297875500        0.0000000900       14.1367880297
N                4.0865051900       -0.0000000300       16.3137617420
N                6.1297876600        2.0432712637       16.3137842866
N                4.0865250700        6.1297876100       10.0000000000    0   0   0
N                6.1297876100        4.0865250700       10.0000000000    0   0   0
N                4.0865250700        4.0865250700       12.0432625400    0   0   0
N                6.1297876100        6.1297876100       12.0432625400    0   0   0
N                4.0865090941        6.1297874900       14.1367749041
N                6.1297876500        4.0865090241       14.1367745741
N                4.0865099645        4.0865098445       16.3137546444
N                6.1297876300        6.1297875100       16.3138134142
N                4.0865250700       10.2163126900       10.0000000000    0   0   0
N                6.1297876100        8.1730501500       10.0000000000    0   0   0
N                4.0865250700        8.1730501500       12.0432625400    0   0   0
N                6.1297876100       10.2163126900       12.0432625400    0   0   0
N                4.0865143200       10.2163204705       14.1367878413
N                6.1297875600        8.1730662059       14.1367749041
N                4.0865099445        8.1730655055       16.3137541844
N                6.1297876400       10.2163040963       16.3137840366
N                8.1730501500        2.0432625400       10.0000000000    0   0   0
N               10.2163126900        0.0000000000       10.0000000000    0   0   0
N                8.1730501500        0.0000000000       12.0432625400    0   0   0
N               10.2163126900        2.0432625400       12.0432625400    0   0   0
N                8.1730607600        2.0432544595       14.1367872713
N               10.2163151506       -0.0000001200       14.1368023951
N                8.1730699200        0.0000000100       16.3137614520
N               10.2163014085        2.0432738715       16.3137308933
N                8.1730501500        6.1297876100       10.0000000000    0   0   0
N               10.2163126900        4.0865250700       10.0000000000    0   0   0
N                8.1730501500        4.0865250700       12.0432625400    0   0   0
N               10.2163126900        6.1297876100       12.0432625400    0   0   0
N                8.1730659859        6.1297873400       14.1367744741
N               10.2163207605        4.0865145200       14.1367878613
N                8.1730654355        4.0865098345       16.3137543544
N               10.2163040763        6.1297876700       16.3137838166
N                8.1730501500       10.2163126900       10.0000000000    0   0   0
N               10.2163126900        8.1730501500       10.0000000000    0   0   0
N                8.1730501500        8.1730501500       12.0432625400    0   0   0
N               10.2163126900       10.2163126900       12.0432625400    0   0   0
N                8.1730606900       10.2163207805       14.1367878113
N               10.2163207505        8.1730606400       14.1367872313
N                8.1730653455        8.1730654055       16.3137543444
N               10.2163013985       10.2163012985       16.3137309133



     Writing config-only to output data dir ./tmp/VN_slab.save/ :
     XML data file
     NEW-OLD atomic charge density approx. for the potential

     Check: negative core charge=   -0.000003

     negative rho (up, down):  7.676E-02 0.000E+00

     total cpu time spent up to now is    17380.5 secs

     per-process dynamical memory:   807.7 Mb

     Self-consistent Calculation

     iteration #  1     ecut=    45.00 Ry     beta= 0.25
     Davidson diagonalization with overlap
     ethr =  1.00E-06,  avg # of iterations =  6.7

     negative rho (up, down):  7.676E-02 0.000E+00

     total cpu time spent up to now is    17559.3 secs

     total energy              =  -11908.15838768 Ry
     estimated scf accuracy    <       0.03148582 Ry

     iteration #  2     ecut=    45.00 Ry     beta= 0.25
     Davidson diagonalization with overlap
     ethr =  2.43E-06,  avg # of iterations = 27.0

     negative rho (up, down):  7.680E-02 0.000E+00

     total cpu time spent up to now is    17774.6 secs

     total energy              =  -11908.05396315 Ry
     estimated scf accuracy    <       9.70777703 Ry

     iteration #  3     ecut=    45.00 Ry     beta= 0.25
     Davidson diagonalization with overlap
     c_bands:  1 eigenvalues not converged
     ethr =  2.43E-06,  avg # of iterations = 29.3

     negative rho (up, down):  7.684E-02 0.000E+00

     total cpu time spent up to now is    17986.2 secs

     total energy              =  -11908.15783951 Ry
     estimated scf accuracy    <       0.74355209 Ry

     iteration #  4     ecut=    45.00 Ry     beta= 0.25
     Davidson diagonalization with overlap
     ethr =  2.43E-06,  avg # of iterations = 16.0

     negative rho (up, down):  7.686E-02 0.000E+00

     total cpu time spent up to now is    18092.6 secs

     total energy              =  -11908.16983524 Ry
     estimated scf accuracy    <       0.00384126 Ry

     iteration #  5     ecut=    45.00 Ry     beta= 0.25
     Davidson diagonalization with overlap
     ethr =  2.96E-07,  avg # of iterations =  5.5

     negative rho (up, down):  7.686E-02 0.000E+00

     total cpu time spent up to now is    18173.1 secs

     total energy              =  -11908.16974297 Ry
     estimated scf accuracy    <       0.01818020 Ry

     iteration #  6     ecut=    45.00 Ry     beta= 0.25
     Davidson diagonalization with overlap
     ethr =  2.96E-07,  avg # of iterations =  5.3

     negative rho (up, down):  7.680E-02 0.000E+00

     total cpu time spent up to now is    18253.9 secs

     total energy              =  -11908.16985825 Ry
     estimated scf accuracy    <       0.01572388 Ry

     iteration #  7     ecut=    45.00 Ry     beta= 0.25
     Davidson diagonalization with overlap
     ethr =  2.96E-07,  avg # of iterations =  2.0

     negative rho (up, down):  7.681E-02 0.000E+00

     total cpu time spent up to now is    18323.5 secs

     total energy              =  -11908.17022689 Ry
     estimated scf accuracy    <       0.00051246 Ry

     iteration #  8     ecut=    45.00 Ry     beta= 0.25
     Davidson diagonalization with overlap
     ethr =  3.95E-08,  avg # of iterations =  5.5

     negative rho (up, down):  7.680E-02 0.000E+00

     total cpu time spent up to now is    18400.8 secs

     total energy              =  -11908.17023433 Ry
     estimated scf accuracy    <       0.00074689 Ry

     iteration #  9     ecut=    45.00 Ry     beta= 0.25
     Davidson diagonalization with overlap
     ethr =  3.95E-08,  avg # of iterations =  4.5

     negative rho (up, down):  7.680E-02 0.000E+00

     total cpu time spent up to now is    18475.5 secs

     total energy              =  -11908.17025747 Ry
     estimated scf accuracy    <       0.00040505 Ry

     iteration # 10     ecut=    45.00 Ry     beta= 0.25
     Davidson diagonalization with overlap
     ethr =  3.13E-08,  avg # of iterations =  3.0

     negative rho (up, down):  7.680E-02 0.000E+00

     total cpu time spent up to now is    18560.5 secs

     total energy              =  -11908.17027080 Ry
     estimated scf accuracy    <       0.00010737 Ry

     iteration # 11     ecut=    45.00 Ry     beta= 0.25
     Davidson diagonalization with overlap
     ethr =  8.28E-09,  avg # of iterations =  5.5

     negative rho (up, down):  7.680E-02 0.000E+00

     total cpu time spent up to now is    18654.0 secs

     total energy              =  -11908.17027296 Ry
     estimated scf accuracy    <       0.00017175 Ry

     iteration # 12     ecut=    45.00 Ry     beta= 0.25
     Davidson diagonalization with overlap
     ethr =  8.28E-09,  avg # of iterations =  1.5

     negative rho (up, down):  7.681E-02 0.000E+00

     total cpu time spent up to now is    18723.0 secs

     total energy              =  -11908.17027500 Ry
     estimated scf accuracy    <       0.00013782 Ry

     iteration # 13     ecut=    45.00 Ry     beta= 0.25
     Davidson diagonalization with overlap
     ethr =  8.28E-09,  avg # of iterations =  1.2

     negative rho (up, down):  7.681E-02 0.000E+00

     total cpu time spent up to now is    18789.3 secs

     total energy              =  -11908.17027402 Ry
     estimated scf accuracy    <       0.00023021 Ry

     iteration # 14     ecut=    45.00 Ry     beta= 0.25
     Davidson diagonalization with overlap
     ethr =  8.28E-09,  avg # of iterations =  2.2

     negative rho (up, down):  7.681E-02 0.000E+00

     total cpu time spent up to now is    18860.0 secs

     total energy              =  -11908.17027481 Ry
     estimated scf accuracy    <       0.00008310 Ry

     iteration # 15     ecut=    45.00 Ry     beta= 0.25
     Davidson diagonalization with overlap
     ethr =  6.41E-09,  avg # of iterations =  5.0

     negative rho (up, down):  7.680E-02 0.000E+00

     total cpu time spent up to now is    18937.4 secs

     total energy              =  -11908.17026986 Ry
     estimated scf accuracy    <       0.00040002 Ry

     iteration # 16     ecut=    45.00 Ry     beta= 0.25
     Davidson diagonalization with overlap
     ethr =  6.41E-09,  avg # of iterations =  2.7

     negative rho (up, down):  7.681E-02 0.000E+00

     total cpu time spent up to now is    19010.0 secs

     total energy              =  -11908.17027346 Ry
     estimated scf accuracy    <       0.00025530 Ry

     iteration # 17     ecut=    45.00 Ry     beta= 0.25
     Davidson diagonalization with overlap
     ethr =  6.41E-09,  avg # of iterations =  2.0

     negative rho (up, down):  7.681E-02 0.000E+00

     total cpu time spent up to now is    19084.7 secs

     total energy              =  -11908.17027922 Ry
     estimated scf accuracy    <       0.00000796 Ry

     iteration # 18     ecut=    45.00 Ry     beta= 0.25
     Davidson diagonalization with overlap
     ethr =  6.14E-10,  avg # of iterations =  6.0

     negative rho (up, down):  7.681E-02 0.000E+00

     total cpu time spent up to now is    19164.4 secs

     total energy              =  -11908.17027911 Ry
     estimated scf accuracy    <       0.00002908 Ry

     iteration # 19     ecut=    45.00 Ry     beta= 0.25
     Davidson diagonalization with overlap
     ethr =  6.14E-10,  avg # of iterations =  5.0

     negative rho (up, down):  7.681E-02 0.000E+00

     total cpu time spent up to now is    19249.1 secs

     total energy              =  -11908.17027997 Ry
     estimated scf accuracy    <       0.00002403 Ry

     iteration # 20     ecut=    45.00 Ry     beta= 0.25
     Davidson diagonalization with overlap
     ethr =  6.14E-10,  avg # of iterations =  5.0

     negative rho (up, down):  7.681E-02 0.000E+00

     total cpu time spent up to now is    19323.3 secs

     total energy              =  -11908.17028069 Ry
     estimated scf accuracy    <       0.00000279 Ry

     iteration # 21     ecut=    45.00 Ry     beta= 0.25
     Davidson diagonalization with overlap
     ethr =  2.16E-10,  avg # of iterations =  5.2

     negative rho (up, down):  7.681E-02 0.000E+00

     total cpu time spent up to now is    19400.1 secs

     total energy              =  -11908.17028067 Ry
     estimated scf accuracy    <       0.00000124 Ry

     iteration # 22     ecut=    45.00 Ry     beta= 0.25
     Davidson diagonalization with overlap
     ethr =  9.60E-11,  avg # of iterations =  5.8

     negative rho (up, down):  7.681E-02 0.000E+00

     total cpu time spent up to now is    19479.6 secs

     total energy              =  -11908.17028061 Ry
     estimated scf accuracy    <       0.00000479 Ry

     iteration # 23     ecut=    45.00 Ry     beta= 0.25
     Davidson diagonalization with overlap
     ethr =  9.60E-11,  avg # of iterations =  5.5

     negative rho (up, down):  7.681E-02 0.000E+00

     total cpu time spent up to now is    19559.9 secs

     total energy              =  -11908.17028036 Ry
     estimated scf accuracy    <       0.00003813 Ry

     iteration # 24     ecut=    45.00 Ry     beta= 0.25
     Davidson diagonalization with overlap
     ethr =  9.60E-11,  avg # of iterations =  5.5

     negative rho (up, down):  7.681E-02 0.000E+00

     total cpu time spent up to now is    19651.7 secs

     total energy              =  -11908.17028058 Ry
     estimated scf accuracy    <       0.00000612 Ry

     iteration # 25     ecut=    45.00 Ry     beta= 0.25
     Davidson diagonalization with overlap
     ethr =  9.60E-11,  avg # of iterations =  5.2

     negative rho (up, down):  7.681E-02 0.000E+00

     total cpu time spent up to now is    19730.4 secs

     total energy              =  -11908.17028051 Ry
     estimated scf accuracy    <       0.00001100 Ry

     iteration # 26     ecut=    45.00 Ry     beta= 0.25
     Davidson diagonalization with overlap
     ethr =  9.60E-11,  avg # of iterations =  5.2

     negative rho (up, down):  7.681E-02 0.000E+00

     total cpu time spent up to now is    19805.1 secs

     total energy              =  -11908.17028051 Ry
     estimated scf accuracy    <       0.00001526 Ry

     iteration # 27     ecut=    45.00 Ry     beta= 0.25
     Davidson diagonalization with overlap
     ethr =  9.60E-11,  avg # of iterations =  3.5

     negative rho (up, down):  7.681E-02 0.000E+00

     total cpu time spent up to now is    19883.4 secs

     End of self-consistent calculation

          k = 0.0000 0.0000 0.0000 (135157 PWs)   bands (ev):

   -61.9014 -61.8818 -61.8818 -61.8818 -61.8818 -61.8699 -61.8699 -61.8699
   -61.8699 -61.8518 -61.8518 -61.8518 -61.8518 -61.8464 -61.8464 -61.8464
   -61.8464 -61.8356 -61.8316 -61.8254 -61.8190 -61.8190 -61.8190 -61.8190
   -61.8152 -61.8152 -61.8152 -61.8152 -61.8122 -61.8122 -61.8122 -61.8122
   -61.8054 -61.8054 -61.8054 -61.8054 -61.7996 -61.7996 -61.7996 -61.7996
   -61.7980 -61.7979 -61.7979 -61.7979 -61.7857 -61.7800 -61.7800 -61.7800
   -61.7799 -61.7753 -61.7753 -61.7753 -61.7753 -61.7605 -61.7280 -61.7240
   -61.7240 -61.7240 -61.7239 -61.7233 -61.7233 -61.7233 -61.7232 -61.7176
   -61.7175 -61.7175 -61.7175 -61.7088 -61.7088 -61.7088 -61.7087 -61.6970
   -35.9963 -35.9962 -35.9962 -35.9962 -35.9705 -35.9705 -35.9705 -35.9705
   -35.9670 -35.9670 -35.9552 -35.9552 -35.9552 -35.9552 -35.9374 -35.9374
   -35.9374 -35.9374 -35.9055 -35.9055 -35.9055 -35.9055 -35.9048 -35.9048
   -35.9048 -35.9048 -35.9006 -35.9006 -35.9006 -35.9006 -35.8893 -35.8893
   -35.8883 -35.8883 -35.8883 -35.8883 -35.8758 -35.8758 -35.8758 -35.8758
   -35.8688 -35.8543 -35.8543 -35.8543 -35.8543 -35.8508 -35.8508 -35.8508
   -35.8508 -35.8329 -35.8329 -35.8329 -35.8329 -35.8265 -35.8265 -35.8265
   -35.8265 -35.8137 -35.8137 -35.8136 -35.8136 -35.8101 -35.8101 -35.8101
   -35.8101 -35.7834 -35.7834 -35.7679 -35.7678 -35.7678 -35.7678 -35.7657
   -35.7657 -35.7656 -35.7656 -35.7605 -35.7370 -35.7370 -35.7370 -35.7370
   -35.7325 -35.7325 -35.7325 -35.7325 -35.7018 -35.7018 -35.6994 -35.6994
   -35.6994 -35.6994 -35.6994 -35.6952 -35.6952 -35.6952 -35.6952 -35.6941
   -35.6941 -35.6941 -35.6941 -35.6897 -35.6897 -35.6896 -35.6896 -35.6827
   -35.6827 -35.6727 -35.6727 -35.6727 -35.6727 -35.6572 -35.6572 -35.6572
   -35.6572 -35.6498 -35.6498 -35.6498 -35.6498 -35.6371 -35.6371 -35.6370
   -35.6370 -35.6367 -35.6367 -35.6367 -35.6367 -35.6351 -35.6351 -35.6308
   -35.6308 -35.6308 -35.6308 -35.6303 -35.6303 -35.6303 -35.6303 -35.6255
   -35.6251 -35.6161 -35.6161 -35.6161 -35.6161 -35.6110 -35.6110 -35.6110
   -35.6110 -35.6047 -35.6022 -35.6022 -35.6022 -35.6022 -35.6001 -35.6001
   -35.6001 -35.6001 -35.5882 -35.5881 -35.5881 -35.5881 -35.5839 -35.5839
   -35.5839 -35.5839 -35.5790 -35.5790 -35.5783 -35.5783 -35.5783 -35.5783
   -35.5724 -35.5723 -35.5723 -35.5723 -35.5659 -35.5659 -35.5659 -35.5659
   -35.5444 -35.5444 -35.5443 -35.5443 -35.5441 -35.5441 -35.5441 -35.5441
   -35.5401 -35.5401 -35.5401 -35.5401 -35.5248 -35.5248 -35.5248 -35.5248
   -35.5121 -35.5076 -35.5076 -35.5076 -35.5076 -35.4980 -35.4980 -35.4686
   -35.4686 -35.4686 -35.4686 -35.4671 -35.4671 -35.4671 -35.4671 -35.4407
   -35.4407 -35.4407 -35.4406 -35.4370 -35.4249 -35.4248 -35.4248 -35.4248
   -14.2751 -13.6163 -13.6163 -13.6163 -13.6163 -13.4223 -13.0135 -13.0135
   -13.0134 -13.0134 -12.8629 -12.8629 -12.8629 -12.8629 -12.7977 -12.7685
   -12.7685 -12.7685 -12.7685 -12.6182 -12.5736 -12.4345 -12.4345 -12.4345
   -12.4345 -12.4310 -12.4310 -12.4309 -12.4309 -12.3956 -12.3956 -12.3956
   -12.3956 -12.3789 -12.2544 -12.2544 -12.2544 -12.2544 -12.0986 -12.0986
   -12.0986 -12.0986 -11.8704 -11.8704 -11.8703 -11.8703 -11.8502 -11.7092
   -11.7092 -11.7092 -11.7092 -11.6881 -11.6881 -11.6881 -11.6881 -11.5024
   -11.4669 -11.4669 -11.4669 -11.4669 -11.4217 -11.4216 -11.4216 -11.4215
   -11.3863 -11.3863 -11.3862 -11.3861 -11.1533 -11.1531 -11.1531 -11.1530
    -4.7118  -4.7118  -4.7118  -4.7118  -4.5378  -4.5378  -4.5378  -4.5378
    -4.3986  -4.3986  -4.3986  -4.3986  -4.2988  -4.2988  -4.2988  -4.2988
    -3.9508  -3.9508  -3.9508  -3.9508  -3.7775  -3.7775  -3.7775  -3.7775
    -3.6691  -3.6691  -3.6691  -3.6691  -3.6498  -3.6498  -3.6498  -3.6498
    -3.5360  -3.4892  -3.4892  -3.4892  -3.4892  -3.2714  -3.2713  -3.2713
    -3.2713  -3.1543  -3.1543  -3.1187  -3.1187  -3.1187  -3.1187  -3.1107
    -3.1107  -3.1107  -3.1107  -3.1091  -3.1091  -3.1091  -3.1091  -3.0067
    -3.0067  -3.0067  -3.0067  -2.6835  -2.6835  -2.6835  -2.6835  -2.5943
    -2.5943  -2.5569  -2.4811  -2.4811  -2.4811  -2.4810  -2.4736  -2.4736
    -2.4736  -2.4736  -2.4540  -2.4540  -2.4539  -2.4539  -2.4487  -2.4487
    -2.4487  -2.4487  -2.3627  -2.3627  -2.3627  -2.3627  -2.3423  -2.3423
    -2.3423  -2.3423  -2.2238  -2.2238  -2.2237  -2.2237  -2.1895  -2.1895
    -2.1895  -2.1895  -2.1653  -2.1653  -2.1653  -2.1653  -2.1641  -2.1641
    -2.1641  -2.1641  -2.1594  -2.1594  -2.1594  -2.1594  -1.9973  -1.9973
    -1.9973  -1.9973  -1.9848  -1.9848  -1.9848  -1.9847  -1.9643  -1.8583
    -1.8583  -1.8583  -1.8583  -1.8502  -1.8502  -1.8502  -1.8501  -1.7258
    -1.7258  -1.7258  -1.7258  -1.7051  -1.7051  -1.7051  -1.7051  -1.6738
    -1.6637  -1.6637  -1.6636  -1.6636  -1.5892  -1.5892  -1.5892  -1.5892
    -1.5626  -1.5626  -1.4428  -1.4428  -1.4428  -1.4428  -1.4135  -1.4135
    -1.4135  -1.4135  -1.4073  -1.4073  -1.4073  -1.4073  -1.3737  -1.3192
    -1.3192  -1.3189  -1.3189  -1.2364  -1.2362  -1.2362  -1.2360  -1.2170
    -1.2170  -1.2169  -1.2169  -1.1583  -1.1582  -1.1582  -1.1581  -0.9204
    -0.9204  -0.9204  -0.9204  -0.9063  -0.9062  -0.9062  -0.9061  -0.8994
    -0.8994  -0.8411  -0.8411  -0.8410  -0.8410  -0.7402  -0.7402  -0.7400
    -0.7400  -0.6560  -0.6560  -0.6559  -0.6559  -0.4637  -0.3695  -0.3695
    -0.3293  -0.3293  -0.3292  -0.3292  -0.2720  -0.2720  -0.2718  -0.2718
    -0.2359  -0.0196  -0.0196   0.1006   0.3433   0.4358   0.5311   0.5311
     0.8817   0.8817   0.8829   0.8829   0.8829   0.8829   1.1787   1.1787
     1.2793   1.8040   1.8136   1.8136   1.8137   1.8137   2.4000   2.4000
     2.4819   2.4819   2.4819   2.4819   2.5244   2.5245   2.5245   2.5245
     2.5577   2.5577   2.5596   2.5596   2.5596   2.5596   2.6122   2.6122
     2.6123   2.6123   2.6670   2.6670   2.6671   2.6671   2.6798   2.6798
     2.6798   2.6798   2.9018   3.0374   3.0374   3.0374   3.0375   3.0689
     3.0689   3.0689   3.0689   3.1257   3.1802   3.1803   3.1806   3.1806
     3.2080   3.2080   3.2080   3.2080   3.2389   3.2389   3.2389   3.2390
     3.3224   3.3224   3.3225   3.3225   3.3851   3.3864   3.3865   3.3865
     3.3865   3.4130   3.4130   3.4130   3.4130   3.4246   3.4247   3.4247
     3.4247   3.4438   3.4438   3.4438   3.4438   3.4691   3.4691   3.4691
     3.4691   3.5163   3.5163   3.5163   3.5163   3.7048   3.7048   3.7048
     3.7048   3.7541   3.7541   3.8105   3.8567   3.8567   3.8568   3.8568
     3.8664   3.8666   3.8666   3.8668   3.9621   3.9621   3.9621   3.9621
     3.9628   3.9628   3.9629   3.9629   4.0222   4.0222   4.0222   4.0222
     4.0444   4.0685   4.0685   4.0685   4.0685   4.1384   4.1384   4.1790
     4.1790   4.1791   4.1791   4.1985   4.2135   4.2135   4.2135   4.2135
     4.2154   4.2154   4.2154   4.2154   4.3306   4.3306   4.3306   4.3306
     4.3566   4.3566   4.3566   4.3567   4.3717   4.3717   4.3717   4.3717
     4.3885   4.3886   4.3886   4.3886   4.4003   4.4721   4.4721   4.4722
     4.4722   4.4885   4.4885   4.4885   4.4885   4.5113   4.5113   4.5115
     4.5115   4.5645   4.5645   4.5646   4.5646   4.5817   4.5817   4.5817
     4.5817   4.6194   4.6194   4.6194   4.6194   4.6638   4.6638   4.6638
     4.6638   4.6699   4.6699   4.7456   4.7606   4.7606   4.7606   4.7606
     4.8125   4.8125   4.8126   4.8126   4.8127   4.8173   4.8757   4.9036
     4.9040   4.9040

          k = 0.0000 0.2500 0.0000 (135097 PWs)   bands (ev):

   -61.9001 -61.8898 -61.8809 -61.8809 -61.8747 -61.8747 -61.8727 -61.8648
   -61.8648 -61.8554 -61.8554 -61.8543 -61.8493 -61.8493 -61.8467 -61.8467
   -61.8400 -61.8342 -61.8325 -61.8248 -61.8246 -61.8189 -61.8186 -61.8186
   -61.8166 -61.8166 -61.8139 -61.8133 -61.8133 -61.8114 -61.8114 -61.8084
   -61.8084 -61.8049 -61.8048 -61.8033 -61.8031 -61.8026 -61.8025 -61.7985
   -61.7985 -61.7939 -61.7938 -61.7931 -61.7866 -61.7836 -61.7836 -61.7835
   -61.7776 -61.7776 -61.7755 -61.7755 -61.7687 -61.7614 -61.7277 -61.7254
   -61.7239 -61.7239 -61.7236 -61.7235 -61.7234 -61.7233 -61.7205 -61.7204
   -61.7203 -61.7144 -61.7143 -61.7132 -61.7095 -61.7095 -61.7043 -61.6979
   -36.0018 -36.0018 -35.9807 -35.9807 -35.9805 -35.9805 -35.9795 -35.9795
   -35.9626 -35.9625 -35.9624 -35.9624 -35.9506 -35.9506 -35.9295 -35.9288
   -35.9288 -35.9281 -35.9228 -35.9228 -35.9054 -35.9054 -35.9046 -35.9045
   -35.8983 -35.8983 -35.8967 -35.8967 -35.8890 -35.8880 -35.8880 -35.8851
   -35.8834 -35.8816 -35.8814 -35.8814 -35.8798 -35.8798 -35.8790 -35.8790
   -35.8685 -35.8667 -35.8620 -35.8597 -35.8597 -35.8583 -35.8583 -35.8555
   -35.8543 -35.8526 -35.8477 -35.8477 -35.8350 -35.8350 -35.8273 -35.8273
   -35.8242 -35.8098 -35.8048 -35.8040 -35.8040 -35.7998 -35.7998 -35.7960
   -35.7900 -35.7872 -35.7835 -35.7835 -35.7823 -35.7823 -35.7800 -35.7674
   -35.7560 -35.7560 -35.7536 -35.7404 -35.7368 -35.7358 -35.7326 -35.7326
   -35.7302 -35.7300 -35.7226 -35.7226 -35.7130 -35.7130 -35.7091 -35.7079
   -35.7069 -35.7069 -35.7063 -35.7038 -35.7015 -35.6941 -35.6941 -35.6863
   -35.6863 -35.6826 -35.6796 -35.6765 -35.6765 -35.6761 -35.6761 -35.6746
   -35.6737 -35.6728 -35.6722 -35.6706 -35.6706 -35.6685 -35.6685 -35.6645
   -35.6645 -35.6578 -35.6578 -35.6576 -35.6569 -35.6569 -35.6557 -35.6550
   -35.6487 -35.6473 -35.6473 -35.6441 -35.6441 -35.6433 -35.6433 -35.6395
   -35.6328 -35.6328 -35.6241 -35.6188 -35.6188 -35.6173 -35.6172 -35.6149
   -35.6149 -35.6144 -35.6128 -35.6105 -35.6105 -35.6090 -35.6028 -35.6028
   -35.6001 -35.6001 -35.6001 -35.6001 -35.5999 -35.5999 -35.5988 -35.5988
   -35.5955 -35.5955 -35.5942 -35.5934 -35.5919 -35.5918 -35.5896 -35.5896
   -35.5886 -35.5861 -35.5848 -35.5848 -35.5825 -35.5745 -35.5745 -35.5724
   -35.5723 -35.5691 -35.5691 -35.5682 -35.5682 -35.5666 -35.5599 -35.5599
   -35.5586 -35.5490 -35.5490 -35.5429 -35.5429 -35.5414 -35.5413 -35.5403
   -35.5403 -35.5366 -35.5366 -35.5331 -35.5252 -35.5229 -35.5228 -35.5187
   -35.5164 -35.5163 -35.5091 -35.5079 -35.5079 -35.5021 -35.5012 -35.4857
   -35.4700 -35.4700 -35.4691 -35.4691 -35.4610 -35.4610 -35.4519 -35.4468
   -35.4468 -35.4350 -35.4349 -35.4345 -35.4290 -35.4262 -35.4261 -35.4253
   -14.2278 -13.8787 -13.5723 -13.5723 -13.3802 -13.3373 -13.2503 -13.2503
   -13.0774 -12.8845 -12.8256 -12.8256 -12.7821 -12.7709 -12.7709 -12.7366
   -12.7365 -12.7312 -12.6559 -12.6020 -12.5655 -12.5655 -12.5368 -12.5282
   -12.5281 -12.4912 -12.4397 -12.4397 -12.4269 -12.4157 -12.4157 -12.3409
   -12.3084 -12.3084 -12.2770 -12.2548 -12.2548 -12.1987 -12.1987 -12.0668
   -12.0657 -12.0657 -11.9294 -11.8383 -11.8383 -11.8355 -11.8354 -11.8336
   -11.7399 -11.7242 -11.6863 -11.6863 -11.6753 -11.5893 -11.5892 -11.5534
   -11.5534 -11.5411 -11.5411 -11.4872 -11.4334 -11.4334 -11.4179 -11.4055
   -11.3637 -11.3635 -11.2684 -11.2682 -11.2226 -11.2225 -11.1259 -11.1258
    -4.8669  -4.8669  -4.6962  -4.6962  -4.6805  -4.6805  -4.5524  -4.5523
    -4.4515  -4.4515  -4.2952  -4.2952  -4.0692  -4.0692  -4.0178  -4.0080
    -4.0080  -3.9567  -3.9566  -3.8830  -3.8830  -3.7700  -3.7673  -3.7673
    -3.7565  -3.7503  -3.6921  -3.6921  -3.6055  -3.6054  -3.5952  -3.5951
    -3.5905  -3.5905  -3.5891  -3.5413  -3.4495  -3.4189  -3.3779  -3.3778
    -3.3081  -3.3081  -3.2624  -3.2484  -3.2449  -3.2449  -3.2090  -3.2090
    -3.1477  -3.0817  -3.0198  -3.0198  -2.9246  -2.9093  -2.9092  -2.8899
    -2.8831  -2.8831  -2.8269  -2.8144  -2.7459  -2.7113  -2.7113  -2.6107
    -2.6107  -2.6060  -2.6060  -2.5875  -2.5814  -2.5341  -2.5341  -2.5295
    -2.5295  -2.5219  -2.5218  -2.5218  -2.4895  -2.4613  -2.4613  -2.4368
    -2.4368  -2.4347  -2.3986  -2.3986  -2.3461  -2.3461  -2.3358  -2.3240
    -2.3240  -2.2735  -2.2735  -2.2638  -2.2567  -2.2566  -2.2564  -2.2564
    -2.2442  -2.2442  -2.2051  -2.2051  -2.1340  -2.1340  -2.1160  -2.1065
    -2.0558  -2.0456  -2.0456  -2.0249  -2.0248  -2.0061  -2.0061  -2.0020
    -1.9522  -1.9522  -1.9512  -1.9246  -1.9144  -1.9144  -1.8990  -1.8990
    -1.8965  -1.8957  -1.8957  -1.8509  -1.8509  -1.8166  -1.8159  -1.8129
    -1.7811  -1.7811  -1.7439  -1.6997  -1.6997  -1.6941  -1.6941  -1.6406
    -1.6406  -1.6394  -1.6288  -1.6287  -1.5726  -1.5574  -1.5201  -1.5201
    -1.5160  -1.5160  -1.5044  -1.4661  -1.4661  -1.4569  -1.4401  -1.4400
    -1.4046  -1.4044  -1.4021  -1.3448  -1.3170  -1.3170  -1.3070  -1.3050
    -1.3050  -1.2361  -1.2361  -1.2262  -1.2262  -1.2245  -1.1850  -1.1844
    -1.1843  -1.0694  -1.0684  -1.0684  -1.0629  -1.0499  -1.0484  -1.0483
    -1.0435  -1.0435  -1.0006  -0.9483  -0.9483  -0.8981  -0.8943  -0.8943
    -0.8764  -0.8599  -0.7829  -0.7828  -0.7742  -0.7451  -0.7450  -0.7283
    -0.7282  -0.7205  -0.6852  -0.6398  -0.6060  -0.5245  -0.5134  -0.4976
    -0.4975  -0.4196  -0.4069  -0.4059  -0.4059  -0.3953  -0.3952  -0.2387
    -0.1117  -0.1063   0.0121   0.1377   0.2817   0.5514   0.5688   0.5927
     0.7080   0.7245   0.8335   0.9019   1.0581   1.0582   1.0857   1.1457
     1.5738   1.6369   1.8337   1.9189   1.9189   2.0057   2.0058   2.0156
     2.0168   2.0491   2.2106   2.4078   2.4557   2.4834   2.4942   2.4943
     2.5320   2.5320   2.5324   2.5325   2.5460   2.5479   2.6068   2.6068
     2.6578   2.6586   2.6587   2.7039   2.7040   2.7122   2.7122   2.7860
     2.8055   2.8647   2.8648   2.9241   2.9242   2.9404   2.9846   3.0145
     3.0673   3.0674   3.0845   3.0845   3.0880   3.0948   3.1038   3.1039
     3.1215   3.1215   3.1285   3.1600   3.1677   3.1678   3.2304   3.2306
     3.2672   3.2741   3.2741   3.2851   3.2852   3.3221   3.3815   3.3816
     3.4026   3.4027   3.4678   3.4678   3.4899   3.4900   3.5170   3.5170
     3.5293   3.5294   3.5529   3.5529   3.5537   3.6011   3.6389   3.6390
     3.6456   3.6469   3.6469   3.6919   3.6950   3.7273   3.7273   3.7294
     3.7378   3.7906   3.7906   3.7979   3.7979   3.8050   3.8251   3.8252
     3.8523   3.9228   3.9258   3.9261   3.9261   3.9769   3.9769   4.0198
     4.0663   4.0787   4.0787   4.0932   4.1083   4.1086   4.1087   4.1090
     4.1090   4.1121   4.1121   4.1270   4.1454   4.1617   4.1617   4.1656
     4.1657   4.1659   4.1659   4.1746   4.1908   4.2144   4.2144   4.2525
     4.2526   4.2526   4.2528   4.2533   4.2533   4.2553   4.2702   4.2702
     4.2748   4.2748   4.2872   4.2872   4.2953   4.3285   4.3285   4.3673
     4.3673   4.3856   4.3856   4.4054   4.4054   4.4143   4.4394   4.4397
     4.4398   4.4422   4.4423   4.4434   4.4470   4.4797   4.4799   4.5171
     4.5376   4.5378   4.5592   4.5592   4.5923   4.5973   4.6251   4.6311
     4.6351   4.6523   4.6645   4.6752   4.6908   4.6930   4.6930   4.6966
     4.6966   4.7296   4.7296   4.7404   4.7404   4.7451   4.7481   4.7643
     4.7643   4.7738   4.7739   4.8102   4.8150   4.8177   4.8295   4.8295
     4.8492   4.8665

          k = 0.0000-0.5000 0.0000 (135178 PWs)   bands (ev):

   -61.8961 -61.8961 -61.8785 -61.8785 -61.8785 -61.8785 -61.8633 -61.8633
   -61.8598 -61.8598 -61.8598 -61.8598 -61.8476 -61.8476 -61.8476 -61.8476
   -61.8353 -61.8353 -61.8303 -61.8303 -61.8227 -61.8227 -61.8178 -61.8178
   -61.8178 -61.8178 -61.8111 -61.8111 -61.8111 -61.8110 -61.8089 -61.8089
   -61.8089 -61.8089 -61.8086 -61.8086 -61.8001 -61.8001 -61.8001 -61.8001
   -61.7931 -61.7931 -61.7892 -61.7892 -61.7883 -61.7883 -61.7883 -61.7883
   -61.7762 -61.7762 -61.7762 -61.7762 -61.7641 -61.7641 -61.7268 -61.7268
   -61.7236 -61.7236 -61.7236 -61.7236 -61.7225 -61.7224 -61.7224 -61.7224
   -61.7172 -61.7172 -61.7115 -61.7115 -61.7115 -61.7114 -61.7005 -61.7005
   -35.9964 -35.9964 -35.9964 -35.9964 -35.9769 -35.9769 -35.9769 -35.9768
   -35.9570 -35.9570 -35.9570 -35.9570 -35.9497 -35.9497 -35.9492 -35.9492
   -35.9229 -35.9229 -35.9229 -35.9228 -35.8967 -35.8967 -35.8967 -35.8966
   -35.8879 -35.8879 -35.8879 -35.8879 -35.8874 -35.8874 -35.8874 -35.8874
   -35.8874 -35.8874 -35.8776 -35.8776 -35.8776 -35.8776 -35.8725 -35.8725
   -35.8690 -35.8690 -35.8690 -35.8690 -35.8662 -35.8662 -35.8655 -35.8655
   -35.8655 -35.8655 -35.8612 -35.8612 -35.8411 -35.8411 -35.8341 -35.8341
   -35.8041 -35.8041 -35.8040 -35.8040 -35.8038 -35.8038 -35.7960 -35.7960
   -35.7828 -35.7828 -35.7736 -35.7736 -35.7736 -35.7736 -35.7698 -35.7698
   -35.7632 -35.7632 -35.7533 -35.7533 -35.7533 -35.7533 -35.7259 -35.7259
   -35.7195 -35.7194 -35.7171 -35.7171 -35.7116 -35.7115 -35.7021 -35.7021
   -35.7021 -35.7021 -35.6902 -35.6902 -35.6902 -35.6902 -35.6829 -35.6829
   -35.6829 -35.6829 -35.6828 -35.6828 -35.6828 -35.6828 -35.6814 -35.6814
   -35.6769 -35.6769 -35.6761 -35.6761 -35.6761 -35.6761 -35.6712 -35.6712
   -35.6704 -35.6704 -35.6638 -35.6638 -35.6638 -35.6638 -35.6638 -35.6637
   -35.6535 -35.6535 -35.6535 -35.6535 -35.6524 -35.6524 -35.6242 -35.6242
   -35.6242 -35.6242 -35.6222 -35.6222 -35.6222 -35.6222 -35.6204 -35.6204
   -35.6050 -35.6050 -35.6050 -35.6049 -35.6036 -35.6036 -35.6036 -35.6036
   -35.6015 -35.6015 -35.5995 -35.5995 -35.5971 -35.5971 -35.5971 -35.5970
   -35.5927 -35.5927 -35.5905 -35.5905 -35.5892 -35.5892 -35.5881 -35.5881
   -35.5881 -35.5881 -35.5843 -35.5843 -35.5831 -35.5831 -35.5831 -35.5831
   -35.5765 -35.5765 -35.5765 -35.5765 -35.5603 -35.5603 -35.5603 -35.5603
   -35.5448 -35.5448 -35.5404 -35.5404 -35.5404 -35.5404 -35.5385 -35.5385
   -35.5385 -35.5385 -35.5330 -35.5330 -35.5330 -35.5330 -35.5151 -35.5151
   -35.5151 -35.5151 -35.5109 -35.5109 -35.5105 -35.5104 -35.5001 -35.5001
   -35.4701 -35.4700 -35.4700 -35.4700 -35.4537 -35.4537 -35.4536 -35.4536
   -35.4382 -35.4382 -35.4298 -35.4298 -35.4298 -35.4298 -35.4294 -35.4294
   -14.0908 -14.0907 -13.4452 -13.4452 -13.4452 -13.4452 -13.2596 -13.2596
   -13.0812 -13.0812 -12.7485 -12.7485 -12.7200 -12.7200 -12.7200 -12.7200
   -12.6482 -12.6482 -12.6482 -12.6482 -12.5655 -12.5655 -12.5655 -12.5655
   -12.5561 -12.5561 -12.5003 -12.5003 -12.4321 -12.4321 -12.3670 -12.3670
   -12.3670 -12.3670 -12.2319 -12.2319 -12.1853 -12.1852 -12.1852 -12.1852
   -11.9732 -11.9731 -11.9731 -11.9731 -11.7985 -11.7985 -11.7905 -11.7904
   -11.7364 -11.7363 -11.7362 -11.7362 -11.6240 -11.6239 -11.6239 -11.6239
   -11.5160 -11.5160 -11.4623 -11.4623 -11.4623 -11.4623 -11.4484 -11.4484
   -11.3026 -11.3026 -11.3024 -11.3024 -11.1633 -11.1632 -11.1631 -11.1631
    -4.8642  -4.8641  -4.8641  -4.8641  -4.6876  -4.6876  -4.6876  -4.6876
    -4.1838  -4.1838  -4.1838  -4.1838  -4.0114  -4.0114  -4.0114  -4.0114
    -3.9344  -3.9344  -3.8292  -3.8292  -3.8292  -3.8292  -3.8279  -3.8279
    -3.8279  -3.8279  -3.6729  -3.6729  -3.5649  -3.5649  -3.5649  -3.5648
    -3.5646  -3.5646  -3.5646  -3.5645  -3.5579  -3.5578  -3.4823  -3.4823
    -3.3925  -3.3925  -3.3925  -3.3925  -3.2114  -3.2114  -3.1257  -3.1256
    -3.1256  -3.1256  -3.1256  -3.1255  -3.0749  -3.0749  -2.7206  -2.7206
    -2.6865  -2.6865  -2.6865  -2.6865  -2.6761  -2.6761  -2.6760  -2.6760
    -2.6613  -2.6613  -2.5834  -2.5834  -2.5834  -2.5834  -2.5677  -2.5677
    -2.5677  -2.5677  -2.5653  -2.5652  -2.5179  -2.5179  -2.5179  -2.5179
    -2.4503  -2.4503  -2.4496  -2.4496  -2.4496  -2.4496  -2.4495  -2.4495
    -2.3191  -2.3191  -2.3191  -2.3191  -2.2982  -2.2982  -2.2982  -2.2982
    -2.1730  -2.1730  -2.1029  -2.1029  -2.0912  -2.0912  -2.0912  -2.0911
    -2.0630  -2.0630  -2.0554  -2.0554  -2.0554  -2.0554  -1.9731  -1.9731
    -1.9731  -1.9731  -1.9655  -1.9655  -1.9655  -1.9655  -1.8883  -1.8883
    -1.8883  -1.8883  -1.7740  -1.7740  -1.7740  -1.7740  -1.7716  -1.7716
    -1.6279  -1.6279  -1.6279  -1.6279  -1.6163  -1.6163  -1.6163  -1.6163
    -1.5494  -1.5494  -1.5494  -1.5494  -1.5398  -1.5398  -1.5331  -1.5331
    -1.5331  -1.5331  -1.5328  -1.5328  -1.4977  -1.4977  -1.3884  -1.3884
    -1.3709  -1.3708  -1.3619  -1.3619  -1.3619  -1.3618  -1.2476  -1.2475
    -1.2475  -1.2475  -1.2003  -1.2003  -1.1713  -1.1713  -1.1403  -1.1402
    -1.1402  -1.1402  -1.0671  -1.0671  -1.0301  -1.0301  -1.0301  -1.0301
    -0.9999  -0.9999  -0.9999  -0.9999  -0.8922  -0.8922  -0.8844  -0.8844
    -0.8844  -0.8844  -0.8831  -0.8831  -0.8144  -0.8144  -0.6666  -0.6666
    -0.6666  -0.6666  -0.6631  -0.6631  -0.6360  -0.6360  -0.6026  -0.6026
    -0.5736  -0.5736  -0.5735  -0.5735  -0.4495  -0.4495  -0.1005  -0.1005
    -0.0598  -0.0597   0.1149   0.1149   0.1278   0.1278   0.3334   0.3334
     0.6145   0.6145   1.2024   1.2024   1.3219   1.3219   1.4278   1.4278
     1.4807   1.4807   1.4808   1.4808   1.5649   1.5649   2.0678   2.0678
     2.2055   2.2055   2.2055   2.2055   2.3778   2.3779   2.4337   2.4337
     2.4809   2.4809   2.4810   2.4810   2.6186   2.6186   2.6187   2.6187
     2.6636   2.6636   2.6822   2.6822   2.6993   2.6993   2.7592   2.7592
     2.7884   2.7884   2.7885   2.7885   2.8333   2.8333   2.8334   2.8334
     2.8748   2.8748   2.8748   2.8748   3.0024   3.0024   3.1175   3.1175
     3.1175   3.1175   3.2164   3.2164   3.2164   3.2164   3.3255   3.3255
     3.3256   3.3257   3.3662   3.3662   3.3794   3.3794   3.3794   3.3794
     3.3845   3.3845   3.3845   3.3846   3.4523   3.4523   3.5173   3.5173
     3.5174   3.5174   3.6441   3.6441   3.7006   3.7006   3.7144   3.7144
     3.7144   3.7144   3.8387   3.8387   3.8387   3.8387   3.8731   3.8731
     3.8731   3.8731   3.8738   3.8738   3.9237   3.9237   3.9413   3.9413
     3.9611   3.9611   3.9611   3.9611   3.9662   3.9662   4.0387   4.0387
     4.0387   4.0387   4.0518   4.0518   4.0637   4.0638   4.0638   4.0638
     4.0642   4.0643   4.0643   4.0643   4.0672   4.0672   4.0996   4.0996
     4.1558   4.1558   4.1559   4.1559   4.2280   4.2280   4.2280   4.2280
     4.2297   4.2297   4.2297   4.2297   4.2537   4.2537   4.2538   4.2538
     4.3262   4.3263   4.3293   4.3293   4.3463   4.3463   4.3463   4.3463
     4.4185   4.4185   4.4550   4.4550   4.4552   4.4552   4.4640   4.4640
     4.4835   4.4835   4.4836   4.4836   4.4887   4.4887   4.4888   4.4888
     4.5144   4.5144   4.5346   4.5346   4.6306   4.6306   4.6306   4.6306
     4.6482   4.6482   4.6482   4.6483   4.6498   4.6498   4.6854   4.6855
     4.6922   4.6922   4.7035   4.7035   4.7593   4.7594   4.7605   4.7605
     4.7803   4.7803   4.7803   4.7803   4.7803   4.7803   4.7803   4.7803
     4.7981   4.7981

          k = 0.2500 0.2500 0.0000 (135083 PWs)   bands (ev):

   -61.8987 -61.8887 -61.8887 -61.8808 -61.8721 -61.8721 -61.8679 -61.8679
   -61.8617 -61.8568 -61.8546 -61.8546 -61.8543 -61.8543 -61.8451 -61.8405
   -61.8405 -61.8334 -61.8329 -61.8241 -61.8238 -61.8238 -61.8193 -61.8182
   -61.8182 -61.8138 -61.8138 -61.8136 -61.8136 -61.8128 -61.8112 -61.8102
   -61.8064 -61.8064 -61.8037 -61.8036 -61.8024 -61.8024 -61.7989 -61.7975
   -61.7975 -61.7938 -61.7938 -61.7901 -61.7875 -61.7847 -61.7835 -61.7835
   -61.7832 -61.7832 -61.7735 -61.7692 -61.7692 -61.7622 -61.7275 -61.7253
   -61.7253 -61.7247 -61.7241 -61.7226 -61.7226 -61.7225 -61.7208 -61.7208
   -61.7178 -61.7178 -61.7138 -61.7138 -61.7107 -61.7052 -61.7051 -61.6988
   -36.0141 -36.0031 -35.9941 -35.9852 -35.9787 -35.9787 -35.9743 -35.9629
   -35.9551 -35.9536 -35.9536 -35.9487 -35.9487 -35.9446 -35.9446 -35.9390
   -35.9296 -35.9296 -35.9199 -35.9199 -35.9136 -35.9106 -35.9106 -35.9015
   -35.9002 -35.8966 -35.8931 -35.8891 -35.8891 -35.8884 -35.8884 -35.8872
   -35.8852 -35.8818 -35.8818 -35.8811 -35.8807 -35.8755 -35.8733 -35.8733
   -35.8706 -35.8706 -35.8650 -35.8645 -35.8645 -35.8579 -35.8579 -35.8567
   -35.8567 -35.8518 -35.8518 -35.8513 -35.8513 -35.8306 -35.8306 -35.8277
   -35.8277 -35.8161 -35.8161 -35.8068 -35.8006 -35.8006 -35.7898 -35.7898
   -35.7877 -35.7861 -35.7861 -35.7762 -35.7758 -35.7733 -35.7710 -35.7710
   -35.7584 -35.7584 -35.7455 -35.7455 -35.7446 -35.7297 -35.7297 -35.7266
   -35.7266 -35.7263 -35.7263 -35.7197 -35.7197 -35.7136 -35.7043 -35.7036
   -35.7036 -35.6991 -35.6991 -35.6974 -35.6955 -35.6955 -35.6910 -35.6910
   -35.6905 -35.6905 -35.6894 -35.6820 -35.6817 -35.6792 -35.6745 -35.6741
   -35.6741 -35.6708 -35.6708 -35.6705 -35.6705 -35.6703 -35.6703 -35.6698
   -35.6679 -35.6672 -35.6624 -35.6607 -35.6607 -35.6576 -35.6555 -35.6555
   -35.6516 -35.6516 -35.6441 -35.6436 -35.6358 -35.6335 -35.6335 -35.6308
   -35.6307 -35.6307 -35.6303 -35.6303 -35.6280 -35.6280 -35.6227 -35.6153
   -35.6127 -35.6127 -35.6103 -35.6090 -35.6080 -35.6080 -35.6049 -35.6031
   -35.6031 -35.6027 -35.6007 -35.6007 -35.6000 -35.5979 -35.5958 -35.5958
   -35.5938 -35.5938 -35.5922 -35.5922 -35.5917 -35.5907 -35.5906 -35.5900
   -35.5900 -35.5826 -35.5826 -35.5813 -35.5813 -35.5807 -35.5776 -35.5740
   -35.5740 -35.5697 -35.5652 -35.5647 -35.5585 -35.5585 -35.5575 -35.5573
   -35.5573 -35.5554 -35.5461 -35.5451 -35.5451 -35.5424 -35.5423 -35.5423
   -35.5394 -35.5333 -35.5333 -35.5328 -35.5301 -35.5301 -35.5228 -35.5228
   -35.5183 -35.5114 -35.5114 -35.5110 -35.5065 -35.5015 -35.4981 -35.4854
   -35.4853 -35.4787 -35.4604 -35.4589 -35.4589 -35.4530 -35.4530 -35.4526
   -35.4404 -35.4404 -35.4328 -35.4312 -35.4305 -35.4305 -35.4261 -35.4261
   -14.1807 -13.8332 -13.8332 -13.4990 -13.3384 -13.2952 -13.2952 -13.0379
   -13.0378 -12.9903 -12.9903 -12.8484 -12.8484 -12.7652 -12.7572 -12.7043
   -12.7043 -12.6220 -12.6220 -12.5979 -12.5979 -12.5860 -12.5546 -12.5538
   -12.5002 -12.4754 -12.4754 -12.4031 -12.4031 -12.3928 -12.3928 -12.3763
   -12.3407 -12.3031 -12.2610 -12.2610 -12.2424 -12.2424 -12.1650 -12.1580
   -12.0304 -12.0304 -12.0008 -11.8987 -11.8987 -11.8165 -11.7708 -11.7196
   -11.7196 -11.6985 -11.6985 -11.6887 -11.6887 -11.6426 -11.6426 -11.5961
   -11.5299 -11.5299 -11.4715 -11.4378 -11.4161 -11.4161 -11.3917 -11.3917
   -11.3860 -11.3860 -11.3714 -11.2703 -11.2212 -11.2212 -11.1423 -11.0670
    -5.0564  -4.9650  -4.8539  -4.7873  -4.5813  -4.5813  -4.4106  -4.4106
    -4.3515  -4.3515  -4.2338  -4.2338  -4.2022  -4.0878  -4.0878  -4.0774
    -4.0436  -3.8952  -3.8556  -3.8556  -3.8372  -3.8372  -3.8353  -3.7938
    -3.7938  -3.7461  -3.6595  -3.6595  -3.6201  -3.6120  -3.6120  -3.5745
    -3.5745  -3.5728  -3.5483  -3.5401  -3.5401  -3.4335  -3.3738  -3.3738
    -3.3187  -3.3187  -3.2725  -3.2725  -3.2582  -3.2530  -3.1719  -3.1405
    -3.1405  -3.1146  -3.1146  -2.9595  -2.9595  -2.9579  -2.9579  -2.9185
    -2.9185  -2.9038  -2.9038  -2.7839  -2.7649  -2.6920  -2.6834  -2.6272
    -2.6248  -2.6248  -2.6115  -2.6113  -2.6113  -2.6083  -2.5815  -2.5774
    -2.5511  -2.5217  -2.5034  -2.5034  -2.4992  -2.4805  -2.4805  -2.4668
    -2.4668  -2.4501  -2.4501  -2.3743  -2.3594  -2.3594  -2.3578  -2.3578
    -2.3483  -2.2930  -2.2906  -2.2906  -2.2602  -2.2602  -2.1736  -2.1736
    -2.1573  -2.1573  -2.1308  -2.1196  -2.1196  -2.1190  -2.1190  -2.1151
    -2.1151  -2.0812  -2.0812  -2.0590  -2.0373  -2.0373  -2.0145  -1.9752
    -1.9752  -1.9575  -1.9575  -1.9501  -1.9501  -1.9441  -1.8985  -1.8985
    -1.8657  -1.8595  -1.8581  -1.8341  -1.8169  -1.8169  -1.7528  -1.7168
    -1.7108  -1.7108  -1.6754  -1.6754  -1.6358  -1.6251  -1.6239  -1.6081
    -1.6081  -1.5988  -1.5863  -1.5742  -1.5484  -1.5476  -1.5476  -1.5297
    -1.5297  -1.4647  -1.4647  -1.4498  -1.4251  -1.4251  -1.4107  -1.4078
    -1.4078  -1.3375  -1.3375  -1.3241  -1.3241  -1.2756  -1.2756  -1.2686
    -1.2516  -1.2516  -1.2480  -1.2480  -1.1780  -1.1759  -1.1572  -1.1147
    -1.1147  -1.1058  -1.1058  -1.0805  -1.0752  -1.0399  -1.0399  -1.0302
    -1.0302  -1.0198  -1.0103  -1.0078  -1.0078  -0.9185  -0.9185  -0.9132
    -0.8808  -0.8808  -0.7991  -0.7991  -0.7735  -0.7735  -0.7365  -0.7365
    -0.7250  -0.6957  -0.6431  -0.6027  -0.6027  -0.5863  -0.5800  -0.5800
    -0.5561  -0.5560  -0.5197  -0.4203  -0.4203  -0.3192  -0.2246  -0.2246
    -0.2135  -0.1199  -0.1199   0.0110   0.0912   0.3245   0.4873   0.7527
     0.7936   0.8229   0.9360   0.9360   0.9534   1.1787   1.2351   1.2351
     1.6888   1.6889   1.7925   1.8553   1.8742   1.8742   1.9918   1.9918
     2.0718   2.0812   2.0812   2.1251   2.1251   2.1739   2.2493   2.2493
     2.3870   2.4403   2.4403   2.4442   2.4827   2.4961   2.5441   2.5441
     2.5586   2.6216   2.6702   2.6702   2.7588   2.7588   2.7677   2.7815
     2.8515   2.8515   2.9269   2.9269   2.9278   2.9278   2.9653   2.9653
     3.0014   3.0136   3.0136   3.0374   3.0477   3.0681   3.1081   3.1574
     3.1574   3.1608   3.1608   3.2346   3.2346   3.2501   3.2619   3.2732
     3.2732   3.3030   3.3305   3.3305   3.3408   3.3409   3.3488   3.3797
     3.3797   3.4318   3.5180   3.5180   3.5250   3.5250   3.5418   3.5620
     3.5620   3.5660   3.5660   3.6116   3.6116   3.6453   3.6787   3.6787
     3.6861   3.6861   3.6946   3.7228   3.7228   3.7535   3.7754   3.7865
     3.8165   3.8165   3.8203   3.8669   3.8999   3.8999   3.9059   3.9059
     3.9171   3.9912   3.9912   3.9918   3.9990   3.9991   4.0186   4.0268
     4.0271   4.0271   4.0363   4.0693   4.0735   4.0735   4.0790   4.0790
     4.1112   4.1112   4.1349   4.1467   4.1467   4.1570   4.1576   4.1576
     4.1672   4.1769   4.1770   4.1911   4.1911   4.2047   4.2050   4.2056
     4.2227   4.2227   4.2356   4.2406   4.2406   4.2458   4.2458   4.2746
     4.2754   4.2790   4.2790   4.3139   4.3143   4.3244   4.3244   4.3514
     4.3514   4.3556   4.3556   4.3585   4.4003   4.4152   4.4152   4.4386
     4.4386   4.4625   4.4807   4.4807   4.5113   4.5343   4.5497   4.5722
     4.5722   4.5818   4.6134   4.6134   4.6181   4.6181   4.6520   4.6520
     4.6524   4.6566   4.6566   4.6717   4.6717   4.6830   4.6830   4.6916
     4.6916   4.7034   4.7034   4.7135   4.7284   4.7493   4.7584   4.7584
     4.7757   4.7876   4.7876   4.7925   4.7931   4.7933   4.7993   4.8089
     4.8089   4.8157

          k = 0.2500-0.5000 0.0000 (135080 PWs)   bands (ev):

   -61.8949 -61.8948 -61.8856 -61.8856 -61.8704 -61.8704 -61.8630 -61.8630
   -61.8610 -61.8610 -61.8589 -61.8589 -61.8544 -61.8543 -61.8422 -61.8422
   -61.8361 -61.8361 -61.8291 -61.8291 -61.8221 -61.8221 -61.8218 -61.8217
   -61.8158 -61.8158 -61.8138 -61.8137 -61.8117 -61.8117 -61.8102 -61.8102
   -61.8088 -61.8088 -61.8048 -61.8048 -61.8005 -61.8005 -61.7958 -61.7958
   -61.7927 -61.7927 -61.7900 -61.7900 -61.7900 -61.7900 -61.7870 -61.7870
   -61.7833 -61.7833 -61.7707 -61.7707 -61.7648 -61.7648 -61.7267 -61.7266
   -61.7251 -61.7251 -61.7238 -61.7238 -61.7216 -61.7215 -61.7206 -61.7206
   -61.7176 -61.7176 -61.7154 -61.7154 -61.7074 -61.7074 -61.7014 -61.7014
   -36.0146 -36.0146 -35.9960 -35.9960 -35.9679 -35.9679 -35.9613 -35.9613
   -35.9565 -35.9565 -35.9471 -35.9471 -35.9466 -35.9466 -35.9405 -35.9405
   -35.9242 -35.9242 -35.9190 -35.9189 -35.9120 -35.9120 -35.9108 -35.9108
   -35.8987 -35.8987 -35.8941 -35.8941 -35.8915 -35.8915 -35.8908 -35.8907
   -35.8888 -35.8888 -35.8774 -35.8774 -35.8760 -35.8760 -35.8731 -35.8731
   -35.8692 -35.8692 -35.8682 -35.8682 -35.8679 -35.8679 -35.8606 -35.8606
   -35.8535 -35.8535 -35.8487 -35.8486 -35.8461 -35.8461 -35.8270 -35.8270
   -35.8228 -35.8228 -35.8076 -35.8076 -35.8022 -35.8022 -35.7947 -35.7947
   -35.7900 -35.7900 -35.7849 -35.7849 -35.7673 -35.7673 -35.7635 -35.7635
   -35.7529 -35.7529 -35.7422 -35.7422 -35.7380 -35.7380 -35.7325 -35.7325
   -35.7206 -35.7205 -35.7154 -35.7154 -35.7118 -35.7118 -35.7071 -35.7071
   -35.7026 -35.7026 -35.6970 -35.6970 -35.6952 -35.6952 -35.6931 -35.6931
   -35.6927 -35.6927 -35.6827 -35.6827 -35.6817 -35.6817 -35.6782 -35.6782
   -35.6750 -35.6750 -35.6744 -35.6744 -35.6728 -35.6728 -35.6656 -35.6656
   -35.6641 -35.6641 -35.6622 -35.6622 -35.6618 -35.6618 -35.6576 -35.6576
   -35.6558 -35.6558 -35.6533 -35.6533 -35.6360 -35.6360 -35.6355 -35.6355
   -35.6340 -35.6340 -35.6193 -35.6193 -35.6161 -35.6161 -35.6159 -35.6159
   -35.6148 -35.6148 -35.6121 -35.6121 -35.6109 -35.6109 -35.6067 -35.6067
   -35.6067 -35.6066 -35.5989 -35.5989 -35.5985 -35.5985 -35.5956 -35.5956
   -35.5927 -35.5927 -35.5915 -35.5914 -35.5909 -35.5909 -35.5898 -35.5898
   -35.5881 -35.5881 -35.5814 -35.5814 -35.5807 -35.5807 -35.5767 -35.5767
   -35.5698 -35.5698 -35.5685 -35.5685 -35.5537 -35.5537 -35.5529 -35.5529
   -35.5459 -35.5459 -35.5457 -35.5457 -35.5449 -35.5449 -35.5432 -35.5432
   -35.5375 -35.5375 -35.5354 -35.5354 -35.5315 -35.5315 -35.5286 -35.5286
   -35.5219 -35.5219 -35.5034 -35.5034 -35.5018 -35.5018 -35.4985 -35.4985
   -35.4835 -35.4835 -35.4573 -35.4573 -35.4557 -35.4557 -35.4485 -35.4485
   -35.4396 -35.4396 -35.4346 -35.4346 -35.4291 -35.4291 -35.4282 -35.4282
   -14.0443 -14.0443 -13.7017 -13.7017 -13.2186 -13.2186 -13.1743 -13.1742
   -13.0417 -13.0417 -12.9250 -12.9250 -12.7601 -12.7601 -12.7463 -12.7463
   -12.7273 -12.7273 -12.6336 -12.6336 -12.5407 -12.5407 -12.5272 -12.5272
   -12.4711 -12.4711 -12.4336 -12.4336 -12.3963 -12.3963 -12.3901 -12.3901
   -12.3400 -12.3400 -12.2835 -12.2835 -12.1946 -12.1946 -12.1445 -12.1445
   -12.1348 -12.1348 -11.9265 -11.9265 -11.8126 -11.8126 -11.7721 -11.7721
   -11.7703 -11.7703 -11.6652 -11.6652 -11.6277 -11.6277 -11.5799 -11.5799
   -11.5504 -11.5504 -11.4863 -11.4863 -11.4313 -11.4313 -11.3711 -11.3711
   -11.3344 -11.3344 -11.3197 -11.3197 -11.2859 -11.2859 -11.0701 -11.0701
    -5.0939  -5.0939  -4.8931  -4.8931  -4.5466  -4.5466  -4.3898  -4.3898
    -4.2906  -4.2905  -4.1070  -4.1070  -4.0555  -4.0555  -4.0377  -4.0377
    -4.0119  -4.0119  -3.9423  -3.9423  -3.8795  -3.8795  -3.8070  -3.8070
    -3.7846  -3.7846  -3.7632  -3.7632  -3.6876  -3.6876  -3.5700  -3.5700
    -3.5563  -3.5563  -3.5101  -3.5101  -3.4606  -3.4606  -3.3216  -3.3216
    -3.3154  -3.3154  -3.2562  -3.2562  -3.2448  -3.2448  -3.1886  -3.1886
    -3.1394  -3.1393  -3.0561  -3.0561  -3.0289  -3.0289  -3.0164  -3.0164
    -2.8717  -2.8717  -2.8296  -2.8296  -2.7595  -2.7595  -2.7421  -2.7421
    -2.7117  -2.7117  -2.5946  -2.5946  -2.5843  -2.5843  -2.5705  -2.5705
    -2.5275  -2.5275  -2.4781  -2.4781  -2.4762  -2.4762  -2.4347  -2.4347
    -2.3999  -2.3999  -2.3990  -2.3990  -2.3574  -2.3574  -2.3489  -2.3489
    -2.3299  -2.3299  -2.2691  -2.2691  -2.2686  -2.2686  -2.2571  -2.2571
    -2.2204  -2.2204  -2.2002  -2.2002  -2.1681  -2.1681  -2.1635  -2.1635
    -2.1023  -2.1022  -2.0966  -2.0966  -2.0605  -2.0605  -2.0430  -2.0430
    -2.0216  -2.0216  -1.9343  -1.9343  -1.9164  -1.9164  -1.8981  -1.8980
    -1.7363  -1.7363  -1.6938  -1.6938  -1.6794  -1.6794  -1.6630  -1.6630
    -1.6585  -1.6585  -1.6346  -1.6346  -1.6314  -1.6314  -1.5372  -1.5372
    -1.5358  -1.5358  -1.5351  -1.5351  -1.5099  -1.5099  -1.4988  -1.4988
    -1.4494  -1.4494  -1.4349  -1.4349  -1.3640  -1.3640  -1.3564  -1.3564
    -1.3511  -1.3511  -1.3474  -1.3474  -1.3327  -1.3327  -1.3171  -1.3171
    -1.3010  -1.3010  -1.2576  -1.2576  -1.2138  -1.2138  -1.1441  -1.1441
    -1.1138  -1.1138  -1.0958  -1.0958  -1.0350  -1.0350  -1.0277  -1.0277
    -1.0247  -1.0247  -1.0049  -1.0049  -0.9739  -0.9739  -0.8729  -0.8729
    -0.8608  -0.8608  -0.7862  -0.7862  -0.7606  -0.7606  -0.7549  -0.7548
    -0.7058  -0.7058  -0.6964  -0.6964  -0.6550  -0.6550  -0.6329  -0.6329
    -0.4891  -0.4891  -0.4165  -0.4165  -0.3857  -0.3856  -0.3410  -0.3410
    -0.1667  -0.1666  -0.0571  -0.0571   0.0543   0.0543   0.2700   0.2700
     0.8768   0.8768   1.2596   1.2596   1.3904   1.3904   1.4201   1.4201
     1.4518   1.4518   1.6127   1.6127   1.6200   1.6200   1.9705   1.9705
     2.0027   2.0027   2.0357   2.0357   2.1465   2.1465   2.2731   2.2731
     2.2893   2.2893   2.4192   2.4192   2.4353   2.4353   2.4849   2.4849
     2.5794   2.5794   2.6730   2.6731   2.6847   2.6847   2.7312   2.7312
     2.7596   2.7596   2.7867   2.7867   2.7903   2.7903   2.9147   2.9147
     2.9984   2.9984   3.0135   3.0135   3.0151   3.0151   3.1308   3.1308
     3.1483   3.1483   3.2084   3.2084   3.2272   3.2272   3.2760   3.2760
     3.3842   3.3843   3.3981   3.3981   3.4018   3.4018   3.4139   3.4139
     3.5000   3.5000   3.5726   3.5726   3.5808   3.5808   3.6093   3.6093
     3.6141   3.6141   3.6522   3.6522   3.6911   3.6911   3.7509   3.7509
     3.7817   3.7817   3.8131   3.8131   3.8379   3.8379   3.8528   3.8528
     3.8726   3.8726   3.8993   3.8993   3.8999   3.8999   3.9269   3.9269
     3.9624   3.9624   3.9687   3.9687   3.9869   3.9869   4.0048   4.0048
     4.0361   4.0361   4.0371   4.0371   4.0479   4.0479   4.0571   4.0571
     4.0795   4.0795   4.0859   4.0859   4.0875   4.0875   4.0911   4.0911
     4.1125   4.1125   4.1402   4.1402   4.1419   4.1419   4.1848   4.1848
     4.1951   4.1951   4.2148   4.2148   4.2376   4.2376   4.2433   4.2433
     4.2493   4.2493   4.3788   4.3788   4.4041   4.4042   4.4153   4.4153
     4.4217   4.4217   4.4236   4.4236   4.4465   4.4465   4.4813   4.4813
     4.5365   4.5365   4.5545   4.5545   4.5641   4.5641   4.5651   4.5651
     4.5710   4.5710   4.5841   4.5841   4.6013   4.6013   4.6559   4.6560
     4.6827   4.6827   4.6907   4.6907   4.6942   4.6942   4.6965   4.6965
     4.7087   4.7087   4.7330   4.7330   4.7363   4.7363   4.7375   4.7375
     4.7576   4.7576   4.7580   4.7580   4.7861   4.7861   4.8031   4.8032
     4.8057   4.8060

          k =-0.5000-0.5000 0.0000 (135004 PWs)   bands (ev):

   -61.8913 -61.8913 -61.8913 -61.8912 -61.8621 -61.8621 -61.8621 -61.8621
   -61.8621 -61.8621 -61.8621 -61.8621 -61.8585 -61.8585 -61.8384 -61.8384
   -61.8384 -61.8383 -61.8259 -61.8259 -61.8259 -61.8259 -61.8201 -61.8201
   -61.8201 -61.8200 -61.8120 -61.8120 -61.8094 -61.8094 -61.8094 -61.8094
   -61.8094 -61.8094 -61.8094 -61.8094 -61.7923 -61.7923 -61.7923 -61.7923
   -61.7916 -61.7916 -61.7916 -61.7916 -61.7916 -61.7916 -61.7916 -61.7916
   -61.7865 -61.7865 -61.7670 -61.7670 -61.7670 -61.7670 -61.7261 -61.7261
   -61.7261 -61.7260 -61.7244 -61.7244 -61.7189 -61.7189 -61.7188 -61.7188
   -61.7188 -61.7188 -61.7188 -61.7188 -61.7039 -61.7039 -61.7038 -61.7038
   -36.0208 -36.0208 -36.0026 -36.0026 -35.9608 -35.9608 -35.9608 -35.9608
   -35.9314 -35.9314 -35.9314 -35.9314 -35.9314 -35.9314 -35.9314 -35.9314
   -35.9309 -35.9309 -35.9309 -35.9309 -35.9173 -35.9173 -35.9083 -35.9083
   -35.9083 -35.9083 -35.9083 -35.9083 -35.9083 -35.9083 -35.9000 -35.9000
   -35.8957 -35.8957 -35.8957 -35.8957 -35.8802 -35.8802 -35.8802 -35.8802
   -35.8608 -35.8608 -35.8608 -35.8607 -35.8463 -35.8463 -35.8463 -35.8463
   -35.8463 -35.8463 -35.8463 -35.8463 -35.8268 -35.8268 -35.8268 -35.8268
   -35.8268 -35.8268 -35.8268 -35.8268 -35.8198 -35.8198 -35.8198 -35.8198
   -35.7794 -35.7794 -35.7794 -35.7794 -35.7585 -35.7585 -35.7585 -35.7585
   -35.7450 -35.7450 -35.7450 -35.7450 -35.7225 -35.7225 -35.7225 -35.7225
   -35.7225 -35.7225 -35.7225 -35.7225 -35.7131 -35.7131 -35.7131 -35.7131
   -35.7010 -35.7010 -35.7010 -35.7010 -35.6967 -35.6967 -35.6967 -35.6967
   -35.6967 -35.6967 -35.6967 -35.6967 -35.6852 -35.6852 -35.6851 -35.6851
   -35.6723 -35.6723 -35.6723 -35.6723 -35.6697 -35.6697 -35.6697 -35.6697
   -35.6587 -35.6587 -35.6503 -35.6503 -35.6503 -35.6503 -35.6502 -35.6502
   -35.6502 -35.6502 -35.6389 -35.6389 -35.6389 -35.6389 -35.6304 -35.6304
   -35.6302 -35.6302 -35.6302 -35.6302 -35.6302 -35.6302 -35.6302 -35.6302
   -35.6185 -35.6185 -35.6184 -35.6184 -35.6170 -35.6169 -35.6169 -35.6169
   -35.6140 -35.6140 -35.5954 -35.5954 -35.5954 -35.5954 -35.5918 -35.5918
   -35.5918 -35.5918 -35.5918 -35.5918 -35.5918 -35.5918 -35.5826 -35.5826
   -35.5825 -35.5825 -35.5741 -35.5741 -35.5740 -35.5740 -35.5641 -35.5641
   -35.5641 -35.5641 -35.5641 -35.5641 -35.5640 -35.5640 -35.5640 -35.5640
   -35.5446 -35.5446 -35.5446 -35.5446 -35.5446 -35.5446 -35.5446 -35.5446
   -35.5395 -35.5394 -35.5391 -35.5391 -35.5308 -35.5308 -35.5308 -35.5308
   -35.5302 -35.5302 -35.4989 -35.4989 -35.4989 -35.4989 -35.4934 -35.4933
   -35.4933 -35.4933 -35.4585 -35.4585 -35.4433 -35.4433 -35.4433 -35.4433
   -35.4433 -35.4433 -35.4433 -35.4433 -35.4285 -35.4285 -35.4285 -35.4284
   -13.9097 -13.9097 -13.9097 -13.9097 -13.1012 -13.1012 -13.1012 -13.1012
   -12.9290 -12.9289 -12.9289 -12.9289 -12.9289 -12.9289 -12.9289 -12.9289
   -12.6762 -12.6761 -12.6761 -12.6761 -12.4976 -12.4976 -12.4976 -12.4976
   -12.3911 -12.3911 -12.3911 -12.3911 -12.3911 -12.3911 -12.3911 -12.3911
   -12.3077 -12.3077 -12.2946 -12.2946 -12.2946 -12.2946 -12.1322 -12.1322
   -12.0877 -12.0877 -12.0877 -12.0877 -11.7240 -11.7239 -11.7239 -11.7239
   -11.6915 -11.6915 -11.6915 -11.6915 -11.6915 -11.6915 -11.6915 -11.6915
   -11.4035 -11.4035 -11.4035 -11.4035 -11.4034 -11.4034 -11.4034 -11.4034
   -11.3868 -11.3868 -11.3868 -11.3867 -11.3363 -11.3363 -11.0354 -11.0354
    -5.1775  -5.1775  -4.9656  -4.9656  -4.2320  -4.2320  -4.2320  -4.2320
    -4.2320  -4.2320  -4.2319  -4.2319  -4.1425  -4.1425  -4.0609  -4.0609
    -4.0609  -4.0609  -4.0609  -4.0609  -4.0609  -4.0609  -3.8428  -3.8428
    -3.6433  -3.6433  -3.6433  -3.6433  -3.6093  -3.6093  -3.6092  -3.6092
    -3.5888  -3.5888  -3.5888  -3.5888  -3.3518  -3.3518  -3.3518  -3.3518
    -3.3518  -3.3518  -3.3518  -3.3518  -3.1082  -3.1082  -3.1082  -3.1082
    -3.0608  -3.0608  -3.0608  -3.0608  -3.0608  -3.0608  -3.0608  -3.0608
    -2.9039  -2.9039  -2.9039  -2.9039  -2.8810  -2.8810  -2.8810  -2.8810
    -2.7931  -2.7931  -2.6153  -2.6153  -2.5833  -2.5833  -2.4884  -2.4884
    -2.4884  -2.4884  -2.4884  -2.4884  -2.4884  -2.4884  -2.4495  -2.4495
    -2.3656  -2.3656  -2.3656  -2.3656  -2.3656  -2.3656  -2.3656  -2.3656
    -2.3635  -2.3635  -2.3635  -2.3635  -2.1343  -2.1343  -2.1343  -2.1343
    -2.1343  -2.1343  -2.1343  -2.1343  -2.1164  -2.1164  -2.1164  -2.1164
    -2.1164  -2.1164  -2.1164  -2.1164  -2.0755  -2.0755  -2.0755  -2.0755
    -2.0643  -2.0643  -2.0298  -2.0298  -2.0298  -2.0298  -1.8642  -1.8642
    -1.8642  -1.8641  -1.7339  -1.7339  -1.7339  -1.7339  -1.7140  -1.7140
    -1.6890  -1.6890  -1.5097  -1.5097  -1.5097  -1.5097  -1.4598  -1.4598
    -1.4598  -1.4598  -1.4598  -1.4598  -1.4597  -1.4597  -1.3883  -1.3883
    -1.3883  -1.3883  -1.3109  -1.3109  -1.3109  -1.3109  -1.3108  -1.3108
    -1.3108  -1.3108  -1.3004  -1.3004  -1.2830  -1.2830  -1.2830  -1.2830
    -1.2679  -1.2678  -1.2678  -1.2678  -1.2379  -1.2379  -1.2379  -1.2379
    -1.1117  -1.1117  -1.1117  -1.1117  -1.1117  -1.1117  -1.1117  -1.1117
    -0.9862  -0.9862  -0.9862  -0.9862  -0.9615  -0.9615  -0.9615  -0.9615
    -0.7857  -0.7857  -0.7857  -0.7856  -0.7856  -0.7856  -0.7856  -0.7856
    -0.6598  -0.6598  -0.6598  -0.6598  -0.6384  -0.6384  -0.6384  -0.6384
    -0.5221  -0.5221  -0.5221  -0.5220  -0.2831  -0.2831  -0.2831  -0.2831
    -0.2558  -0.2558  -0.2558  -0.2557   0.0028   0.0028   0.0028   0.0029
     1.2888   1.2888   1.2888   1.2888   1.4868   1.4868   1.4868   1.4868
     1.5376   1.5376   1.5376   1.5377   1.7996   1.7996   1.7996   1.7996
     1.7996   1.7996   1.7996   1.7996   1.8702   1.8702   1.8702   1.8702
     2.3779   2.3779   2.3779   2.3780   2.5722   2.5722   2.5722   2.5722
     2.6281   2.6281   2.6281   2.6281   2.6446   2.6446   2.6446   2.6446
     2.7154   2.7155   2.7155   2.7155   2.7282   2.7282   2.7282   2.7282
     2.9070   2.9070   2.9070   2.9070   2.9071   2.9071   2.9071   2.9071
     3.3110   3.3110   3.3110   3.3110   3.4089   3.4089   3.4089   3.4089
     3.5153   3.5153   3.5153   3.5153   3.5153   3.5153   3.5153   3.5153
     3.6333   3.6333   3.6736   3.6736   3.6906   3.6906   3.6906   3.6906
     3.6906   3.6906   3.6906   3.6906   3.7063   3.7063   3.7121   3.7121
     3.8078   3.8078   3.8078   3.8078   3.8078   3.8078   3.8078   3.8078
     3.8743   3.8743   3.8743   3.8743   3.8743   3.8743   3.8744   3.8744
     3.9254   3.9254   3.9254   3.9254   4.0200   4.0200   4.0200   4.0200
     4.0200   4.0200   4.0200   4.0200   4.0289   4.0289   4.0368   4.0368
     4.0368   4.0368   4.0369   4.0369   4.0369   4.0369   4.0703   4.0703
     4.0703   4.0703   4.0856   4.0856   4.1372   4.1372   4.1372   4.1372
     4.1426   4.1426   4.1868   4.1868   4.1868   4.1868   4.2382   4.2382
     4.4070   4.4070   4.4070   4.4070   4.4070   4.4070   4.4070   4.4070
     4.4515   4.4515   4.4515   4.4516   4.5469   4.5469   4.5469   4.5469
     4.5914   4.5914   4.5915   4.5915   4.5915   4.5915   4.5915   4.5915
     4.6111   4.6111   4.6474   4.6474   4.6474   4.6474   4.6474   4.6474
     4.6474   4.6474   4.6551   4.6551   4.6551   4.6551   4.6909   4.6909
     4.6909   4.6909   4.7151   4.7151   4.7151   4.7151   4.7594   4.7594
     4.7677   4.7677   4.7677   4.7677   4.7677   4.7677   4.7680   4.8030
     4.8052   4.8053

     the Fermi energy is     3.4257 ev

!    total energy              =  -11908.17028072 Ry
     estimated scf accuracy    <       0.00000012 Ry
     smearing contrib. (-TS)   =      -0.01246135 Ry
     internal energy E=F+TS    =  -11908.15781938 Ry

     The total energy is F=E-TS. E is the sum of the following terms:
     one-electron contribution = -158029.68159874 Ry
     hartree contribution      =   79103.56901046 Ry
     xc contribution           =   -1803.73311494 Ry
     ewald contribution        =   68825.12441066 Ry
     DFT-D3 Dispersion         =      -3.43652681 Ry

     convergence has been achieved in  27 iterations

     negative rho (up, down):  7.681E-02 0.000E+00

     Forces acting on atoms (cartesian axes, Ry/au):

     atom    1 type  1   force =     0.00000000    0.00000000    0.09422315
     atom    2 type  1   force =    -0.00000942    0.00000000   -0.01814370
     atom    3 type  1   force =     0.00000000   -0.00000942   -0.01814370
     atom    4 type  1   force =    -0.00000477   -0.00000477    0.09422743
     atom    5 type  1   force =     0.00000000    0.00000000    0.00577817
     atom    6 type  1   force =    -0.00000305    0.00000000   -0.00729252
     atom    7 type  1   force =     0.00000000   -0.00000305   -0.00729252
     atom    8 type  1   force =    -0.00000161   -0.00000161    0.00577747
     atom    9 type  1   force =     0.00000000   -0.00000252    0.09422595
     atom   10 type  1   force =    -0.00000467   -0.00000441   -0.01814184
     atom   11 type  1   force =     0.00000000    0.00000000   -0.01814214
     atom   12 type  1   force =    -0.00000102    0.00000000    0.09422767
     atom   13 type  1   force =     0.00000000   -0.00000510    0.00578530
     atom   14 type  1   force =    -0.00000577   -0.00000042   -0.00728211
     atom   15 type  1   force =     0.00000000    0.00000000   -0.00728617
     atom   16 type  1   force =    -0.00000491    0.00000000    0.00578556
     atom   17 type  1   force =     0.00000000    0.00000252    0.09422595
     atom   18 type  1   force =    -0.00000467    0.00000441   -0.01814184
     atom   19 type  1   force =     0.00000000    0.00000942   -0.01814370
     atom   20 type  1   force =    -0.00000477    0.00000477    0.09422743
     atom   21 type  1   force =    -0.00000000    0.00000510    0.00578530
     atom   22 type  1   force =    -0.00000577    0.00000042   -0.00728211
     atom   23 type  1   force =     0.00000000    0.00000305   -0.00729252
     atom   24 type  1   force =    -0.00000161    0.00000161    0.00577747
     atom   25 type  1   force =    -0.00000252    0.00000000    0.09422595
     atom   26 type  1   force =     0.00000000    0.00000000   -0.01814214
     atom   27 type  1   force =    -0.00000441   -0.00000467   -0.01814184
     atom   28 type  1   force =     0.00000000   -0.00000102    0.09422767
     atom   29 type  1   force =    -0.00000510    0.00000000    0.00578530
     atom   30 type  1   force =     0.00000000    0.00000000   -0.00728617
     atom   31 type  1   force =    -0.00000042   -0.00000577   -0.00728211
     atom   32 type  1   force =     0.00000000   -0.00000491    0.00578556
     atom   33 type  1   force =    -0.00000033   -0.00000033    0.09422933
     atom   34 type  1   force =     0.00000000    0.00000115   -0.01814946
     atom   35 type  1   force =     0.00000115    0.00000000   -0.01814946
     atom   36 type  1   force =     0.00000000    0.00000000    0.09422735
     atom   37 type  1   force =    -0.00000986   -0.00000986    0.00578194
     atom   38 type  1   force =     0.00000000   -0.00000747   -0.00727534
     atom   39 type  1   force =    -0.00000747    0.00000000   -0.00727534
     atom   40 type  1   force =     0.00000000    0.00000000    0.00579202
     atom   41 type  1   force =    -0.00000033    0.00000033    0.09422933
     atom   42 type  1   force =     0.00000000   -0.00000115   -0.01814946
     atom   43 type  1   force =    -0.00000441    0.00000467   -0.01814184
     atom   44 type  1   force =     0.00000000    0.00000102    0.09422767
     atom   45 type  1   force =    -0.00000986    0.00000986    0.00578194
     atom   46 type  1   force =     0.00000000    0.00000747   -0.00727534
     atom   47 type  1   force =    -0.00000042    0.00000577   -0.00728211
     atom   48 type  1   force =     0.00000000    0.00000491    0.00578556
     atom   49 type  1   force =     0.00000252    0.00000000    0.09422595
     atom   50 type  1   force =     0.00000942    0.00000000   -0.01814370
     atom   51 type  1   force =     0.00000441   -0.00000467   -0.01814184
     atom   52 type  1   force =     0.00000477   -0.00000477    0.09422743
     atom   53 type  1   force =     0.00000510    0.00000000    0.00578530
     atom   54 type  1   force =     0.00000305   -0.00000000   -0.00729252
     atom   55 type  1   force =     0.00000042   -0.00000577   -0.00728211
     atom   56 type  1   force =     0.00000161   -0.00000161    0.00577747
     atom   57 type  1   force =     0.00000033   -0.00000033    0.09422933
     atom   58 type  1   force =     0.00000467   -0.00000441   -0.01814184
     atom   59 type  1   force =    -0.00000115    0.00000000   -0.01814946
     atom   60 type  1   force =     0.00000102    0.00000000    0.09422767
     atom   61 type  1   force =     0.00000986   -0.00000986    0.00578194
     atom   62 type  1   force =     0.00000577   -0.00000042   -0.00728211
     atom   63 type  1   force =     0.00000747    0.00000000   -0.00727534
     atom   64 type  1   force =     0.00000491    0.00000000    0.00578556
     atom   65 type  1   force =     0.00000033    0.00000033    0.09422933
     atom   66 type  1   force =     0.00000467    0.00000441   -0.01814184
     atom   67 type  1   force =     0.00000441    0.00000467   -0.01814184
     atom   68 type  1   force =     0.00000477    0.00000477    0.09422743
     atom   69 type  1   force =     0.00000986    0.00000986    0.00578194
     atom   70 type  1   force =     0.00000577    0.00000042   -0.00728211
     atom   71 type  1   force =     0.00000042    0.00000577   -0.00728211
     atom   72 type  1   force =     0.00000161    0.00000161    0.00577747
     atom   73 type  2   force =     0.00000000   -0.00000108   -0.05181812
     atom   74 type  2   force =    -0.00000108    0.00000000   -0.05181812
     atom   75 type  2   force =     0.00000000    0.00000000   -0.01801110
     atom   76 type  2   force =    -0.00000243   -0.00000243   -0.01802022
     atom   77 type  2   force =     0.00000000   -0.00000233   -0.00040208
     atom   78 type  2   force =    -0.00000233   -0.00000000   -0.00040208
     atom   79 type  2   force =     0.00000000    0.00000000   -0.00434332
     atom   80 type  2   force =     0.00000381    0.00000381   -0.00435322
     atom   81 type  2   force =     0.00000000    0.00000000   -0.05182827
     atom   82 type  2   force =    -0.00000360   -0.00000791   -0.05182208
     atom   83 type  2   force =     0.00000000   -0.00000614   -0.01801642
     atom   84 type  2   force =    -0.00000242    0.00000000   -0.01801052
     atom   85 type  2   force =     0.00000000    0.00000000   -0.00039687
     atom   86 type  2   force =     0.00000531    0.00000292   -0.00038627
     atom   87 type  2   force =    -0.00000000   -0.00000422   -0.00435090
     atom   88 type  2   force =     0.00000575   -0.00000000   -0.00435613
     atom   89 type  2   force =     0.00000000    0.00000108   -0.05181812
     atom   90 type  2   force =    -0.00000360    0.00000791   -0.05182208
     atom   91 type  2   force =     0.00000000    0.00000614   -0.01801642
     atom   92 type  2   force =    -0.00000243    0.00000243   -0.01802022
     atom   93 type  2   force =     0.00000000    0.00000233   -0.00040208
     atom   94 type  2   force =     0.00000531   -0.00000292   -0.00038627
     atom   95 type  2   force =    -0.00000000    0.00000422   -0.00435090
     atom   96 type  2   force =     0.00000381   -0.00000381   -0.00435322
     atom   97 type  2   force =    -0.00000791   -0.00000360   -0.05182208
     atom   98 type  2   force =     0.00000000    0.00000000   -0.05182827
     atom   99 type  2   force =    -0.00000614    0.00000000   -0.01801642
     atom  100 type  2   force =     0.00000000   -0.00000242   -0.01801052
     atom  101 type  2   force =     0.00000292    0.00000531   -0.00038627
     atom  102 type  2   force =     0.00000000    0.00000000   -0.00039687
     atom  103 type  2   force =    -0.00000422    0.00000000   -0.00435090
     atom  104 type  2   force =     0.00000000    0.00000575   -0.00435613
     atom  105 type  2   force =    -0.00000565    0.00000000   -0.05182859
     atom  106 type  2   force =     0.00000000   -0.00000565   -0.05182859
     atom  107 type  2   force =    -0.00000667   -0.00000667   -0.01801204
     atom  108 type  2   force =     0.00000000    0.00000000   -0.01800178
     atom  109 type  2   force =     0.00000965    0.00000000   -0.00038234
     atom  110 type  2   force =     0.00000000    0.00000965   -0.00038234
     atom  111 type  2   force =    -0.00000070   -0.00000070   -0.00436233
     atom  112 type  2   force =     0.00000000    0.00000000   -0.00436608
     atom  113 type  2   force =    -0.00000791    0.00000360   -0.05182208
     atom  114 type  2   force =     0.00000000    0.00000565   -0.05182859
     atom  115 type  2   force =    -0.00000667    0.00000667   -0.01801204
     atom  116 type  2   force =     0.00000000    0.00000242   -0.01801052
     atom  117 type  2   force =     0.00000292   -0.00000531   -0.00038627
     atom  118 type  2   force =     0.00000000   -0.00000965   -0.00038234
     atom  119 type  2   force =    -0.00000070    0.00000070   -0.00436233
     atom  120 type  2   force =     0.00000000   -0.00000575   -0.00435613
     atom  121 type  2   force =     0.00000791   -0.00000360   -0.05182208
     atom  122 type  2   force =     0.00000108    0.00000000   -0.05181812
     atom  123 type  2   force =     0.00000614    0.00000000   -0.01801642
     atom  124 type  2   force =     0.00000243   -0.00000243   -0.01802022
     atom  125 type  2   force =    -0.00000292    0.00000531   -0.00038627
     atom  126 type  2   force =     0.00000233    0.00000000   -0.00040208
     atom  127 type  2   force =     0.00000422    0.00000000   -0.00435090
     atom  128 type  2   force =    -0.00000381    0.00000381   -0.00435322
     atom  129 type  2   force =     0.00000565    0.00000000   -0.05182859
     atom  130 type  2   force =     0.00000360   -0.00000791   -0.05182208
     atom  131 type  2   force =     0.00000667   -0.00000667   -0.01801204
     atom  132 type  2   force =     0.00000242    0.00000000   -0.01801052
     atom  133 type  2   force =    -0.00000965    0.00000000   -0.00038234
     atom  134 type  2   force =    -0.00000531    0.00000292   -0.00038627
     atom  135 type  2   force =     0.00000070   -0.00000070   -0.00436233
     atom  136 type  2   force =    -0.00000575    0.00000000   -0.00435613
     atom  137 type  2   force =     0.00000791    0.00000360   -0.05182208
     atom  138 type  2   force =     0.00000360    0.00000791   -0.05182208
     atom  139 type  2   force =     0.00000667    0.00000667   -0.01801204
     atom  140 type  2   force =     0.00000243    0.00000243   -0.01802022
     atom  141 type  2   force =    -0.00000292   -0.00000531   -0.00038627
     atom  142 type  2   force =    -0.00000531   -0.00000292   -0.00038627
     atom  143 type  2   force =     0.00000070    0.00000070   -0.00436233
     atom  144 type  2   force =    -0.00000381   -0.00000381   -0.00435322

     Total force =     0.043601     Total SCF correction =     0.000965
     Energy error            =      3.2E-03 Ry
     Gradient error          =      7.3E-03 Ry/Bohr

     number of scf cycles    =   8
     number of bfgs steps    =   7

     energy             old  =  -11908.1670456004 Ry
     energy             new  =  -11908.1702807238 Ry

     CASE: energy            _new < energy            _old

     new trust radius        =       0.0353683883 bohr
     new conv_thr            =       0.0000004687 Ry


ATOMIC_POSITIONS (angstrom)
V                0.0000000000        0.0000000000       10.0000000000    0   0   0
V                2.0432625400        0.0000000000       12.0432625400    0   0   0
V                0.0000000000        2.0432625400       12.0432625400    0   0   0
V                2.0432625400        2.0432625400       10.0000000000    0   0   0
V                0.0000001400        0.0000001700       14.1574428964
V                2.0431966556        0.0000000600       16.0360355304
V               -0.0000000900        2.0431965756       16.0360353404
V                2.0432372810        2.0432371910       14.1574615121
V                0.0000000000        4.0865250700       10.0000000000    0   0   0
V                2.0432625400        4.0865250700       12.0432625400    0   0   0
V                0.0000000000        6.1297876100       12.0432625400    0   0   0
V                2.0432625400        6.1297876100       10.0000000000    0   0   0
V                0.0000001200        4.0865151032       14.1574475724
V                2.0432040671        4.0865934878       16.0360622206
V               -0.0000001500        6.1297875000       16.0360347910
V                2.0432399634        6.1297873900       14.1574571180
V                0.0000000000        8.1730501500       10.0000000000    0   0   0
V                2.0432625400        8.1730501500       12.0432625400    0   0   0
V                0.0000000000       10.2163126900       12.0432625400    0   0   0
V                2.0432625400       10.2163126900       10.0000000000    0   0   0
V               -0.0000002100        8.1730598668       14.1574475524
V                2.0432041471        8.1729819322       16.0360620406
V               -0.0000000100       10.2163785444       16.0360356104
V                2.0432372110       10.2163377890       14.1574613021
V                4.0865250700        0.0000000000       10.0000000000    0   0   0
V                6.1297876100        0.0000000000       12.0432625400    0   0   0
V                4.0865250700        2.0432625400       12.0432625400    0   0   0
V                6.1297876100        2.0432625400       10.0000000000    0   0   0
V                4.0865151232        0.0000001700       14.1574474824
V                6.1297876200        0.0000000500       16.0360353710
V                4.0865932978        2.0432041471       16.0360623306
V                6.1297873700        2.0432400434       14.1574571180
V                4.0865250700        4.0865250700       10.0000000000    0   0   0
V                6.1297876100        4.0865250700       12.0432625400    0   0   0
V                4.0865250700        6.1297876100       12.0432625400    0   0   0
V                6.1297876100        6.1297876100       10.0000000000    0   0   0
V                4.0865148403        4.0865146503       14.1574677468
V                6.1297875500        4.0865698414       16.0360453004
V                4.0865697914        6.1297875500       16.0360450604
V                6.1297874000        6.1297875000       14.1574288502
V                4.0865250700        8.1730501500       10.0000000000    0   0   0
V                6.1297876100        8.1730501500       12.0432625400    0   0   0
V                4.0865250700       10.2163126900       12.0432625400    0   0   0
V                6.1297876100       10.2163126900       10.0000000000    0   0   0
V                4.0865148603        8.1730606897       14.1574677568
V                6.1297875800        8.1730052986       16.0360450204
V                4.0865933178       10.2163710029       16.0360618006
V                6.1297875400       10.2163349566       14.1574571880
V                8.1730501500        0.0000000000       10.0000000000    0   0   0
V               10.2163126900        0.0000000000       12.0432625400    0   0   0
V                8.1730501500        2.0432625400       12.0432625400    0   0   0
V               10.2163126900        2.0432625400       10.0000000000    0   0   0
V                8.1730600668        0.0000000500       14.1574474624
V               10.2163786244        0.0000001000       16.0360354704
V                8.1729818822        2.0432041471       16.0360625706
V               10.2163379990        2.0432372110       14.1574611721
V                8.1730501500        4.0865250700       10.0000000000    0   0   0
V               10.2163126900        4.0865250700       12.0432625400    0   0   0
V                8.1730501500        6.1297876100       12.0432625400    0   0   0
V               10.2163126900        6.1297876100       10.0000000000    0   0   0
V                8.1730602097        4.0865148403       14.1574676668
V               10.2163710629        4.0865935178       16.0360620206
V                8.1730054686        6.1297876500       16.0360452904
V               10.2163353366        6.1297875900       14.1574572380
V                8.1730501500        8.1730501500       10.0000000000    0   0   0
V               10.2163126900        8.1730501500       12.0432625400    0   0   0
V                8.1730501500       10.2163126900       12.0432625400    0   0   0
V               10.2163126900       10.2163126900       10.0000000000    0   0   0
V                8.1730605597        8.1730604397       14.1574678668
V               10.2163710629        8.1729817322       16.0360622106
V                8.1729817522       10.2163711029       16.0360618206
V               10.2163378790       10.2163377490       14.1574612821
N                0.0000000000        2.0432625400       10.0000000000    0   0   0
N                2.0432625400        0.0000000000       10.0000000000    0   0   0
N                0.0000000000        0.0000000000       12.0432625400    0   0   0
N                2.0432625400        2.0432625400       12.0432625400    0   0   0
N                0.0000001100        2.0432548746       14.1242132770
N                2.0432546446        0.0000001000       14.1242129770
N               -0.0000000300       -0.0000000400       16.2950749554
N                2.0432732784        2.0432731984       16.2950148283
N                0.0000000000        6.1297876100       10.0000000000    0   0   0
N                2.0432625400        4.0865250700       10.0000000000    0   0   0
N                0.0000000000        4.0865250700       12.0432625400    0   0   0
N                2.0432625400        6.1297876100       12.0432625400    0   0   0
N               -0.0000000400        6.1297876300       14.1241970261
N                2.0432569635        4.0865136956       14.1242086271
N               -0.0000001500        4.0864935715       16.2950613844
N                2.0432732648        6.1297874600       16.2950890409
N                0.0000000000       10.2163126900       10.0000000000    0   0   0
N                2.0432625400        8.1730501500       10.0000000000    0   0   0
N                0.0000000000        8.1730501500       12.0432625400    0   0   0
N                2.0432625400       10.2163126900       12.0432625400    0   0   0
N                0.0000000200       10.2163203554       14.1242127970
N                2.0432569535        8.1730616844       14.1242087671
N                0.0000000800        8.1730817585       16.2950613544
N                2.0432732084       10.2163020416       16.2950147383
N                4.0865250700        2.0432625400       10.0000000000    0   0   0
N                6.1297876100        0.0000000000       10.0000000000    0   0   0
N                4.0865250700        0.0000000000       12.0432625400    0   0   0
N                6.1297876100        2.0432625400       12.0432625400    0   0   0
N                4.0865135056        2.0432570235       14.1242084571
N                6.1297875500        0.0000000900       14.1241968561
N                4.0864935215       -0.0000000300       16.2950618744
N                6.1297876600        2.0432733748       16.2950894609
N                4.0865250700        6.1297876100       10.0000000000    0   0   0
N                6.1297876100        4.0865250700       10.0000000000    0   0   0
N                4.0865250700        4.0865250700       12.0432625400    0   0   0
N                6.1297876100        6.1297876100       12.0432625400    0   0   0
N                4.0865131594        6.1297874900       14.1242033125
N                6.1297876500        4.0865130894       14.1242029825
N                4.0865052365        4.0865051165       16.2950478892
N                6.1297876300        6.1297875100       16.2951214238
N                4.0865250700       10.2163126900       10.0000000000    0   0   0
N                6.1297876100        8.1730501500       10.0000000000    0   0   0
N                4.0865250700        8.1730501500       12.0432625400    0   0   0
N                6.1297876100       10.2163126900       12.0432625400    0   0   0
N                4.0865134756       10.2163180265       14.1242088871
N                6.1297875600        8.1730621406       14.1242033125
N                4.0865052165        8.1730702335       16.2950474292
N                6.1297876400       10.2163019852       16.2950892109
N                8.1730501500        2.0432625400       10.0000000000    0   0   0
N               10.2163126900        0.0000000000       10.0000000000    0   0   0
N                8.1730501500        0.0000000000       12.0432625400    0   0   0
N               10.2163126900        2.0432625400       12.0432625400    0   0   0
N                8.1730616044        2.0432569035       14.1242083171
N               10.2163206454       -0.0000001200       14.1242130770
N                8.1730815885        0.0000000100       16.2950615844
N               10.2163020716        2.0432732084       16.2950147483
N                8.1730501500        6.1297876100       10.0000000000    0   0   0
N               10.2163126900        4.0865250700       10.0000000000    0   0   0
N                8.1730501500        4.0865250700       12.0432625400    0   0   0
N               10.2163126900        6.1297876100       12.0432625400    0   0   0
N                8.1730619206        6.1297873400       14.1242028825
N               10.2163183165        4.0865136756       14.1242089071
N                8.1730701635        4.0865051065       16.2950475992
N               10.2163019652        6.1297876700       16.2950889909
N                8.1730501500       10.2163126900       10.0000000000    0   0   0
N               10.2163126900        8.1730501500       10.0000000000    0   0   0
N                8.1730501500        8.1730501500       12.0432625400    0   0   0
N               10.2163126900       10.2163126900       12.0432625400    0   0   0
N                8.1730615344       10.2163183365       14.1242088571
N               10.2163183065        8.1730614844       14.1242082771
N                8.1730700735        8.1730701335       16.2950475892
N               10.2163020616       10.2163019616       16.2950147683



     Writing config-only to output data dir ./tmp/VN_slab.save/ :
     XML data file
     NEW-OLD atomic charge density approx. for the potential

     Check: negative core charge=   -0.000003

     negative rho (up, down):  7.703E-02 0.000E+00

     total cpu time spent up to now is    19911.2 secs

     per-process dynamical memory:   807.7 Mb

     Self-consistent Calculation

     iteration #  1     ecut=    45.00 Ry     beta= 0.25
     Davidson diagonalization with overlap
     ethr =  1.00E-06,  avg # of iterations = 10.7

     negative rho (up, down):  7.702E-02 0.000E+00

     total cpu time spent up to now is    20091.2 secs

     total energy              =  -11908.16770589 Ry
     estimated scf accuracy    <       0.01905693 Ry

     iteration #  2     ecut=    45.00 Ry     beta= 0.25
     Davidson diagonalization with overlap
     c_bands:  3 eigenvalues not converged
     ethr =  1.47E-06,  avg # of iterations = 16.7

     negative rho (up, down):  7.705E-02 0.000E+00

     total cpu time spent up to now is    20230.3 secs

     total energy              =  -11908.14613912 Ry
     estimated scf accuracy    <       1.14181899 Ry

     iteration #  3     ecut=    45.00 Ry     beta= 0.25
     Davidson diagonalization with overlap
     ethr =  1.47E-06,  avg # of iterations = 13.0

     negative rho (up, down):  7.711E-02 0.000E+00

     total cpu time spent up to now is    20358.0 secs

     total energy              =  -11908.16352035 Ry
     estimated scf accuracy    <       0.90519953 Ry

     iteration #  4     ecut=    45.00 Ry     beta= 0.25
     Davidson diagonalization with overlap
     c_bands:  4 eigenvalues not converged
     ethr =  1.47E-06,  avg # of iterations = 15.3

     negative rho (up, down):  7.716E-02 0.000E+00

     total cpu time spent up to now is    20450.6 secs

     total energy              =  -11908.17286719 Ry
     estimated scf accuracy    <       0.01532095 Ry

     iteration #  5     ecut=    45.00 Ry     beta= 0.25
     Davidson diagonalization with overlap
     ethr =  1.18E-06,  avg # of iterations =  2.0

     negative rho (up, down):  7.708E-02 0.000E+00

     total cpu time spent up to now is    20522.5 secs

     total energy              =  -11908.17334197 Ry
     estimated scf accuracy    <       0.00350525 Ry

     iteration #  6     ecut=    45.00 Ry     beta= 0.25
     Davidson diagonalization with overlap
     ethr =  2.70E-07,  avg # of iterations =  7.8

     negative rho (up, down):  7.707E-02 0.000E+00

     total cpu time spent up to now is    20612.6 secs

     total energy              =  -11908.17247996 Ry
     estimated scf accuracy    <       0.06391894 Ry

     iteration #  7     ecut=    45.00 Ry     beta= 0.25
     Davidson diagonalization with overlap
     ethr =  2.70E-07,  avg # of iterations =  4.7

     negative rho (up, down):  7.706E-02 0.000E+00

     total cpu time spent up to now is    20697.3 secs

     total energy              =  -11908.17355631 Ry
     estimated scf accuracy    <       0.00082342 Ry

     iteration #  8     ecut=    45.00 Ry     beta= 0.25
     Davidson diagonalization with overlap
     ethr =  6.35E-08,  avg # of iterations =  5.8

     negative rho (up, down):  7.704E-02 0.000E+00

     total cpu time spent up to now is    20778.6 secs

     total energy              =  -11908.17351857 Ry
     estimated scf accuracy    <       0.00306427 Ry

     iteration #  9     ecut=    45.00 Ry     beta= 0.25
     Davidson diagonalization with overlap
     ethr =  6.35E-08,  avg # of iterations =  4.8

     negative rho (up, down):  7.705E-02 0.000E+00

     total cpu time spent up to now is    20851.6 secs

     total energy              =  -11908.17361254 Ry
     estimated scf accuracy    <       0.00053818 Ry

     iteration # 10     ecut=    45.00 Ry     beta= 0.25
     Davidson diagonalization with overlap
     ethr =  4.15E-08,  avg # of iterations =  2.5

     negative rho (up, down):  7.705E-02 0.000E+00

     total cpu time spent up to now is    20923.2 secs

     total energy              =  -11908.17362128 Ry
     estimated scf accuracy    <       0.00022027 Ry

     iteration # 11     ecut=    45.00 Ry     beta= 0.25
     Davidson diagonalization with overlap
     ethr =  1.70E-08,  avg # of iterations =  5.5

     negative rho (up, down):  7.705E-02 0.000E+00

     total cpu time spent up to now is    20998.3 secs

     total energy              =  -11908.17362762 Ry
     estimated scf accuracy    <       0.00008018 Ry

     iteration # 12     ecut=    45.00 Ry     beta= 0.25
     Davidson diagonalization with overlap
     ethr =  6.19E-09,  avg # of iterations =  5.0

     negative rho (up, down):  7.705E-02 0.000E+00

     total cpu time spent up to now is    21074.7 secs

     total energy              =  -11908.17363016 Ry
     estimated scf accuracy    <       0.00002804 Ry

     iteration # 13     ecut=    45.00 Ry     beta= 0.25
     Davidson diagonalization with overlap
     ethr =  2.16E-09,  avg # of iterations =  6.0

     negative rho (up, down):  7.705E-02 0.000E+00

     total cpu time spent up to now is    21158.9 secs

     total energy              =  -11908.17362235 Ry
     estimated scf accuracy    <       0.00061749 Ry

     iteration # 14     ecut=    45.00 Ry     beta= 0.25
     Davidson diagonalization with overlap
     ethr =  2.16E-09,  avg # of iterations =  6.0

     negative rho (up, down):  7.705E-02 0.000E+00

     total cpu time spent up to now is    21237.4 secs

     total energy              =  -11908.17362432 Ry
     estimated scf accuracy    <       0.00079663 Ry

     iteration # 15     ecut=    45.00 Ry     beta= 0.25
     Davidson diagonalization with overlap
     ethr =  2.16E-09,  avg # of iterations =  5.7

     negative rho (up, down):  7.705E-02 0.000E+00

     total cpu time spent up to now is    21321.8 secs

     total energy              =  -11908.17363337 Ry
     estimated scf accuracy    <       0.00002863 Ry

     iteration # 16     ecut=    45.00 Ry     beta= 0.25
     Davidson diagonalization with overlap
     ethr =  2.16E-09,  avg # of iterations =  3.8

     negative rho (up, down):  7.705E-02 0.000E+00

     total cpu time spent up to now is    21399.1 secs

     total energy              =  -11908.17363212 Ry
     estimated scf accuracy    <       0.00007010 Ry

     iteration # 17     ecut=    45.00 Ry     beta= 0.25
     Davidson diagonalization with overlap
     ethr =  2.16E-09,  avg # of iterations =  4.2

     negative rho (up, down):  7.705E-02 0.000E+00

     total cpu time spent up to now is    21474.5 secs

     total energy              =  -11908.17363345 Ry
     estimated scf accuracy    <       0.00005700 Ry

     iteration # 18     ecut=    45.00 Ry     beta= 0.25
     Davidson diagonalization with overlap
     ethr =  2.16E-09,  avg # of iterations =  2.7

     negative rho (up, down):  7.705E-02 0.000E+00

     total cpu time spent up to now is    21547.5 secs

     total energy              =  -11908.17363466 Ry
     estimated scf accuracy    <       0.00002262 Ry

     iteration # 19     ecut=    45.00 Ry     beta= 0.25
     Davidson diagonalization with overlap
     ethr =  1.75E-09,  avg # of iterations =  1.8

     negative rho (up, down):  7.705E-02 0.000E+00

     total cpu time spent up to now is    21619.0 secs

     total energy              =  -11908.17363506 Ry
     estimated scf accuracy    <       0.00001475 Ry

     iteration # 20     ecut=    45.00 Ry     beta= 0.25
     Davidson diagonalization with overlap
     ethr =  1.14E-09,  avg # of iterations =  1.0

     negative rho (up, down):  7.705E-02 0.000E+00

     total cpu time spent up to now is    21679.8 secs

     total energy              =  -11908.17363548 Ry
     estimated scf accuracy    <       0.00000230 Ry

     iteration # 21     ecut=    45.00 Ry     beta= 0.25
     Davidson diagonalization with overlap
     ethr =  1.78E-10,  avg # of iterations =  4.5

     negative rho (up, down):  7.705E-02 0.000E+00

     total cpu time spent up to now is    21769.6 secs

     total energy              =  -11908.17363555 Ry
     estimated scf accuracy    <       0.00000290 Ry

     iteration # 22     ecut=    45.00 Ry     beta= 0.25
     Davidson diagonalization with overlap
     ethr =  1.78E-10,  avg # of iterations =  4.5

     negative rho (up, down):  7.705E-02 0.000E+00

     total cpu time spent up to now is    21843.4 secs

     total energy              =  -11908.17363548 Ry
     estimated scf accuracy    <       0.00000359 Ry

     iteration # 23     ecut=    45.00 Ry     beta= 0.25
     Davidson diagonalization with overlap
     ethr =  1.78E-10,  avg # of iterations =  5.2

     negative rho (up, down):  7.705E-02 0.000E+00

     total cpu time spent up to now is    21919.5 secs

     total energy              =  -11908.17363516 Ry
     estimated scf accuracy    <       0.00002144 Ry

     iteration # 24     ecut=    45.00 Ry     beta= 0.25
     Davidson diagonalization with overlap
     ethr =  1.78E-10,  avg # of iterations =  6.0

     negative rho (up, down):  7.705E-02 0.000E+00

     total cpu time spent up to now is    21997.5 secs

     total energy              =  -11908.17363494 Ry
     estimated scf accuracy    <       0.00006599 Ry

     iteration # 25     ecut=    45.00 Ry     beta= 0.25
     Davidson diagonalization with overlap
     ethr =  1.78E-10,  avg # of iterations =  5.0

     negative rho (up, down):  7.705E-02 0.000E+00

     total cpu time spent up to now is    22072.4 secs

     End of self-consistent calculation

          k = 0.0000 0.0000 0.0000 (135157 PWs)   bands (ev):

   -61.8912 -61.8716 -61.8716 -61.8716 -61.8716 -61.8598 -61.8598 -61.8598
   -61.8598 -61.8417 -61.8417 -61.8417 -61.8417 -61.8362 -61.8362 -61.8362
   -61.8362 -61.8235 -61.8215 -61.8138 -61.8075 -61.8075 -61.8075 -61.8074
   -61.8037 -61.8037 -61.8037 -61.8037 -61.7995 -61.7995 -61.7995 -61.7995
   -61.7938 -61.7938 -61.7938 -61.7938 -61.7864 -61.7864 -61.7864 -61.7864
   -61.7864 -61.7864 -61.7864 -61.7864 -61.7741 -61.7662 -61.7662 -61.7662
   -61.7661 -61.7617 -61.7617 -61.7616 -61.7616 -61.7466 -61.7163 -61.7131
   -61.7131 -61.7131 -61.7131 -61.7120 -61.7120 -61.7119 -61.7119 -61.7073
   -61.7073 -61.7073 -61.7072 -61.6983 -61.6983 -61.6983 -61.6983 -61.6867
   -35.9865 -35.9865 -35.9865 -35.9865 -35.9626 -35.9626 -35.9626 -35.9626
   -35.9576 -35.9576 -35.9460 -35.9460 -35.9460 -35.9460 -35.9293 -35.9293
   -35.9293 -35.9293 -35.8947 -35.8947 -35.8947 -35.8947 -35.8944 -35.8944
   -35.8944 -35.8944 -35.8910 -35.8910 -35.8910 -35.8910 -35.8795 -35.8795
   -35.8787 -35.8787 -35.8787 -35.8787 -35.8676 -35.8676 -35.8675 -35.8675
   -35.8613 -35.8435 -35.8435 -35.8435 -35.8435 -35.8431 -35.8431 -35.8431
   -35.8431 -35.8230 -35.8230 -35.8230 -35.8230 -35.8166 -35.8166 -35.8166
   -35.8166 -35.8046 -35.8046 -35.8046 -35.8046 -35.8004 -35.8004 -35.8004
   -35.8004 -35.7719 -35.7719 -35.7579 -35.7579 -35.7579 -35.7579 -35.7549
   -35.7549 -35.7548 -35.7548 -35.7494 -35.7255 -35.7255 -35.7255 -35.7255
   -35.7209 -35.7209 -35.7209 -35.7209 -35.6924 -35.6916 -35.6916 -35.6894
   -35.6894 -35.6893 -35.6893 -35.6848 -35.6848 -35.6848 -35.6848 -35.6841
   -35.6841 -35.6841 -35.6841 -35.6793 -35.6793 -35.6792 -35.6792 -35.6699
   -35.6699 -35.6625 -35.6625 -35.6625 -35.6625 -35.6482 -35.6482 -35.6482
   -35.6482 -35.6394 -35.6394 -35.6394 -35.6394 -35.6256 -35.6256 -35.6256
   -35.6256 -35.6249 -35.6249 -35.6240 -35.6240 -35.6239 -35.6239 -35.6192
   -35.6192 -35.6192 -35.6192 -35.6187 -35.6187 -35.6187 -35.6187 -35.6140
   -35.6116 -35.6053 -35.6053 -35.6053 -35.6053 -35.5984 -35.5984 -35.5983
   -35.5983 -35.5946 -35.5916 -35.5915 -35.5915 -35.5915 -35.5887 -35.5887
   -35.5887 -35.5887 -35.5771 -35.5771 -35.5771 -35.5771 -35.5737 -35.5737
   -35.5737 -35.5736 -35.5676 -35.5676 -35.5676 -35.5676 -35.5673 -35.5673
   -35.5599 -35.5598 -35.5598 -35.5598 -35.5542 -35.5542 -35.5542 -35.5542
   -35.5319 -35.5319 -35.5319 -35.5318 -35.5314 -35.5314 -35.5314 -35.5314
   -35.5260 -35.5260 -35.5260 -35.5260 -35.5131 -35.5131 -35.5130 -35.5130
   -35.5045 -35.4961 -35.4960 -35.4960 -35.4960 -35.4857 -35.4857 -35.4583
   -35.4583 -35.4583 -35.4583 -35.4570 -35.4569 -35.4569 -35.4569 -35.4295
   -35.4295 -35.4295 -35.4294 -35.4262 -35.4134 -35.4134 -35.4133 -35.4133
   -14.2801 -13.6211 -13.6211 -13.6211 -13.6211 -13.4127 -13.0180 -13.0180
   -13.0180 -13.0180 -12.8536 -12.8536 -12.8536 -12.8536 -12.8016 -12.7722
   -12.7721 -12.7721 -12.7721 -12.6125 -12.5628 -12.4356 -12.4356 -12.4356
   -12.4355 -12.4289 -12.4289 -12.4289 -12.4289 -12.3901 -12.3876 -12.3876
   -12.3876 -12.3876 -12.2491 -12.2490 -12.2490 -12.2490 -12.0884 -12.0884
   -12.0884 -12.0884 -11.8810 -11.8810 -11.8809 -11.8809 -11.8373 -11.6970
   -11.6970 -11.6970 -11.6970 -11.6781 -11.6781 -11.6781 -11.6781 -11.5174
   -11.4539 -11.4539 -11.4539 -11.4539 -11.4312 -11.4311 -11.4311 -11.4309
   -11.3988 -11.3988 -11.3987 -11.3987 -11.1644 -11.1642 -11.1642 -11.1640
    -4.7171  -4.7171  -4.7171  -4.7171  -4.5369  -4.5369  -4.5369  -4.5369
    -4.4031  -4.4031  -4.4031  -4.4031  -4.2976  -4.2976  -4.2976  -4.2976
    -3.9604  -3.9604  -3.9603  -3.9603  -3.7655  -3.7655  -3.7655  -3.7655
    -3.6633  -3.6633  -3.6632  -3.6632  -3.6479  -3.6479  -3.6479  -3.6479
    -3.5332  -3.4997  -3.4997  -3.4997  -3.4997  -3.2650  -3.2650  -3.2650
    -3.2649  -3.1651  -3.1651  -3.1239  -3.1239  -3.1239  -3.1239  -3.1080
    -3.1080  -3.1080  -3.1080  -3.1072  -3.1072  -3.1071  -3.1071  -3.0160
    -3.0160  -3.0160  -3.0160  -2.6903  -2.6903  -2.6903  -2.6903  -2.5873
    -2.5873  -2.5551  -2.4780  -2.4779  -2.4779  -2.4779  -2.4651  -2.4651
    -2.4651  -2.4651  -2.4459  -2.4459  -2.4459  -2.4459  -2.4419  -2.4419
    -2.4419  -2.4419  -2.3657  -2.3657  -2.3657  -2.3657  -2.3369  -2.3369
    -2.3369  -2.3369  -2.2203  -2.2203  -2.2203  -2.2203  -2.1966  -2.1966
    -2.1966  -2.1966  -2.1608  -2.1608  -2.1608  -2.1608  -2.1572  -2.1572
    -2.1572  -2.1571  -2.1527  -2.1527  -2.1527  -2.1527  -1.9989  -1.9988
    -1.9988  -1.9988  -1.9773  -1.9773  -1.9773  -1.9773  -1.9748  -1.8471
    -1.8471  -1.8471  -1.8471  -1.8425  -1.8425  -1.8425  -1.8425  -1.7145
    -1.7145  -1.7145  -1.7145  -1.7094  -1.7094  -1.7094  -1.7094  -1.6730
    -1.6573  -1.6573  -1.6572  -1.6572  -1.5768  -1.5768  -1.5768  -1.5768
    -1.5722  -1.5722  -1.4511  -1.4511  -1.4511  -1.4511  -1.3995  -1.3995
    -1.3995  -1.3995  -1.3985  -1.3985  -1.3985  -1.3985  -1.3694  -1.3331
    -1.3331  -1.3327  -1.3327  -1.2536  -1.2534  -1.2534  -1.2532  -1.2213
    -1.2212  -1.2212  -1.2212  -1.1653  -1.1652  -1.1652  -1.1651  -0.9300
    -0.9299  -0.9299  -0.9298  -0.9170  -0.9170  -0.9170  -0.9170  -0.8755
    -0.8755  -0.8226  -0.8226  -0.8225  -0.8225  -0.7458  -0.7458  -0.7456
    -0.7456  -0.6433  -0.6433  -0.6432  -0.6432  -0.4434  -0.3810  -0.3810
    -0.3307  -0.3307  -0.3306  -0.3306  -0.2589  -0.2589  -0.2588  -0.2587
    -0.2381  -0.0109  -0.0109   0.1199   0.3499   0.4339   0.5397   0.5397
     0.8845   0.8845   0.8922   0.8922   0.8923   0.8923   1.1813   1.1813
     1.2892   1.8202   1.8234   1.8234   1.8234   1.8234   2.4053   2.4053
     2.4946   2.4946   2.4946   2.4946   2.5248   2.5248   2.5249   2.5249
     2.5637   2.5637   2.5682   2.5682   2.5682   2.5682   2.6254   2.6254
     2.6255   2.6255   2.6725   2.6725   2.6726   2.6726   2.6905   2.6905
     2.6905   2.6905   2.9169   3.0447   3.0448   3.0448   3.0448   3.0866
     3.0867   3.0867   3.0867   3.1284   3.1979   3.1980   3.1983   3.1983
     3.2225   3.2225   3.2226   3.2226   3.2456   3.2456   3.2456   3.2457
     3.3342   3.3342   3.3342   3.3342   3.3931   3.3943   3.3944   3.3944
     3.3944   3.4259   3.4259   3.4260   3.4260   3.4376   3.4377   3.4377
     3.4377   3.4608   3.4608   3.4608   3.4609   3.4805   3.4805   3.4805
     3.4805   3.5323   3.5323   3.5323   3.5323   3.7185   3.7185   3.7185
     3.7186   3.7614   3.7614   3.8212   3.8608   3.8608   3.8609   3.8609
     3.8787   3.8789   3.8790   3.8792   3.9692   3.9692   3.9693   3.9693
     3.9748   3.9748   3.9748   3.9749   4.0364   4.0364   4.0365   4.0365
     4.0583   4.0821   4.0821   4.0821   4.0821   4.1541   4.1541   4.1913
     4.1913   4.1913   4.1913   4.2149   4.2235   4.2235   4.2235   4.2235
     4.2272   4.2272   4.2272   4.2272   4.3393   4.3394   4.3394   4.3394
     4.3726   4.3727   4.3727   4.3728   4.3806   4.3806   4.3807   4.3807
     4.3986   4.4045   4.4045   4.4045   4.4046   4.4859   4.4859   4.4861
     4.4861   4.5010   4.5010   4.5010   4.5010   4.5216   4.5216   4.5217
     4.5218   4.5764   4.5764   4.5765   4.5765   4.5933   4.5934   4.5934
     4.5934   4.6330   4.6330   4.6330   4.6330   4.6839   4.6839   4.6870
     4.6870   4.6870   4.6870   4.7557   4.7708   4.7708   4.7708   4.7708
     4.8048   4.8234   4.8234   4.8234   4.8235   4.8254   4.8960   4.8960
     4.8960   4.9137

          k = 0.0000 0.2500 0.0000 (135097 PWs)   bands (ev):

   -61.8898 -61.8796 -61.8707 -61.8707 -61.8645 -61.8645 -61.8625 -61.8547
   -61.8546 -61.8453 -61.8453 -61.8441 -61.8392 -61.8391 -61.8365 -61.8365
   -61.8298 -61.8224 -61.8222 -61.8131 -61.8128 -61.8071 -61.8071 -61.8067
   -61.8052 -61.8052 -61.8024 -61.8018 -61.8018 -61.7987 -61.7986 -61.7968
   -61.7968 -61.7918 -61.7918 -61.7917 -61.7910 -61.7910 -61.7901 -61.7869
   -61.7869 -61.7815 -61.7804 -61.7804 -61.7750 -61.7702 -61.7698 -61.7698
   -61.7638 -61.7638 -61.7619 -61.7618 -61.7550 -61.7475 -61.7160 -61.7139
   -61.7129 -61.7129 -61.7128 -61.7128 -61.7121 -61.7121 -61.7101 -61.7100
   -61.7094 -61.7041 -61.7040 -61.7025 -61.6991 -61.6990 -61.6940 -61.6876
   -35.9921 -35.9921 -35.9717 -35.9717 -35.9711 -35.9711 -35.9708 -35.9708
   -35.9545 -35.9545 -35.9532 -35.9531 -35.9428 -35.9428 -35.9197 -35.9188
   -35.9188 -35.9186 -35.9138 -35.9138 -35.8963 -35.8963 -35.8944 -35.8944
   -35.8886 -35.8885 -35.8873 -35.8873 -35.8793 -35.8783 -35.8783 -35.8752
   -35.8746 -35.8716 -35.8712 -35.8712 -35.8703 -35.8703 -35.8681 -35.8681
   -35.8593 -35.8588 -35.8538 -35.8518 -35.8518 -35.8485 -35.8485 -35.8471
   -35.8469 -35.8427 -35.8382 -35.8381 -35.8261 -35.8261 -35.8167 -35.8167
   -35.8158 -35.8005 -35.7945 -35.7941 -35.7941 -35.7901 -35.7899 -35.7861
   -35.7796 -35.7759 -35.7732 -35.7732 -35.7715 -35.7715 -35.7684 -35.7566
   -35.7465 -35.7464 -35.7421 -35.7304 -35.7259 -35.7245 -35.7218 -35.7217
   -35.7202 -35.7184 -35.7121 -35.7121 -35.7013 -35.7013 -35.6984 -35.6963
   -35.6962 -35.6961 -35.6961 -35.6947 -35.6909 -35.6837 -35.6837 -35.6766
   -35.6766 -35.6718 -35.6668 -35.6662 -35.6661 -35.6661 -35.6661 -35.6638
   -35.6637 -35.6627 -35.6627 -35.6603 -35.6603 -35.6593 -35.6593 -35.6541
   -35.6541 -35.6482 -35.6482 -35.6463 -35.6455 -35.6455 -35.6434 -35.6430
   -35.6390 -35.6368 -35.6368 -35.6331 -35.6331 -35.6313 -35.6313 -35.6293
   -35.6205 -35.6205 -35.6129 -35.6081 -35.6081 -35.6057 -35.6039 -35.6039
   -35.6035 -35.6020 -35.6018 -35.5989 -35.5989 -35.5974 -35.5921 -35.5921
   -35.5891 -35.5891 -35.5886 -35.5886 -35.5882 -35.5882 -35.5878 -35.5878
   -35.5851 -35.5851 -35.5838 -35.5825 -35.5806 -35.5806 -35.5776 -35.5776
   -35.5775 -35.5740 -35.5732 -35.5730 -35.5708 -35.5634 -35.5634 -35.5607
   -35.5606 -35.5566 -35.5566 -35.5564 -35.5564 -35.5541 -35.5495 -35.5495
   -35.5466 -35.5351 -35.5351 -35.5299 -35.5298 -35.5291 -35.5291 -35.5281
   -35.5281 -35.5228 -35.5228 -35.5215 -35.5128 -35.5110 -35.5110 -35.5067
   -35.5050 -35.5050 -35.5013 -35.4961 -35.4961 -35.4898 -35.4889 -35.4763
   -35.4599 -35.4599 -35.4588 -35.4588 -35.4505 -35.4505 -35.4409 -35.4358
   -35.4357 -35.4237 -35.4236 -35.4236 -35.4175 -35.4147 -35.4147 -35.4140
   -14.2328 -13.8836 -13.5771 -13.5770 -13.3706 -13.3419 -13.2550 -13.2550
   -13.0679 -12.8884 -12.8164 -12.8164 -12.7861 -12.7752 -12.7752 -12.7402
   -12.7402 -12.7349 -12.6472 -12.5963 -12.5568 -12.5568 -12.5323 -12.5323
   -12.5260 -12.4859 -12.4439 -12.4439 -12.4204 -12.4102 -12.4102 -12.3521
   -12.3032 -12.3032 -12.2665 -12.2480 -12.2480 -12.1937 -12.1937 -12.0777
   -12.0556 -12.0556 -11.9193 -11.8460 -11.8459 -11.8284 -11.8284 -11.8207
   -11.7272 -11.7129 -11.6857 -11.6740 -11.6740 -11.5991 -11.5990 -11.5427
   -11.5427 -11.5283 -11.5283 -11.5020 -11.4294 -11.4206 -11.4206 -11.4191
   -11.3761 -11.3759 -11.2777 -11.2776 -11.2343 -11.2341 -11.1363 -11.1361
    -4.8715  -4.8715  -4.7012  -4.7012  -4.6789  -4.6789  -4.5499  -4.5499
    -4.4577  -4.4577  -4.2952  -4.2952  -4.0681  -4.0680  -4.0252  -4.0170
    -4.0170  -3.9623  -3.9623  -3.8704  -3.8704  -3.7707  -3.7638  -3.7638
    -3.7612  -3.7524  -3.6900  -3.6900  -3.6068  -3.6067  -3.5957  -3.5957
    -3.5863  -3.5797  -3.5797  -3.5385  -3.4525  -3.4125  -3.3834  -3.3833
    -3.3165  -3.3165  -3.2595  -3.2583  -3.2514  -3.2514  -3.2049  -3.2048
    -3.1584  -3.0916  -3.0274  -3.0274  -2.9173  -2.9055  -2.9055  -2.8986
    -2.8738  -2.8738  -2.8303  -2.8145  -2.7393  -2.7168  -2.7168  -2.6185
    -2.6185  -2.6043  -2.6042  -2.5806  -2.5801  -2.5345  -2.5345  -2.5219
    -2.5219  -2.5149  -2.5133  -2.5133  -2.4971  -2.4581  -2.4581  -2.4332
    -2.4314  -2.4314  -2.3898  -2.3897  -2.3395  -2.3395  -2.3292  -2.3230
    -2.3230  -2.2648  -2.2648  -2.2558  -2.2545  -2.2544  -2.2508  -2.2508
    -2.2403  -2.2402  -2.2010  -2.2009  -2.1348  -2.1348  -2.1168  -2.1137
    -2.0473  -2.0379  -2.0379  -2.0266  -2.0265  -2.0077  -2.0077  -1.9960
    -1.9525  -1.9525  -1.9448  -1.9173  -1.9029  -1.9029  -1.8959  -1.8916
    -1.8916  -1.8875  -1.8875  -1.8420  -1.8420  -1.8263  -1.8233  -1.8117
    -1.7688  -1.7688  -1.7466  -1.7078  -1.7077  -1.6860  -1.6860  -1.6367
    -1.6367  -1.6328  -1.6265  -1.6264  -1.5669  -1.5661  -1.5157  -1.5157
    -1.5133  -1.5025  -1.5025  -1.4714  -1.4713  -1.4623  -1.4467  -1.4466
    -1.4102  -1.4100  -1.3974  -1.3525  -1.3058  -1.3058  -1.3044  -1.3044
    -1.3005  -1.2326  -1.2326  -1.2248  -1.2217  -1.2217  -1.1985  -1.1984
    -1.1812  -1.0672  -1.0661  -1.0660  -1.0649  -1.0648  -1.0573  -1.0365
    -1.0364  -1.0286  -1.0067  -0.9632  -0.9631  -0.8829  -0.8828  -0.8745
    -0.8668  -0.8559  -0.7856  -0.7855  -0.7691  -0.7690  -0.7575  -0.7152
    -0.7152  -0.7151  -0.6759  -0.6555  -0.6059  -0.5116  -0.5106  -0.4896
    -0.4838  -0.4251  -0.4134  -0.4133  -0.3997  -0.3889  -0.3888  -0.2290
    -0.1095  -0.0972   0.0251   0.1280   0.2804   0.5601   0.5760   0.6063
     0.7140   0.7336   0.8279   0.9126   1.0683   1.0684   1.0951   1.1467
     1.5832   1.6421   1.8420   1.9291   1.9291   2.0150   2.0171   2.0172
     2.0284   2.0673   2.2162   2.4133   2.4629   2.4907   2.5046   2.5047
     2.5331   2.5332   2.5433   2.5434   2.5530   2.5544   2.6185   2.6185
     2.6676   2.6711   2.6712   2.7098   2.7099   2.7245   2.7246   2.8028
     2.8165   2.8686   2.8686   2.9364   2.9365   2.9550   2.9962   3.0269
     3.0739   3.0740   3.0965   3.0965   3.1002   3.1086   3.1195   3.1196
     3.1358   3.1358   3.1431   3.1599   3.1796   3.1797   3.2455   3.2457
     3.2741   3.2866   3.2866   3.3028   3.3028   3.3366   3.3965   3.3966
     3.4159   3.4160   3.4844   3.4844   3.4994   3.4995   3.5286   3.5286
     3.5438   3.5439   3.5678   3.5678   3.5679   3.6099   3.6493   3.6495
     3.6535   3.6536   3.6581   3.6983   3.7047   3.7414   3.7421   3.7422
     3.7448   3.8038   3.8038   3.8098   3.8099   3.8169   3.8379   3.8380
     3.8582   3.9321   3.9325   3.9412   3.9412   3.9866   3.9866   4.0272
     4.0817   4.0904   4.0904   4.1061   4.1177   4.1178   4.1192   4.1198
     4.1198   4.1237   4.1237   4.1427   4.1558   4.1727   4.1727   4.1760
     4.1760   4.1793   4.1794   4.1828   4.1987   4.2272   4.2273   4.2605
     4.2605   4.2658   4.2680   4.2680   4.2691   4.2694   4.2807   4.2807
     4.2902   4.2903   4.2988   4.2988   4.3060   4.3391   4.3391   4.3812
     4.3812   4.3977   4.3978   4.4181   4.4181   4.4308   4.4517   4.4545
     4.4555   4.4556   4.4571   4.4571   4.4606   4.4932   4.4934   4.5176
     4.5501   4.5502   4.5694   4.5694   4.6035   4.6118   4.6449   4.6460
     4.6480   4.6629   4.6785   4.6860   4.7025   4.7097   4.7097   4.7167
     4.7167   4.7405   4.7405   4.7554   4.7561   4.7561   4.7683   4.7756
     4.7756   4.7844   4.7844   4.8201   4.8219   4.8296   4.8435   4.8436
     4.8621   4.8780

          k = 0.0000-0.5000 0.0000 (135178 PWs)   bands (ev):

   -61.8859 -61.8858 -61.8683 -61.8683 -61.8682 -61.8682 -61.8531 -61.8531
   -61.8497 -61.8497 -61.8496 -61.8496 -61.8375 -61.8375 -61.8374 -61.8374
   -61.8252 -61.8252 -61.8183 -61.8182 -61.8109 -61.8109 -61.8063 -61.8063
   -61.8063 -61.8063 -61.7995 -61.7995 -61.7995 -61.7995 -61.7971 -61.7971
   -61.7961 -61.7961 -61.7960 -61.7960 -61.7886 -61.7886 -61.7885 -61.7885
   -61.7799 -61.7799 -61.7776 -61.7776 -61.7747 -61.7747 -61.7746 -61.7746
   -61.7626 -61.7625 -61.7625 -61.7624 -61.7503 -61.7502 -61.7152 -61.7152
   -61.7124 -61.7124 -61.7124 -61.7124 -61.7120 -61.7120 -61.7120 -61.7119
   -61.7063 -61.7063 -61.7011 -61.7011 -61.7011 -61.7011 -61.6902 -61.6902
   -35.9869 -35.9869 -35.9869 -35.9869 -35.9690 -35.9690 -35.9690 -35.9690
   -35.9471 -35.9471 -35.9471 -35.9471 -35.9401 -35.9401 -35.9398 -35.9398
   -35.9150 -35.9150 -35.9150 -35.9150 -35.8857 -35.8857 -35.8857 -35.8856
   -35.8788 -35.8788 -35.8788 -35.8788 -35.8780 -35.8780 -35.8770 -35.8770
   -35.8770 -35.8770 -35.8679 -35.8679 -35.8678 -35.8678 -35.8627 -35.8627
   -35.8605 -35.8605 -35.8605 -35.8605 -35.8571 -35.8571 -35.8561 -35.8561
   -35.8561 -35.8561 -35.8538 -35.8537 -35.8325 -35.8325 -35.8244 -35.8244
   -35.7943 -35.7943 -35.7936 -35.7935 -35.7935 -35.7935 -35.7851 -35.7851
   -35.7726 -35.7726 -35.7637 -35.7637 -35.7637 -35.7637 -35.7583 -35.7583
   -35.7532 -35.7532 -35.7427 -35.7427 -35.7427 -35.7427 -35.7149 -35.7149
   -35.7094 -35.7093 -35.7059 -35.7059 -35.7005 -35.7005 -35.6919 -35.6919
   -35.6918 -35.6918 -35.6796 -35.6796 -35.6796 -35.6795 -35.6723 -35.6723
   -35.6722 -35.6722 -35.6713 -35.6713 -35.6713 -35.6713 -35.6699 -35.6699
   -35.6676 -35.6676 -35.6667 -35.6666 -35.6666 -35.6666 -35.6600 -35.6600
   -35.6576 -35.6576 -35.6542 -35.6542 -35.6531 -35.6531 -35.6531 -35.6531
   -35.6430 -35.6430 -35.6430 -35.6430 -35.6423 -35.6422 -35.6129 -35.6129
   -35.6129 -35.6129 -35.6117 -35.6117 -35.6117 -35.6117 -35.6094 -35.6094
   -35.5941 -35.5941 -35.5941 -35.5941 -35.5926 -35.5926 -35.5926 -35.5926
   -35.5880 -35.5880 -35.5879 -35.5878 -35.5857 -35.5857 -35.5857 -35.5857
   -35.5811 -35.5811 -35.5781 -35.5781 -35.5780 -35.5779 -35.5765 -35.5765
   -35.5765 -35.5765 -35.5738 -35.5738 -35.5714 -35.5714 -35.5713 -35.5713
   -35.5651 -35.5651 -35.5650 -35.5650 -35.5470 -35.5470 -35.5469 -35.5469
   -35.5332 -35.5332 -35.5280 -35.5280 -35.5280 -35.5280 -35.5265 -35.5265
   -35.5265 -35.5265 -35.5211 -35.5210 -35.5210 -35.5210 -35.5033 -35.5033
   -35.5032 -35.5032 -35.4988 -35.4988 -35.4981 -35.4981 -35.4916 -35.4916
   -35.4598 -35.4598 -35.4598 -35.4598 -35.4429 -35.4428 -35.4428 -35.4428
   -35.4269 -35.4269 -35.4184 -35.4184 -35.4184 -35.4184 -35.4183 -35.4183
   -14.0957 -14.0957 -13.4500 -13.4499 -13.4499 -13.4499 -13.2499 -13.2499
   -13.0855 -13.0855 -12.7524 -12.7523 -12.7109 -12.7109 -12.7109 -12.7109
   -12.6520 -12.6520 -12.6520 -12.6519 -12.5696 -12.5696 -12.5696 -12.5695
   -12.5506 -12.5506 -12.4927 -12.4927 -12.4214 -12.4214 -12.3617 -12.3617
   -12.3617 -12.3617 -12.2430 -12.2430 -12.1797 -12.1797 -12.1797 -12.1796
   -11.9632 -11.9632 -11.9632 -11.9632 -11.7881 -11.7881 -11.7776 -11.7776
   -11.7466 -11.7465 -11.7465 -11.7464 -11.6114 -11.6114 -11.6114 -11.6114
   -11.5267 -11.5267 -11.4628 -11.4627 -11.4505 -11.4505 -11.4505 -11.4505
   -11.3147 -11.3147 -11.3146 -11.3145 -11.1730 -11.1730 -11.1728 -11.1728
    -4.8687  -4.8687  -4.8686  -4.8686  -4.6855  -4.6855  -4.6855  -4.6855
    -4.1913  -4.1913  -4.1913  -4.1913  -4.0111  -4.0111  -4.0111  -4.0111
    -3.9390  -3.9390  -3.8254  -3.8254  -3.8254  -3.8254  -3.8168  -3.8168
    -3.8168  -3.8168  -3.6718  -3.6718  -3.5756  -3.5756  -3.5755  -3.5755
    -3.5723  -3.5723  -3.5723  -3.5723  -3.5550  -3.5550  -3.4937  -3.4936
    -3.3842  -3.3842  -3.3841  -3.3841  -3.2053  -3.2053  -3.1360  -3.1360
    -3.1323  -3.1323  -3.1322  -3.1322  -3.0685  -3.0685  -2.7287  -2.7287
    -2.6804  -2.6804  -2.6803  -2.6803  -2.6779  -2.6779  -2.6779  -2.6779
    -2.6616  -2.6616  -2.5778  -2.5778  -2.5778  -2.5778  -2.5617  -2.5617
    -2.5617  -2.5616  -2.5583  -2.5583  -2.5226  -2.5226  -2.5226  -2.5226
    -2.4531  -2.4531  -2.4454  -2.4454  -2.4429  -2.4429  -2.4429  -2.4429
    -2.3119  -2.3119  -2.3119  -2.3119  -2.2909  -2.2909  -2.2908  -2.2908
    -2.1665  -2.1665  -2.1000  -2.1000  -2.0907  -2.0907  -2.0907  -2.0906
    -2.0657  -2.0657  -2.0548  -2.0548  -2.0548  -2.0548  -1.9698  -1.9698
    -1.9698  -1.9698  -1.9572  -1.9572  -1.9572  -1.9572  -1.8764  -1.8764
    -1.8764  -1.8764  -1.7779  -1.7779  -1.7779  -1.7779  -1.7761  -1.7761
    -1.6372  -1.6372  -1.6371  -1.6371  -1.6108  -1.6108  -1.6108  -1.6108
    -1.5503  -1.5503  -1.5503  -1.5503  -1.5491  -1.5491  -1.5269  -1.5269
    -1.5222  -1.5222  -1.5222  -1.5222  -1.4934  -1.4934  -1.3775  -1.3775
    -1.3766  -1.3766  -1.3491  -1.3490  -1.3490  -1.3490  -1.2531  -1.2531
    -1.2531  -1.2531  -1.2073  -1.2073  -1.1702  -1.1702  -1.1584  -1.1584
    -1.1583  -1.1583  -1.0660  -1.0660  -1.0172  -1.0172  -1.0172  -1.0172
    -0.9907  -0.9907  -0.9907  -0.9907  -0.8765  -0.8765  -0.8752  -0.8752
    -0.8751  -0.8751  -0.8699  -0.8699  -0.8137  -0.8136  -0.6756  -0.6756
    -0.6756  -0.6755  -0.6480  -0.6480  -0.6303  -0.6303  -0.5922  -0.5922
    -0.5922  -0.5921  -0.5875  -0.5875  -0.4405  -0.4405  -0.0881  -0.0881
    -0.0665  -0.0664   0.1120   0.1120   0.1141   0.1141   0.3473   0.3473
     0.6234   0.6234   1.2050   1.2050   1.3313   1.3313   1.4402   1.4402
     1.4917   1.4917   1.4918   1.4918   1.5676   1.5677   2.0701   2.0701
     2.2165   2.2165   2.2165   2.2165   2.3999   2.3999   2.4400   2.4400
     2.4921   2.4921   2.4921   2.4921   2.6208   2.6208   2.6209   2.6209
     2.6741   2.6741   2.6883   2.6883   2.7093   2.7093   2.7700   2.7700
     2.8009   2.8009   2.8010   2.8010   2.8392   2.8392   2.8393   2.8393
     2.8882   2.8882   2.8882   2.8882   3.0167   3.0167   3.1321   3.1322
     3.1322   3.1322   3.2302   3.2302   3.2302   3.2302   3.3401   3.3402
     3.3403   3.3404   3.3817   3.3817   3.3935   3.3935   3.3936   3.3936
     3.3988   3.3988   3.3989   3.3989   3.4640   3.4640   3.5271   3.5271
     3.5272   3.5272   3.6468   3.6468   3.7064   3.7064   3.7268   3.7268
     3.7268   3.7268   3.8543   3.8543   3.8543   3.8543   3.8855   3.8855
     3.8886   3.8886   3.8887   3.8887   3.9308   3.9308   3.9558   3.9558
     3.9721   3.9721   3.9721   3.9721   3.9736   3.9736   4.0495   4.0495
     4.0495   4.0495   4.0616   4.0616   4.0724   4.0724   4.0724   4.0724
     4.0742   4.0742   4.0742   4.0742   4.0798   4.0798   4.1153   4.1153
     4.1717   4.1717   4.1717   4.1718   4.2389   4.2389   4.2389   4.2389
     4.2404   4.2404   4.2404   4.2404   4.2648   4.2648   4.2648   4.2648
     4.3381   4.3381   4.3434   4.3434   4.3589   4.3589   4.3589   4.3589
     4.4302   4.4302   4.4698   4.4698   4.4700   4.4700   4.4740   4.4740
     4.4977   4.4978   4.4979   4.4979   4.5028   4.5028   4.5029   4.5029
     4.5248   4.5248   4.5522   4.5522   4.6412   4.6412   4.6412   4.6412
     4.6620   4.6620   4.6620   4.6620   4.6638   4.6638   4.6947   4.6947
     4.7060   4.7063   4.7159   4.7159   4.7626   4.7626   4.7748   4.7750
     4.7938   4.7938   4.7938   4.7938   4.7995   4.7995   4.7995   4.7996
     4.8107   4.8107

          k = 0.2500 0.2500 0.0000 (135083 PWs)   bands (ev):

   -61.8885 -61.8785 -61.8785 -61.8706 -61.8619 -61.8619 -61.8577 -61.8577
   -61.8515 -61.8466 -61.8445 -61.8445 -61.8441 -61.8441 -61.8350 -61.8304
   -61.8304 -61.8233 -61.8208 -61.8124 -61.8121 -61.8120 -61.8078 -61.8059
   -61.8059 -61.8024 -61.8023 -61.8021 -61.8021 -61.8012 -61.7986 -61.7984
   -61.7949 -61.7949 -61.7921 -61.7921 -61.7894 -61.7894 -61.7873 -61.7842
   -61.7842 -61.7822 -61.7822 -61.7765 -61.7759 -61.7709 -61.7700 -61.7700
   -61.7695 -61.7695 -61.7597 -61.7555 -61.7554 -61.7484 -61.7158 -61.7138
   -61.7138 -61.7136 -61.7134 -61.7123 -61.7117 -61.7117 -61.7097 -61.7097
   -61.7074 -61.7074 -61.7032 -61.7031 -61.7004 -61.6948 -61.6948 -61.6885
   -36.0046 -35.9936 -35.9863 -35.9774 -35.9690 -35.9690 -35.9643 -35.9533
   -35.9458 -35.9457 -35.9457 -35.9394 -35.9394 -35.9347 -35.9347 -35.9312
   -35.9215 -35.9215 -35.9109 -35.9109 -35.9025 -35.9008 -35.9008 -35.8904
   -35.8892 -35.8868 -35.8846 -35.8789 -35.8789 -35.8781 -35.8781 -35.8774
   -35.8755 -35.8737 -35.8737 -35.8717 -35.8709 -35.8671 -35.8645 -35.8645
   -35.8610 -35.8609 -35.8575 -35.8549 -35.8549 -35.8493 -35.8493 -35.8476
   -35.8476 -35.8433 -35.8433 -35.8405 -35.8405 -35.8208 -35.8208 -35.8183
   -35.8183 -35.8066 -35.8066 -35.7962 -35.7902 -35.7902 -35.7793 -35.7793
   -35.7767 -35.7767 -35.7766 -35.7653 -35.7647 -35.7632 -35.7607 -35.7607
   -35.7473 -35.7473 -35.7341 -35.7341 -35.7340 -35.7189 -35.7189 -35.7170
   -35.7170 -35.7159 -35.7159 -35.7082 -35.7082 -35.7027 -35.6945 -35.6932
   -35.6932 -35.6889 -35.6889 -35.6872 -35.6856 -35.6856 -35.6800 -35.6800
   -35.6794 -35.6794 -35.6777 -35.6708 -35.6696 -35.6687 -35.6650 -35.6648
   -35.6648 -35.6608 -35.6608 -35.6603 -35.6599 -35.6599 -35.6598 -35.6598
   -35.6576 -35.6575 -35.6531 -35.6495 -35.6495 -35.6458 -35.6433 -35.6433
   -35.6412 -35.6412 -35.6339 -35.6333 -35.6253 -35.6218 -35.6218 -35.6206
   -35.6193 -35.6193 -35.6190 -35.6190 -35.6164 -35.6164 -35.6115 -35.6043
   -35.6018 -35.6018 -35.5979 -35.5964 -35.5956 -35.5956 -35.5940 -35.5919
   -35.5919 -35.5912 -35.5898 -35.5898 -35.5896 -35.5863 -35.5849 -35.5849
   -35.5829 -35.5829 -35.5814 -35.5806 -35.5806 -35.5794 -35.5794 -35.5790
   -35.5790 -35.5709 -35.5709 -35.5689 -35.5680 -35.5680 -35.5660 -35.5629
   -35.5628 -35.5580 -35.5529 -35.5524 -35.5462 -35.5462 -35.5452 -35.5452
   -35.5444 -35.5434 -35.5364 -35.5316 -35.5316 -35.5298 -35.5298 -35.5287
   -35.5273 -35.5216 -35.5216 -35.5189 -35.5179 -35.5179 -35.5112 -35.5112
   -35.5072 -35.4993 -35.4993 -35.4987 -35.4986 -35.4896 -35.4858 -35.4759
   -35.4759 -35.4691 -35.4499 -35.4483 -35.4483 -35.4420 -35.4420 -35.4417
   -35.4292 -35.4292 -35.4219 -35.4198 -35.4190 -35.4190 -35.4148 -35.4148
   -14.1857 -13.8381 -13.8381 -13.5038 -13.3288 -13.2998 -13.2998 -13.0283
   -13.0283 -12.9948 -12.9948 -12.8523 -12.8523 -12.7691 -12.7480 -12.7081
   -12.7081 -12.6134 -12.6134 -12.6018 -12.6018 -12.5803 -12.5588 -12.5582
   -12.4894 -12.4701 -12.4701 -12.3968 -12.3968 -12.3851 -12.3851 -12.3708
   -12.3456 -12.3142 -12.2556 -12.2556 -12.2320 -12.2320 -12.1597 -12.1523
   -12.0412 -12.0412 -11.9908 -11.8886 -11.8886 -11.8036 -11.7809 -11.7068
   -11.7068 -11.6871 -11.6871 -11.6785 -11.6785 -11.6529 -11.6529 -11.5831
   -11.5178 -11.5178 -11.4862 -11.4262 -11.4258 -11.4258 -11.4031 -11.4031
   -11.3994 -11.3994 -11.3583 -11.2827 -11.2319 -11.2319 -11.1516 -11.0769
    -5.0605  -4.9694  -4.8518  -4.7845  -4.5864  -4.5864  -4.4099  -4.4099
    -4.3553  -4.3553  -4.2336  -4.2336  -4.2096  -4.0946  -4.0946  -4.0788
    -4.0304  -3.8841  -3.8532  -3.8532  -3.8378  -3.8377  -3.8319  -3.8042
    -3.8042  -3.7588  -3.6480  -3.6480  -3.6295  -3.6091  -3.6091  -3.5817
    -3.5784  -3.5784  -3.5454  -3.5383  -3.5383  -3.4234  -3.3833  -3.3833
    -3.3131  -3.3131  -3.2703  -3.2625  -3.2607  -3.2607  -3.1781  -3.1447
    -3.1447  -3.1159  -3.1159  -2.9663  -2.9663  -2.9504  -2.9504  -2.9237
    -2.9237  -2.9047  -2.9047  -2.7757  -2.7687  -2.6874  -2.6857  -2.6318
    -2.6318  -2.6226  -2.6121  -2.6121  -2.6108  -2.6016  -2.5744  -2.5684
    -2.5593  -2.5179  -2.5033  -2.5033  -2.4929  -2.4782  -2.4782  -2.4591
    -2.4591  -2.4524  -2.4524  -2.3639  -2.3597  -2.3596  -2.3513  -2.3513
    -2.3406  -2.2854  -2.2854  -2.2844  -2.2594  -2.2594  -2.1661  -2.1661
    -2.1548  -2.1548  -2.1387  -2.1185  -2.1185  -2.1122  -2.1122  -2.1079
    -2.1079  -2.0765  -2.0765  -2.0554  -2.0310  -2.0310  -2.0023  -1.9754
    -1.9754  -1.9521  -1.9521  -1.9478  -1.9478  -1.9316  -1.8973  -1.8973
    -1.8654  -1.8639  -1.8517  -1.8249  -1.8207  -1.8207  -1.7563  -1.7295
    -1.7028  -1.7028  -1.6696  -1.6696  -1.6227  -1.6179  -1.6109  -1.6086
    -1.6086  -1.5923  -1.5880  -1.5830  -1.5576  -1.5499  -1.5499  -1.5185
    -1.5185  -1.4681  -1.4681  -1.4452  -1.4265  -1.4265  -1.4148  -1.4126
    -1.4126  -1.3304  -1.3304  -1.3105  -1.3105  -1.2819  -1.2758  -1.2758
    -1.2473  -1.2473  -1.2429  -1.2429  -1.1945  -1.1833  -1.1599  -1.1116
    -1.1116  -1.1020  -1.1020  -1.0598  -1.0597  -1.0345  -1.0345  -1.0230
    -1.0230  -1.0222  -1.0221  -1.0076  -0.9894  -0.9058  -0.9025  -0.9025
    -0.9023  -0.9023  -0.7857  -0.7857  -0.7855  -0.7854  -0.7270  -0.7270
    -0.7211  -0.7113  -0.6527  -0.6110  -0.5875  -0.5875  -0.5755  -0.5755
    -0.5603  -0.5602  -0.5014  -0.4229  -0.4229  -0.3107  -0.2341  -0.2341
    -0.1960  -0.1147  -0.1147   0.0041   0.0831   0.3355   0.4949   0.7469
     0.7965   0.8330   0.9461   0.9461   0.9640   1.1802   1.2453   1.2453
     1.6988   1.6988   1.7983   1.8662   1.8788   1.8788   2.0037   2.0037
     2.0831   2.0843   2.0843   2.1367   2.1367   2.1912   2.2548   2.2548
     2.3889   2.4515   2.4522   2.4522   2.4903   2.5031   2.5535   2.5535
     2.5683   2.6306   2.6810   2.6810   2.7729   2.7729   2.7745   2.7933
     2.8632   2.8632   2.9387   2.9387   2.9405   2.9406   2.9801   2.9801
     3.0135   3.0263   3.0263   3.0519   3.0661   3.0841   3.1225   3.1583
     3.1583   3.1751   3.1751   3.2494   3.2494   3.2606   3.2728   3.2849
     3.2849   3.3130   3.3444   3.3444   3.3551   3.3551   3.3569   3.3837
     3.3837   3.4509   3.5304   3.5304   3.5382   3.5383   3.5555   3.5719
     3.5719   3.5788   3.5788   3.6233   3.6233   3.6606   3.6942   3.6942
     3.7009   3.7009   3.7103   3.7358   3.7359   3.7610   3.7909   3.7952
     3.8294   3.8294   3.8345   3.8795   3.9089   3.9089   3.9145   3.9145
     3.9260   4.0042   4.0043   4.0043   4.0057   4.0057   4.0282   4.0379
     4.0380   4.0380   4.0415   4.0822   4.0833   4.0833   4.0912   4.0912
     4.1236   4.1236   4.1504   4.1586   4.1586   4.1697   4.1697   4.1734
     4.1771   4.1833   4.1833   4.2016   4.2016   4.2166   4.2168   4.2215
     4.2356   4.2356   4.2488   4.2530   4.2530   4.2583   4.2583   4.2836
     4.2864   4.2945   4.2945   4.3243   4.3310   4.3320   4.3320   4.3633
     4.3633   4.3711   4.3711   4.3723   4.4127   4.4313   4.4313   4.4531
     4.4532   4.4750   4.4933   4.4933   4.5264   4.5508   4.5627   4.5827
     4.5841   4.5841   4.6285   4.6286   4.6293   4.6293   4.6633   4.6633
     4.6649   4.6767   4.6767   4.6854   4.6855   4.6965   4.6966   4.7044
     4.7044   4.7150   4.7151   4.7299   4.7389   4.7595   4.7782   4.7782
     4.7903   4.8033   4.8033   4.8044   4.8045   4.8069   4.8132   4.8222
     4.8222   4.8299

          k = 0.2500-0.5000 0.0000 (135080 PWs)   bands (ev):

   -61.8846 -61.8846 -61.8754 -61.8754 -61.8602 -61.8602 -61.8528 -61.8528
   -61.8508 -61.8508 -61.8488 -61.8488 -61.8442 -61.8442 -61.8321 -61.8321
   -61.8260 -61.8259 -61.8171 -61.8171 -61.8102 -61.8102 -61.8102 -61.8102
   -61.8033 -61.8032 -61.8023 -61.8023 -61.8001 -61.8001 -61.7987 -61.7987
   -61.7973 -61.7973 -61.7932 -61.7932 -61.7874 -61.7873 -61.7842 -61.7842
   -61.7795 -61.7795 -61.7784 -61.7784 -61.7765 -61.7765 -61.7732 -61.7732
   -61.7698 -61.7697 -61.7570 -61.7569 -61.7510 -61.7509 -61.7151 -61.7151
   -61.7137 -61.7137 -61.7135 -61.7135 -61.7106 -61.7106 -61.7100 -61.7100
   -61.7068 -61.7068 -61.7049 -61.7049 -61.6971 -61.6971 -61.6911 -61.6911
   -36.0051 -36.0051 -35.9883 -35.9883 -35.9584 -35.9584 -35.9513 -35.9513
   -35.9468 -35.9467 -35.9386 -35.9386 -35.9373 -35.9373 -35.9314 -35.9314
   -35.9163 -35.9163 -35.9109 -35.9109 -35.9016 -35.9016 -35.9009 -35.9009
   -35.8877 -35.8877 -35.8844 -35.8844 -35.8825 -35.8824 -35.8822 -35.8822
   -35.8792 -35.8792 -35.8678 -35.8677 -35.8666 -35.8666 -35.8623 -35.8623
   -35.8601 -35.8601 -35.8598 -35.8598 -35.8584 -35.8584 -35.8532 -35.8532
   -35.8438 -35.8438 -35.8392 -35.8391 -35.8371 -35.8371 -35.8168 -35.8168
   -35.8122 -35.8122 -35.7983 -35.7983 -35.7925 -35.7925 -35.7848 -35.7848
   -35.7792 -35.7792 -35.7741 -35.7740 -35.7567 -35.7567 -35.7519 -35.7519
   -35.7423 -35.7423 -35.7322 -35.7322 -35.7275 -35.7275 -35.7214 -35.7213
   -35.7091 -35.7091 -35.7053 -35.7053 -35.7006 -35.7006 -35.6966 -35.6966
   -35.6927 -35.6927 -35.6876 -35.6876 -35.6841 -35.6840 -35.6828 -35.6828
   -35.6828 -35.6828 -35.6728 -35.6728 -35.6714 -35.6714 -35.6680 -35.6680
   -35.6656 -35.6655 -35.6631 -35.6631 -35.6606 -35.6606 -35.6556 -35.6556
   -35.6548 -35.6548 -35.6511 -35.6511 -35.6503 -35.6503 -35.6461 -35.6461
   -35.6442 -35.6442 -35.6420 -35.6420 -35.6256 -35.6256 -35.6246 -35.6246
   -35.6238 -35.6238 -35.6082 -35.6082 -35.6056 -35.6056 -35.6047 -35.6047
   -35.6034 -35.6034 -35.6010 -35.6010 -35.6000 -35.6000 -35.5953 -35.5953
   -35.5951 -35.5951 -35.5876 -35.5876 -35.5875 -35.5875 -35.5818 -35.5818
   -35.5814 -35.5814 -35.5803 -35.5803 -35.5796 -35.5796 -35.5782 -35.5781
   -35.5776 -35.5775 -35.5692 -35.5692 -35.5691 -35.5691 -35.5650 -35.5650
   -35.5566 -35.5566 -35.5560 -35.5559 -35.5417 -35.5417 -35.5402 -35.5402
   -35.5343 -35.5343 -35.5335 -35.5335 -35.5331 -35.5331 -35.5305 -35.5305
   -35.5247 -35.5247 -35.5233 -35.5233 -35.5199 -35.5199 -35.5173 -35.5173
   -35.5096 -35.5096 -35.4914 -35.4914 -35.4900 -35.4900 -35.4896 -35.4896
   -35.4741 -35.4741 -35.4466 -35.4466 -35.4448 -35.4448 -35.4374 -35.4374
   -35.4282 -35.4282 -35.4232 -35.4232 -35.4180 -35.4180 -35.4169 -35.4169
   -14.0492 -14.0492 -13.7066 -13.7066 -13.2089 -13.2089 -13.1788 -13.1788
   -13.0460 -13.0460 -12.9156 -12.9156 -12.7643 -12.7643 -12.7502 -12.7502
   -12.7313 -12.7312 -12.6377 -12.6376 -12.5351 -12.5351 -12.5189 -12.5189
   -12.4636 -12.4636 -12.4282 -12.4282 -12.3944 -12.3944 -12.3856 -12.3856
   -12.3340 -12.3340 -12.2770 -12.2770 -12.2056 -12.2056 -12.1343 -12.1343
   -12.1299 -12.1299 -11.9371 -11.9371 -11.8026 -11.8026 -11.7598 -11.7598
   -11.7592 -11.7592 -11.6523 -11.6523 -11.6160 -11.6160 -11.5688 -11.5688
   -11.5604 -11.5604 -11.4969 -11.4969 -11.4455 -11.4455 -11.3584 -11.3584
   -11.3475 -11.3474 -11.3308 -11.3308 -11.2959 -11.2959 -11.0797 -11.0797
    -5.0979  -5.0979  -4.8907  -4.8907  -4.5511  -4.5511  -4.3888  -4.3888
    -4.2962  -4.2962  -4.1066  -4.1066  -4.0426  -4.0426  -4.0386  -4.0385
    -4.0161  -4.0161  -3.9514  -3.9513  -3.8832  -3.8832  -3.8089  -3.8089
    -3.7847  -3.7847  -3.7755  -3.7755  -3.6844  -3.6844  -3.5670  -3.5670
    -3.5440  -3.5440  -3.5212  -3.5212  -3.4519  -3.4519  -3.3305  -3.3305
    -3.3222  -3.3222  -3.2480  -3.2480  -3.2379  -3.2379  -3.1968  -3.1967
    -3.1459  -3.1459  -3.0469  -3.0469  -3.0330  -3.0330  -3.0115  -3.0115
    -2.8712  -2.8712  -2.8338  -2.8338  -2.7622  -2.7622  -2.7385  -2.7385
    -2.7134  -2.7134  -2.5896  -2.5896  -2.5887  -2.5887  -2.5650  -2.5650
    -2.5337  -2.5337  -2.4812  -2.4812  -2.4734  -2.4734  -2.4356  -2.4356
    -2.3931  -2.3931  -2.3894  -2.3894  -2.3587  -2.3587  -2.3520  -2.3520
    -2.3216  -2.3215  -2.2627  -2.2627  -2.2615  -2.2615  -2.2536  -2.2536
    -2.2178  -2.2178  -2.1945  -2.1945  -2.1653  -2.1652  -2.1575  -2.1575
    -2.0952  -2.0952  -2.0907  -2.0907  -2.0616  -2.0616  -2.0446  -2.0446
    -2.0092  -2.0092  -1.9331  -1.9331  -1.9114  -1.9114  -1.8988  -1.8987
    -1.7299  -1.7299  -1.6929  -1.6929  -1.6900  -1.6900  -1.6558  -1.6558
    -1.6491  -1.6491  -1.6386  -1.6386  -1.6361  -1.6361  -1.5386  -1.5386
    -1.5367  -1.5367  -1.5310  -1.5309  -1.5019  -1.5019  -1.4967  -1.4967
    -1.4496  -1.4496  -1.4339  -1.4339  -1.3577  -1.3577  -1.3537  -1.3536
    -1.3371  -1.3371  -1.3368  -1.3368  -1.3214  -1.3214  -1.3192  -1.3192
    -1.2949  -1.2949  -1.2730  -1.2730  -1.2076  -1.2076  -1.1451  -1.1451
    -1.1017  -1.1017  -1.0959  -1.0959  -1.0324  -1.0323  -1.0153  -1.0153
    -1.0142  -1.0141  -1.0140  -1.0140  -0.9924  -0.9924  -0.8582  -0.8582
    -0.8451  -0.8451  -0.7954  -0.7954  -0.7480  -0.7480  -0.7474  -0.7474
    -0.7213  -0.7213  -0.6845  -0.6845  -0.6462  -0.6462  -0.6332  -0.6332
    -0.4761  -0.4761  -0.4370  -0.4370  -0.3974  -0.3974  -0.3370  -0.3370
    -0.1648  -0.1648  -0.0669  -0.0669   0.0580   0.0580   0.2668   0.2668
     0.8867   0.8867   1.2610   1.2611   1.4011   1.4011   1.4320   1.4320
     1.4619   1.4619   1.6164   1.6164   1.6310   1.6310   1.9818   1.9818
     2.0137   2.0137   2.0374   2.0375   2.1502   2.1502   2.2850   2.2850
     2.2964   2.2964   2.4386   2.4387   2.4426   2.4426   2.4931   2.4931
     2.5870   2.5870   2.6838   2.6838   2.6965   2.6965   2.7433   2.7433
     2.7719   2.7719   2.7984   2.7984   2.7998   2.7998   2.9329   2.9329
     3.0117   3.0117   3.0253   3.0253   3.0288   3.0288   3.1452   3.1452
     3.1623   3.1624   3.2110   3.2111   3.2413   3.2413   3.2889   3.2889
     3.3968   3.3968   3.4101   3.4101   3.4144   3.4144   3.4294   3.4294
     3.5123   3.5123   3.5858   3.5858   3.5961   3.5961   3.6221   3.6221
     3.6280   3.6280   3.6554   3.6554   3.7054   3.7054   3.7647   3.7647
     3.7919   3.7919   3.8217   3.8217   3.8505   3.8505   3.8658   3.8658
     3.8862   3.8862   3.9082   3.9082   3.9128   3.9128   3.9330   3.9330
     3.9759   3.9759   3.9781   3.9781   4.0002   4.0002   4.0133   4.0133
     4.0486   4.0486   4.0486   4.0486   4.0596   4.0596   4.0681   4.0681
     4.0919   4.0920   4.0938   4.0938   4.1007   4.1008   4.1021   4.1021
     4.1284   4.1284   4.1533   4.1533   4.1564   4.1564   4.1966   4.1966
     4.2038   4.2038   4.2275   4.2275   4.2496   4.2496   4.2549   4.2550
     4.2636   4.2636   4.3953   4.3953   4.4193   4.4193   4.4279   4.4279
     4.4351   4.4351   4.4377   4.4377   4.4560   4.4560   4.4917   4.4917
     4.5485   4.5485   4.5683   4.5683   4.5782   4.5783   4.5791   4.5791
     4.5849   4.5849   4.6004   4.6004   4.6167   4.6167   4.6687   4.6687
     4.6956   4.6956   4.7010   4.7010   4.7052   4.7052   4.7060   4.7060
     4.7214   4.7215   4.7467   4.7467   4.7512   4.7512   4.7559   4.7559
     4.7691   4.7691   4.7720   4.7723   4.7993   4.7993   4.8159   4.8160
     4.8203   4.8204

          k =-0.5000-0.5000 0.0000 (135004 PWs)   bands (ev):

   -61.8811 -61.8810 -61.8810 -61.8810 -61.8520 -61.8520 -61.8520 -61.8520
   -61.8520 -61.8520 -61.8519 -61.8519 -61.8484 -61.8484 -61.8283 -61.8283
   -61.8283 -61.8282 -61.8141 -61.8140 -61.8140 -61.8140 -61.8080 -61.8079
   -61.8079 -61.8079 -61.8004 -61.8004 -61.7979 -61.7979 -61.7979 -61.7979
   -61.7979 -61.7979 -61.7979 -61.7979 -61.7807 -61.7807 -61.7807 -61.7807
   -61.7783 -61.7783 -61.7783 -61.7783 -61.7782 -61.7782 -61.7782 -61.7782
   -61.7727 -61.7727 -61.7532 -61.7532 -61.7531 -61.7531 -61.7146 -61.7146
   -61.7146 -61.7146 -61.7141 -61.7141 -61.7081 -61.7081 -61.7081 -61.7081
   -61.7081 -61.7081 -61.7081 -61.7080 -61.6936 -61.6936 -61.6935 -61.6935
   -36.0113 -36.0113 -35.9949 -35.9949 -35.9509 -35.9509 -35.9509 -35.9509
   -35.9223 -35.9223 -35.9223 -35.9223 -35.9219 -35.9219 -35.9219 -35.9219
   -35.9219 -35.9219 -35.9219 -35.9219 -35.9062 -35.9062 -35.9001 -35.9001
   -35.9001 -35.9001 -35.9001 -35.9001 -35.9001 -35.9001 -35.8902 -35.8902
   -35.8854 -35.8854 -35.8854 -35.8854 -35.8709 -35.8709 -35.8709 -35.8709
   -35.8534 -35.8534 -35.8534 -35.8533 -35.8356 -35.8356 -35.8356 -35.8356
   -35.8356 -35.8356 -35.8356 -35.8356 -35.8173 -35.8173 -35.8173 -35.8172
   -35.8172 -35.8172 -35.8172 -35.8172 -35.8103 -35.8103 -35.8103 -35.8102
   -35.7687 -35.7687 -35.7687 -35.7687 -35.7474 -35.7474 -35.7474 -35.7474
   -35.7334 -35.7334 -35.7333 -35.7333 -35.7120 -35.7120 -35.7120 -35.7120
   -35.7120 -35.7120 -35.7120 -35.7120 -35.7033 -35.7033 -35.7033 -35.7033
   -35.6897 -35.6897 -35.6897 -35.6896 -35.6870 -35.6870 -35.6870 -35.6870
   -35.6870 -35.6870 -35.6870 -35.6870 -35.6749 -35.6749 -35.6749 -35.6749
   -35.6609 -35.6609 -35.6609 -35.6609 -35.6601 -35.6600 -35.6600 -35.6600
   -35.6496 -35.6496 -35.6390 -35.6390 -35.6390 -35.6390 -35.6390 -35.6390
   -35.6390 -35.6390 -35.6275 -35.6275 -35.6274 -35.6274 -35.6199 -35.6199
   -35.6186 -35.6186 -35.6185 -35.6185 -35.6185 -35.6185 -35.6185 -35.6185
   -35.6082 -35.6082 -35.6082 -35.6082 -35.6058 -35.6058 -35.6058 -35.6058
   -35.6030 -35.6030 -35.5846 -35.5846 -35.5846 -35.5846 -35.5807 -35.5807
   -35.5807 -35.5807 -35.5807 -35.5807 -35.5807 -35.5807 -35.5686 -35.5685
   -35.5685 -35.5685 -35.5624 -35.5624 -35.5624 -35.5624 -35.5522 -35.5522
   -35.5520 -35.5520 -35.5520 -35.5520 -35.5520 -35.5519 -35.5519 -35.5519
   -35.5326 -35.5326 -35.5326 -35.5326 -35.5326 -35.5326 -35.5326 -35.5326
   -35.5270 -35.5270 -35.5248 -35.5248 -35.5206 -35.5206 -35.5186 -35.5186
   -35.5186 -35.5186 -35.4867 -35.4867 -35.4867 -35.4867 -35.4846 -35.4845
   -35.4845 -35.4845 -35.4479 -35.4479 -35.4321 -35.4321 -35.4321 -35.4321
   -35.4321 -35.4320 -35.4320 -35.4320 -35.4173 -35.4172 -35.4172 -35.4172
   -13.9146 -13.9146 -13.9146 -13.9146 -13.0917 -13.0916 -13.0916 -13.0916
   -12.9332 -12.9332 -12.9332 -12.9332 -12.9332 -12.9332 -12.9331 -12.9331
   -12.6803 -12.6803 -12.6802 -12.6802 -12.4920 -12.4920 -12.4920 -12.4920
   -12.3840 -12.3839 -12.3839 -12.3839 -12.3839 -12.3839 -12.3839 -12.3839
   -12.3126 -12.3126 -12.2841 -12.2841 -12.2841 -12.2841 -12.1270 -12.1270
   -12.0986 -12.0986 -12.0986 -12.0986 -11.7110 -11.7110 -11.7110 -11.7110
   -11.6809 -11.6809 -11.6809 -11.6809 -11.6809 -11.6809 -11.6808 -11.6808
   -11.4139 -11.4139 -11.4138 -11.4138 -11.4137 -11.4137 -11.4137 -11.4137
   -11.4005 -11.4005 -11.4005 -11.4005 -11.3232 -11.3232 -11.0449 -11.0449
    -5.1812  -5.1812  -4.9631  -4.9631  -4.2359  -4.2359  -4.2359  -4.2359
    -4.2359  -4.2359  -4.2359  -4.2359  -4.1290  -4.1290  -4.0614  -4.0614
    -4.0614  -4.0614  -4.0614  -4.0614  -4.0614  -4.0614  -3.8561  -3.8561
    -3.6540  -3.6540  -3.6540  -3.6540  -3.6061  -3.6061  -3.6061  -3.6061
    -3.5941  -3.5941  -3.5940  -3.5940  -3.3425  -3.3425  -3.3425  -3.3425
    -3.3425  -3.3425  -3.3425  -3.3425  -3.0990  -3.0990  -3.0990  -3.0990
    -3.0654  -3.0654  -3.0654  -3.0654  -3.0653  -3.0653  -3.0653  -3.0653
    -2.9048  -2.9048  -2.9048  -2.9048  -2.8862  -2.8862  -2.8862  -2.8862
    -2.7951  -2.7951  -2.6091  -2.6091  -2.5808  -2.5808  -2.4924  -2.4924
    -2.4924  -2.4924  -2.4924  -2.4924  -2.4923  -2.4923  -2.4380  -2.4380
    -2.3707  -2.3707  -2.3707  -2.3707  -2.3622  -2.3622  -2.3622  -2.3622
    -2.3622  -2.3622  -2.3622  -2.3622  -2.1308  -2.1308  -2.1308  -2.1308
    -2.1308  -2.1308  -2.1308  -2.1308  -2.1113  -2.1113  -2.1113  -2.1113
    -2.1113  -2.1113  -2.1113  -2.1113  -2.0704  -2.0704  -2.0704  -2.0704
    -2.0518  -2.0518  -2.0263  -2.0263  -2.0263  -2.0263  -1.8547  -1.8547
    -1.8547  -1.8547  -1.7368  -1.7367  -1.7367  -1.7367  -1.7073  -1.7073
    -1.7013  -1.7013  -1.5042  -1.5042  -1.5042  -1.5042  -1.4609  -1.4609
    -1.4609  -1.4609  -1.4609  -1.4609  -1.4609  -1.4609  -1.3791  -1.3791
    -1.3791  -1.3791  -1.3144  -1.3144  -1.3031  -1.3031  -1.3031  -1.3031
    -1.3031  -1.3031  -1.3031  -1.3031  -1.2691  -1.2691  -1.2691  -1.2691
    -1.2676  -1.2676  -1.2676  -1.2675  -1.2445  -1.2445  -1.2445  -1.2445
    -1.1003  -1.1003  -1.1003  -1.1003  -1.1002  -1.1002  -1.1002  -1.1002
    -0.9813  -0.9813  -0.9813  -0.9813  -0.9536  -0.9536  -0.9536  -0.9536
    -0.7977  -0.7976  -0.7976  -0.7976  -0.7976  -0.7976  -0.7976  -0.7976
    -0.6431  -0.6431  -0.6431  -0.6431  -0.6315  -0.6315  -0.6314  -0.6314
    -0.5207  -0.5206  -0.5206  -0.5206  -0.2749  -0.2749  -0.2749  -0.2749
    -0.2718  -0.2718  -0.2718  -0.2718  -0.0099  -0.0099  -0.0099  -0.0099
     1.2988   1.2988   1.2988   1.2989   1.4987   1.4987   1.4987   1.4987
     1.5384   1.5384   1.5384   1.5385   1.8106   1.8106   1.8106   1.8106
     1.8107   1.8107   1.8107   1.8107   1.8753   1.8753   1.8753   1.8753
     2.3837   2.3837   2.3837   2.3837   2.5788   2.5788   2.5788   2.5789
     2.6512   2.6512   2.6512   2.6512   2.6552   2.6552   2.6552   2.6552
     2.7249   2.7249   2.7249   2.7249   2.7405   2.7405   2.7405   2.7405
     2.9204   2.9204   2.9204   2.9204   2.9204   2.9204   2.9204   2.9205
     3.3261   3.3261   3.3261   3.3262   3.4222   3.4222   3.4222   3.4222
     3.5305   3.5305   3.5305   3.5305   3.5305   3.5305   3.5305   3.5305
     3.6405   3.6405   3.6962   3.6962   3.6962   3.6962   3.6962   3.6962
     3.6962   3.6962   3.6976   3.6976   3.7167   3.7167   3.7233   3.7233
     3.8206   3.8206   3.8206   3.8206   3.8206   3.8206   3.8206   3.8206
     3.8812   3.8812   3.8812   3.8812   3.8812   3.8812   3.8813   3.8813
     3.9363   3.9363   3.9363   3.9363   4.0318   4.0318   4.0318   4.0318
     4.0318   4.0318   4.0318   4.0318   4.0431   4.0431   4.0521   4.0521
     4.0521   4.0521   4.0522   4.0522   4.0522   4.0522   4.0816   4.0816
     4.0816   4.0816   4.1018   4.1018   4.1485   4.1485   4.1485   4.1485
     4.1545   4.1545   4.2015   4.2015   4.2015   4.2015   4.2467   4.2467
     4.4199   4.4199   4.4199   4.4199   4.4199   4.4199   4.4199   4.4199
     4.4665   4.4665   4.4665   4.4665   4.5591   4.5591   4.5591   4.5591
     4.6082   4.6082   4.6082   4.6083   4.6083   4.6083   4.6083   4.6083
     4.6268   4.6268   4.6576   4.6576   4.6576   4.6576   4.6576   4.6576
     4.6576   4.6576   4.6718   4.6718   4.6718   4.6719   4.7043   4.7043
     4.7043   4.7043   4.7246   4.7246   4.7246   4.7246   4.7738   4.7738
     4.7801   4.7801   4.7801   4.7801   4.7801   4.7801   4.7801   4.7802
     4.8184   4.8184

     the Fermi energy is     3.4385 ev

!    total energy              =  -11908.17363546 Ry
     estimated scf accuracy    <       0.00000027 Ry
     smearing contrib. (-TS)   =      -0.01241857 Ry
     internal energy E=F+TS    =  -11908.16121689 Ry

     The total energy is F=E-TS. E is the sum of the following terms:
     one-electron contribution = -158323.27336430 Ry
     hartree contribution      =   79250.82299503 Ry
     xc contribution           =   -1803.95440993 Ry
     ewald contribution        =   68971.68518376 Ry
     DFT-D3 Dispersion         =      -3.44162144 Ry

     convergence has been achieved in  25 iterations

     negative rho (up, down):  7.705E-02 0.000E+00

     Forces acting on atoms (cartesian axes, Ry/au):

     atom    1 type  1   force =     0.00000000    0.00000000    0.09420487
     atom    2 type  1   force =    -0.00001211    0.00000000   -0.01932968
     atom    3 type  1   force =     0.00000000   -0.00001211   -0.01932968
     atom    4 type  1   force =    -0.00000351   -0.00000351    0.09420590
     atom    5 type  1   force =     0.00000000    0.00000000    0.00438321
     atom    6 type  1   force =    -0.00000673    0.00000000   -0.00839510
     atom    7 type  1   force =     0.00000000   -0.00000673   -0.00839510
     atom    8 type  1   force =     0.00000466    0.00000466    0.00438045
     atom    9 type  1   force =     0.00000000   -0.00000111    0.09420569
     atom   10 type  1   force =     0.00000119   -0.00000385   -0.01933713
     atom   11 type  1   force =     0.00000000    0.00000000   -0.01933735
     atom   12 type  1   force =     0.00000204    0.00000000    0.09420472
     atom   13 type  1   force =     0.00000000   -0.00000263    0.00439122
     atom   14 type  1   force =    -0.00000210    0.00000523   -0.00839943
     atom   15 type  1   force =     0.00000000    0.00000000   -0.00839808
     atom   16 type  1   force =     0.00000924   -0.00000000    0.00439485
     atom   17 type  1   force =     0.00000000    0.00000111    0.09420569
     atom   18 type  1   force =     0.00000119    0.00000385   -0.01933713
     atom   19 type  1   force =     0.00000000    0.00001211   -0.01932968
     atom   20 type  1   force =    -0.00000351    0.00000351    0.09420590
     atom   21 type  1   force =    -0.00000000    0.00000263    0.00439122
     atom   22 type  1   force =    -0.00000210   -0.00000523   -0.00839943
     atom   23 type  1   force =     0.00000000    0.00000673   -0.00839510
     atom   24 type  1   force =     0.00000466   -0.00000466    0.00438045
     atom   25 type  1   force =    -0.00000111    0.00000000    0.09420569
     atom   26 type  1   force =     0.00000000    0.00000000   -0.01933735
     atom   27 type  1   force =    -0.00000385    0.00000119   -0.01933713
     atom   28 type  1   force =     0.00000000    0.00000204    0.09420472
     atom   29 type  1   force =    -0.00000263    0.00000000    0.00439122
     atom   30 type  1   force =     0.00000000    0.00000000   -0.00839808
     atom   31 type  1   force =     0.00000523   -0.00000210   -0.00839943
     atom   32 type  1   force =     0.00000000    0.00000924    0.00439485
     atom   33 type  1   force =     0.00000378    0.00000378    0.09420802
     atom   34 type  1   force =     0.00000000    0.00000483   -0.01934248
     atom   35 type  1   force =     0.00000483    0.00000000   -0.01934248
     atom   36 type  1   force =     0.00000000    0.00000000    0.09421332
     atom   37 type  1   force =     0.00000303    0.00000303    0.00438793
     atom   38 type  1   force =     0.00000000    0.00000568   -0.00839248
     atom   39 type  1   force =     0.00000568    0.00000000   -0.00839248
     atom   40 type  1   force =     0.00000000    0.00000000    0.00440294
     atom   41 type  1   force =     0.00000378   -0.00000378    0.09420802
     atom   42 type  1   force =     0.00000000   -0.00000483   -0.01934248
     atom   43 type  1   force =    -0.00000385   -0.00000119   -0.01933713
     atom   44 type  1   force =     0.00000000   -0.00000204    0.09420472
     atom   45 type  1   force =     0.00000303   -0.00000303    0.00438793
     atom   46 type  1   force =    -0.00000000   -0.00000568   -0.00839248
     atom   47 type  1   force =     0.00000523    0.00000210   -0.00839943
     atom   48 type  1   force =     0.00000000   -0.00000924    0.00439485
     atom   49 type  1   force =     0.00000111    0.00000000    0.09420569
     atom   50 type  1   force =     0.00001211    0.00000000   -0.01932968
     atom   51 type  1   force =     0.00000385    0.00000119   -0.01933713
     atom   52 type  1   force =     0.00000351   -0.00000351    0.09420590
     atom   53 type  1   force =     0.00000263    0.00000000    0.00439122
     atom   54 type  1   force =     0.00000673    0.00000000   -0.00839510
     atom   55 type  1   force =    -0.00000523   -0.00000210   -0.00839943
     atom   56 type  1   force =    -0.00000466    0.00000466    0.00438045
     atom   57 type  1   force =    -0.00000378    0.00000378    0.09420802
     atom   58 type  1   force =    -0.00000119   -0.00000385   -0.01933713
     atom   59 type  1   force =    -0.00000483    0.00000000   -0.01934248
     atom   60 type  1   force =    -0.00000204    0.00000000    0.09420472
     atom   61 type  1   force =    -0.00000303    0.00000303    0.00438793
     atom   62 type  1   force =     0.00000210    0.00000523   -0.00839943
     atom   63 type  1   force =    -0.00000568    0.00000000   -0.00839248
     atom   64 type  1   force =    -0.00000924   -0.00000000    0.00439485
     atom   65 type  1   force =    -0.00000378   -0.00000378    0.09420802
     atom   66 type  1   force =    -0.00000119    0.00000385   -0.01933713
     atom   67 type  1   force =     0.00000385   -0.00000119   -0.01933713
     atom   68 type  1   force =     0.00000351    0.00000351    0.09420590
     atom   69 type  1   force =    -0.00000303   -0.00000303    0.00438793
     atom   70 type  1   force =     0.00000210   -0.00000523   -0.00839943
     atom   71 type  1   force =    -0.00000523    0.00000210   -0.00839943
     atom   72 type  1   force =    -0.00000466   -0.00000466    0.00438045
     atom   73 type  2   force =     0.00000000    0.00000043   -0.05243857
     atom   74 type  2   force =     0.00000043    0.00000000   -0.05243857
     atom   75 type  2   force =     0.00000000    0.00000000   -0.02030840
     atom   76 type  2   force =    -0.00000267   -0.00000267   -0.02031936
     atom   77 type  2   force =     0.00000000   -0.00000264    0.00280984
     atom   78 type  2   force =    -0.00000264    0.00000000    0.00280984
     atom   79 type  2   force =     0.00000000    0.00000000   -0.00092271
     atom   80 type  2   force =     0.00000111    0.00000111   -0.00092706
     atom   81 type  2   force =     0.00000000    0.00000000   -0.05245013
     atom   82 type  2   force =     0.00000331   -0.00000221   -0.05244358
     atom   83 type  2   force =     0.00000000   -0.00000853   -0.02030993
     atom   84 type  2   force =     0.00000117   -0.00000000   -0.02031038
     atom   85 type  2   force =     0.00000000    0.00000000    0.00282478
     atom   86 type  2   force =    -0.00000370   -0.00000020    0.00282647
     atom   87 type  2   force =     0.00000000   -0.00000273   -0.00092827
     atom   88 type  2   force =    -0.00000326   -0.00000000   -0.00092355
     atom   89 type  2   force =     0.00000000   -0.00000043   -0.05243857
     atom   90 type  2   force =     0.00000331    0.00000221   -0.05244358
     atom   91 type  2   force =     0.00000000    0.00000853   -0.02030993
     atom   92 type  2   force =    -0.00000267    0.00000267   -0.02031936
     atom   93 type  2   force =     0.00000000    0.00000264    0.00280984
     atom   94 type  2   force =    -0.00000370    0.00000020    0.00282647
     atom   95 type  2   force =     0.00000000    0.00000273   -0.00092827
     atom   96 type  2   force =     0.00000111   -0.00000111   -0.00092706
     atom   97 type  2   force =    -0.00000221    0.00000331   -0.05244358
     atom   98 type  2   force =     0.00000000    0.00000000   -0.05245013
     atom   99 type  2   force =    -0.00000853    0.00000000   -0.02030993
     atom  100 type  2   force =     0.00000000    0.00000117   -0.02031038
     atom  101 type  2   force =    -0.00000020   -0.00000370    0.00282647
     atom  102 type  2   force =     0.00000000    0.00000000    0.00282478
     atom  103 type  2   force =    -0.00000273    0.00000000   -0.00092827
     atom  104 type  2   force =     0.00000000   -0.00000326   -0.00092355
     atom  105 type  2   force =     0.00000053    0.00000000   -0.05244965
     atom  106 type  2   force =     0.00000000    0.00000053   -0.05244965
     atom  107 type  2   force =    -0.00000551   -0.00000551   -0.02031994
     atom  108 type  2   force =     0.00000000    0.00000000   -0.02031293
     atom  109 type  2   force =     0.00000031    0.00000000    0.00281814
     atom  110 type  2   force =     0.00000000    0.00000031    0.00281814
     atom  111 type  2   force =    -0.00000511   -0.00000511   -0.00091940
     atom  112 type  2   force =     0.00000000    0.00000000   -0.00091292
     atom  113 type  2   force =    -0.00000221   -0.00000331   -0.05244358
     atom  114 type  2   force =     0.00000000   -0.00000053   -0.05244965
     atom  115 type  2   force =    -0.00000551    0.00000551   -0.02031994
     atom  116 type  2   force =     0.00000000   -0.00000117   -0.02031038
     atom  117 type  2   force =    -0.00000020    0.00000370    0.00282647
     atom  118 type  2   force =     0.00000000   -0.00000031    0.00281814
     atom  119 type  2   force =    -0.00000511    0.00000511   -0.00091940
     atom  120 type  2   force =    -0.00000000    0.00000326   -0.00092355
     atom  121 type  2   force =     0.00000221    0.00000331   -0.05244358
     atom  122 type  2   force =    -0.00000043    0.00000000   -0.05243857
     atom  123 type  2   force =     0.00000853    0.00000000   -0.02030993
     atom  124 type  2   force =     0.00000267   -0.00000267   -0.02031936
     atom  125 type  2   force =     0.00000020   -0.00000370    0.00282647
     atom  126 type  2   force =     0.00000264    0.00000000    0.00280984
     atom  127 type  2   force =     0.00000273    0.00000000   -0.00092827
     atom  128 type  2   force =    -0.00000111    0.00000111   -0.00092706
     atom  129 type  2   force =    -0.00000053    0.00000000   -0.05244965
     atom  130 type  2   force =    -0.00000331   -0.00000221   -0.05244358
     atom  131 type  2   force =     0.00000551   -0.00000551   -0.02031994
     atom  132 type  2   force =    -0.00000117    0.00000000   -0.02031038
     atom  133 type  2   force =    -0.00000031    0.00000000    0.00281814
     atom  134 type  2   force =     0.00000370   -0.00000020    0.00282647
     atom  135 type  2   force =     0.00000511   -0.00000511   -0.00091940
     atom  136 type  2   force =     0.00000326    0.00000000   -0.00092355
     atom  137 type  2   force =     0.00000221   -0.00000331   -0.05244358
     atom  138 type  2   force =    -0.00000331    0.00000221   -0.05244358
     atom  139 type  2   force =     0.00000551    0.00000551   -0.02031994
     atom  140 type  2   force =     0.00000267    0.00000267   -0.02031936
     atom  141 type  2   force =     0.00000020    0.00000370    0.00282647
     atom  142 type  2   force =     0.00000370    0.00000020    0.00282647
     atom  143 type  2   force =     0.00000511    0.00000511   -0.00091940
     atom  144 type  2   force =    -0.00000111   -0.00000111   -0.00092706

     Total force =     0.042124     Total SCF correction =     0.002001
     Energy error            =      3.4E-03 Ry
     Gradient error          =      8.4E-03 Ry/Bohr

     number of scf cycles    =   9
     number of bfgs steps    =   8

     energy             old  =  -11908.1702807238 Ry
     energy             new  =  -11908.1736354612 Ry

     CASE: energy            _new < energy            _old

     new trust radius        =       0.0241087945 bohr
     new conv_thr            =       0.0000005398 Ry


ATOMIC_POSITIONS (angstrom)
V                0.0000000000        0.0000000000       10.0000000000    0   0   0
V                2.0432625400        0.0000000000       12.0432625400    0   0   0
V                0.0000000000        2.0432625400       12.0432625400    0   0   0
V                2.0432625400        2.0432625400       10.0000000000    0   0   0
V                0.0000001400        0.0000001700       14.1580761094
V                2.0431837813        0.0000000600       16.0250798428
V               -0.0000000900        2.0431837013       16.0250796528
V                2.0432349203        2.0432348303       14.1580866382
V                0.0000000000        4.0865250700       10.0000000000    0   0   0
V                2.0432625400        4.0865250700       12.0432625400    0   0   0
V                0.0000000000        6.1297876100       12.0432625400    0   0   0
V                2.0432625400        6.1297876100       10.0000000000    0   0   0
V                0.0000001200        4.0865038774       14.1580824240
V                2.0431946036        4.0866008218       16.0251137446
V               -0.0000001500        6.1297875000       16.0250797714
V                2.0432418698        6.1297873900       14.1580962692
V                0.0000000000        8.1730501500       10.0000000000    0   0   0
V                2.0432625400        8.1730501500       12.0432625400    0   0   0
V                0.0000000000       10.2163126900       12.0432625400    0   0   0
V                2.0432625400       10.2163126900       10.0000000000    0   0   0
V               -0.0000002100        8.1730710926       14.1580824040
V                2.0431946836        8.1729745982       16.0251135646
V               -0.0000000100       10.2163914187       16.0250799228
V                2.0432348503       10.2163401497       14.1580864282
V                4.0865250700        0.0000000000       10.0000000000    0   0   0
V                6.1297876100        0.0000000000       12.0432625400    0   0   0
V                4.0865250700        2.0432625400       12.0432625400    0   0   0
V                6.1297876100        2.0432625400       10.0000000000    0   0   0
V                4.0865038974        0.0000001700       14.1580823340
V                6.1297876200        0.0000000500       16.0250803514
V                4.0866006318        2.0431946836       16.0251138546
V                6.1297873700        2.0432419498       14.1580962692
V                4.0865250700        4.0865250700       10.0000000000    0   0   0
V                6.1297876100        4.0865250700       12.0432625400    0   0   0
V                4.0865250700        6.1297876100       12.0432625400    0   0   0
V                6.1297876100        6.1297876100       10.0000000000    0   0   0
V                4.0865084743        4.0865082843       14.1581015201
V                6.1297875500        4.0865724015       16.0251003359
V                4.0865723515        6.1297875500       16.0251000959
V                6.1297874000        6.1297875000       14.1580795510
V                4.0865250700        8.1730501500       10.0000000000    0   0   0
V                6.1297876100        8.1730501500       12.0432625400    0   0   0
V                4.0865250700       10.2163126900       12.0432625400    0   0   0
V                6.1297876100       10.2163126900       10.0000000000    0   0   0
V                4.0865084943        8.1730670557       14.1581015301
V                6.1297875800        8.1730027385       16.0251000559
V                4.0866006518       10.2163804664       16.0251133246
V                6.1297875400       10.2163330502       14.1580963392
V                8.1730501500        0.0000000000       10.0000000000    0   0   0
V               10.2163126900        0.0000000000       12.0432625400    0   0   0
V                8.1730501500        2.0432625400       12.0432625400    0   0   0
V               10.2163126900        2.0432625400       10.0000000000    0   0   0
V                8.1730712926        0.0000000500       14.1580823140
V               10.2163914987        0.0000001000       16.0250797828
V                8.1729745482        2.0431946836       16.0251140946
V               10.2163403597        2.0432348503       14.1580862982
V                8.1730501500        4.0865250700       10.0000000000    0   0   0
V               10.2163126900        4.0865250700       12.0432625400    0   0   0
V                8.1730501500        6.1297876100       12.0432625400    0   0   0
V               10.2163126900        6.1297876100       10.0000000000    0   0   0
V                8.1730665757        4.0865084743       14.1581014401
V               10.2163805264        4.0866008518       16.0251135446
V                8.1730029085        6.1297876500       16.0251003259
V               10.2163334302        6.1297875900       14.1580963892
V                8.1730501500        8.1730501500       10.0000000000    0   0   0
V               10.2163126900        8.1730501500       12.0432625400    0   0   0
V                8.1730501500       10.2163126900       12.0432625400    0   0   0
V               10.2163126900       10.2163126900       10.0000000000    0   0   0
V                8.1730669257        8.1730668057       14.1581016401
V               10.2163805264        8.1729743982       16.0251137346
V                8.1729744182       10.2163805664       16.0251133446
V               10.2163402397       10.2163401097       14.1580864082
N                0.0000000000        2.0432625400       10.0000000000    0   0   0
N                2.0432625400        0.0000000000       10.0000000000    0   0   0
N                0.0000000000        0.0000000000       12.0432625400    0   0   0
N                2.0432625400        2.0432625400       12.0432625400    0   0   0
N                0.0000001100        2.0432484332       14.1172054804
N                2.0432482032        0.0000001000       14.1172051804
N               -0.0000000300       -0.0000000400       16.2823290527
N                2.0432723151        2.0432722351       16.2822570037
N                0.0000000000        6.1297876100       10.0000000000    0   0   0
N                2.0432625400        4.0865250700       10.0000000000    0   0   0
N                0.0000000000        4.0865250700       12.0432625400    0   0   0
N                2.0432625400        6.1297876100       12.0432625400    0   0   0
N               -0.0000000400        6.1297876300       14.1171992109
N                2.0432554522        4.0865116711       14.1172175803
N               -0.0000001500        4.0864847810       16.2823143597
N                2.0432702429        6.1297874600       16.2823500455
N                0.0000000000       10.2163126900       10.0000000000    0   0   0
N                2.0432625400        8.1730501500       10.0000000000    0   0   0
N                0.0000000000        8.1730501500       12.0432625400    0   0   0
N                2.0432625400       10.2163126900       12.0432625400    0   0   0
N                0.0000000200       10.2163267968       14.1172050004
N                2.0432554422        8.1730637089       14.1172177203
N                0.0000000800        8.1730905490       16.2823143297
N                2.0432722451       10.2163030049       16.2822569137
N                4.0865250700        2.0432625400       10.0000000000    0   0   0
N                6.1297876100        0.0000000000       10.0000000000    0   0   0
N                4.0865250700        0.0000000000       12.0432625400    0   0   0
N                6.1297876100        2.0432625400       12.0432625400    0   0   0
N                4.0865114811        2.0432555122       14.1172174103
N                6.1297875500        0.0000000900       14.1171990409
N                4.0864847310       -0.0000000300       16.2823148497
N                6.1297876600        2.0432703529       16.2823504655
N                4.0865250700        6.1297876100       10.0000000000    0   0   0
N                6.1297876100        4.0865250700       10.0000000000    0   0   0
N                4.0865250700        4.0865250700       12.0432625400    0   0   0
N                6.1297876100        6.1297876100       12.0432625400    0   0   0
N                4.0865146404        6.1297874900       14.1172105269
N                6.1297876500        4.0865145704       14.1172101969
N                4.0864984157        4.0864982957       16.2823049252
N                6.1297876300        6.1297875100       16.2823943744
N                4.0865250700       10.2163126900       10.0000000000    0   0   0
N                6.1297876100        8.1730501500       10.0000000000    0   0   0
N                4.0865250700        8.1730501500       12.0432625400    0   0   0
N                6.1297876100       10.2163126900       12.0432625400    0   0   0
N                4.0865114511       10.2163195378       14.1172178403
N                6.1297875600        8.1730606596       14.1172105269
N                4.0864983957        8.1730770543       16.2823044652
N                6.1297876400       10.2163050071       16.2823502155
N                8.1730501500        2.0432625400       10.0000000000    0   0   0
N               10.2163126900        0.0000000000       10.0000000000    0   0   0
N                8.1730501500        0.0000000000       12.0432625400    0   0   0
N               10.2163126900        2.0432625400       12.0432625400    0   0   0
N                8.1730636289        2.0432553922       14.1172172703
N               10.2163270868       -0.0000001200       14.1172052804
N                8.1730903790        0.0000000100       16.2823145597
N               10.2163030349        2.0432722451       16.2822569237
N                8.1730501500        6.1297876100       10.0000000000    0   0   0
N               10.2163126900        4.0865250700       10.0000000000    0   0   0
N                8.1730501500        4.0865250700       12.0432625400    0   0   0
N               10.2163126900        6.1297876100       12.0432625400    0   0   0
N                8.1730604396        6.1297873400       14.1172100969
N               10.2163198278        4.0865116511       14.1172178603
N                8.1730769843        4.0864982857       16.2823046352
N               10.2163049871        6.1297876700       16.2823499955
N                8.1730501500       10.2163126900       10.0000000000    0   0   0
N               10.2163126900        8.1730501500       10.0000000000    0   0   0
N                8.1730501500        8.1730501500       12.0432625400    0   0   0
N               10.2163126900       10.2163126900       12.0432625400    0   0   0
N                8.1730635589       10.2163198478       14.1172178103
N               10.2163198178        8.1730635089       14.1172172303
N                8.1730768943        8.1730769543       16.2823046252
N               10.2163030249       10.2163029249       16.2822569437



     Writing config-only to output data dir ./tmp/VN_slab.save/ :
     XML data file
     NEW-OLD atomic charge density approx. for the potential

     Check: negative core charge=   -0.000004

     negative rho (up, down):  7.752E-02 0.000E+00

     total cpu time spent up to now is    22100.3 secs

     per-process dynamical memory:   807.7 Mb

     Self-consistent Calculation

     iteration #  1     ecut=    45.00 Ry     beta= 0.25
     Davidson diagonalization with overlap
     ethr =  1.00E-06,  avg # of iterations =  6.3

     negative rho (up, down):  7.752E-02 0.000E+00

     total cpu time spent up to now is    22260.9 secs

     total energy              =  -11908.17022977 Ry
     estimated scf accuracy    <       0.01518347 Ry

     iteration #  2     ecut=    45.00 Ry     beta= 0.25
     Davidson diagonalization with overlap
     ethr =  1.17E-06,  avg # of iterations = 21.2

     negative rho (up, down):  7.752E-02 0.000E+00

     total cpu time spent up to now is    22451.9 secs

     total energy              =  -11908.12260629 Ry
     estimated scf accuracy    <       4.81943719 Ry

     iteration #  3     ecut=    45.00 Ry     beta= 0.25
     Davidson diagonalization with overlap
     c_bands:  2 eigenvalues not converged
     ethr =  1.17E-06,  avg # of iterations = 16.7

     negative rho (up, down):  7.754E-02 0.000E+00

     total cpu time spent up to now is    22573.4 secs

     total energy              =  -11908.17142443 Ry
     estimated scf accuracy    <       0.15851188 Ry

     iteration #  4     ecut=    45.00 Ry     beta= 0.25
     Davidson diagonalization with overlap
     c_bands:  1 eigenvalues not converged
     ethr =  1.17E-06,  avg # of iterations = 15.0

     negative rho (up, down):  7.757E-02 0.000E+00

     total cpu time spent up to now is    22659.3 secs

     total energy              =  -11908.17489740 Ry
     estimated scf accuracy    <       0.01842881 Ry

     iteration #  5     ecut=    45.00 Ry     beta= 0.25
     Davidson diagonalization with overlap
     c_bands:  1 eigenvalues not converged
     ethr =  1.17E-06,  avg # of iterations =  4.2

     negative rho (up, down):  7.757E-02 0.000E+00

     total cpu time spent up to now is    22725.2 secs

     total energy              =  -11908.17518696 Ry
     estimated scf accuracy    <       0.00698885 Ry

     iteration #  6     ecut=    45.00 Ry     beta= 0.25
     Davidson diagonalization with overlap
     ethr =  5.39E-07,  avg # of iterations =  3.3

     negative rho (up, down):  7.752E-02 0.000E+00

     total cpu time spent up to now is    22790.5 secs

     total energy              =  -11908.17518214 Ry
     estimated scf accuracy    <       0.01514448 Ry

     iteration #  7     ecut=    45.00 Ry     beta= 0.25
     Davidson diagonalization with overlap
     ethr =  5.39E-07,  avg # of iterations =  1.0

     negative rho (up, down):  7.752E-02 0.000E+00

     total cpu time spent up to now is    22844.1 secs

     total energy              =  -11908.17548624 Ry
     estimated scf accuracy    <       0.00043591 Ry

     iteration #  8     ecut=    45.00 Ry     beta= 0.25
     Davidson diagonalization with overlap
     ethr =  3.36E-08,  avg # of iterations =  5.7

     negative rho (up, down):  7.751E-02 0.000E+00

     total cpu time spent up to now is    22912.4 secs

     total energy              =  -11908.17547752 Ry
     estimated scf accuracy    <       0.00134810 Ry

     iteration #  9     ecut=    45.00 Ry     beta= 0.25
     Davidson diagonalization with overlap
     ethr =  3.36E-08,  avg # of iterations =  4.7

     negative rho (up, down):  7.750E-02 0.000E+00

     total cpu time spent up to now is    22977.7 secs

     total energy              =  -11908.17551118 Ry
     estimated scf accuracy    <       0.00035583 Ry

     iteration # 10     ecut=    45.00 Ry     beta= 0.25
     Davidson diagonalization with overlap
     ethr =  2.75E-08,  avg # of iterations =  2.2

     negative rho (up, down):  7.750E-02 0.000E+00

     total cpu time spent up to now is    23039.5 secs

     total energy              =  -11908.17552313 Ry
     estimated scf accuracy    <       0.00010443 Ry

     iteration # 11     ecut=    45.00 Ry     beta= 0.25
     Davidson diagonalization with overlap
     ethr =  8.06E-09,  avg # of iterations =  5.5

     negative rho (up, down):  7.750E-02 0.000E+00

     total cpu time spent up to now is    23106.9 secs

     total energy              =  -11908.17552915 Ry
     estimated scf accuracy    <       0.00007661 Ry

     iteration # 12     ecut=    45.00 Ry     beta= 0.25
     Davidson diagonalization with overlap
     ethr =  5.91E-09,  avg # of iterations =  1.8

     negative rho (up, down):  7.750E-02 0.000E+00

     total cpu time spent up to now is    23168.5 secs

     total energy              =  -11908.17552887 Ry
     estimated scf accuracy    <       0.00001870 Ry

     iteration # 13     ecut=    45.00 Ry     beta= 0.25
     Davidson diagonalization with overlap
     ethr =  1.44E-09,  avg # of iterations =  7.2

     negative rho (up, down):  7.750E-02 0.000E+00

     total cpu time spent up to now is    23248.8 secs

     total energy              =  -11908.17552325 Ry
     estimated scf accuracy    <       0.00055135 Ry

     iteration # 14     ecut=    45.00 Ry     beta= 0.25
     Davidson diagonalization with overlap
     ethr =  1.44E-09,  avg # of iterations =  6.0

     negative rho (up, down):  7.750E-02 0.000E+00

     total cpu time spent up to now is    23341.0 secs

     total energy              =  -11908.17552976 Ry
     estimated scf accuracy    <       0.00019166 Ry

     iteration # 15     ecut=    45.00 Ry     beta= 0.25
     Davidson diagonalization with overlap
     ethr =  1.44E-09,  avg # of iterations =  5.0

     negative rho (up, down):  7.750E-02 0.000E+00

     total cpu time spent up to now is    23413.6 secs

     total energy              =  -11908.17553268 Ry
     estimated scf accuracy    <       0.00001166 Ry

     iteration # 16     ecut=    45.00 Ry     beta= 0.25
     Davidson diagonalization with overlap
     ethr =  9.00E-10,  avg # of iterations =  2.5

     negative rho (up, down):  7.750E-02 0.000E+00

     total cpu time spent up to now is    23484.1 secs

     total energy              =  -11908.17553279 Ry
     estimated scf accuracy    <       0.00000619 Ry

     iteration # 17     ecut=    45.00 Ry     beta= 0.25
     Davidson diagonalization with overlap
     ethr =  4.77E-10,  avg # of iterations =  6.0

     negative rho (up, down):  7.750E-02 0.000E+00

     total cpu time spent up to now is    23563.3 secs

     total energy              =  -11908.17553207 Ry
     estimated scf accuracy    <       0.00006245 Ry

     iteration # 18     ecut=    45.00 Ry     beta= 0.25
     Davidson diagonalization with overlap
     ethr =  4.77E-10,  avg # of iterations =  4.7

     negative rho (up, down):  7.750E-02 0.000E+00

     total cpu time spent up to now is    23636.8 secs

     total energy              =  -11908.17553317 Ry
     estimated scf accuracy    <       0.00000731 Ry

     iteration # 19     ecut=    45.00 Ry     beta= 0.25
     Davidson diagonalization with overlap
     ethr =  4.77E-10,  avg # of iterations =  2.0

     negative rho (up, down):  7.750E-02 0.000E+00

     total cpu time spent up to now is    23708.0 secs

     total energy              =  -11908.17553335 Ry
     estimated scf accuracy    <       0.00000093 Ry

     iteration # 20     ecut=    45.00 Ry     beta= 0.25
     Davidson diagonalization with overlap
     ethr =  7.20E-11,  avg # of iterations =  6.0

     negative rho (up, down):  7.750E-02 0.000E+00

     total cpu time spent up to now is    23796.2 secs

     total energy              =  -11908.17553326 Ry
     estimated scf accuracy    <       0.00000946 Ry

     iteration # 21     ecut=    45.00 Ry     beta= 0.25
     Davidson diagonalization with overlap
     ethr =  7.20E-11,  avg # of iterations =  5.2

     negative rho (up, down):  7.750E-02 0.000E+00

     total cpu time spent up to now is    23874.1 secs

     End of self-consistent calculation

          k = 0.0000 0.0000 0.0000 (135157 PWs)   bands (ev):

   -61.8882 -61.8687 -61.8687 -61.8686 -61.8686 -61.8570 -61.8570 -61.8570
   -61.8570 -61.8391 -61.8391 -61.8391 -61.8391 -61.8336 -61.8335 -61.8335
   -61.8335 -61.8189 -61.8171 -61.8086 -61.8030 -61.8030 -61.8030 -61.8029
   -61.7994 -61.7994 -61.7993 -61.7993 -61.7919 -61.7919 -61.7919 -61.7919
   -61.7894 -61.7894 -61.7893 -61.7893 -61.7820 -61.7820 -61.7819 -61.7819
   -61.7781 -61.7780 -61.7780 -61.7780 -61.7697 -61.7572 -61.7571 -61.7571
   -61.7571 -61.7528 -61.7528 -61.7528 -61.7528 -61.7376 -61.7074 -61.7052
   -61.7051 -61.7051 -61.7051 -61.7036 -61.7036 -61.7035 -61.7035 -61.7000
   -61.6999 -61.6999 -61.6998 -61.6908 -61.6908 -61.6907 -61.6907 -61.6793
   -35.9832 -35.9832 -35.9832 -35.9832 -35.9603 -35.9603 -35.9603 -35.9602
   -35.9545 -35.9545 -35.9430 -35.9430 -35.9430 -35.9430 -35.9268 -35.9268
   -35.9268 -35.9268 -35.8913 -35.8913 -35.8913 -35.8912 -35.8906 -35.8906
   -35.8906 -35.8906 -35.8877 -35.8877 -35.8877 -35.8877 -35.8764 -35.8764
   -35.8746 -35.8746 -35.8746 -35.8746 -35.8652 -35.8652 -35.8651 -35.8651
   -35.8590 -35.8410 -35.8410 -35.8409 -35.8409 -35.8400 -35.8400 -35.8400
   -35.8400 -35.8190 -35.8190 -35.8190 -35.8190 -35.8132 -35.8132 -35.8132
   -35.8132 -35.8013 -35.8013 -35.8013 -35.8013 -35.7969 -35.7969 -35.7969
   -35.7969 -35.7675 -35.7675 -35.7545 -35.7545 -35.7545 -35.7545 -35.7513
   -35.7513 -35.7513 -35.7513 -35.7449 -35.7197 -35.7197 -35.7197 -35.7197
   -35.7166 -35.7166 -35.7166 -35.7166 -35.6915 -35.6882 -35.6882 -35.6855
   -35.6855 -35.6854 -35.6854 -35.6818 -35.6818 -35.6818 -35.6818 -35.6802
   -35.6802 -35.6802 -35.6802 -35.6748 -35.6748 -35.6747 -35.6747 -35.6603
   -35.6603 -35.6589 -35.6588 -35.6588 -35.6588 -35.6459 -35.6459 -35.6458
   -35.6458 -35.6361 -35.6361 -35.6361 -35.6361 -35.6211 -35.6211 -35.6211
   -35.6211 -35.6207 -35.6207 -35.6147 -35.6147 -35.6147 -35.6147 -35.6145
   -35.6145 -35.6145 -35.6145 -35.6143 -35.6143 -35.6143 -35.6143 -35.6096
   -35.6044 -35.6007 -35.6007 -35.6007 -35.6007 -35.5910 -35.5910 -35.5910
   -35.5910 -35.5905 -35.5877 -35.5876 -35.5876 -35.5875 -35.5837 -35.5837
   -35.5837 -35.5837 -35.5719 -35.5719 -35.5719 -35.5719 -35.5678 -35.5678
   -35.5678 -35.5678 -35.5630 -35.5630 -35.5622 -35.5622 -35.5622 -35.5622
   -35.5521 -35.5521 -35.5521 -35.5521 -35.5497 -35.5497 -35.5497 -35.5497
   -35.5235 -35.5234 -35.5234 -35.5234 -35.5228 -35.5228 -35.5227 -35.5227
   -35.5161 -35.5161 -35.5161 -35.5161 -35.5060 -35.5060 -35.5060 -35.5060
   -35.4980 -35.4883 -35.4882 -35.4882 -35.4882 -35.4768 -35.4768 -35.4493
   -35.4493 -35.4492 -35.4492 -35.4479 -35.4478 -35.4478 -35.4478 -35.4200
   -35.4199 -35.4199 -35.4199 -35.4182 -35.4039 -35.4039 -35.4039 -35.4039
   -14.2857 -13.6269 -13.6269 -13.6269 -13.6269 -13.4098 -13.0242 -13.0242
   -13.0242 -13.0242 -12.8507 -12.8507 -12.8507 -12.8507 -12.8109 -12.7792
   -12.7792 -12.7792 -12.7792 -12.6072 -12.5580 -12.4454 -12.4454 -12.4454
   -12.4454 -12.4260 -12.4260 -12.4260 -12.4260 -12.4001 -12.3849 -12.3849
   -12.3849 -12.3849 -12.2440 -12.2440 -12.2440 -12.2440 -12.0845 -12.0845
   -12.0845 -12.0845 -11.8909 -11.8909 -11.8908 -11.8908 -11.8327 -11.6927
   -11.6927 -11.6927 -11.6927 -11.6747 -11.6747 -11.6747 -11.6747 -11.5294
   -11.4492 -11.4492 -11.4492 -11.4492 -11.4408 -11.4407 -11.4407 -11.4405
   -11.4099 -11.4098 -11.4096 -11.4096 -11.1750 -11.1748 -11.1748 -11.1746
    -4.7276  -4.7276  -4.7276  -4.7276  -4.5359  -4.5359  -4.5359  -4.5359
    -4.4127  -4.4127  -4.4127  -4.4127  -4.2971  -4.2971  -4.2971  -4.2971
    -3.9723  -3.9723  -3.9723  -3.9723  -3.7612  -3.7612  -3.7612  -3.7612
    -3.6606  -3.6606  -3.6606  -3.6606  -3.6512  -3.6512  -3.6512  -3.6512
    -3.5370  -3.5101  -3.5101  -3.5101  -3.5101  -3.2646  -3.2646  -3.2646
    -3.2645  -3.1763  -3.1763  -3.1282  -3.1282  -3.1282  -3.1282  -3.1104
    -3.1104  -3.1104  -3.1104  -3.1094  -3.1093  -3.1093  -3.1093  -3.0262
    -3.0262  -3.0262  -3.0262  -2.7042  -2.7042  -2.7042  -2.7042  -2.5872
    -2.5872  -2.5498  -2.4795  -2.4794  -2.4794  -2.4793  -2.4593  -2.4593
    -2.4593  -2.4592  -2.4456  -2.4456  -2.4456  -2.4456  -2.4422  -2.4421
    -2.4421  -2.4421  -2.3764  -2.3764  -2.3764  -2.3764  -2.3371  -2.3371
    -2.3371  -2.3371  -2.2225  -2.2225  -2.2225  -2.2225  -2.2059  -2.2059
    -2.2059  -2.2059  -2.1597  -2.1597  -2.1597  -2.1597  -2.1522  -2.1522
    -2.1522  -2.1522  -2.1481  -2.1481  -2.1481  -2.1481  -2.0044  -2.0044
    -2.0044  -2.0044  -1.9890  -1.9737  -1.9737  -1.9737  -1.9737  -1.8437
    -1.8437  -1.8437  -1.8436  -1.8376  -1.8376  -1.8376  -1.8376  -1.7161
    -1.7161  -1.7161  -1.7160  -1.7105  -1.7105  -1.7105  -1.7105  -1.6690
    -1.6583  -1.6583  -1.6583  -1.6583  -1.5825  -1.5825  -1.5723  -1.5723
    -1.5722  -1.5722  -1.4609  -1.4608  -1.4608  -1.4608  -1.3933  -1.3933
    -1.3933  -1.3933  -1.3931  -1.3931  -1.3931  -1.3931  -1.3703  -1.3446
    -1.3446  -1.3442  -1.3442  -1.2665  -1.2663  -1.2663  -1.2661  -1.2243
    -1.2243  -1.2242  -1.2242  -1.1692  -1.1690  -1.1690  -1.1689  -0.9405
    -0.9404  -0.9404  -0.9403  -0.9164  -0.9164  -0.9163  -0.9163  -0.8672
    -0.8672  -0.8167  -0.8167  -0.8166  -0.8166  -0.7538  -0.7538  -0.7535
    -0.7535  -0.6393  -0.6393  -0.6392  -0.6392  -0.4356  -0.3971  -0.3971
    -0.3334  -0.3334  -0.3333  -0.3333  -0.2554  -0.2554  -0.2552  -0.2552
    -0.2461  -0.0072  -0.0072   0.1277   0.3465   0.4274   0.5408   0.5408
     0.8823   0.8823   0.8939   0.8939   0.8940   0.8940   1.1766   1.1766
     1.2956   1.8257   1.8257   1.8257   1.8257   1.8335   2.4028   2.4028
     2.4955   2.4956   2.4956   2.4956   2.5226   2.5227   2.5227   2.5227
     2.5637   2.5637   2.5683   2.5683   2.5683   2.5683   2.6287   2.6287
     2.6288   2.6288   2.6697   2.6697   2.6698   2.6698   2.6958   2.6958
     2.6958   2.6958   2.9270   3.0473   3.0473   3.0473   3.0474   3.0920
     3.0920   3.0920   3.0920   3.1251   3.2075   3.2076   3.2080   3.2080
     3.2303   3.2303   3.2303   3.2303   3.2462   3.2462   3.2462   3.2463
     3.3391   3.3391   3.3391   3.3391   3.3926   3.3946   3.3946   3.3946
     3.3947   3.4274   3.4274   3.4275   3.4275   3.4399   3.4400   3.4400
     3.4400   3.4677   3.4677   3.4678   3.4678   3.4846   3.4846   3.4846
     3.4846   3.5393   3.5393   3.5393   3.5393   3.7246   3.7247   3.7247
     3.7247   3.7615   3.7615   3.8261   3.8593   3.8593   3.8594   3.8594
     3.8862   3.8864   3.8864   3.8867   3.9736   3.9736   3.9737   3.9737
     3.9798   3.9798   3.9798   3.9798   4.0469   4.0469   4.0469   4.0470
     4.0705   4.0871   4.0871   4.0871   4.0872   4.1639   4.1639   4.1959
     4.1959   4.1960   4.1960   4.2249   4.2280   4.2280   4.2280   4.2280
     4.2316   4.2316   4.2316   4.2316   4.3453   4.3453   4.3453   4.3454
     4.3810   4.3810   4.3810   4.3810   4.3884   4.3884   4.3884   4.3885
     4.3970   4.4185   4.4185   4.4185   4.4186   4.4942   4.4942   4.4943
     4.4943   4.5060   4.5060   4.5060   4.5060   4.5255   4.5255   4.5257
     4.5257   4.5828   4.5828   4.5829   4.5829   4.5981   4.5981   4.5981
     4.5981   4.6376   4.6376   4.6376   4.6376   4.6890   4.6890   4.7090
     4.7090   4.7090   4.7090   4.7590   4.7731   4.7731   4.7731   4.7732
     4.7976   4.8274   4.8274   4.8276   4.8277   4.8708   4.9006   4.9011
     4.9012   4.9012

          k = 0.0000 0.2500 0.0000 (135097 PWs)   bands (ev):

   -61.8868 -61.8766 -61.8678 -61.8678 -61.8617 -61.8616 -61.8596 -61.8519
   -61.8519 -61.8426 -61.8426 -61.8414 -61.8365 -61.8365 -61.8339 -61.8338
   -61.8272 -61.8198 -61.8158 -61.8078 -61.8077 -61.8027 -61.8027 -61.8008
   -61.8008 -61.7999 -61.7980 -61.7974 -61.7974 -61.7923 -61.7923 -61.7909
   -61.7909 -61.7873 -61.7865 -61.7865 -61.7837 -61.7837 -61.7825 -61.7825
   -61.7820 -61.7771 -61.7718 -61.7718 -61.7706 -61.7615 -61.7608 -61.7608
   -61.7549 -61.7548 -61.7530 -61.7530 -61.7460 -61.7385 -61.7072 -61.7053
   -61.7052 -61.7051 -61.7047 -61.7047 -61.7037 -61.7037 -61.7027 -61.7026
   -61.7012 -61.6967 -61.6966 -61.6948 -61.6915 -61.6915 -61.6866 -61.6802
   -35.9889 -35.9889 -35.9694 -35.9694 -35.9680 -35.9680 -35.9675 -35.9675
   -35.9521 -35.9521 -35.9500 -35.9499 -35.9404 -35.9403 -35.9164 -35.9155
   -35.9155 -35.9153 -35.9110 -35.9110 -35.8937 -35.8937 -35.8906 -35.8906
   -35.8859 -35.8859 -35.8834 -35.8834 -35.8762 -35.8741 -35.8741 -35.8721
   -35.8720 -35.8684 -35.8678 -35.8678 -35.8663 -35.8663 -35.8645 -35.8645
   -35.8570 -35.8555 -35.8512 -35.8495 -35.8495 -35.8448 -35.8447 -35.8444
   -35.8444 -35.8394 -35.8346 -35.8346 -35.8229 -35.8229 -35.8135 -35.8135
   -35.8127 -35.7973 -35.7907 -35.7900 -35.7900 -35.7865 -35.7865 -35.7826
   -35.7763 -35.7717 -35.7699 -35.7699 -35.7681 -35.7681 -35.7640 -35.7523
   -35.7429 -35.7429 -35.7377 -35.7270 -35.7222 -35.7191 -35.7169 -35.7169
   -35.7165 -35.7124 -35.7090 -35.7090 -35.6962 -35.6962 -35.6937 -35.6927
   -35.6921 -35.6921 -35.6919 -35.6917 -35.6874 -35.6794 -35.6794 -35.6731
   -35.6731 -35.6647 -35.6633 -35.6633 -35.6619 -35.6619 -35.6596 -35.6595
   -35.6594 -35.6587 -35.6571 -35.6567 -35.6566 -35.6566 -35.6566 -35.6507
   -35.6507 -35.6453 -35.6453 -35.6415 -35.6411 -35.6411 -35.6390 -35.6348
   -35.6336 -35.6336 -35.6335 -35.6285 -35.6284 -35.6251 -35.6247 -35.6247
   -35.6116 -35.6116 -35.6085 -35.6027 -35.6027 -35.6014 -35.5996 -35.5996
   -35.5979 -35.5958 -35.5944 -35.5944 -35.5931 -35.5924 -35.5880 -35.5880
   -35.5846 -35.5846 -35.5835 -35.5835 -35.5830 -35.5830 -35.5820 -35.5820
   -35.5800 -35.5800 -35.5797 -35.5783 -35.5752 -35.5752 -35.5724 -35.5710
   -35.5710 -35.5690 -35.5688 -35.5665 -35.5649 -35.5578 -35.5578 -35.5562
   -35.5562 -35.5519 -35.5519 -35.5483 -35.5482 -35.5449 -35.5430 -35.5430
   -35.5394 -35.5255 -35.5254 -35.5218 -35.5217 -35.5213 -35.5213 -35.5200
   -35.5199 -35.5148 -35.5131 -35.5131 -35.5037 -35.5034 -35.5034 -35.4989
   -35.4974 -35.4974 -35.4946 -35.4881 -35.4881 -35.4810 -35.4799 -35.4680
   -35.4509 -35.4509 -35.4498 -35.4497 -35.4413 -35.4412 -35.4314 -35.4262
   -35.4262 -35.4155 -35.4142 -35.4141 -35.4078 -35.4053 -35.4052 -35.4050
   -14.2384 -13.8894 -13.5829 -13.5829 -13.3677 -13.3479 -13.2610 -13.2610
   -13.0649 -12.8948 -12.8134 -12.8134 -12.7954 -12.7816 -12.7816 -12.7474
   -12.7474 -12.7430 -12.6444 -12.5911 -12.5540 -12.5540 -12.5410 -12.5410
   -12.5212 -12.4820 -12.4524 -12.4524 -12.4179 -12.4072 -12.4072 -12.3621
   -12.2991 -12.2991 -12.2622 -12.2455 -12.2455 -12.1901 -12.1900 -12.0877
   -12.0517 -12.0517 -11.9157 -11.8559 -11.8558 -11.8249 -11.8249 -11.8161
   -11.7227 -11.7089 -11.6955 -11.6697 -11.6697 -11.6088 -11.6087 -11.5391
   -11.5391 -11.5237 -11.5237 -11.5139 -11.4398 -11.4305 -11.4161 -11.4161
   -11.3871 -11.3869 -11.2874 -11.2873 -11.2451 -11.2449 -11.1466 -11.1465
    -4.8816  -4.8816  -4.7112  -4.7112  -4.6774  -4.6773  -4.5482  -4.5482
    -4.4687  -4.4687  -4.2951  -4.2951  -4.0729  -4.0729  -4.0362  -4.0287
    -4.0287  -3.9673  -3.9673  -3.8660  -3.8660  -3.7761  -3.7733  -3.7626
    -3.7626  -3.7501  -3.6932  -3.6931  -3.6178  -3.6178  -3.5932  -3.5932
    -3.5895  -3.5758  -3.5758  -3.5422  -3.4564  -3.4104  -3.3909  -3.3909
    -3.3257  -3.3257  -3.2709  -3.2594  -3.2571  -3.2571  -3.2052  -3.2051
    -3.1695  -3.1021  -3.0366  -3.0366  -2.9162  -2.9084  -2.9067  -2.9067
    -2.8713  -2.8713  -2.8304  -2.8180  -2.7389  -2.7297  -2.7297  -2.6325
    -2.6325  -2.6085  -2.6084  -2.5805  -2.5752  -2.5411  -2.5411  -2.5172
    -2.5172  -2.5150  -2.5124  -2.5124  -2.5064  -2.4617  -2.4617  -2.4361
    -2.4306  -2.4306  -2.3842  -2.3842  -2.3351  -2.3351  -2.3296  -2.3250
    -2.3250  -2.2596  -2.2596  -2.2586  -2.2586  -2.2538  -2.2479  -2.2479
    -2.2413  -2.2412  -2.2022  -2.2022  -2.1407  -2.1407  -2.1239  -2.1206
    -2.0433  -2.0336  -2.0336  -2.0317  -2.0317  -2.0113  -2.0113  -1.9924
    -1.9580  -1.9580  -1.9456  -1.9206  -1.9014  -1.8990  -1.8990  -1.8876
    -1.8876  -1.8828  -1.8828  -1.8388  -1.8388  -1.8363  -1.8327  -1.8131
    -1.7643  -1.7643  -1.7498  -1.7161  -1.7160  -1.6849  -1.6849  -1.6375
    -1.6375  -1.6294  -1.6294  -1.6290  -1.5772  -1.5618  -1.5233  -1.5169
    -1.5168  -1.4966  -1.4966  -1.4792  -1.4791  -1.4677  -1.4507  -1.4505
    -1.4172  -1.4170  -1.3983  -1.3618  -1.3051  -1.3051  -1.3016  -1.3002
    -1.3002  -1.2367  -1.2366  -1.2253  -1.2152  -1.2152  -1.2047  -1.2046
    -1.1810  -1.0738  -1.0737  -1.0675  -1.0675  -1.0666  -1.0576  -1.0330
    -1.0329  -1.0215  -1.0150  -0.9737  -0.9736  -0.8787  -0.8786  -0.8775
    -0.8665  -0.8491  -0.7912  -0.7911  -0.7807  -0.7806  -0.7524  -0.7140
    -0.7109  -0.7108  -0.6737  -0.6685  -0.6147  -0.5126  -0.5055  -0.4896
    -0.4799  -0.4332  -0.4191  -0.4190  -0.3997  -0.3890  -0.3889  -0.2236
    -0.1136  -0.0921   0.0284   0.1124   0.2754   0.5613   0.5769   0.6108
     0.7163   0.7352   0.8187   0.9141   1.0703   1.0704   1.0970   1.1416
     1.5852   1.6445   1.8436   1.9316   1.9316   2.0109   2.0188   2.0189
     2.0312   2.0796   2.2138   2.4110   2.4616   2.4898   2.5067   2.5067
     2.5307   2.5308   2.5472   2.5473   2.5526   2.5563   2.6217   2.6217
     2.6687   2.6739   2.6740   2.7072   2.7073   2.7266   2.7267   2.8123
     2.8186   2.8670   2.8671   2.9402   2.9403   2.9643   3.0002   3.0281
     3.0732   3.0733   3.1011   3.1012   3.1054   3.1167   3.1265   3.1266
     3.1390   3.1390   3.1479   3.1569   3.1832   3.1832   3.2547   3.2550
     3.2734   3.2922   3.2922   3.3109   3.3109   3.3438   3.4011   3.4012
     3.4181   3.4182   3.4904   3.4904   3.5023   3.5023   3.5327   3.5328
     3.5520   3.5522   3.5727   3.5727   3.5740   3.6100   3.6545   3.6545
     3.6546   3.6548   3.6635   3.6958   3.7089   3.7440   3.7447   3.7477
     3.7477   3.8059   3.8059   3.8185   3.8185   3.8218   3.8432   3.8433
     3.8567   3.9351   3.9397   3.9474   3.9474   3.9926   3.9926   4.0327
     4.0927   4.0949   4.0949   4.1147   4.1196   4.1197   4.1251   4.1284
     4.1284   4.1284   4.1284   4.1527   4.1612   4.1776   4.1776   4.1808
     4.1808   4.1841   4.1868   4.1869   4.1975   4.2330   4.2330   4.2643
     4.2643   4.2759   4.2765   4.2788   4.2802   4.2803   4.2845   4.2845
     4.3029   4.3030   4.3044   4.3045   4.3102   4.3467   4.3467   4.3876
     4.3876   4.4039   4.4040   4.4242   4.4242   4.4389   4.4575   4.4588
     4.4678   4.4688   4.4689   4.4696   4.4697   4.5014   4.5016   4.5173
     4.5578   4.5579   4.5734   4.5734   4.6076   4.6218   4.6500   4.6520
     4.6622   4.6649   4.6836   4.6912   4.7065   4.7148   4.7148   4.7371
     4.7371   4.7448   4.7448   4.7592   4.7636   4.7637   4.7799   4.7799
     4.7872   4.7872   4.7895   4.8223   4.8250   4.8337   4.8464   4.8502
     4.8502   4.8595

          k = 0.0000-0.5000 0.0000 (135178 PWs)   bands (ev):

   -61.8829 -61.8829 -61.8654 -61.8654 -61.8654 -61.8654 -61.8503 -61.8503
   -61.8470 -61.8470 -61.8470 -61.8470 -61.8348 -61.8348 -61.8348 -61.8348
   -61.8226 -61.8226 -61.8123 -61.8123 -61.8052 -61.8052 -61.8020 -61.8020
   -61.8019 -61.8019 -61.7951 -61.7951 -61.7951 -61.7951 -61.7928 -61.7928
   -61.7882 -61.7882 -61.7881 -61.7881 -61.7841 -61.7841 -61.7841 -61.7841
   -61.7731 -61.7731 -61.7715 -61.7715 -61.7659 -61.7659 -61.7658 -61.7658
   -61.7536 -61.7536 -61.7536 -61.7535 -61.7412 -61.7412 -61.7065 -61.7065
   -61.7045 -61.7045 -61.7044 -61.7044 -61.7042 -61.7041 -61.7041 -61.7041
   -61.6983 -61.6983 -61.6937 -61.6937 -61.6936 -61.6936 -61.6828 -61.6828
   -35.9837 -35.9837 -35.9837 -35.9837 -35.9667 -35.9667 -35.9667 -35.9667
   -35.9438 -35.9438 -35.9438 -35.9437 -35.9369 -35.9369 -35.9366 -35.9366
   -35.9125 -35.9125 -35.9125 -35.9125 -35.8819 -35.8819 -35.8819 -35.8819
   -35.8762 -35.8762 -35.8762 -35.8762 -35.8752 -35.8752 -35.8732 -35.8732
   -35.8732 -35.8732 -35.8637 -35.8637 -35.8637 -35.8637 -35.8595 -35.8595
   -35.8576 -35.8576 -35.8576 -35.8576 -35.8544 -35.8544 -35.8524 -35.8524
   -35.8524 -35.8524 -35.8516 -35.8515 -35.8295 -35.8295 -35.8210 -35.8210
   -35.7913 -35.7913 -35.7904 -35.7904 -35.7904 -35.7904 -35.7811 -35.7811
   -35.7686 -35.7686 -35.7597 -35.7597 -35.7597 -35.7597 -35.7539 -35.7539
   -35.7496 -35.7496 -35.7395 -35.7395 -35.7395 -35.7395 -35.7099 -35.7099
   -35.7060 -35.7059 -35.7002 -35.7002 -35.6967 -35.6967 -35.6877 -35.6877
   -35.6877 -35.6877 -35.6757 -35.6757 -35.6757 -35.6757 -35.6681 -35.6681
   -35.6681 -35.6681 -35.6663 -35.6663 -35.6663 -35.6663 -35.6655 -35.6655
   -35.6641 -35.6641 -35.6636 -35.6636 -35.6636 -35.6636 -35.6553 -35.6553
   -35.6501 -35.6501 -35.6486 -35.6486 -35.6486 -35.6486 -35.6480 -35.6480
   -35.6398 -35.6398 -35.6398 -35.6398 -35.6381 -35.6381 -35.6068 -35.6067
   -35.6067 -35.6067 -35.6057 -35.6057 -35.6056 -35.6056 -35.6050 -35.6050
   -35.5898 -35.5898 -35.5898 -35.5898 -35.5879 -35.5879 -35.5879 -35.5879
   -35.5836 -35.5836 -35.5801 -35.5801 -35.5801 -35.5801 -35.5797 -35.5797
   -35.5768 -35.5767 -35.5734 -35.5734 -35.5720 -35.5720 -35.5719 -35.5719
   -35.5694 -35.5694 -35.5687 -35.5687 -35.5662 -35.5662 -35.5662 -35.5662
   -35.5593 -35.5593 -35.5593 -35.5593 -35.5380 -35.5380 -35.5380 -35.5380
   -35.5264 -35.5264 -35.5202 -35.5202 -35.5202 -35.5202 -35.5193 -35.5193
   -35.5193 -35.5193 -35.5127 -35.5126 -35.5126 -35.5126 -35.4951 -35.4951
   -35.4951 -35.4951 -35.4902 -35.4902 -35.4891 -35.4891 -35.4842 -35.4842
   -35.4509 -35.4509 -35.4508 -35.4508 -35.4334 -35.4334 -35.4333 -35.4333
   -35.4171 -35.4171 -35.4097 -35.4097 -35.4090 -35.4090 -35.4089 -35.4089
   -14.1014 -14.1014 -13.4559 -13.4559 -13.4558 -13.4558 -13.2470 -13.2470
   -13.0916 -13.0916 -12.7614 -12.7614 -12.7080 -12.7080 -12.7080 -12.7080
   -12.6596 -12.6596 -12.6596 -12.6596 -12.5766 -12.5766 -12.5766 -12.5766
   -12.5457 -12.5457 -12.4900 -12.4900 -12.4168 -12.4168 -12.3584 -12.3584
   -12.3584 -12.3584 -12.2530 -12.2530 -12.1771 -12.1771 -12.1771 -12.1771
   -11.9594 -11.9594 -11.9594 -11.9594 -11.7845 -11.7845 -11.7730 -11.7730
   -11.7564 -11.7563 -11.7562 -11.7562 -11.6070 -11.6070 -11.6070 -11.6070
   -11.5368 -11.5368 -11.4745 -11.4745 -11.4464 -11.4464 -11.4464 -11.4464
   -11.3257 -11.3256 -11.3255 -11.3254 -11.1830 -11.1829 -11.1828 -11.1828
    -4.8786  -4.8786  -4.8786  -4.8786  -4.6837  -4.6837  -4.6837  -4.6837
    -4.2027  -4.2027  -4.2027  -4.2027  -4.0114  -4.0113  -4.0113  -4.0113
    -3.9480  -3.9480  -3.8282  -3.8282  -3.8282  -3.8282  -3.8127  -3.8127
    -3.8127  -3.8127  -3.6719  -3.6719  -3.5862  -3.5862  -3.5862  -3.5861
    -3.5796  -3.5796  -3.5796  -3.5796  -3.5584  -3.5584  -3.5056  -3.5056
    -3.3816  -3.3816  -3.3816  -3.3816  -3.2052  -3.2052  -3.1469  -3.1469
    -3.1407  -3.1407  -3.1407  -3.1407  -3.0672  -3.0672  -2.7382  -2.7382
    -2.6919  -2.6919  -2.6919  -2.6919  -2.6767  -2.6767  -2.6767  -2.6767
    -2.6584  -2.6584  -2.5763  -2.5763  -2.5763  -2.5763  -2.5601  -2.5601
    -2.5601  -2.5601  -2.5583  -2.5583  -2.5336  -2.5336  -2.5336  -2.5336
    -2.4588  -2.4588  -2.4466  -2.4466  -2.4392  -2.4392  -2.4392  -2.4392
    -2.3086  -2.3086  -2.3086  -2.3086  -2.2867  -2.2867  -2.2867  -2.2867
    -2.1672  -2.1671  -2.1012  -2.1012  -2.0942  -2.0941  -2.0941  -2.0941
    -2.0668  -2.0668  -2.0624  -2.0624  -2.0624  -2.0624  -1.9689  -1.9689
    -1.9689  -1.9689  -1.9530  -1.9530  -1.9530  -1.9530  -1.8721  -1.8721
    -1.8721  -1.8721  -1.7833  -1.7833  -1.7833  -1.7832  -1.7831  -1.7830
    -1.6459  -1.6459  -1.6459  -1.6458  -1.6105  -1.6105  -1.6105  -1.6105
    -1.5593  -1.5593  -1.5553  -1.5553  -1.5553  -1.5553  -1.5291  -1.5291
    -1.5172  -1.5172  -1.5172  -1.5172  -1.4941  -1.4941  -1.3872  -1.3872
    -1.3726  -1.3726  -1.3452  -1.3452  -1.3451  -1.3451  -1.2562  -1.2562
    -1.2561  -1.2561  -1.2160  -1.2160  -1.1700  -1.1699  -1.1659  -1.1659
    -1.1658  -1.1658  -1.0690  -1.0690  -1.0116  -1.0116  -1.0115  -1.0115
    -0.9881  -0.9881  -0.9881  -0.9881  -0.8773  -0.8773  -0.8730  -0.8730
    -0.8729  -0.8729  -0.8624  -0.8624  -0.8179  -0.8179  -0.6841  -0.6841
    -0.6840  -0.6840  -0.6437  -0.6437  -0.6298  -0.6298  -0.6027  -0.6026
    -0.6025  -0.6025  -0.5802  -0.5802  -0.4379  -0.4379  -0.0838  -0.0838
    -0.0766  -0.0766   0.1010   0.1010   0.1072   0.1072   0.3508   0.3508
     0.6248   0.6248   1.2051   1.2051   1.3332   1.3332   1.4427   1.4427
     1.4937   1.4937   1.4938   1.4938   1.5629   1.5629   2.0694   2.0695
     2.2193   2.2193   2.2193   2.2194   2.4123   2.4123   2.4383   2.4383
     2.4952   2.4952   2.4952   2.4952   2.6186   2.6186   2.6187   2.6187
     2.6744   2.6745   2.6897   2.6897   2.7122   2.7122   2.7719   2.7719
     2.8043   2.8044   2.8044   2.8044   2.8371   2.8372   2.8372   2.8372
     2.8908   2.8908   2.8908   2.8908   3.0254   3.0254   3.1380   3.1380
     3.1380   3.1380   3.2361   3.2361   3.2361   3.2361   3.3498   3.3499
     3.3500   3.3501   3.3884   3.3884   3.3970   3.3970   3.3971   3.3971
     3.4042   3.4042   3.4042   3.4042   3.4671   3.4672   3.5305   3.5306
     3.5307   3.5307   3.6473   3.6473   3.7054   3.7054   3.7299   3.7299
     3.7299   3.7299   3.8632   3.8632   3.8632   3.8632   3.8895   3.8895
     3.8957   3.8958   3.8958   3.8958   3.9286   3.9286   3.9623   3.9623
     3.9765   3.9765   3.9765   3.9765   3.9776   3.9776   4.0531   4.0531
     4.0531   4.0531   4.0687   4.0687   4.0749   4.0749   4.0750   4.0750
     4.0799   4.0799   4.0799   4.0799   4.0854   4.0854   4.1258   4.1258
     4.1861   4.1861   4.1861   4.1862   4.2455   4.2455   4.2455   4.2455
     4.2462   4.2462   4.2462   4.2462   4.2684   4.2684   4.2684   4.2684
     4.3387   4.3387   4.3526   4.3527   4.3653   4.3653   4.3653   4.3653
     4.4359   4.4359   4.4760   4.4760   4.4808   4.4808   4.4810   4.4811
     4.5038   4.5039   4.5040   4.5040   4.5139   4.5139   4.5140   4.5140
     4.5320   4.5320   4.5631   4.5631   4.6457   4.6457   4.6457   4.6457
     4.6678   4.6678   4.6678   4.6678   4.6689   4.6689   4.7002   4.7003
     4.7148   4.7148   4.7196   4.7196   4.7661   4.7661   4.7812   4.7812
     4.8003   4.8003   4.8003   4.8003   4.8103   4.8104   4.8104   4.8106
     4.8178   4.8178

          k = 0.2500 0.2500 0.0000 (135083 PWs)   bands (ev):

   -61.8855 -61.8756 -61.8756 -61.8677 -61.8591 -61.8590 -61.8549 -61.8549
   -61.8489 -61.8440 -61.8419 -61.8418 -61.8414 -61.8414 -61.8324 -61.8278
   -61.8277 -61.8207 -61.8146 -61.8071 -61.8071 -61.8070 -61.8034 -61.7989
   -61.7989 -61.7980 -61.7980 -61.7978 -61.7977 -61.7968 -61.7942 -61.7906
   -61.7905 -61.7904 -61.7877 -61.7877 -61.7828 -61.7813 -61.7813 -61.7778
   -61.7777 -61.7758 -61.7758 -61.7714 -61.7677 -61.7619 -61.7614 -61.7614
   -61.7607 -61.7607 -61.7506 -61.7465 -61.7465 -61.7393 -61.7070 -61.7061
   -61.7053 -61.7053 -61.7051 -61.7049 -61.7038 -61.7038 -61.7016 -61.7016
   -61.6999 -61.6999 -61.6955 -61.6954 -61.6930 -61.6874 -61.6874 -61.6811
   -36.0013 -35.9905 -35.9841 -35.9752 -35.9658 -35.9657 -35.9610 -35.9501
   -35.9433 -35.9433 -35.9426 -35.9364 -35.9364 -35.9314 -35.9313 -35.9288
   -35.9190 -35.9190 -35.9079 -35.9079 -35.8988 -35.8976 -35.8976 -35.8865
   -35.8855 -35.8827 -35.8820 -35.8759 -35.8758 -35.8744 -35.8743 -35.8743
   -35.8724 -35.8711 -35.8711 -35.8678 -35.8668 -35.8642 -35.8619 -35.8618
   -35.8569 -35.8569 -35.8553 -35.8515 -35.8515 -35.8472 -35.8472 -35.8441
   -35.8441 -35.8404 -35.8404 -35.8370 -35.8369 -35.8168 -35.8168 -35.8149
   -35.8149 -35.8031 -35.8030 -35.7931 -35.7870 -35.7870 -35.7757 -35.7757
   -35.7732 -35.7732 -35.7725 -35.7613 -35.7602 -35.7591 -35.7574 -35.7573
   -35.7437 -35.7437 -35.7309 -35.7296 -35.7296 -35.7149 -35.7149 -35.7134
   -35.7134 -35.7112 -35.7112 -35.7022 -35.7022 -35.6990 -35.6907 -35.6901
   -35.6900 -35.6847 -35.6847 -35.6838 -35.6818 -35.6818 -35.6761 -35.6761
   -35.6748 -35.6747 -35.6731 -35.6664 -35.6625 -35.6619 -35.6619 -35.6619
   -35.6605 -35.6576 -35.6576 -35.6573 -35.6564 -35.6564 -35.6555 -35.6555
   -35.6542 -35.6535 -35.6505 -35.6446 -35.6446 -35.6392 -35.6369 -35.6368
   -35.6344 -35.6344 -35.6309 -35.6271 -35.6222 -35.6173 -35.6173 -35.6163
   -35.6149 -35.6149 -35.6142 -35.6141 -35.6106 -35.6106 -35.6071 -35.5999
   -35.5976 -35.5975 -35.5930 -35.5897 -35.5881 -35.5867 -35.5867 -35.5860
   -35.5860 -35.5855 -35.5855 -35.5855 -35.5847 -35.5819 -35.5805 -35.5804
   -35.5786 -35.5785 -35.5772 -35.5762 -35.5762 -35.5741 -35.5741 -35.5737
   -35.5736 -35.5663 -35.5662 -35.5644 -35.5616 -35.5594 -35.5594 -35.5557
   -35.5557 -35.5536 -35.5484 -35.5446 -35.5382 -35.5376 -35.5376 -35.5375
   -35.5375 -35.5336 -35.5305 -35.5224 -35.5224 -35.5220 -35.5220 -35.5201
   -35.5194 -35.5148 -35.5148 -35.5100 -35.5100 -35.5093 -35.5034 -35.5034
   -35.5000 -35.4917 -35.4908 -35.4908 -35.4899 -35.4814 -35.4770 -35.4677
   -35.4677 -35.4605 -35.4407 -35.4389 -35.4389 -35.4325 -35.4325 -35.4323
   -35.4196 -35.4196 -35.4136 -35.4105 -35.4093 -35.4093 -35.4058 -35.4057
   -14.1913 -13.8439 -13.8439 -13.5097 -13.3259 -13.3058 -13.3058 -13.0254
   -13.0254 -13.0010 -13.0010 -12.8587 -12.8587 -12.7785 -12.7450 -12.7164
   -12.7164 -12.6106 -12.6106 -12.6091 -12.6091 -12.5750 -12.5679 -12.5657
   -12.4847 -12.4660 -12.4660 -12.3943 -12.3943 -12.3824 -12.3824 -12.3657
   -12.3556 -12.3242 -12.2528 -12.2528 -12.2277 -12.2277 -12.1548 -12.1498
   -12.0512 -12.0512 -11.9870 -11.8851 -11.8850 -11.7990 -11.7908 -11.7023
   -11.7023 -11.6831 -11.6831 -11.6750 -11.6750 -11.6627 -11.6627 -11.5785
   -11.5135 -11.5135 -11.4980 -11.4355 -11.4355 -11.4221 -11.4136 -11.4135
   -11.4109 -11.4109 -11.3536 -11.2939 -11.2423 -11.2423 -11.1615 -11.0872
    -5.0703  -4.9793  -4.8498  -4.7823  -4.5968  -4.5967  -4.4091  -4.4091
    -4.3645  -4.3645  -4.2337  -4.2337  -4.2215  -4.1054  -4.1054  -4.0799
    -4.0261  -3.8810  -3.8520  -3.8520  -3.8432  -3.8432  -3.8340  -3.8163
    -3.8163  -3.7705  -3.6442  -3.6441  -3.6393  -3.6121  -3.6121  -3.5898
    -3.5828  -3.5828  -3.5490  -3.5395  -3.5395  -3.4192  -3.3930  -3.3930
    -3.3131  -3.3131  -3.2834  -3.2718  -3.2566  -3.2566  -3.1863  -3.1515
    -3.1515  -3.1197  -3.1197  -2.9747  -2.9747  -2.9492  -2.9492  -2.9260
    -2.9260  -2.9092  -2.9092  -2.7804  -2.7730  -2.6961  -2.6894  -2.6453
    -2.6452  -2.6227  -2.6161  -2.6161  -2.6066  -2.6008  -2.5731  -2.5692
    -2.5652  -2.5187  -2.5090  -2.5089  -2.4881  -2.4817  -2.4817  -2.4599
    -2.4599  -2.4549  -2.4549  -2.3643  -2.3643  -2.3575  -2.3498  -2.3498
    -2.3363  -2.2847  -2.2847  -2.2792  -2.2648  -2.2648  -2.1619  -2.1618
    -2.1548  -2.1548  -2.1499  -2.1214  -2.1214  -2.1084  -2.1084  -2.1042
    -2.1042  -2.0809  -2.0809  -2.0582  -2.0273  -2.0273  -1.9981  -1.9782
    -1.9782  -1.9498  -1.9498  -1.9497  -1.9497  -1.9271  -1.9019  -1.9019
    -1.8752  -1.8659  -1.8482  -1.8256  -1.8256  -1.8208  -1.7646  -1.7398
    -1.7013  -1.7013  -1.6675  -1.6675  -1.6171  -1.6134  -1.6127  -1.6127
    -1.6053  -1.6049  -1.5861  -1.5853  -1.5694  -1.5580  -1.5579  -1.5146
    -1.5146  -1.4741  -1.4741  -1.4472  -1.4290  -1.4290  -1.4202  -1.4202
    -1.4181  -1.3283  -1.3283  -1.3044  -1.3044  -1.2864  -1.2774  -1.2774
    -1.2471  -1.2471  -1.2422  -1.2422  -1.2014  -1.1854  -1.1655  -1.1132
    -1.1132  -1.1008  -1.1008  -1.0534  -1.0529  -1.0401  -1.0401  -1.0317
    -1.0317  -1.0165  -1.0165  -1.0032  -0.9822  -0.9126  -0.9126  -0.9039
    -0.8969  -0.8969  -0.7962  -0.7962  -0.7809  -0.7809  -0.7249  -0.7240
    -0.7236  -0.7236  -0.6674  -0.6238  -0.5819  -0.5819  -0.5764  -0.5764
    -0.5645  -0.5645  -0.4935  -0.4284  -0.4284  -0.3067  -0.2412  -0.2412
    -0.1887  -0.1158  -0.1158  -0.0075   0.0747   0.3372   0.4963   0.7377
     0.7975   0.8342   0.9479   0.9479   0.9662   1.1745   1.2474   1.2474
     1.7010   1.7010   1.8008   1.8659   1.8781   1.8781   2.0064   2.0064
     2.0823   2.0823   2.0884   2.1392   2.1392   2.2030   2.2530   2.2530
     2.3858   2.4499   2.4553   2.4553   2.4896   2.5042   2.5536   2.5536
     2.5711   2.6310   2.6829   2.6829   2.7762   2.7795   2.7796   2.7957
     2.8658   2.8658   2.9448   2.9448   2.9460   2.9460   2.9868   2.9868
     3.0138   3.0279   3.0279   3.0607   3.0746   3.0901   3.1259   3.1555
     3.1556   3.1796   3.1796   3.2543   3.2543   3.2657   3.2811   3.2898
     3.2898   3.3150   3.3505   3.3505   3.3594   3.3594   3.3602   3.3823
     3.3823   3.4574   3.5347   3.5347   3.5438   3.5438   3.5608   3.5739
     3.5739   3.5837   3.5837   3.6291   3.6291   3.6670   3.7043   3.7044
     3.7062   3.7062   3.7167   3.7390   3.7390   3.7595   3.7962   3.7963
     3.8353   3.8354   3.8405   3.8859   3.9142   3.9142   3.9157   3.9158
     3.9290   4.0102   4.0102   4.0103   4.0108   4.0108   4.0312   4.0394
     4.0421   4.0451   4.0451   4.0878   4.0878   4.0907   4.0969   4.0970
     4.1293   4.1293   4.1608   4.1679   4.1679   4.1748   4.1748   4.1825
     4.1835   4.1860   4.1860   4.2043   4.2043   4.2213   4.2268   4.2351
     4.2429   4.2429   4.2554   4.2578   4.2579   4.2655   4.2655   4.2878
     4.2923   4.3075   4.3075   4.3311   4.3342   4.3342   4.3409   4.3676
     4.3676   4.3777   4.3819   4.3819   4.4215   4.4395   4.4396   4.4613
     4.4613   4.4839   4.5005   4.5006   4.5391   4.5648   4.5676   4.5825
     4.5889   4.5889   4.6339   4.6339   4.6389   4.6390   4.6694   4.6695
     4.6701   4.6888   4.6888   4.6920   4.6920   4.7026   4.7026   4.7093
     4.7093   4.7206   4.7206   4.7371   4.7427   4.7644   4.7956   4.7962
     4.7963   4.8085   4.8086   4.8126   4.8127   4.8175   4.8206   4.8277
     4.8278   4.8357

          k = 0.2500-0.5000 0.0000 (135080 PWs)   bands (ev):

   -61.8816 -61.8816 -61.8725 -61.8725 -61.8574 -61.8574 -61.8500 -61.8500
   -61.8481 -61.8481 -61.8461 -61.8461 -61.8415 -61.8415 -61.8295 -61.8294
   -61.8233 -61.8233 -61.8113 -61.8113 -61.8056 -61.8056 -61.8043 -61.8043
   -61.7979 -61.7979 -61.7958 -61.7958 -61.7957 -61.7957 -61.7943 -61.7943
   -61.7930 -61.7930 -61.7888 -61.7888 -61.7798 -61.7798 -61.7791 -61.7791
   -61.7739 -61.7739 -61.7711 -61.7711 -61.7679 -61.7679 -61.7643 -61.7643
   -61.7610 -61.7610 -61.7479 -61.7479 -61.7419 -61.7419 -61.7064 -61.7063
   -61.7061 -61.7061 -61.7052 -61.7052 -61.7025 -61.7025 -61.7023 -61.7023
   -61.6988 -61.6988 -61.6973 -61.6973 -61.6897 -61.6897 -61.6837 -61.6837
   -36.0019 -36.0019 -35.9860 -35.9860 -35.9552 -35.9552 -35.9480 -35.9479
   -35.9435 -35.9435 -35.9362 -35.9362 -35.9341 -35.9341 -35.9282 -35.9282
   -35.9138 -35.9138 -35.9084 -35.9084 -35.8987 -35.8987 -35.8972 -35.8972
   -35.8839 -35.8839 -35.8802 -35.8802 -35.8798 -35.8798 -35.8791 -35.8791
   -35.8761 -35.8761 -35.8645 -35.8645 -35.8630 -35.8630 -35.8586 -35.8586
   -35.8579 -35.8579 -35.8571 -35.8571 -35.8547 -35.8547 -35.8511 -35.8511
   -35.8398 -35.8398 -35.8354 -35.8354 -35.8338 -35.8338 -35.8134 -35.8134
   -35.8089 -35.8089 -35.7951 -35.7951 -35.7886 -35.7886 -35.7810 -35.7810
   -35.7754 -35.7754 -35.7706 -35.7706 -35.7535 -35.7534 -35.7475 -35.7475
   -35.7386 -35.7386 -35.7281 -35.7281 -35.7242 -35.7242 -35.7176 -35.7176
   -35.7046 -35.7046 -35.7010 -35.7010 -35.6949 -35.6949 -35.6927 -35.6927
   -35.6892 -35.6892 -35.6841 -35.6841 -35.6796 -35.6795 -35.6791 -35.6791
   -35.6785 -35.6785 -35.6689 -35.6689 -35.6679 -35.6679 -35.6647 -35.6647
   -35.6618 -35.6618 -35.6582 -35.6582 -35.6521 -35.6521 -35.6518 -35.6518
   -35.6518 -35.6518 -35.6467 -35.6467 -35.6447 -35.6447 -35.6415 -35.6415
   -35.6398 -35.6398 -35.6346 -35.6346 -35.6225 -35.6225 -35.6195 -35.6195
   -35.6193 -35.6193 -35.6039 -35.6038 -35.6009 -35.6009 -35.6003 -35.6003
   -35.5974 -35.5974 -35.5965 -35.5965 -35.5956 -35.5956 -35.5910 -35.5910
   -35.5907 -35.5907 -35.5829 -35.5828 -35.5819 -35.5819 -35.5762 -35.5762
   -35.5759 -35.5759 -35.5746 -35.5746 -35.5732 -35.5732 -35.5730 -35.5730
   -35.5705 -35.5705 -35.5647 -35.5647 -35.5606 -35.5606 -35.5605 -35.5605
   -35.5521 -35.5521 -35.5466 -35.5466 -35.5346 -35.5346 -35.5319 -35.5319
   -35.5267 -35.5267 -35.5262 -35.5262 -35.5255 -35.5255 -35.5220 -35.5220
   -35.5165 -35.5165 -35.5159 -35.5159 -35.5124 -35.5124 -35.5096 -35.5096
   -35.5011 -35.5011 -35.4829 -35.4829 -35.4825 -35.4825 -35.4809 -35.4808
   -35.4658 -35.4658 -35.4373 -35.4373 -35.4354 -35.4354 -35.4278 -35.4278
   -35.4185 -35.4185 -35.4135 -35.4135 -35.4093 -35.4093 -35.4077 -35.4077
   -14.0549 -14.0549 -13.7124 -13.7124 -13.2060 -13.2060 -13.1849 -13.1848
   -13.0521 -13.0521 -12.9127 -12.9127 -12.7708 -12.7708 -12.7569 -12.7569
   -12.7405 -12.7404 -12.6467 -12.6466 -12.5301 -12.5301 -12.5161 -12.5161
   -12.4610 -12.4610 -12.4236 -12.4236 -12.4027 -12.4027 -12.3811 -12.3811
   -12.3315 -12.3315 -12.2745 -12.2745 -12.2156 -12.2156 -12.1302 -12.1302
   -12.1266 -12.1266 -11.9470 -11.9469 -11.7991 -11.7991 -11.7561 -11.7561
   -11.7546 -11.7546 -11.6477 -11.6477 -11.6120 -11.6120 -11.5702 -11.5702
   -11.5650 -11.5650 -11.5070 -11.5070 -11.4572 -11.4572 -11.3588 -11.3587
   -11.3539 -11.3539 -11.3413 -11.3412 -11.3059 -11.3059 -11.0897 -11.0897
    -5.1076  -5.1076  -4.8885  -4.8885  -4.5610  -4.5610  -4.3880  -4.3880
    -4.3067  -4.3066  -4.1063  -4.1063  -4.0449  -4.0449  -4.0385  -4.0385
    -4.0250  -4.0250  -3.9636  -3.9635  -3.8868  -3.8868  -3.8113  -3.8113
    -3.7870  -3.7870  -3.7853  -3.7853  -3.6869  -3.6868  -3.5703  -3.5703
    -3.5397  -3.5397  -3.5332  -3.5332  -3.4497  -3.4497  -3.3400  -3.3400
    -3.3304  -3.3304  -3.2447  -3.2447  -3.2373  -3.2373  -3.2030  -3.2030
    -3.1539  -3.1539  -3.0450  -3.0449  -3.0404  -3.0404  -3.0108  -3.0108
    -2.8740  -2.8740  -2.8404  -2.8404  -2.7729  -2.7729  -2.7405  -2.7405
    -2.7113  -2.7113  -2.5997  -2.5997  -2.5887  -2.5887  -2.5615  -2.5615
    -2.5459  -2.5459  -2.4916  -2.4915  -2.4722  -2.4722  -2.4418  -2.4418
    -2.3897  -2.3897  -2.3838  -2.3838  -2.3665  -2.3665  -2.3590  -2.3590
    -2.3218  -2.3217  -2.2606  -2.2606  -2.2578  -2.2578  -2.2537  -2.2537
    -2.2178  -2.2178  -2.1913  -2.1913  -2.1665  -2.1664  -2.1550  -2.1550
    -2.0913  -2.0913  -2.0883  -2.0883  -2.0646  -2.0646  -2.0469  -2.0469
    -2.0047  -2.0047  -1.9379  -1.9379  -1.9110  -1.9110  -1.9015  -1.9015
    -1.7273  -1.7272  -1.7014  -1.7014  -1.7007  -1.7007  -1.6509  -1.6509
    -1.6479  -1.6479  -1.6478  -1.6478  -1.6464  -1.6464  -1.5434  -1.5434
    -1.5421  -1.5421  -1.5270  -1.5270  -1.4998  -1.4998  -1.4983  -1.4983
    -1.4544  -1.4544  -1.4337  -1.4337  -1.3604  -1.3604  -1.3527  -1.3527
    -1.3334  -1.3334  -1.3330  -1.3330  -1.3246  -1.3246  -1.3165  -1.3165
    -1.2930  -1.2930  -1.2782  -1.2782  -1.2059  -1.2059  -1.1464  -1.1464
    -1.1033  -1.1032  -1.0967  -1.0967  -1.0413  -1.0413  -1.0203  -1.0203
    -1.0110  -1.0110  -1.0088  -1.0088  -1.0017  -1.0016  -0.8518  -0.8518
    -0.8396  -0.8396  -0.8027  -0.8027  -0.7457  -0.7457  -0.7426  -0.7426
    -0.7302  -0.7302  -0.6803  -0.6803  -0.6438  -0.6438  -0.6362  -0.6362
    -0.4712  -0.4712  -0.4490  -0.4490  -0.4084  -0.4084  -0.3392  -0.3392
    -0.1678  -0.1678  -0.0750  -0.0750   0.0566   0.0566   0.2603   0.2603
     0.8881   0.8881   1.2595   1.2595   1.4025   1.4025   1.4347   1.4347
     1.4641   1.4641   1.6122   1.6122   1.6334   1.6334   1.9851   1.9851
     2.0163   2.0163   2.0345   2.0346   2.1506   2.1506   2.2878   2.2878
     2.2957   2.2957   2.4429   2.4429   2.4488   2.4488   2.4922   2.4923
     2.5908   2.5908   2.6847   2.6847   2.7008   2.7008   2.7445   2.7446
     2.7752   2.7752   2.8010   2.8010   2.8029   2.8030   2.9411   2.9411
     3.0154   3.0154   3.0317   3.0318   3.0340   3.0340   3.1498   3.1498
     3.1701   3.1701   3.2089   3.2089   3.2455   3.2455   3.2932   3.2932
     3.4015   3.4015   3.4139   3.4139   3.4185   3.4185   3.4360   3.4360
     3.5166   3.5166   3.5912   3.5912   3.6029   3.6030   3.6306   3.6306
     3.6327   3.6327   3.6555   3.6555   3.7099   3.7099   3.7694   3.7694
     3.7950   3.7950   3.8227   3.8228   3.8553   3.8553   3.8728   3.8728
     3.8929   3.8929   3.9108   3.9108   3.9199   3.9199   3.9336   3.9336
     3.9821   3.9821   3.9829   3.9829   4.0088   4.0088   4.0133   4.0133
     4.0531   4.0531   4.0543   4.0543   4.0675   4.0675   4.0716   4.0717
     4.0953   4.0953   4.1018   4.1018   4.1070   4.1071   4.1087   4.1087
     4.1419   4.1419   4.1627   4.1627   4.1667   4.1667   4.2012   4.2012
     4.2083   4.2083   4.2337   4.2337   4.2577   4.2577   4.2605   4.2606
     4.2739   4.2739   4.4045   4.4045   4.4289   4.4289   4.4339   4.4339
     4.4414   4.4415   4.4464   4.4464   4.4564   4.4564   4.4957   4.4957
     4.5526   4.5526   4.5775   4.5775   4.5845   4.5845   4.5853   4.5853
     4.5929   4.5929   4.6137   4.6137   4.6244   4.6244   4.6750   4.6750
     4.7003   4.7003   4.7046   4.7046   4.7107   4.7107   4.7112   4.7113
     4.7335   4.7336   4.7519   4.7519   4.7582   4.7582   4.7688   4.7688
     4.7733   4.7733   4.7754   4.7754   4.8053   4.8053   4.8208   4.8233
     4.8251   4.8265

          k =-0.5000-0.5000 0.0000 (135004 PWs)   bands (ev):

   -61.8781 -61.8781 -61.8781 -61.8781 -61.8493 -61.8493 -61.8492 -61.8492
   -61.8492 -61.8492 -61.8492 -61.8492 -61.8458 -61.8458 -61.8257 -61.8256
   -61.8256 -61.8256 -61.8088 -61.8088 -61.8088 -61.8088 -61.8013 -61.8013
   -61.8013 -61.8013 -61.7959 -61.7959 -61.7936 -61.7936 -61.7935 -61.7935
   -61.7935 -61.7935 -61.7934 -61.7934 -61.7763 -61.7763 -61.7762 -61.7762
   -61.7698 -61.7698 -61.7698 -61.7698 -61.7698 -61.7698 -61.7697 -61.7697
   -61.7637 -61.7637 -61.7441 -61.7441 -61.7441 -61.7441 -61.7067 -61.7067
   -61.7060 -61.7060 -61.7060 -61.7059 -61.7003 -61.7003 -61.7003 -61.7003
   -61.7002 -61.7002 -61.7002 -61.7002 -61.6862 -61.6862 -61.6862 -61.6862
   -36.0081 -36.0081 -35.9927 -35.9927 -35.9475 -35.9475 -35.9475 -35.9475
   -35.9194 -35.9194 -35.9194 -35.9194 -35.9188 -35.9188 -35.9188 -35.9188
   -35.9188 -35.9188 -35.9188 -35.9187 -35.9025 -35.9025 -35.8976 -35.8976
   -35.8975 -35.8975 -35.8975 -35.8975 -35.8975 -35.8975 -35.8861 -35.8861
   -35.8820 -35.8820 -35.8820 -35.8820 -35.8676 -35.8676 -35.8676 -35.8676
   -35.8513 -35.8513 -35.8513 -35.8513 -35.8321 -35.8321 -35.8320 -35.8320
   -35.8320 -35.8320 -35.8320 -35.8320 -35.8135 -35.8135 -35.8135 -35.8135
   -35.8135 -35.8135 -35.8135 -35.8135 -35.8067 -35.8067 -35.8067 -35.8067
   -35.7652 -35.7652 -35.7652 -35.7652 -35.7437 -35.7437 -35.7437 -35.7437
   -35.7288 -35.7288 -35.7288 -35.7288 -35.7085 -35.7085 -35.7085 -35.7085
   -35.7085 -35.7085 -35.7085 -35.7085 -35.6993 -35.6993 -35.6992 -35.6992
   -35.6840 -35.6840 -35.6840 -35.6840 -35.6835 -35.6835 -35.6835 -35.6835
   -35.6835 -35.6835 -35.6835 -35.6835 -35.6715 -35.6715 -35.6715 -35.6715
   -35.6561 -35.6561 -35.6561 -35.6561 -35.6531 -35.6531 -35.6531 -35.6531
   -35.6471 -35.6471 -35.6334 -35.6334 -35.6334 -35.6334 -35.6334 -35.6334
   -35.6334 -35.6334 -35.6232 -35.6232 -35.6231 -35.6231 -35.6169 -35.6169
   -35.6142 -35.6142 -35.6141 -35.6141 -35.6141 -35.6141 -35.6140 -35.6140
   -35.6037 -35.6037 -35.6037 -35.6037 -35.6013 -35.6013 -35.6013 -35.6013
   -35.5986 -35.5986 -35.5794 -35.5794 -35.5794 -35.5794 -35.5761 -35.5761
   -35.5761 -35.5761 -35.5761 -35.5761 -35.5760 -35.5760 -35.5593 -35.5593
   -35.5593 -35.5593 -35.5581 -35.5581 -35.5580 -35.5580 -35.5477 -35.5477
   -35.5435 -35.5435 -35.5435 -35.5435 -35.5435 -35.5435 -35.5435 -35.5435
   -35.5252 -35.5252 -35.5252 -35.5252 -35.5252 -35.5252 -35.5252 -35.5252
   -35.5193 -35.5193 -35.5151 -35.5151 -35.5148 -35.5148 -35.5106 -35.5106
   -35.5106 -35.5106 -35.4781 -35.4781 -35.4781 -35.4781 -35.4768 -35.4767
   -35.4767 -35.4767 -35.4386 -35.4386 -35.4224 -35.4224 -35.4224 -35.4224
   -35.4224 -35.4224 -35.4223 -35.4223 -35.4084 -35.4084 -35.4084 -35.4084
   -13.9204 -13.9204 -13.9203 -13.9203 -13.0887 -13.0887 -13.0887 -13.0887
   -12.9394 -12.9394 -12.9394 -12.9394 -12.9394 -12.9394 -12.9394 -12.9394
   -12.6898 -12.6897 -12.6897 -12.6897 -12.4868 -12.4868 -12.4868 -12.4868
   -12.3814 -12.3814 -12.3814 -12.3814 -12.3814 -12.3814 -12.3814 -12.3814
   -12.3227 -12.3227 -12.2797 -12.2797 -12.2797 -12.2797 -12.1221 -12.1221
   -12.1086 -12.1085 -12.1085 -12.1085 -11.7064 -11.7064 -11.7064 -11.7063
   -11.6772 -11.6772 -11.6772 -11.6772 -11.6772 -11.6772 -11.6772 -11.6772
   -11.4239 -11.4239 -11.4239 -11.4238 -11.4237 -11.4237 -11.4237 -11.4237
   -11.4121 -11.4121 -11.4121 -11.4120 -11.3185 -11.3185 -11.0551 -11.0551
    -5.1908  -5.1908  -4.9608  -4.9608  -4.2451  -4.2451  -4.2451  -4.2451
    -4.2451  -4.2451  -4.2451  -4.2451  -4.1246  -4.1246  -4.0619  -4.0619
    -4.0619  -4.0619  -4.0619  -4.0619  -4.0619  -4.0619  -3.8681  -3.8681
    -3.6680  -3.6680  -3.6680  -3.6679  -3.6090  -3.6090  -3.6090  -3.6090
    -3.5987  -3.5987  -3.5987  -3.5987  -3.3403  -3.3403  -3.3403  -3.3403
    -3.3403  -3.3403  -3.3403  -3.3403  -3.0943  -3.0943  -3.0943  -3.0943
    -3.0719  -3.0719  -3.0719  -3.0719  -3.0719  -3.0719  -3.0719  -3.0719
    -2.9107  -2.9107  -2.9107  -2.9106  -2.8882  -2.8882  -2.8882  -2.8881
    -2.8054  -2.8054  -2.6043  -2.6043  -2.5825  -2.5825  -2.5027  -2.5027
    -2.5027  -2.5027  -2.5027  -2.5026  -2.5026  -2.5026  -2.4310  -2.4310
    -2.3819  -2.3819  -2.3819  -2.3819  -2.3611  -2.3611  -2.3610  -2.3610
    -2.3610  -2.3610  -2.3610  -2.3610  -2.1300  -2.1300  -2.1300  -2.1300
    -2.1300  -2.1299  -2.1299  -2.1299  -2.1101  -2.1101  -2.1101  -2.1101
    -2.1101  -2.1101  -2.1101  -2.1101  -2.0681  -2.0681  -2.0681  -2.0681
    -2.0473  -2.0473  -2.0305  -2.0305  -2.0305  -2.0305  -1.8496  -1.8495
    -1.8495  -1.8495  -1.7452  -1.7452  -1.7452  -1.7452  -1.7204  -1.7204
    -1.6959  -1.6959  -1.5009  -1.5009  -1.5009  -1.5009  -1.4657  -1.4657
    -1.4657  -1.4657  -1.4657  -1.4657  -1.4656  -1.4656  -1.3798  -1.3798
    -1.3798  -1.3798  -1.3185  -1.3185  -1.3001  -1.3001  -1.3001  -1.3001
    -1.3001  -1.3001  -1.3001  -1.3001  -1.2729  -1.2729  -1.2729  -1.2729
    -1.2649  -1.2649  -1.2648  -1.2648  -1.2573  -1.2572  -1.2572  -1.2572
    -1.0961  -1.0961  -1.0961  -1.0961  -1.0961  -1.0961  -1.0961  -1.0961
    -0.9812  -0.9812  -0.9812  -0.9812  -0.9494  -0.9493  -0.9493  -0.9493
    -0.8054  -0.8054  -0.8054  -0.8053  -0.8053  -0.8053  -0.8053  -0.8053
    -0.6356  -0.6356  -0.6356  -0.6356  -0.6314  -0.6313  -0.6313  -0.6313
    -0.5227  -0.5227  -0.5227  -0.5227  -0.2873  -0.2873  -0.2873  -0.2873
    -0.2678  -0.2678  -0.2678  -0.2678  -0.0221  -0.0220  -0.0220  -0.0220
     1.2987   1.2987   1.2987   1.2987   1.5032   1.5032   1.5032   1.5032
     1.5352   1.5353   1.5353   1.5353   1.8131   1.8131   1.8131   1.8131
     1.8132   1.8132   1.8132   1.8132   1.8723   1.8723   1.8723   1.8723
     2.3850   2.3850   2.3850   2.3850   2.5801   2.5801   2.5801   2.5801
     2.6545   2.6545   2.6545   2.6545   2.6618   2.6619   2.6619   2.6619
     2.7320   2.7321   2.7321   2.7321   2.7435   2.7435   2.7435   2.7435
     2.9241   2.9241   2.9241   2.9241   2.9242   2.9242   2.9242   2.9242
     3.3339   3.3339   3.3339   3.3340   3.4268   3.4268   3.4268   3.4268
     3.5364   3.5364   3.5364   3.5364   3.5364   3.5364   3.5365   3.5365
     3.6420   3.6420   3.6966   3.6966   3.6966   3.6966   3.6966   3.6966
     3.6966   3.6966   3.7076   3.7076   3.7196   3.7196   3.7309   3.7309
     3.8258   3.8258   3.8258   3.8258   3.8258   3.8258   3.8258   3.8259
     3.8834   3.8834   3.8835   3.8835   3.8835   3.8835   3.8835   3.8835
     3.9394   3.9394   3.9394   3.9394   4.0365   4.0365   4.0365   4.0365
     4.0365   4.0365   4.0365   4.0365   4.0509   4.0509   4.0642   4.0642
     4.0643   4.0643   4.0643   4.0643   4.0643   4.0643   4.0889   4.0889
     4.0890   4.0890   4.1143   4.1143   4.1529   4.1529   4.1529   4.1529
     4.1596   4.1596   4.2115   4.2115   4.2115   4.2115   4.2501   4.2501
     4.4260   4.4260   4.4260   4.4260   4.4260   4.4260   4.4260   4.4260
     4.4758   4.4759   4.4759   4.4759   4.5640   4.5640   4.5640   4.5640
     4.6174   4.6174   4.6174   4.6174   4.6174   4.6175   4.6175   4.6175
     4.6321   4.6321   4.6613   4.6614   4.6614   4.6614   4.6614   4.6614
     4.6614   4.6614   4.6862   4.6863   4.6863   4.6863   4.7111   4.7111
     4.7112   4.7112   4.7278   4.7278   4.7278   4.7278   4.7791   4.7791
     4.7851   4.7852   4.7852   4.7852   4.7852   4.7852   4.7852   4.7852
     4.8222   4.8229

     the Fermi energy is     3.4431 ev

!    total energy              =  -11908.17553308 Ry
     estimated scf accuracy    <       0.00000049 Ry
     smearing contrib. (-TS)   =      -0.01260891 Ry
     internal energy E=F+TS    =  -11908.16292418 Ry

     The total energy is F=E-TS. E is the sum of the following terms:
     one-electron contribution = -158552.22782067 Ry
     hartree contribution      =   79365.53898758 Ry
     xc contribution           =   -1804.15447675 Ry
     ewald contribution        =   69086.12585341 Ry
     DFT-D3 Dispersion         =      -3.44546775 Ry

     convergence has been achieved in  21 iterations

     negative rho (up, down):  7.750E-02 0.000E+00

     Forces acting on atoms (cartesian axes, Ry/au):

     atom    1 type  1   force =     0.00000000    0.00000000    0.09416677
     atom    2 type  1   force =     0.00000647   -0.00000000   -0.02006734
     atom    3 type  1   force =    -0.00000000    0.00000647   -0.02006734
     atom    4 type  1   force =    -0.00000112   -0.00000112    0.09417494
     atom    5 type  1   force =     0.00000000    0.00000000    0.00150799
     atom    6 type  1   force =    -0.00000279    0.00000000   -0.00503120
     atom    7 type  1   force =     0.00000000   -0.00000279   -0.00503120
     atom    8 type  1   force =     0.00001009    0.00001009    0.00150189
     atom    9 type  1   force =     0.00000000    0.00000277    0.09417918
     atom   10 type  1   force =    -0.00000245    0.00000255   -0.02007072
     atom   11 type  1   force =     0.00000000    0.00000000   -0.02007042
     atom   12 type  1   force =    -0.00000412    0.00000000    0.09418179
     atom   13 type  1   force =     0.00000000    0.00000711    0.00151124
     atom   14 type  1   force =    -0.00000500    0.00000544   -0.00504639
     atom   15 type  1   force =     0.00000000    0.00000000   -0.00504291
     atom   16 type  1   force =     0.00000488    0.00000000    0.00150852
     atom   17 type  1   force =     0.00000000   -0.00000277    0.09417918
     atom   18 type  1   force =    -0.00000245   -0.00000255   -0.02007072
     atom   19 type  1   force =     0.00000000   -0.00000647   -0.02006734
     atom   20 type  1   force =    -0.00000112    0.00000112    0.09417494
     atom   21 type  1   force =     0.00000000   -0.00000711    0.00151124
     atom   22 type  1   force =    -0.00000500   -0.00000544   -0.00504639
     atom   23 type  1   force =     0.00000000    0.00000279   -0.00503120
     atom   24 type  1   force =     0.00001009   -0.00001009    0.00150189
     atom   25 type  1   force =     0.00000277    0.00000000    0.09417918
     atom   26 type  1   force =     0.00000000    0.00000000   -0.02007042
     atom   27 type  1   force =     0.00000255   -0.00000245   -0.02007072
     atom   28 type  1   force =     0.00000000   -0.00000412    0.09418179
     atom   29 type  1   force =     0.00000711   -0.00000000    0.00151124
     atom   30 type  1   force =     0.00000000    0.00000000   -0.00504291
     atom   31 type  1   force =     0.00000544   -0.00000500   -0.00504639
     atom   32 type  1   force =     0.00000000    0.00000488    0.00150852
     atom   33 type  1   force =     0.00000304    0.00000304    0.09418036
     atom   34 type  1   force =     0.00000000   -0.00000408   -0.02006548
     atom   35 type  1   force =    -0.00000408    0.00000000   -0.02006548
     atom   36 type  1   force =     0.00000000    0.00000000    0.09418213
     atom   37 type  1   force =    -0.00000081   -0.00000081    0.00149795
     atom   38 type  1   force =     0.00000000   -0.00000348   -0.00504730
     atom   39 type  1   force =    -0.00000348    0.00000000   -0.00504730
     atom   40 type  1   force =     0.00000000    0.00000000    0.00150108
     atom   41 type  1   force =     0.00000304   -0.00000304    0.09418036
     atom   42 type  1   force =     0.00000000    0.00000408   -0.02006548
     atom   43 type  1   force =     0.00000255    0.00000245   -0.02007072
     atom   44 type  1   force =     0.00000000    0.00000412    0.09418179
     atom   45 type  1   force =    -0.00000081    0.00000081    0.00149795
     atom   46 type  1   force =     0.00000000    0.00000348   -0.00504730
     atom   47 type  1   force =     0.00000544    0.00000500   -0.00504639
     atom   48 type  1   force =    -0.00000000   -0.00000488    0.00150852
     atom   49 type  1   force =    -0.00000277    0.00000000    0.09417918
     atom   50 type  1   force =    -0.00000647   -0.00000000   -0.02006734
     atom   51 type  1   force =    -0.00000255   -0.00000245   -0.02007072
     atom   52 type  1   force =     0.00000112   -0.00000112    0.09417494
     atom   53 type  1   force =    -0.00000711    0.00000000    0.00151124
     atom   54 type  1   force =     0.00000279   -0.00000000   -0.00503120
     atom   55 type  1   force =    -0.00000544   -0.00000500   -0.00504639
     atom   56 type  1   force =    -0.00001009    0.00001009    0.00150189
     atom   57 type  1   force =    -0.00000304    0.00000304    0.09418036
     atom   58 type  1   force =     0.00000245    0.00000255   -0.02007072
     atom   59 type  1   force =     0.00000408    0.00000000   -0.02006548
     atom   60 type  1   force =     0.00000412    0.00000000    0.09418179
     atom   61 type  1   force =     0.00000081   -0.00000081    0.00149795
     atom   62 type  1   force =     0.00000500    0.00000544   -0.00504639
     atom   63 type  1   force =     0.00000348    0.00000000   -0.00504730
     atom   64 type  1   force =    -0.00000488    0.00000000    0.00150852
     atom   65 type  1   force =    -0.00000304   -0.00000304    0.09418036
     atom   66 type  1   force =     0.00000245   -0.00000255   -0.02007072
     atom   67 type  1   force =    -0.00000255    0.00000245   -0.02007072
     atom   68 type  1   force =     0.00000112    0.00000112    0.09417494
     atom   69 type  1   force =     0.00000081    0.00000081    0.00149795
     atom   70 type  1   force =     0.00000500   -0.00000544   -0.00504639
     atom   71 type  1   force =    -0.00000544    0.00000500   -0.00504639
     atom   72 type  1   force =    -0.00001009   -0.00001009    0.00150189
     atom   73 type  2   force =     0.00000000   -0.00001187   -0.05274177
     atom   74 type  2   force =    -0.00001187    0.00000000   -0.05274177
     atom   75 type  2   force =     0.00000000    0.00000000   -0.02147269
     atom   76 type  2   force =     0.00000162    0.00000162   -0.02147797
     atom   77 type  2   force =    -0.00000000    0.00000313    0.00253136
     atom   78 type  2   force =     0.00000313   -0.00000000    0.00253136
     atom   79 type  2   force =     0.00000000    0.00000000    0.00111122
     atom   80 type  2   force =     0.00000575    0.00000575    0.00110436
     atom   81 type  2   force =     0.00000000    0.00000000   -0.05274862
     atom   82 type  2   force =     0.00000406   -0.00000843   -0.05274231
     atom   83 type  2   force =     0.00000000   -0.00000384   -0.02145966
     atom   84 type  2   force =     0.00000073    0.00000000   -0.02145558
     atom   85 type  2   force =     0.00000000    0.00000000    0.00253800
     atom   86 type  2   force =    -0.00000392    0.00000497    0.00254030
     atom   87 type  2   force =     0.00000000    0.00000184    0.00109934
     atom   88 type  2   force =    -0.00000042   -0.00000000    0.00109720
     atom   89 type  2   force =     0.00000000    0.00001187   -0.05274177
     atom   90 type  2   force =     0.00000406    0.00000843   -0.05274231
     atom   91 type  2   force =     0.00000000    0.00000384   -0.02145966
     atom   92 type  2   force =     0.00000162   -0.00000162   -0.02147797
     atom   93 type  2   force =     0.00000000   -0.00000313    0.00253136
     atom   94 type  2   force =    -0.00000392   -0.00000497    0.00254030
     atom   95 type  2   force =    -0.00000000   -0.00000184    0.00109934
     atom   96 type  2   force =     0.00000575   -0.00000575    0.00110436
     atom   97 type  2   force =    -0.00000843    0.00000406   -0.05274231
     atom   98 type  2   force =     0.00000000    0.00000000   -0.05274862
     atom   99 type  2   force =    -0.00000384    0.00000000   -0.02145966
     atom  100 type  2   force =    -0.00000000    0.00000073   -0.02145558
     atom  101 type  2   force =     0.00000497   -0.00000392    0.00254030
     atom  102 type  2   force =     0.00000000    0.00000000    0.00253800
     atom  103 type  2   force =     0.00000184   -0.00000000    0.00109934
     atom  104 type  2   force =     0.00000000   -0.00000042    0.00109720
     atom  105 type  2   force =     0.00000406    0.00000000   -0.05274772
     atom  106 type  2   force =    -0.00000000    0.00000406   -0.05274772
     atom  107 type  2   force =    -0.00000474   -0.00000474   -0.02147112
     atom  108 type  2   force =     0.00000000    0.00000000   -0.02145997
     atom  109 type  2   force =     0.00000216    0.00000000    0.00254265
     atom  110 type  2   force =     0.00000000    0.00000216    0.00254265
     atom  111 type  2   force =    -0.00000120   -0.00000120    0.00109782
     atom  112 type  2   force =     0.00000000    0.00000000    0.00109056
     atom  113 type  2   force =    -0.00000843   -0.00000406   -0.05274231
     atom  114 type  2   force =    -0.00000000   -0.00000406   -0.05274772
     atom  115 type  2   force =    -0.00000474    0.00000474   -0.02147112
     atom  116 type  2   force =     0.00000000   -0.00000073   -0.02145558
     atom  117 type  2   force =     0.00000497    0.00000392    0.00254030
     atom  118 type  2   force =     0.00000000   -0.00000216    0.00254265
     atom  119 type  2   force =    -0.00000120    0.00000120    0.00109782
     atom  120 type  2   force =     0.00000000    0.00000042    0.00109720
     atom  121 type  2   force =     0.00000843    0.00000406   -0.05274231
     atom  122 type  2   force =     0.00001187    0.00000000   -0.05274177
     atom  123 type  2   force =     0.00000384    0.00000000   -0.02145966
     atom  124 type  2   force =    -0.00000162    0.00000162   -0.02147797
     atom  125 type  2   force =    -0.00000497   -0.00000392    0.00254030
     atom  126 type  2   force =    -0.00000313    0.00000000    0.00253136
     atom  127 type  2   force =    -0.00000184    0.00000000    0.00109934
     atom  128 type  2   force =    -0.00000575    0.00000575    0.00110436
     atom  129 type  2   force =    -0.00000406   -0.00000000   -0.05274772
     atom  130 type  2   force =    -0.00000406   -0.00000843   -0.05274231
     atom  131 type  2   force =     0.00000474   -0.00000474   -0.02147112
     atom  132 type  2   force =    -0.00000073   -0.00000000   -0.02145558
     atom  133 type  2   force =    -0.00000216    0.00000000    0.00254265
     atom  134 type  2   force =     0.00000392    0.00000497    0.00254030
     atom  135 type  2   force =     0.00000120   -0.00000120    0.00109782
     atom  136 type  2   force =     0.00000042    0.00000000    0.00109720
     atom  137 type  2   force =     0.00000843   -0.00000406   -0.05274231
     atom  138 type  2   force =    -0.00000406    0.00000843   -0.05274231
     atom  139 type  2   force =     0.00000474    0.00000474   -0.02147112
     atom  140 type  2   force =    -0.00000162   -0.00000162   -0.02147797
     atom  141 type  2   force =    -0.00000497    0.00000392    0.00254030
     atom  142 type  2   force =     0.00000392   -0.00000497    0.00254030
     atom  143 type  2   force =     0.00000120    0.00000120    0.00109782
     atom  144 type  2   force =    -0.00000575   -0.00000575    0.00110436

     Total force =     0.025225     Total SCF correction =     0.002057
     Energy error            =      1.9E-03 Ry
     Gradient error          =      5.0E-03 Ry/Bohr

     number of scf cycles    =  10
     number of bfgs steps    =   9

     energy             old  =  -11908.1736354612 Ry
     energy             new  =  -11908.1755330815 Ry

     CASE: energy            _new < energy            _old

     new trust radius        =       0.0096296410 bohr
     new conv_thr            =       0.0000003244 Ry


ATOMIC_POSITIONS (angstrom)
V                0.0000000000        0.0000000000       10.0000000000    0   0   0
V                2.0432625400        0.0000000000       12.0432625400    0   0   0
V                0.0000000000        2.0432625400       12.0432625400    0   0   0
V                2.0432625400        2.0432625400       10.0000000000    0   0   0
V                0.0000001400        0.0000001700       14.1591273707
V                2.0431794882        0.0000000600       16.0199941177
V               -0.0000000900        2.0431794082       16.0199939277
V                2.0432409548        2.0432408648       14.1591323033
V                0.0000000000        4.0865250700       10.0000000000    0   0   0
V                2.0432625400        4.0865250700       12.0432625400    0   0   0
V                0.0000000000        6.1297876100       12.0432625400    0   0   0
V                2.0432625400        6.1297876100       10.0000000000    0   0   0
V                0.0000001200        4.0865060271       14.1591363610
V                2.0431888098        4.0866055678       16.0200192636
V               -0.0000001500        6.1297875000       16.0199859012
V                2.0432454037        6.1297873900       14.1591484571
V                0.0000000000        8.1730501500       10.0000000000    0   0   0
V                2.0432625400        8.1730501500       12.0432625400    0   0   0
V                0.0000000000       10.2163126900       12.0432625400    0   0   0
V                2.0432625400       10.2163126900       10.0000000000    0   0   0
V               -0.0000002100        8.1730689429       14.1591363410
V                2.0431888898        8.1729698522       16.0200190836
V               -0.0000000100       10.2163957118       16.0199941977
V                2.0432408848       10.2163341152       14.1591320933
V                4.0865250700        0.0000000000       10.0000000000    0   0   0
V                6.1297876100        0.0000000000       12.0432625400    0   0   0
V                4.0865250700        2.0432625400       12.0432625400    0   0   0
V                6.1297876100        2.0432625400       10.0000000000    0   0   0
V                4.0865060471        0.0000001700       14.1591362710
V                6.1297876200        0.0000000500       16.0199864812
V                4.0866053778        2.0431888898       16.0200193736
V                6.1297873700        2.0432454837       14.1591484571
V                4.0865250700        4.0865250700       10.0000000000    0   0   0
V                6.1297876100        4.0865250700       12.0432625400    0   0   0
V                4.0865250700        6.1297876100       12.0432625400    0   0   0
V                6.1297876100        6.1297876100       10.0000000000    0   0   0
V                4.0865065069        4.0865063169       14.1591448285
V                6.1297875500        4.0865695302       16.0200045501
V                4.0865694802        6.1297875500       16.0200043101
V                6.1297874000        6.1297875000       14.1591272386
V                4.0865250700        8.1730501500       10.0000000000    0   0   0
V                6.1297876100        8.1730501500       12.0432625400    0   0   0
V                4.0865250700       10.2163126900       12.0432625400    0   0   0
V                6.1297876100       10.2163126900       10.0000000000    0   0   0
V                4.0865065269        8.1730690231       14.1591448385
V                6.1297875800        8.1730056098       16.0200042701
V                4.0866053978       10.2163862602       16.0200188436
V                6.1297875400       10.2163295163       14.1591485271
V                8.1730501500        0.0000000000       10.0000000000    0   0   0
V               10.2163126900        0.0000000000       12.0432625400    0   0   0
V                8.1730501500        2.0432625400       12.0432625400    0   0   0
V               10.2163126900        2.0432625400       10.0000000000    0   0   0
V                8.1730691429        0.0000000500       14.1591362510
V               10.2163957918        0.0000001000       16.0199940577
V                8.1729698022        2.0431888898       16.0200196136
V               10.2163343252        2.0432408848       14.1591319633
V                8.1730501500        4.0865250700       10.0000000000    0   0   0
V               10.2163126900        4.0865250700       12.0432625400    0   0   0
V                8.1730501500        6.1297876100       12.0432625400    0   0   0
V               10.2163126900        6.1297876100       10.0000000000    0   0   0
V                8.1730685431        4.0865065069       14.1591447485
V               10.2163863202        4.0866055978       16.0200190636
V                8.1730057798        6.1297876500       16.0200045401
V               10.2163298963        6.1297875900       14.1591485771
V                8.1730501500        8.1730501500       10.0000000000    0   0   0
V               10.2163126900        8.1730501500       12.0432625400    0   0   0
V                8.1730501500       10.2163126900       12.0432625400    0   0   0
V               10.2163126900       10.2163126900       10.0000000000    0   0   0
V                8.1730688931        8.1730687731       14.1591449485
V               10.2163863202        8.1729696522       16.0200192536
V                8.1729696722       10.2163863602       16.0200188636
V               10.2163342052       10.2163340752       14.1591320733
N                0.0000000000        2.0432625400       10.0000000000    0   0   0
N                2.0432625400        0.0000000000       10.0000000000    0   0   0
N                0.0000000000        0.0000000000       12.0432625400    0   0   0
N                2.0432625400        2.0432625400       12.0432625400    0   0   0
N                0.0000001100        2.0432487611       14.1169669532
N                2.0432485311        0.0000001000       14.1169666532
N               -0.0000000300       -0.0000000400       16.2801855082
N                2.0432763833        2.0432763033       16.2801058074
N                0.0000000000        6.1297876100       10.0000000000    0   0   0
N                2.0432625400        4.0865250700       10.0000000000    0   0   0
N                0.0000000000        4.0865250700       12.0432625400    0   0   0
N                2.0432625400        6.1297876100       12.0432625400    0   0   0
N               -0.0000000400        6.1297876300       14.1169667801
N                2.0432536269        4.0865145981       14.1169884897
N               -0.0000001500        4.0864845528       16.2801627654
N                2.0432698995        6.1297874600       16.2801973581
N                0.0000000000       10.2163126900       10.0000000000    0   0   0
N                2.0432625400        8.1730501500       10.0000000000    0   0   0
N                0.0000000000        8.1730501500       12.0432625400    0   0   0
N                2.0432625400       10.2163126900       12.0432625400    0   0   0
N                0.0000000200       10.2163264689       14.1169664732
N                2.0432536169        8.1730607819       14.1169886297
N                0.0000000800        8.1730907772       16.2801627354
N                2.0432763133       10.2162989367       16.2801057174
N                4.0865250700        2.0432625400       10.0000000000    0   0   0
N                6.1297876100        0.0000000000       10.0000000000    0   0   0
N                4.0865250700        0.0000000000       12.0432625400    0   0   0
N                6.1297876100        2.0432625400       12.0432625400    0   0   0
N                4.0865144081        2.0432536869       14.1169883197
N                6.1297875500        0.0000000900       14.1169666101
N                4.0864845028       -0.0000000300       16.2801632554
N                6.1297876600        2.0432700095       16.2801977781
N                4.0865250700        6.1297876100       10.0000000000    0   0   0
N                6.1297876100        4.0865250700       10.0000000000    0   0   0
N                4.0865250700        4.0865250700       12.0432625400    0   0   0
N                6.1297876100        6.1297876100       12.0432625400    0   0   0
N                4.0865175700        6.1297874900       14.1169842710
N                6.1297876500        4.0865175000       14.1169839410
N                4.0864967967        4.0864966767       16.2801504281
N                6.1297876300        6.1297875100       16.2802368315
N                4.0865250700       10.2163126900       10.0000000000    0   0   0
N                6.1297876100        8.1730501500       10.0000000000    0   0   0
N                4.0865250700        8.1730501500       12.0432625400    0   0   0
N                6.1297876100       10.2163126900       12.0432625400    0   0   0
N                4.0865143781       10.2163213631       14.1169887497
N                6.1297875600        8.1730577300       14.1169842710
N                4.0864967767        8.1730786733       16.2801499681
N                6.1297876400       10.2163053505       16.2801975281
N                8.1730501500        2.0432625400       10.0000000000    0   0   0
N               10.2163126900        0.0000000000       10.0000000000    0   0   0
N                8.1730501500        0.0000000000       12.0432625400    0   0   0
N               10.2163126900        2.0432625400       12.0432625400    0   0   0
N                8.1730607019        2.0432535669       14.1169881797
N               10.2163267589       -0.0000001200       14.1169667532
N                8.1730906072        0.0000000100       16.2801629654
N               10.2162989667        2.0432763133       16.2801057274
N                8.1730501500        6.1297876100       10.0000000000    0   0   0
N               10.2163126900        4.0865250700       10.0000000000    0   0   0
N                8.1730501500        4.0865250700       12.0432625400    0   0   0
N               10.2163126900        6.1297876100       12.0432625400    0   0   0
N                8.1730575100        6.1297873400       14.1169838410
N               10.2163216531        4.0865145781       14.1169887697
N                8.1730786033        4.0864966667       16.2801501381
N               10.2163053305        6.1297876700       16.2801973081
N                8.1730501500       10.2163126900       10.0000000000    0   0   0
N               10.2163126900        8.1730501500       10.0000000000    0   0   0
N                8.1730501500        8.1730501500       12.0432625400    0   0   0
N               10.2163126900       10.2163126900       12.0432625400    0   0   0
N                8.1730606319       10.2163216731       14.1169887197
N               10.2163216431        8.1730605819       14.1169881397
N                8.1730785133        8.1730785733       16.2801501281
N               10.2162989567       10.2162988567       16.2801057474



     Writing config-only to output data dir ./tmp/VN_slab.save/ :
     XML data file
     NEW-OLD atomic charge density approx. for the potential

     Check: negative core charge=   -0.000004

     negative rho (up, down):  7.778E-02 0.000E+00

     total cpu time spent up to now is    23901.6 secs

     per-process dynamical memory:   807.7 Mb

     Self-consistent Calculation

     iteration #  1     ecut=    45.00 Ry     beta= 0.25
     Davidson diagonalization with overlap
     ethr =  1.00E-06,  avg # of iterations =  5.0

     negative rho (up, down):  7.777E-02 0.000E+00

     total cpu time spent up to now is    24036.9 secs

     total energy              =  -11908.17404261 Ry
     estimated scf accuracy    <       0.00490317 Ry

     iteration #  2     ecut=    45.00 Ry     beta= 0.25
     Davidson diagonalization with overlap
     ethr =  3.78E-07,  avg # of iterations = 17.3

     negative rho (up, down):  7.777E-02 0.000E+00

     total cpu time spent up to now is    24167.8 secs

     total energy              =  -11908.15231517 Ry
     estimated scf accuracy    <       2.36368686 Ry

     iteration #  3     ecut=    45.00 Ry     beta= 0.25
     Davidson diagonalization with overlap
     ethr =  3.78E-07,  avg # of iterations = 13.8

     negative rho (up, down):  7.778E-02 0.000E+00

     total cpu time spent up to now is    24288.8 secs

     total energy              =  -11908.17544132 Ry
     estimated scf accuracy    <       0.01751176 Ry

     iteration #  4     ecut=    45.00 Ry     beta= 0.25
     Davidson diagonalization with overlap
     ethr =  3.78E-07,  avg # of iterations =  5.2

     negative rho (up, down):  7.778E-02 0.000E+00

     total cpu time spent up to now is    24376.4 secs

     total energy              =  -11908.17585167 Ry
     estimated scf accuracy    <       0.00409669 Ry

     iteration #  5     ecut=    45.00 Ry     beta= 0.25
     Davidson diagonalization with overlap
     ethr =  3.16E-07,  avg # of iterations =  2.2

     negative rho (up, down):  7.778E-02 0.000E+00

     total cpu time spent up to now is    24447.6 secs

     total energy              =  -11908.17595642 Ry
     estimated scf accuracy    <       0.00081327 Ry

     iteration #  6     ecut=    45.00 Ry     beta= 0.25
     Davidson diagonalization with overlap
     ethr =  6.28E-08,  avg # of iterations =  5.8

     negative rho (up, down):  7.777E-02 0.000E+00

     total cpu time spent up to now is    24526.6 secs

     total energy              =  -11908.17599135 Ry
     estimated scf accuracy    <       0.00089844 Ry

     iteration #  7     ecut=    45.00 Ry     beta= 0.25
     Davidson diagonalization with overlap
     ethr =  6.28E-08,  avg # of iterations =  1.8

     negative rho (up, down):  7.777E-02 0.000E+00

     total cpu time spent up to now is    24597.1 secs

     total energy              =  -11908.17600569 Ry
     estimated scf accuracy    <       0.00029955 Ry

     iteration #  8     ecut=    45.00 Ry     beta= 0.25
     Davidson diagonalization with overlap
     ethr =  2.31E-08,  avg # of iterations =  3.5

     negative rho (up, down):  7.777E-02 0.000E+00

     total cpu time spent up to now is    24669.0 secs

     total energy              =  -11908.17601199 Ry
     estimated scf accuracy    <       0.00011181 Ry

     iteration #  9     ecut=    45.00 Ry     beta= 0.25
     Davidson diagonalization with overlap
     ethr =  8.63E-09,  avg # of iterations =  5.0

     negative rho (up, down):  7.777E-02 0.000E+00

     total cpu time spent up to now is    24750.8 secs

     total energy              =  -11908.17601312 Ry
     estimated scf accuracy    <       0.00008183 Ry

     iteration # 10     ecut=    45.00 Ry     beta= 0.25
     Davidson diagonalization with overlap
     ethr =  6.31E-09,  avg # of iterations =  2.5

     negative rho (up, down):  7.777E-02 0.000E+00

     total cpu time spent up to now is    24826.5 secs

     total energy              =  -11908.17601529 Ry
     estimated scf accuracy    <       0.00003647 Ry

     iteration # 11     ecut=    45.00 Ry     beta= 0.25
     Davidson diagonalization with overlap
     ethr =  2.81E-09,  avg # of iterations =  5.0

     negative rho (up, down):  7.776E-02 0.000E+00

     total cpu time spent up to now is    24896.0 secs

     total energy              =  -11908.17601691 Ry
     estimated scf accuracy    <       0.00001635 Ry

     iteration # 12     ecut=    45.00 Ry     beta= 0.25
     Davidson diagonalization with overlap
     ethr =  1.26E-09,  avg # of iterations =  5.0

     negative rho (up, down):  7.776E-02 0.000E+00

     total cpu time spent up to now is    24966.2 secs

     total energy              =  -11908.17601612 Ry
     estimated scf accuracy    <       0.00007273 Ry

     iteration # 13     ecut=    45.00 Ry     beta= 0.25
     Davidson diagonalization with overlap
     ethr =  1.26E-09,  avg # of iterations =  2.7

     negative rho (up, down):  7.777E-02 0.000E+00

     total cpu time spent up to now is    25044.2 secs

     total energy              =  -11908.17601630 Ry
     estimated scf accuracy    <       0.00007210 Ry

     iteration # 14     ecut=    45.00 Ry     beta= 0.25
     Davidson diagonalization with overlap
     ethr =  1.26E-09,  avg # of iterations =  2.7

     negative rho (up, down):  7.777E-02 0.000E+00

     total cpu time spent up to now is    25122.4 secs

     total energy              =  -11908.17601697 Ry
     estimated scf accuracy    <       0.00002313 Ry

     iteration # 15     ecut=    45.00 Ry     beta= 0.25
     Davidson diagonalization with overlap
     ethr =  1.26E-09,  avg # of iterations =  1.2

     negative rho (up, down):  7.777E-02 0.000E+00

     total cpu time spent up to now is    25194.3 secs

     total energy              =  -11908.17601766 Ry
     estimated scf accuracy    <       0.00000495 Ry

     iteration # 16     ecut=    45.00 Ry     beta= 0.25
     Davidson diagonalization with overlap
     ethr =  3.82E-10,  avg # of iterations =  1.7

     negative rho (up, down):  7.776E-02 0.000E+00

     total cpu time spent up to now is    25271.9 secs

     total energy              =  -11908.17601766 Ry
     estimated scf accuracy    <       0.00000335 Ry

     iteration # 17     ecut=    45.00 Ry     beta= 0.25
     Davidson diagonalization with overlap
     ethr =  2.59E-10,  avg # of iterations =  2.5

     negative rho (up, down):  7.776E-02 0.000E+00

     total cpu time spent up to now is    25352.7 secs

     total energy              =  -11908.17601757 Ry
     estimated scf accuracy    <       0.00000391 Ry

     iteration # 18     ecut=    45.00 Ry     beta= 0.25
     Davidson diagonalization with overlap
     ethr =  2.59E-10,  avg # of iterations =  2.0

     negative rho (up, down):  7.776E-02 0.000E+00

     total cpu time spent up to now is    25430.0 secs

     total energy              =  -11908.17601764 Ry
     estimated scf accuracy    <       0.00000291 Ry

     iteration # 19     ecut=    45.00 Ry     beta= 0.25
     Davidson diagonalization with overlap
     ethr =  2.25E-10,  avg # of iterations =  2.5

     negative rho (up, down):  7.776E-02 0.000E+00

     total cpu time spent up to now is    25507.2 secs

     total energy              =  -11908.17601766 Ry
     estimated scf accuracy    <       0.00000401 Ry

     iteration # 20     ecut=    45.00 Ry     beta= 0.25
     Davidson diagonalization with overlap
     ethr =  2.25E-10,  avg # of iterations =  2.2

     negative rho (up, down):  7.776E-02 0.000E+00

     total cpu time spent up to now is    25579.7 secs

     total energy              =  -11908.17601774 Ry
     estimated scf accuracy    <       0.00000258 Ry

     iteration # 21     ecut=    45.00 Ry     beta= 0.25
     Davidson diagonalization with overlap
     ethr =  1.99E-10,  avg # of iterations =  1.3

     negative rho (up, down):  7.776E-02 0.000E+00

     total cpu time spent up to now is    25649.3 secs

     total energy              =  -11908.17601783 Ry
     estimated scf accuracy    <       0.00000055 Ry

     iteration # 22     ecut=    45.00 Ry     beta= 0.25
     Davidson diagonalization with overlap
     ethr =  4.23E-11,  avg # of iterations =  3.2

     negative rho (up, down):  7.776E-02 0.000E+00

     total cpu time spent up to now is    25729.0 secs

     End of self-consistent calculation

          k = 0.0000 0.0000 0.0000 (135157 PWs)   bands (ev):

   -61.8915 -61.8720 -61.8720 -61.8720 -61.8720 -61.8604 -61.8604 -61.8604
   -61.8604 -61.8426 -61.8426 -61.8426 -61.8425 -61.8370 -61.8370 -61.8370
   -61.8370 -61.8223 -61.8188 -61.8108 -61.8057 -61.8057 -61.8057 -61.8057
   -61.8021 -61.8021 -61.8021 -61.8021 -61.7927 -61.7927 -61.7927 -61.7927
   -61.7921 -61.7921 -61.7921 -61.7921 -61.7847 -61.7847 -61.7847 -61.7847
   -61.7787 -61.7786 -61.7786 -61.7786 -61.7724 -61.7577 -61.7576 -61.7576
   -61.7575 -61.7533 -61.7533 -61.7533 -61.7532 -61.7380 -61.7064 -61.7044
   -61.7043 -61.7043 -61.7043 -61.7026 -61.7026 -61.7026 -61.7026 -61.6992
   -61.6992 -61.6992 -61.6991 -61.6900 -61.6900 -61.6900 -61.6900 -61.6786
   -35.9862 -35.9862 -35.9862 -35.9862 -35.9631 -35.9631 -35.9631 -35.9631
   -35.9573 -35.9573 -35.9460 -35.9460 -35.9460 -35.9460 -35.9297 -35.9297
   -35.9297 -35.9297 -35.8942 -35.8942 -35.8942 -35.8942 -35.8936 -35.8936
   -35.8936 -35.8936 -35.8905 -35.8905 -35.8905 -35.8905 -35.8792 -35.8792
   -35.8768 -35.8767 -35.8767 -35.8767 -35.8681 -35.8681 -35.8680 -35.8680
   -35.8618 -35.8439 -35.8439 -35.8439 -35.8439 -35.8432 -35.8432 -35.8432
   -35.8432 -35.8213 -35.8213 -35.8213 -35.8213 -35.8159 -35.8159 -35.8159
   -35.8159 -35.8041 -35.8041 -35.8041 -35.8041 -35.7996 -35.7996 -35.7996
   -35.7996 -35.7703 -35.7703 -35.7574 -35.7574 -35.7574 -35.7574 -35.7547
   -35.7546 -35.7546 -35.7546 -35.7478 -35.7215 -35.7215 -35.7214 -35.7214
   -35.7194 -35.7194 -35.7194 -35.7194 -35.6950 -35.6912 -35.6912 -35.6878
   -35.6878 -35.6878 -35.6878 -35.6852 -35.6852 -35.6852 -35.6852 -35.6828
   -35.6828 -35.6828 -35.6828 -35.6769 -35.6769 -35.6768 -35.6768 -35.6618
   -35.6618 -35.6618 -35.6618 -35.6592 -35.6592 -35.6492 -35.6492 -35.6492
   -35.6492 -35.6393 -35.6393 -35.6393 -35.6393 -35.6237 -35.6237 -35.6237
   -35.6237 -35.6228 -35.6228 -35.6175 -35.6175 -35.6175 -35.6175 -35.6172
   -35.6172 -35.6172 -35.6172 -35.6135 -35.6135 -35.6135 -35.6135 -35.6123
   -35.6069 -35.6030 -35.6030 -35.6030 -35.6030 -35.5932 -35.5921 -35.5921
   -35.5921 -35.5921 -35.5904 -35.5904 -35.5904 -35.5904 -35.5861 -35.5861
   -35.5861 -35.5861 -35.5740 -35.5739 -35.5739 -35.5739 -35.5684 -35.5683
   -35.5683 -35.5683 -35.5658 -35.5658 -35.5636 -35.5636 -35.5636 -35.5636
   -35.5527 -35.5527 -35.5527 -35.5527 -35.5524 -35.5524 -35.5524 -35.5524
   -35.5238 -35.5238 -35.5238 -35.5238 -35.5220 -35.5220 -35.5220 -35.5220
   -35.5159 -35.5159 -35.5159 -35.5159 -35.5065 -35.5065 -35.5065 -35.5065
   -35.4969 -35.4881 -35.4881 -35.4881 -35.4881 -35.4761 -35.4761 -35.4475
   -35.4475 -35.4475 -35.4475 -35.4459 -35.4459 -35.4459 -35.4458 -35.4183
   -35.4182 -35.4182 -35.4182 -35.4175 -35.4025 -35.4025 -35.4025 -35.4025
   -14.2904 -13.6319 -13.6319 -13.6319 -13.6319 -13.4139 -13.0296 -13.0296
   -13.0296 -13.0296 -12.8548 -12.8548 -12.8548 -12.8548 -12.8196 -12.7860
   -12.7860 -12.7860 -12.7860 -12.6082 -12.5605 -12.4541 -12.4540 -12.4540
   -12.4540 -12.4288 -12.4288 -12.4288 -12.4288 -12.4023 -12.3889 -12.3889
   -12.3889 -12.3889 -12.2451 -12.2451 -12.2450 -12.2450 -12.0873 -12.0873
   -12.0873 -12.0873 -11.8935 -11.8934 -11.8933 -11.8933 -11.8359 -11.6958
   -11.6958 -11.6958 -11.6958 -11.6776 -11.6776 -11.6776 -11.6776 -11.5310
   -11.4524 -11.4524 -11.4524 -11.4524 -11.4437 -11.4436 -11.4436 -11.4434
   -11.4121 -11.4120 -11.4118 -11.4118 -11.1777 -11.1775 -11.1775 -11.1773
    -4.7365  -4.7365  -4.7365  -4.7365  -4.5381  -4.5381  -4.5381  -4.5381
    -4.4211  -4.4210  -4.4210  -4.4210  -4.2998  -4.2998  -4.2998  -4.2997
    -3.9803  -3.9803  -3.9803  -3.9802  -3.7650  -3.7650  -3.7650  -3.7650
    -3.6637  -3.6637  -3.6637  -3.6637  -3.6567  -3.6567  -3.6567  -3.6567
    -3.5426  -3.5137  -3.5137  -3.5137  -3.5137  -3.2680  -3.2680  -3.2680
    -3.2679  -3.1829  -3.1829  -3.1319  -3.1319  -3.1319  -3.1319  -3.1150
    -3.1150  -3.1150  -3.1150  -3.1135  -3.1135  -3.1134  -3.1134  -3.0328
    -3.0328  -3.0328  -3.0328  -2.7143  -2.7143  -2.7143  -2.7143  -2.5926
    -2.5926  -2.5491  -2.4830  -2.4829  -2.4829  -2.4828  -2.4612  -2.4612
    -2.4612  -2.4612  -2.4520  -2.4520  -2.4520  -2.4520  -2.4476  -2.4476
    -2.4476  -2.4476  -2.3868  -2.3868  -2.3868  -2.3868  -2.3425  -2.3425
    -2.3424  -2.3424  -2.2265  -2.2265  -2.2265  -2.2265  -2.2130  -2.2129
    -2.2129  -2.2129  -2.1626  -2.1626  -2.1626  -2.1626  -2.1541  -2.1541
    -2.1540  -2.1540  -2.1500  -2.1500  -2.1500  -2.1500  -2.0100  -2.0099
    -2.0099  -2.0099  -1.9986  -1.9768  -1.9768  -1.9768  -1.9767  -1.8472
    -1.8472  -1.8472  -1.8472  -1.8396  -1.8396  -1.8396  -1.8395  -1.7193
    -1.7193  -1.7193  -1.7193  -1.7135  -1.7135  -1.7134  -1.7134  -1.6693
    -1.6639  -1.6639  -1.6639  -1.6639  -1.5866  -1.5866  -1.5754  -1.5754
    -1.5754  -1.5754  -1.4649  -1.4649  -1.4649  -1.4649  -1.3961  -1.3961
    -1.3961  -1.3961  -1.3934  -1.3934  -1.3934  -1.3934  -1.3732  -1.3465
    -1.3465  -1.3460  -1.3460  -1.2678  -1.2675  -1.2675  -1.2673  -1.2249
    -1.2249  -1.2248  -1.2248  -1.1690  -1.1688  -1.1688  -1.1687  -0.9360
    -0.9359  -0.9359  -0.9358  -0.9179  -0.9178  -0.9178  -0.9178  -0.8745
    -0.8745  -0.8227  -0.8227  -0.8226  -0.8226  -0.7578  -0.7578  -0.7576
    -0.7575  -0.6436  -0.6436  -0.6435  -0.6435  -0.4411  -0.4082  -0.4082
    -0.3351  -0.3350  -0.3349  -0.3349  -0.2602  -0.2602  -0.2601  -0.2601
    -0.2537  -0.0109  -0.0109   0.1239   0.3401   0.4239   0.5361   0.5361
     0.8787   0.8787   0.8891   0.8891   0.8891   0.8892   1.1707   1.1707
     1.2948   1.8210   1.8210   1.8210   1.8210   1.8366   2.4001   2.4001
     2.4879   2.4880   2.4880   2.4880   2.5188   2.5188   2.5189   2.5189
     2.5593   2.5593   2.5656   2.5656   2.5656   2.5656   2.6233   2.6233
     2.6234   2.6234   2.6643   2.6643   2.6643   2.6643   2.6935   2.6935
     2.6935   2.6935   2.9274   3.0442   3.0443   3.0443   3.0443   3.0858
     3.0858   3.0858   3.0858   3.1197   3.2055   3.2056   3.2060   3.2060
     3.2292   3.2292   3.2292   3.2292   3.2418   3.2418   3.2418   3.2419
     3.3356   3.3356   3.3357   3.3357   3.3877   3.3902   3.3903   3.3903
     3.3904   3.4230   3.4230   3.4232   3.4232   3.4358   3.4358   3.4358
     3.4359   3.4653   3.4653   3.4653   3.4653   3.4817   3.4817   3.4817
     3.4817   3.5361   3.5361   3.5361   3.5362   3.7227   3.7227   3.7227
     3.7227   3.7590   3.7590   3.8240   3.8571   3.8571   3.8572   3.8572
     3.8858   3.8860   3.8860   3.8863   3.9731   3.9731   3.9732   3.9732
     3.9770   3.9770   3.9770   3.9770   4.0479   4.0479   4.0479   4.0479
     4.0733   4.0841   4.0841   4.0841   4.0841   4.1642   4.1642   4.1933
     4.1933   4.1933   4.1933   4.2236   4.2263   4.2263   4.2263   4.2263
     4.2288   4.2288   4.2288   4.2288   4.3451   4.3451   4.3451   4.3451
     4.3767   4.3767   4.3768   4.3768   4.3929   4.3929   4.3930   4.3930
     4.3961   4.4212   4.4213   4.4213   4.4213   4.4934   4.4934   4.4935
     4.4936   4.5033   4.5033   4.5033   4.5033   4.5223   4.5223   4.5225
     4.5226   4.5813   4.5813   4.5814   4.5814   4.5971   4.5971   4.5971
     4.5971   4.6348   4.6348   4.6348   4.6348   4.6862   4.6862   4.7146
     4.7146   4.7146   4.7146   4.7558   4.7704   4.7704   4.7704   4.7704
     4.7978   4.8246   4.8246   4.8246   4.8246   4.8680   4.8959   4.8983
     4.8983   4.8984

          k = 0.0000 0.2500 0.0000 (135097 PWs)   bands (ev):

   -61.8901 -61.8799 -61.8712 -61.8711 -61.8650 -61.8650 -61.8630 -61.8554
   -61.8553 -61.8461 -61.8461 -61.8448 -61.8400 -61.8400 -61.8373 -61.8373
   -61.8307 -61.8233 -61.8176 -61.8102 -61.8098 -61.8055 -61.8054 -61.8036
   -61.8036 -61.8011 -61.8008 -61.8002 -61.8002 -61.7951 -61.7951 -61.7918
   -61.7917 -61.7901 -61.7893 -61.7893 -61.7853 -61.7853 -61.7844 -61.7843
   -61.7827 -61.7798 -61.7733 -61.7724 -61.7723 -61.7620 -61.7613 -61.7612
   -61.7553 -61.7553 -61.7535 -61.7534 -61.7465 -61.7389 -61.7061 -61.7044
   -61.7044 -61.7043 -61.7038 -61.7038 -61.7028 -61.7028 -61.7019 -61.7019
   -61.7004 -61.6959 -61.6959 -61.6940 -61.6908 -61.6907 -61.6858 -61.6795
   -35.9919 -35.9919 -35.9723 -35.9723 -35.9710 -35.9710 -35.9705 -35.9705
   -35.9551 -35.9551 -35.9528 -35.9528 -35.9431 -35.9431 -35.9193 -35.9185
   -35.9185 -35.9182 -35.9140 -35.9140 -35.8965 -35.8965 -35.8936 -35.8936
   -35.8886 -35.8885 -35.8864 -35.8864 -35.8791 -35.8763 -35.8763 -35.8749
   -35.8749 -35.8715 -35.8708 -35.8708 -35.8685 -35.8685 -35.8675 -35.8675
   -35.8598 -35.8584 -35.8541 -35.8525 -35.8525 -35.8478 -35.8477 -35.8467
   -35.8467 -35.8422 -35.8372 -35.8371 -35.8256 -35.8256 -35.8168 -35.8168
   -35.8153 -35.8002 -35.7934 -35.7923 -35.7923 -35.7894 -35.7894 -35.7852
   -35.7797 -35.7744 -35.7729 -35.7729 -35.7715 -35.7715 -35.7668 -35.7552
   -35.7454 -35.7454 -35.7405 -35.7299 -35.7255 -35.7210 -35.7191 -35.7191
   -35.7189 -35.7139 -35.7124 -35.7124 -35.6985 -35.6985 -35.6958 -35.6957
   -35.6948 -35.6948 -35.6948 -35.6946 -35.6904 -35.6819 -35.6819 -35.6760
   -35.6760 -35.6666 -35.6666 -35.6650 -35.6642 -35.6642 -35.6625 -35.6623
   -35.6614 -35.6610 -35.6597 -35.6597 -35.6595 -35.6595 -35.6561 -35.6538
   -35.6538 -35.6486 -35.6486 -35.6440 -35.6440 -35.6439 -35.6419 -35.6369
   -35.6368 -35.6368 -35.6324 -35.6307 -35.6307 -35.6273 -35.6261 -35.6261
   -35.6112 -35.6109 -35.6109 -35.6044 -35.6044 -35.6042 -35.6022 -35.6022
   -35.6007 -35.5977 -35.5971 -35.5971 -35.5959 -35.5915 -35.5907 -35.5907
   -35.5872 -35.5872 -35.5861 -35.5861 -35.5851 -35.5851 -35.5830 -35.5830
   -35.5823 -35.5816 -35.5816 -35.5810 -35.5771 -35.5771 -35.5746 -35.5722
   -35.5722 -35.5717 -35.5712 -35.5693 -35.5658 -35.5595 -35.5595 -35.5589
   -35.5589 -35.5541 -35.5541 -35.5487 -35.5487 -35.5441 -35.5434 -35.5433
   -35.5401 -35.5253 -35.5253 -35.5223 -35.5223 -35.5215 -35.5215 -35.5199
   -35.5199 -35.5155 -35.5129 -35.5129 -35.5035 -35.5034 -35.5030 -35.4989
   -35.4975 -35.4974 -35.4934 -35.4878 -35.4878 -35.4803 -35.4792 -35.4665
   -35.4490 -35.4490 -35.4480 -35.4480 -35.4393 -35.4392 -35.4296 -35.4244
   -35.4243 -35.4147 -35.4125 -35.4125 -35.4062 -35.4038 -35.4038 -35.4038
   -14.2432 -13.8942 -13.5879 -13.5879 -13.3718 -13.3531 -13.2662 -13.2662
   -13.0691 -12.9009 -12.8176 -12.8176 -12.8041 -12.7874 -12.7874 -12.7543
   -12.7543 -12.7507 -12.6485 -12.5921 -12.5581 -12.5581 -12.5489 -12.5489
   -12.5238 -12.4839 -12.4600 -12.4600 -12.4214 -12.4100 -12.4100 -12.3644
   -12.3008 -12.3008 -12.2649 -12.2492 -12.2492 -12.1921 -12.1920 -12.0901
   -12.0545 -12.0545 -11.9185 -11.8585 -11.8583 -11.8278 -11.8278 -11.8193
   -11.7259 -11.7119 -11.6981 -11.6728 -11.6728 -11.6116 -11.6115 -11.5421
   -11.5421 -11.5269 -11.5269 -11.5156 -11.4423 -11.4325 -11.4193 -11.4193
   -11.3894 -11.3891 -11.2904 -11.2902 -11.2476 -11.2474 -11.1495 -11.1493
    -4.8905  -4.8905  -4.7199  -4.7199  -4.6795  -4.6795  -4.5506  -4.5505
    -4.4776  -4.4776  -4.2975  -4.2975  -4.0798  -4.0798  -4.0445  -4.0369
    -4.0369  -3.9714  -3.9714  -3.8700  -3.8700  -3.7825  -3.7808  -3.7658
    -3.7657  -3.7528  -3.6986  -3.6986  -3.6211  -3.6210  -3.5969  -3.5969
    -3.5949  -3.5792  -3.5792  -3.5477  -3.4609  -3.4141  -3.3949  -3.3949
    -3.3301  -3.3301  -3.2777  -3.2637  -3.2615  -3.2615  -3.2089  -3.2089
    -3.1761  -3.1088  -3.0429  -3.0429  -2.9210  -2.9151  -2.9099  -2.9098
    -2.8763  -2.8763  -2.8318  -2.8223  -2.7439  -2.7400  -2.7400  -2.6419
    -2.6419  -2.6146  -2.6145  -2.5858  -2.5746  -2.5488  -2.5488  -2.5204
    -2.5194  -2.5194  -2.5184  -2.5184  -2.5133  -2.4679  -2.4679  -2.4396
    -2.4350  -2.4350  -2.3865  -2.3865  -2.3372  -2.3372  -2.3351  -2.3294
    -2.3294  -2.2644  -2.2643  -2.2616  -2.2616  -2.2573  -2.2504  -2.2504
    -2.2451  -2.2451  -2.2076  -2.2076  -2.1477  -2.1477  -2.1312  -2.1244
    -2.0459  -2.0370  -2.0370  -2.0356  -2.0356  -2.0151  -2.0151  -1.9948
    -1.9650  -1.9650  -1.9513  -1.9296  -1.9072  -1.9023  -1.9023  -1.8902
    -1.8902  -1.8849  -1.8849  -1.8419  -1.8419  -1.8400  -1.8378  -1.8187
    -1.7674  -1.7674  -1.7535  -1.7185  -1.7185  -1.6884  -1.6884  -1.6407
    -1.6407  -1.6337  -1.6336  -1.6310  -1.5813  -1.5637  -1.5274  -1.5181
    -1.5180  -1.4994  -1.4994  -1.4834  -1.4833  -1.4708  -1.4526  -1.4525
    -1.4208  -1.4206  -1.4015  -1.3658  -1.3073  -1.3047  -1.3047  -1.3028
    -1.3027  -1.2367  -1.2367  -1.2256  -1.2180  -1.2180  -1.2022  -1.2021
    -1.1836  -1.0705  -1.0705  -1.0693  -1.0692  -1.0676  -1.0615  -1.0368
    -1.0367  -1.0281  -1.0190  -0.9746  -0.9746  -0.8859  -0.8820  -0.8819
    -0.8737  -0.8555  -0.7943  -0.7942  -0.7771  -0.7770  -0.7580  -0.7161
    -0.7154  -0.7153  -0.6775  -0.6704  -0.6240  -0.5149  -0.5097  -0.4963
    -0.4849  -0.4376  -0.4198  -0.4197  -0.4051  -0.3933  -0.3931  -0.2268
    -0.1153  -0.0956   0.0235   0.1027   0.2723   0.5565   0.5735   0.6058
     0.7143   0.7303   0.8138   0.9090   1.0651   1.0652   1.0921   1.1369
     1.5804   1.6428   1.8392   1.9268   1.9268   2.0065   2.0125   2.0126
     2.0255   2.0802   2.2082   2.4083   2.4585   2.4871   2.5029   2.5029
     2.5265   2.5266   2.5434   2.5435   2.5485   2.5518   2.6167   2.6167
     2.6659   2.6680   2.6681   2.7019   2.7019   2.7222   2.7223   2.8105
     2.8155   2.8621   2.8622   2.9355   2.9355   2.9644   2.9961   3.0239
     3.0687   3.0688   3.0977   3.0977   3.1033   3.1160   3.1238   3.1239
     3.1351   3.1352   3.1433   3.1526   3.1788   3.1788   3.2542   3.2545
     3.2681   3.2892   3.2892   3.3077   3.3077   3.3422   3.3979   3.3980
     3.4140   3.4141   3.4858   3.4858   3.4992   3.4993   3.5297   3.5297
     3.5514   3.5515   3.5695   3.5696   3.5709   3.6053   3.6506   3.6506
     3.6532   3.6534   3.6606   3.6934   3.7054   3.7404   3.7421   3.7449
     3.7449   3.8022   3.8022   3.8176   3.8176   3.8193   3.8413   3.8413
     3.8534   3.9337   3.9398   3.9445   3.9446   3.9920   3.9920   4.0325
     4.0922   4.0922   4.0936   4.1151   4.1172   4.1172   4.1236   4.1259
     4.1259   4.1293   4.1293   4.1531   4.1598   4.1757   4.1757   4.1793
     4.1793   4.1817   4.1856   4.1857   4.1923   4.2309   4.2309   4.2627
     4.2627   4.2730   4.2773   4.2785   4.2819   4.2819   4.2824   4.2825
     4.3003   4.3003   4.3073   4.3074   4.3075   4.3469   4.3469   4.3856
     4.3857   4.4038   4.4039   4.4222   4.4223   4.4368   4.4545   4.4576
     4.4658   4.4711   4.4712   4.4724   4.4725   4.5004   4.5007   4.5168
     4.5571   4.5572   4.5707   4.5707   4.6051   4.6221   4.6473   4.6490
     4.6621   4.6644   4.6809   4.6890   4.7044   4.7122   4.7122   4.7414
     4.7414   4.7422   4.7422   4.7564   4.7610   4.7610   4.7782   4.7782
     4.7846   4.7846   4.7963   4.8197   4.8263   4.8308   4.8484   4.8484
     4.8598   4.8657

          k = 0.0000-0.5000 0.0000 (135178 PWs)   bands (ev):

   -61.8861 -61.8861 -61.8687 -61.8687 -61.8687 -61.8687 -61.8537 -61.8537
   -61.8504 -61.8504 -61.8504 -61.8504 -61.8383 -61.8383 -61.8383 -61.8383
   -61.8260 -61.8260 -61.8144 -61.8144 -61.8068 -61.8068 -61.8047 -61.8047
   -61.8047 -61.8047 -61.7978 -61.7978 -61.7978 -61.7978 -61.7956 -61.7956
   -61.7889 -61.7889 -61.7889 -61.7889 -61.7869 -61.7869 -61.7869 -61.7869
   -61.7759 -61.7759 -61.7721 -61.7721 -61.7664 -61.7664 -61.7663 -61.7663
   -61.7541 -61.7541 -61.7540 -61.7540 -61.7417 -61.7417 -61.7054 -61.7054
   -61.7037 -61.7037 -61.7037 -61.7036 -61.7032 -61.7032 -61.7032 -61.7032
   -61.6975 -61.6975 -61.6929 -61.6929 -61.6929 -61.6929 -61.6821 -61.6821
   -35.9867 -35.9867 -35.9867 -35.9867 -35.9696 -35.9696 -35.9696 -35.9696
   -35.9468 -35.9468 -35.9468 -35.9468 -35.9397 -35.9397 -35.9394 -35.9394
   -35.9152 -35.9152 -35.9152 -35.9152 -35.8850 -35.8850 -35.8850 -35.8850
   -35.8792 -35.8792 -35.8792 -35.8792 -35.8780 -35.8780 -35.8761 -35.8761
   -35.8761 -35.8761 -35.8659 -35.8659 -35.8659 -35.8659 -35.8623 -35.8623
   -35.8604 -35.8604 -35.8604 -35.8604 -35.8575 -35.8575 -35.8547 -35.8547
   -35.8547 -35.8547 -35.8544 -35.8544 -35.8322 -35.8322 -35.8239 -35.8239
   -35.7945 -35.7945 -35.7938 -35.7938 -35.7938 -35.7938 -35.7838 -35.7838
   -35.7716 -35.7715 -35.7620 -35.7620 -35.7620 -35.7620 -35.7567 -35.7567
   -35.7521 -35.7521 -35.7428 -35.7428 -35.7428 -35.7428 -35.7119 -35.7119
   -35.7089 -35.7089 -35.7018 -35.7018 -35.7000 -35.7000 -35.6901 -35.6901
   -35.6901 -35.6901 -35.6786 -35.6786 -35.6786 -35.6786 -35.6708 -35.6708
   -35.6708 -35.6708 -35.6687 -35.6687 -35.6687 -35.6687 -35.6683 -35.6683
   -35.6667 -35.6667 -35.6667 -35.6667 -35.6665 -35.6665 -35.6578 -35.6578
   -35.6520 -35.6520 -35.6511 -35.6511 -35.6511 -35.6511 -35.6469 -35.6469
   -35.6430 -35.6430 -35.6430 -35.6430 -35.6403 -35.6403 -35.6085 -35.6085
   -35.6085 -35.6085 -35.6077 -35.6077 -35.6061 -35.6061 -35.6061 -35.6061
   -35.5926 -35.5926 -35.5926 -35.5926 -35.5900 -35.5900 -35.5900 -35.5900
   -35.5865 -35.5865 -35.5821 -35.5821 -35.5821 -35.5821 -35.5810 -35.5809
   -35.5796 -35.5796 -35.5759 -35.5759 -35.5747 -35.5747 -35.5747 -35.5747
   -35.5718 -35.5718 -35.5686 -35.5686 -35.5686 -35.5686 -35.5678 -35.5678
   -35.5608 -35.5608 -35.5608 -35.5608 -35.5382 -35.5381 -35.5381 -35.5381
   -35.5271 -35.5271 -35.5204 -35.5204 -35.5204 -35.5204 -35.5199 -35.5199
   -35.5199 -35.5199 -35.5126 -35.5126 -35.5125 -35.5125 -35.4948 -35.4948
   -35.4948 -35.4948 -35.4898 -35.4898 -35.4884 -35.4884 -35.4828 -35.4828
   -35.4491 -35.4490 -35.4490 -35.4490 -35.4315 -35.4314 -35.4314 -35.4314
   -35.4154 -35.4154 -35.4088 -35.4088 -35.4074 -35.4074 -35.4074 -35.4074
   -14.1062 -14.1062 -13.4610 -13.4610 -13.4609 -13.4609 -13.2512 -13.2511
   -13.0971 -13.0971 -12.7699 -12.7698 -12.7121 -12.7121 -12.7121 -12.7121
   -12.6669 -12.6669 -12.6668 -12.6668 -12.5831 -12.5831 -12.5830 -12.5830
   -12.5469 -12.5469 -12.4940 -12.4940 -12.4195 -12.4194 -12.3609 -12.3608
   -12.3608 -12.3608 -12.2554 -12.2553 -12.1803 -12.1803 -12.1803 -12.1803
   -11.9622 -11.9622 -11.9622 -11.9622 -11.7874 -11.7874 -11.7762 -11.7762
   -11.7591 -11.7590 -11.7589 -11.7589 -11.6102 -11.6102 -11.6102 -11.6102
   -11.5393 -11.5393 -11.4763 -11.4763 -11.4495 -11.4495 -11.4495 -11.4495
   -11.3280 -11.3280 -11.3278 -11.3278 -11.1859 -11.1859 -11.1857 -11.1857
    -4.8875  -4.8875  -4.8874  -4.8874  -4.6859  -4.6859  -4.6859  -4.6858
    -4.2114  -4.2113  -4.2113  -4.2113  -4.0142  -4.0142  -4.0142  -4.0142
    -3.9559  -3.9559  -3.8339  -3.8339  -3.8338  -3.8338  -3.8167  -3.8167
    -3.8167  -3.8167  -3.6750  -3.6750  -3.5896  -3.5896  -3.5895  -3.5895
    -3.5847  -3.5846  -3.5846  -3.5846  -3.5638  -3.5638  -3.5126  -3.5126
    -3.3849  -3.3849  -3.3849  -3.3849  -3.2097  -3.2097  -3.1535  -3.1535
    -3.1461  -3.1461  -3.1461  -3.1460  -3.0716  -3.0716  -2.7450  -2.7450
    -2.7019  -2.7019  -2.7019  -2.7019  -2.6819  -2.6819  -2.6819  -2.6819
    -2.6583  -2.6582  -2.5796  -2.5796  -2.5796  -2.5796  -2.5638  -2.5638
    -2.5637  -2.5637  -2.5637  -2.5637  -2.5417  -2.5417  -2.5417  -2.5417
    -2.4639  -2.4639  -2.4500  -2.4500  -2.4418  -2.4418  -2.4418  -2.4418
    -2.3115  -2.3115  -2.3115  -2.3115  -2.2891  -2.2891  -2.2891  -2.2891
    -2.1727  -2.1727  -2.1031  -2.1031  -2.0993  -2.0992  -2.0992  -2.0992
    -2.0708  -2.0708  -2.0708  -2.0708  -2.0697  -2.0697  -1.9721  -1.9721
    -1.9721  -1.9721  -1.9553  -1.9553  -1.9553  -1.9553  -1.8753  -1.8753
    -1.8753  -1.8753  -1.7889  -1.7889  -1.7864  -1.7864  -1.7863  -1.7863
    -1.6477  -1.6477  -1.6476  -1.6476  -1.6148  -1.6147  -1.6147  -1.6147
    -1.5634  -1.5634  -1.5595  -1.5595  -1.5595  -1.5595  -1.5349  -1.5349
    -1.5198  -1.5198  -1.5198  -1.5198  -1.4982  -1.4982  -1.3949  -1.3949
    -1.3771  -1.3770  -1.3495  -1.3495  -1.3495  -1.3495  -1.2557  -1.2556
    -1.2556  -1.2556  -1.2200  -1.2200  -1.1704  -1.1704  -1.1621  -1.1620
    -1.1620  -1.1619  -1.0744  -1.0744  -1.0142  -1.0142  -1.0142  -1.0142
    -0.9910  -0.9910  -0.9910  -0.9910  -0.8830  -0.8830  -0.8771  -0.8771
    -0.8770  -0.8770  -0.8693  -0.8693  -0.8238  -0.8238  -0.6865  -0.6865
    -0.6865  -0.6864  -0.6489  -0.6489  -0.6329  -0.6329  -0.6011  -0.6010
    -0.6009  -0.6009  -0.5838  -0.5838  -0.4406  -0.4406  -0.0871  -0.0871
    -0.0821  -0.0821   0.0977   0.0977   0.1050   0.1050   0.3452   0.3452
     0.6199   0.6200   1.2019   1.2020   1.3283   1.3283   1.4371   1.4372
     1.4880   1.4881   1.4881   1.4881   1.5572   1.5572   2.0664   2.0664
     2.2144   2.2144   2.2144   2.2144   2.4100   2.4101   2.4356   2.4356
     2.4911   2.4911   2.4911   2.4911   2.6138   2.6138   2.6139   2.6139
     2.6708   2.6708   2.6877   2.6877   2.7078   2.7078   2.7691   2.7691
     2.7991   2.7991   2.7992   2.7992   2.8321   2.8321   2.8322   2.8322
     2.8867   2.8867   2.8867   2.8867   3.0250   3.0251   3.1349   3.1349
     3.1350   3.1350   3.2324   3.2324   3.2324   3.2324   3.3502   3.3502
     3.3504   3.3504   3.3857   3.3857   3.3935   3.3935   3.3935   3.3936
     3.4006   3.4006   3.4006   3.4006   3.4629   3.4629   3.5278   3.5279
     3.5280   3.5280   3.6448   3.6448   3.7029   3.7029   3.7261   3.7261
     3.7261   3.7261   3.8620   3.8620   3.8620   3.8620   3.8866   3.8866
     3.8935   3.8935   3.8935   3.8935   3.9230   3.9230   3.9593   3.9593
     3.9738   3.9738   3.9738   3.9738   3.9758   3.9758   4.0503   4.0503
     4.0503   4.0503   4.0690   4.0690   4.0723   4.0723   4.0723   4.0723
     4.0787   4.0787   4.0787   4.0787   4.0829   4.0829   4.1265   4.1265
     4.1892   4.1892   4.1892   4.1892   4.2446   4.2446   4.2446   4.2446
     4.2457   4.2457   4.2457   4.2457   4.2668   4.2668   4.2669   4.2669
     4.3354   4.3354   4.3509   4.3510   4.3636   4.3636   4.3636   4.3636
     4.4343   4.4343   4.4733   4.4733   4.4817   4.4817   4.4819   4.4819
     4.5010   4.5010   4.5011   4.5011   4.5154   4.5155   4.5156   4.5156
     4.5314   4.5314   4.5626   4.5626   4.6432   4.6432   4.6432   4.6433
     4.6653   4.6653   4.6653   4.6653   4.6662   4.6662   4.7001   4.7001
     4.7147   4.7148   4.7164   4.7164   4.7673   4.7674   4.7806   4.7807
     4.7984   4.7984   4.7984   4.7984   4.8098   4.8098   4.8098   4.8098
     4.8176   4.8176

          k = 0.2500 0.2500 0.0000 (135083 PWs)   bands (ev):

   -61.8888 -61.8789 -61.8789 -61.8710 -61.8624 -61.8624 -61.8583 -61.8583
   -61.8523 -61.8475 -61.8453 -61.8453 -61.8448 -61.8448 -61.8358 -61.8312
   -61.8312 -61.8242 -61.8165 -61.8097 -61.8097 -61.8089 -61.8062 -61.8008
   -61.8008 -61.8006 -61.8005 -61.8000 -61.8000 -61.7995 -61.7969 -61.7932
   -61.7932 -61.7914 -61.7905 -61.7905 -61.7856 -61.7819 -61.7819 -61.7805
   -61.7805 -61.7764 -61.7764 -61.7742 -61.7682 -61.7624 -61.7619 -61.7619
   -61.7611 -61.7611 -61.7511 -61.7469 -61.7469 -61.7398 -61.7059 -61.7053
   -61.7043 -61.7043 -61.7042 -61.7042 -61.7030 -61.7030 -61.7007 -61.7007
   -61.6991 -61.6991 -61.6947 -61.6947 -61.6923 -61.6866 -61.6866 -61.6804
   -36.0043 -35.9934 -35.9870 -35.9781 -35.9687 -35.9687 -35.9640 -35.9529
   -35.9461 -35.9461 -35.9454 -35.9394 -35.9394 -35.9343 -35.9343 -35.9315
   -35.9219 -35.9219 -35.9106 -35.9106 -35.9019 -35.9006 -35.9006 -35.8894
   -35.8886 -35.8850 -35.8848 -35.8788 -35.8788 -35.8773 -35.8773 -35.8772
   -35.8752 -35.8739 -35.8739 -35.8701 -35.8690 -35.8669 -35.8649 -35.8649
   -35.8591 -35.8591 -35.8581 -35.8541 -35.8541 -35.8501 -35.8501 -35.8470
   -35.8470 -35.8431 -35.8431 -35.8401 -35.8401 -35.8191 -35.8191 -35.8175
   -35.8175 -35.8059 -35.8059 -35.7965 -35.7903 -35.7903 -35.7787 -35.7787
   -35.7758 -35.7758 -35.7754 -35.7642 -35.7629 -35.7614 -35.7604 -35.7604
   -35.7470 -35.7470 -35.7343 -35.7323 -35.7323 -35.7177 -35.7177 -35.7159
   -35.7159 -35.7132 -35.7132 -35.7038 -35.7038 -35.7021 -35.6934 -35.6933
   -35.6933 -35.6870 -35.6870 -35.6868 -35.6845 -35.6845 -35.6788 -35.6788
   -35.6773 -35.6773 -35.6759 -35.6689 -35.6650 -35.6649 -35.6649 -35.6635
   -35.6605 -35.6605 -35.6603 -35.6596 -35.6595 -35.6595 -35.6582 -35.6582
   -35.6573 -35.6556 -35.6539 -35.6468 -35.6468 -35.6408 -35.6391 -35.6391
   -35.6342 -35.6338 -35.6338 -35.6276 -35.6255 -35.6201 -35.6200 -35.6183
   -35.6175 -35.6175 -35.6169 -35.6169 -35.6121 -35.6121 -35.6098 -35.6024
   -35.6002 -35.6002 -35.5951 -35.5924 -35.5896 -35.5882 -35.5882 -35.5875
   -35.5875 -35.5873 -35.5864 -35.5863 -35.5863 -35.5848 -35.5831 -35.5831
   -35.5809 -35.5809 -35.5797 -35.5791 -35.5791 -35.5763 -35.5762 -35.5756
   -35.5756 -35.5689 -35.5689 -35.5672 -35.5645 -35.5600 -35.5600 -35.5564
   -35.5558 -35.5558 -35.5512 -35.5456 -35.5392 -35.5382 -35.5382 -35.5370
   -35.5370 -35.5336 -35.5308 -35.5224 -35.5224 -35.5223 -35.5223 -35.5207
   -35.5195 -35.5154 -35.5154 -35.5100 -35.5100 -35.5093 -35.5033 -35.5033
   -35.5001 -35.4904 -35.4903 -35.4903 -35.4893 -35.4810 -35.4764 -35.4661
   -35.4660 -35.4587 -35.4386 -35.4370 -35.4370 -35.4307 -35.4307 -35.4303
   -35.4178 -35.4178 -35.4127 -35.4090 -35.4077 -35.4077 -35.4045 -35.4045
   -14.1961 -13.8488 -13.8488 -13.5148 -13.3300 -13.3110 -13.3110 -13.0295
   -13.0295 -13.0065 -13.0065 -12.8649 -12.8648 -12.7872 -12.7492 -12.7243
   -12.7243 -12.6158 -12.6158 -12.6147 -12.6147 -12.5765 -12.5760 -12.5721
   -12.4873 -12.4678 -12.4678 -12.3977 -12.3977 -12.3864 -12.3864 -12.3667
   -12.3642 -12.3265 -12.2557 -12.2557 -12.2304 -12.2304 -12.1558 -12.1531
   -12.0537 -12.0537 -11.9898 -11.8879 -11.8879 -11.8022 -11.7934 -11.7055
   -11.7055 -11.6862 -11.6862 -11.6779 -11.6779 -11.6654 -11.6653 -11.5817
   -11.5166 -11.5166 -11.4998 -11.4383 -11.4383 -11.4252 -11.4160 -11.4160
   -11.4129 -11.4129 -11.3569 -11.2962 -11.2450 -11.2450 -11.1645 -11.0902
    -5.0792  -4.9881  -4.8518  -4.7845  -4.6056  -4.6056  -4.4114  -4.4114
    -4.3729  -4.3729  -4.2364  -4.2364  -4.2305  -4.1138  -4.1138  -4.0825
    -4.0302  -3.8848  -3.8548  -3.8548  -3.8497  -3.8497  -3.8394  -3.8240
    -3.8240  -3.7734  -3.6480  -3.6480  -3.6428  -3.6174  -3.6174  -3.5949
    -3.5872  -3.5872  -3.5545  -3.5436  -3.5436  -3.4221  -3.3968  -3.3968
    -3.3172  -3.3172  -3.2912  -3.2774  -3.2605  -3.2605  -3.1915  -3.1556
    -3.1556  -3.1244  -3.1244  -2.9805  -2.9805  -2.9540  -2.9540  -2.9281
    -2.9281  -2.9146  -2.9146  -2.7910  -2.7766  -2.7066  -2.6958  -2.6549
    -2.6549  -2.6267  -2.6210  -2.6210  -2.6062  -2.6047  -2.5816  -2.5707
    -2.5695  -2.5235  -2.5151  -2.5151  -2.4896  -2.4874  -2.4874  -2.4662
    -2.4662  -2.4574  -2.4574  -2.3703  -2.3703  -2.3595  -2.3532  -2.3532
    -2.3390  -2.2889  -2.2889  -2.2817  -2.2716  -2.2716  -2.1640  -2.1640
    -2.1582  -2.1582  -2.1573  -2.1254  -2.1253  -2.1107  -2.1107  -2.1066
    -2.1066  -2.0897  -2.0897  -2.0644  -2.0297  -2.0297  -2.0013  -1.9810
    -1.9810  -1.9544  -1.9544  -1.9524  -1.9524  -1.9302  -1.9077  -1.9077
    -1.8856  -1.8685  -1.8503  -1.8290  -1.8290  -1.8232  -1.7703  -1.7414
    -1.7045  -1.7045  -1.6703  -1.6703  -1.6199  -1.6164  -1.6164  -1.6158
    -1.6073  -1.6061  -1.5908  -1.5894  -1.5755  -1.5662  -1.5662  -1.5177
    -1.5177  -1.4783  -1.4783  -1.4518  -1.4300  -1.4300  -1.4244  -1.4244
    -1.4203  -1.3316  -1.3315  -1.3071  -1.3071  -1.2827  -1.2788  -1.2788
    -1.2502  -1.2502  -1.2449  -1.2449  -1.1967  -1.1839  -1.1713  -1.1166
    -1.1166  -1.1020  -1.1020  -1.0603  -1.0559  -1.0426  -1.0426  -1.0307
    -1.0307  -1.0221  -1.0221  -1.0063  -0.9885  -0.9092  -0.9092  -0.9075
    -0.9018  -0.9018  -0.7987  -0.7987  -0.7852  -0.7852  -0.7316  -0.7261
    -0.7261  -0.7259  -0.6782  -0.6208  -0.5862  -0.5862  -0.5802  -0.5802
    -0.5658  -0.5658  -0.4979  -0.4316  -0.4316  -0.3101  -0.2420  -0.2420
    -0.1922  -0.1203  -0.1203  -0.0145   0.0724   0.3316   0.4931   0.7331
     0.7953   0.8287   0.9427   0.9427   0.9616   1.1688   1.2423   1.2423
     1.6961   1.6961   1.7989   1.8582   1.8735   1.8735   2.0012   2.0012
     2.0775   2.0775   2.0857   2.1334   2.1334   2.2036   2.2476   2.2477
     2.3805   2.4466   2.4501   2.4501   2.4870   2.4997   2.5504   2.5504
     2.5668   2.6262   2.6799   2.6799   2.7726   2.7771   2.7771   2.7902
     2.8625   2.8625   2.9410   2.9410   2.9456   2.9456   2.9830   2.9830
     3.0087   3.0240   3.0240   3.0605   3.0712   3.0878   3.1195   3.1511
     3.1511   3.1751   3.1752   3.2506   3.2507   3.2636   3.2821   3.2875
     3.2875   3.3104   3.3482   3.3482   3.3558   3.3558   3.3577   3.3778
     3.3778   3.4515   3.5310   3.5310   3.5409   3.5409   3.5582   3.5701
     3.5701   3.5813   3.5813   3.6271   3.6271   3.6642   3.7033   3.7033
     3.7042   3.7043   3.7131   3.7354   3.7354   3.7542   3.7927   3.7941
     3.8330   3.8330   3.8385   3.8843   3.9133   3.9133   3.9134   3.9134
     3.9261   4.0087   4.0088   4.0088   4.0096   4.0096   4.0282   4.0357
     4.0395   4.0449   4.0449   4.0860   4.0860   4.0910   4.0952   4.0952
     4.1274   4.1274   4.1615   4.1690   4.1690   4.1723   4.1723   4.1816
     4.1829   4.1842   4.1842   4.2009   4.2009   4.2206   4.2283   4.2381
     4.2419   4.2419   4.2537   4.2551   4.2551   4.2637   4.2638   4.2865
     4.2907   4.3097   4.3097   4.3303   4.3324   4.3324   4.3395   4.3651
     4.3651   4.3746   4.3825   4.3825   4.4218   4.4377   4.4377   4.4597
     4.4597   4.4848   4.4993   4.4993   4.5418   4.5645   4.5673   4.5821
     4.5869   4.5869   4.6326   4.6326   4.6393   4.6393   4.6678   4.6678
     4.6681   4.6884   4.6885   4.6899   4.6899   4.7004   4.7004   4.7068
     4.7069   4.7198   4.7198   4.7335   4.7398   4.7621   4.7927   4.8001
     4.8001   4.8059   4.8061   4.8120   4.8121   4.8185   4.8192   4.8204
     4.8205   4.8256

          k = 0.2500-0.5000 0.0000 (135080 PWs)   bands (ev):

   -61.8849 -61.8849 -61.8758 -61.8758 -61.8608 -61.8608 -61.8534 -61.8534
   -61.8515 -61.8515 -61.8496 -61.8496 -61.8450 -61.8449 -61.8329 -61.8329
   -61.8268 -61.8268 -61.8135 -61.8135 -61.8083 -61.8083 -61.8058 -61.8058
   -61.8007 -61.8007 -61.7984 -61.7984 -61.7970 -61.7970 -61.7967 -61.7967
   -61.7958 -61.7957 -61.7916 -61.7916 -61.7825 -61.7825 -61.7798 -61.7798
   -61.7767 -61.7767 -61.7717 -61.7717 -61.7684 -61.7684 -61.7647 -61.7647
   -61.7615 -61.7615 -61.7484 -61.7484 -61.7424 -61.7424 -61.7054 -61.7054
   -61.7053 -61.7053 -61.7043 -61.7043 -61.7017 -61.7017 -61.7015 -61.7015
   -61.6980 -61.6980 -61.6965 -61.6965 -61.6890 -61.6890 -61.6830 -61.6830
   -36.0048 -36.0048 -35.9890 -35.9890 -35.9581 -35.9581 -35.9510 -35.9510
   -35.9464 -35.9464 -35.9390 -35.9390 -35.9371 -35.9371 -35.9310 -35.9310
   -35.9164 -35.9164 -35.9112 -35.9112 -35.9017 -35.9017 -35.9003 -35.9003
   -35.8869 -35.8869 -35.8826 -35.8826 -35.8824 -35.8824 -35.8822 -35.8822
   -35.8790 -35.8790 -35.8672 -35.8672 -35.8655 -35.8655 -35.8616 -35.8616
   -35.8609 -35.8609 -35.8599 -35.8599 -35.8576 -35.8576 -35.8539 -35.8539
   -35.8420 -35.8420 -35.8377 -35.8377 -35.8366 -35.8366 -35.8163 -35.8163
   -35.8122 -35.8122 -35.7978 -35.7978 -35.7910 -35.7910 -35.7839 -35.7839
   -35.7783 -35.7783 -35.7740 -35.7740 -35.7567 -35.7567 -35.7502 -35.7502
   -35.7415 -35.7415 -35.7304 -35.7304 -35.7274 -35.7274 -35.7208 -35.7208
   -35.7073 -35.7073 -35.7031 -35.7031 -35.6966 -35.6966 -35.6956 -35.6956
   -35.6919 -35.6919 -35.6866 -35.6866 -35.6826 -35.6826 -35.6818 -35.6818
   -35.6804 -35.6804 -35.6712 -35.6712 -35.6709 -35.6709 -35.6677 -35.6677
   -35.6641 -35.6641 -35.6606 -35.6606 -35.6554 -35.6554 -35.6544 -35.6544
   -35.6511 -35.6511 -35.6494 -35.6494 -35.6466 -35.6466 -35.6443 -35.6443
   -35.6426 -35.6426 -35.6345 -35.6345 -35.6258 -35.6258 -35.6215 -35.6215
   -35.6210 -35.6209 -35.6065 -35.6065 -35.6032 -35.6032 -35.6028 -35.6028
   -35.5989 -35.5989 -35.5989 -35.5989 -35.5983 -35.5983 -35.5938 -35.5938
   -35.5935 -35.5935 -35.5854 -35.5854 -35.5837 -35.5837 -35.5785 -35.5785
   -35.5784 -35.5784 -35.5769 -35.5769 -35.5753 -35.5753 -35.5741 -35.5741
   -35.5704 -35.5704 -35.5675 -35.5675 -35.5634 -35.5634 -35.5599 -35.5599
   -35.5549 -35.5549 -35.5469 -35.5469 -35.5354 -35.5354 -35.5321 -35.5321
   -35.5269 -35.5269 -35.5267 -35.5267 -35.5257 -35.5257 -35.5220 -35.5220
   -35.5166 -35.5166 -35.5163 -35.5163 -35.5125 -35.5125 -35.5098 -35.5098
   -35.5007 -35.5007 -35.4825 -35.4825 -35.4811 -35.4811 -35.4803 -35.4803
   -35.4641 -35.4641 -35.4353 -35.4353 -35.4335 -35.4335 -35.4260 -35.4260
   -35.4168 -35.4168 -35.4118 -35.4118 -35.4084 -35.4083 -35.4064 -35.4064
   -14.0598 -14.0597 -13.7174 -13.7173 -13.2102 -13.2101 -13.1902 -13.1902
   -13.0577 -13.0577 -12.9168 -12.9168 -12.7767 -12.7767 -12.7632 -12.7632
   -12.7490 -12.7490 -12.6549 -12.6549 -12.5312 -12.5312 -12.5202 -12.5201
   -12.4649 -12.4649 -12.4250 -12.4250 -12.4102 -12.4102 -12.3837 -12.3837
   -12.3348 -12.3347 -12.2781 -12.2781 -12.2180 -12.2180 -12.1329 -12.1329
   -12.1287 -12.1287 -11.9496 -11.9495 -11.8019 -11.8019 -11.7591 -11.7591
   -11.7578 -11.7578 -11.6509 -11.6509 -11.6150 -11.6150 -11.5729 -11.5729
   -11.5680 -11.5680 -11.5095 -11.5095 -11.4591 -11.4590 -11.3609 -11.3609
   -11.3571 -11.3571 -11.3438 -11.3438 -11.3087 -11.3087 -11.0928 -11.0928
    -5.1165  -5.1165  -4.8905  -4.8905  -4.5698  -4.5698  -4.3903  -4.3903
    -4.3154  -4.3153  -4.1089  -4.1089  -4.0522  -4.0522  -4.0426  -4.0426
    -4.0330  -4.0330  -3.9721  -3.9721  -3.8906  -3.8906  -3.8148  -3.8147
    -3.7900  -3.7900  -3.7884  -3.7884  -3.6922  -3.6922  -3.5757  -3.5757
    -3.5437  -3.5437  -3.5404  -3.5404  -3.4535  -3.4535  -3.3437  -3.3437
    -3.3363  -3.3363  -3.2474  -3.2474  -3.2416  -3.2416  -3.2070  -3.2070
    -3.1584  -3.1584  -3.0497  -3.0496  -3.0466  -3.0466  -3.0147  -3.0147
    -2.8776  -2.8776  -2.8457  -2.8457  -2.7835  -2.7835  -2.7464  -2.7464
    -2.7117  -2.7116  -2.6086  -2.6086  -2.5925  -2.5925  -2.5635  -2.5635
    -2.5546  -2.5546  -2.4987  -2.4987  -2.4756  -2.4756  -2.4480  -2.4480
    -2.3921  -2.3921  -2.3861  -2.3861  -2.3741  -2.3741  -2.3648  -2.3647
    -2.3288  -2.3288  -2.2643  -2.2643  -2.2597  -2.2596  -2.2565  -2.2565
    -2.2210  -2.2210  -2.1936  -2.1936  -2.1706  -2.1706  -2.1582  -2.1582
    -2.0936  -2.0936  -2.0910  -2.0910  -2.0682  -2.0682  -2.0493  -2.0493
    -2.0079  -2.0079  -1.9441  -1.9441  -1.9150  -1.9150  -1.9056  -1.9055
    -1.7298  -1.7298  -1.7100  -1.7100  -1.7024  -1.7024  -1.6582  -1.6582
    -1.6542  -1.6542  -1.6535  -1.6535  -1.6495  -1.6495  -1.5461  -1.5461
    -1.5461  -1.5461  -1.5282  -1.5282  -1.5043  -1.5043  -1.5008  -1.5008
    -1.4591  -1.4591  -1.4354  -1.4354  -1.3621  -1.3621  -1.3588  -1.3588
    -1.3379  -1.3379  -1.3369  -1.3368  -1.3283  -1.3283  -1.3191  -1.3191
    -1.2960  -1.2960  -1.2737  -1.2737  -1.2079  -1.2079  -1.1471  -1.1471
    -1.1110  -1.1110  -1.0994  -1.0994  -1.0487  -1.0487  -1.0208  -1.0208
    -1.0151  -1.0151  -1.0150  -1.0150  -0.9991  -0.9991  -0.8547  -0.8547
    -0.8444  -0.8444  -0.8040  -0.8040  -0.7495  -0.7495  -0.7467  -0.7467
    -0.7291  -0.7291  -0.6840  -0.6840  -0.6469  -0.6469  -0.6386  -0.6386
    -0.4742  -0.4742  -0.4476  -0.4476  -0.4112  -0.4112  -0.3439  -0.3439
    -0.1720  -0.1719  -0.0764  -0.0764   0.0535   0.0535   0.2557   0.2557
     0.8829   0.8829   1.2555   1.2555   1.3965   1.3965   1.4295   1.4295
     1.4590   1.4590   1.6064   1.6065   1.6278   1.6279   1.9806   1.9807
     2.0111   2.0111   2.0294   2.0295   2.1478   2.1478   2.2823   2.2823
     2.2907   2.2907   2.4380   2.4380   2.4459   2.4459   2.4890   2.4890
     2.5898   2.5898   2.6813   2.6813   2.6967   2.6967   2.7406   2.7406
     2.7717   2.7717   2.7979   2.7979   2.7999   2.7999   2.9369   2.9369
     3.0119   3.0119   3.0283   3.0283   3.0349   3.0349   3.1462   3.1462
     3.1691   3.1691   3.2042   3.2042   3.2414   3.2414   3.2888   3.2888
     3.3987   3.3987   3.4105   3.4105   3.4150   3.4150   3.4332   3.4332
     3.5134   3.5134   3.5880   3.5880   3.6006   3.6006   3.6295   3.6295
     3.6302   3.6303   3.6523   3.6523   3.7067   3.7067   3.7652   3.7652
     3.7913   3.7913   3.8205   3.8205   3.8523   3.8523   3.8712   3.8712
     3.8907   3.8907   3.9080   3.9080   3.9187   3.9187   3.9305   3.9305
     3.9800   3.9800   3.9815   3.9815   4.0082   4.0082   4.0086   4.0086
     4.0506   4.0506   4.0520   4.0520   4.0676   4.0676   4.0705   4.0705
     4.0941   4.0941   4.1007   4.1007   4.1052   4.1052   4.1082   4.1082
     4.1444   4.1444   4.1634   4.1634   4.1676   4.1676   4.1985   4.1985
     4.2069   4.2069   4.2319   4.2319   4.2579   4.2579   4.2590   4.2590
     4.2743   4.2743   4.4030   4.4030   4.4285   4.4285   4.4321   4.4321
     4.4392   4.4392   4.4458   4.4458   4.4526   4.4526   4.4944   4.4944
     4.5503   4.5503   4.5781   4.5781   4.5804   4.5804   4.5839   4.5839
     4.5918   4.5918   4.6157   4.6157   4.6227   4.6227   4.6733   4.6733
     4.6977   4.6977   4.7017   4.7018   4.7098   4.7098   4.7099   4.7099
     4.7360   4.7360   4.7485   4.7485   4.7565   4.7565   4.7689   4.7689
     4.7712   4.7712   4.7731   4.7731   4.8033   4.8034   4.8181   4.8182
     4.8245   4.8245

          k =-0.5000-0.5000 0.0000 (135004 PWs)   bands (ev):

   -61.8814 -61.8814 -61.8814 -61.8814 -61.8527 -61.8527 -61.8526 -61.8526
   -61.8526 -61.8526 -61.8526 -61.8526 -61.8493 -61.8493 -61.8291 -61.8291
   -61.8291 -61.8291 -61.8113 -61.8113 -61.8113 -61.8113 -61.8025 -61.8025
   -61.8025 -61.8025 -61.7987 -61.7987 -61.7963 -61.7963 -61.7963 -61.7963
   -61.7963 -61.7963 -61.7963 -61.7963 -61.7790 -61.7790 -61.7790 -61.7790
   -61.7704 -61.7704 -61.7703 -61.7703 -61.7703 -61.7703 -61.7703 -61.7703
   -61.7641 -61.7641 -61.7446 -61.7446 -61.7445 -61.7445 -61.7060 -61.7060
   -61.7050 -61.7050 -61.7050 -61.7049 -61.6995 -61.6995 -61.6994 -61.6994
   -61.6994 -61.6994 -61.6994 -61.6994 -61.6855 -61.6854 -61.6854 -61.6854
   -36.0111 -36.0111 -35.9956 -35.9956 -35.9505 -35.9505 -35.9505 -35.9505
   -35.9220 -35.9220 -35.9220 -35.9220 -35.9218 -35.9217 -35.9217 -35.9217
   -35.9217 -35.9217 -35.9217 -35.9217 -35.9056 -35.9056 -35.9004 -35.9004
   -35.9004 -35.9004 -35.9004 -35.9004 -35.9004 -35.9004 -35.8882 -35.8882
   -35.8850 -35.8850 -35.8850 -35.8850 -35.8701 -35.8701 -35.8701 -35.8701
   -35.8542 -35.8541 -35.8541 -35.8541 -35.8351 -35.8351 -35.8351 -35.8351
   -35.8351 -35.8351 -35.8351 -35.8351 -35.8158 -35.8158 -35.8158 -35.8158
   -35.8158 -35.8158 -35.8158 -35.8158 -35.8096 -35.8096 -35.8096 -35.8096
   -35.7684 -35.7684 -35.7684 -35.7684 -35.7471 -35.7471 -35.7471 -35.7471
   -35.7315 -35.7315 -35.7315 -35.7315 -35.7116 -35.7116 -35.7116 -35.7116
   -35.7116 -35.7116 -35.7116 -35.7116 -35.7014 -35.7014 -35.7014 -35.7014
   -35.6861 -35.6861 -35.6861 -35.6861 -35.6861 -35.6861 -35.6861 -35.6861
   -35.6859 -35.6859 -35.6859 -35.6859 -35.6745 -35.6745 -35.6745 -35.6745
   -35.6585 -35.6585 -35.6585 -35.6585 -35.6527 -35.6527 -35.6527 -35.6527
   -35.6504 -35.6504 -35.6352 -35.6352 -35.6352 -35.6352 -35.6351 -35.6351
   -35.6351 -35.6351 -35.6260 -35.6260 -35.6260 -35.6260 -35.6202 -35.6202
   -35.6169 -35.6169 -35.6169 -35.6169 -35.6169 -35.6169 -35.6169 -35.6169
   -35.6056 -35.6056 -35.6056 -35.6056 -35.6039 -35.6038 -35.6038 -35.6038
   -35.6011 -35.6011 -35.5814 -35.5814 -35.5814 -35.5814 -35.5786 -35.5786
   -35.5786 -35.5786 -35.5786 -35.5786 -35.5786 -35.5786 -35.5609 -35.5609
   -35.5609 -35.5609 -35.5598 -35.5598 -35.5598 -35.5598 -35.5505 -35.5505
   -35.5431 -35.5431 -35.5431 -35.5431 -35.5430 -35.5430 -35.5430 -35.5430
   -35.5257 -35.5257 -35.5257 -35.5257 -35.5257 -35.5257 -35.5257 -35.5257
   -35.5202 -35.5202 -35.5151 -35.5151 -35.5151 -35.5151 -35.5106 -35.5106
   -35.5106 -35.5106 -35.4776 -35.4776 -35.4776 -35.4776 -35.4752 -35.4752
   -35.4752 -35.4752 -35.4366 -35.4366 -35.4206 -35.4206 -35.4206 -35.4206
   -35.4206 -35.4206 -35.4206 -35.4206 -35.4073 -35.4073 -35.4073 -35.4073
   -13.9253 -13.9252 -13.9252 -13.9252 -13.0929 -13.0928 -13.0928 -13.0928
   -12.9452 -12.9452 -12.9451 -12.9451 -12.9451 -12.9451 -12.9451 -12.9451
   -12.6985 -12.6984 -12.6984 -12.6984 -12.4878 -12.4878 -12.4878 -12.4878
   -12.3852 -12.3852 -12.3852 -12.3852 -12.3852 -12.3852 -12.3852 -12.3852
   -12.3313 -12.3313 -12.2824 -12.2824 -12.2824 -12.2824 -12.1231 -12.1231
   -12.1111 -12.1110 -12.1110 -12.1109 -11.7096 -11.7096 -11.7096 -11.7096
   -11.6801 -11.6801 -11.6801 -11.6801 -11.6801 -11.6801 -11.6801 -11.6801
   -11.4266 -11.4266 -11.4265 -11.4265 -11.4264 -11.4264 -11.4263 -11.4263
   -11.4141 -11.4141 -11.4140 -11.4140 -11.3217 -11.3217 -11.0581 -11.0581
    -5.1997  -5.1997  -4.9628  -4.9628  -4.2536  -4.2536  -4.2536  -4.2536
    -4.2535  -4.2535  -4.2535  -4.2535  -4.1288  -4.1288  -4.0647  -4.0647
    -4.0647  -4.0647  -4.0647  -4.0647  -4.0646  -4.0646  -3.8709  -3.8709
    -3.6772  -3.6772  -3.6772  -3.6771  -3.6144  -3.6144  -3.6144  -3.6144
    -3.6023  -3.6023  -3.6023  -3.6023  -3.3445  -3.3445  -3.3445  -3.3445
    -3.3445  -3.3445  -3.3445  -3.3445  -3.0965  -3.0965  -3.0965  -3.0965
    -3.0760  -3.0760  -3.0759  -3.0759  -3.0759  -3.0759  -3.0759  -3.0759
    -2.9178  -2.9178  -2.9178  -2.9177  -2.8900  -2.8900  -2.8900  -2.8899
    -2.8161  -2.8161  -2.6057  -2.6057  -2.5872  -2.5872  -2.5111  -2.5111
    -2.5111  -2.5111  -2.5111  -2.5111  -2.5111  -2.5111  -2.4331  -2.4331
    -2.3886  -2.3886  -2.3886  -2.3886  -2.3633  -2.3633  -2.3633  -2.3633
    -2.3633  -2.3632  -2.3632  -2.3632  -2.1327  -2.1327  -2.1327  -2.1327
    -2.1327  -2.1327  -2.1327  -2.1326  -2.1137  -2.1137  -2.1137  -2.1137
    -2.1137  -2.1137  -2.1137  -2.1136  -2.0711  -2.0711  -2.0711  -2.0710
    -2.0505  -2.0505  -2.0388  -2.0388  -2.0388  -2.0388  -1.8511  -1.8511
    -1.8511  -1.8511  -1.7522  -1.7522  -1.7522  -1.7522  -1.7211  -1.7211
    -1.6986  -1.6986  -1.5026  -1.5025  -1.5025  -1.5025  -1.4692  -1.4692
    -1.4692  -1.4692  -1.4692  -1.4692  -1.4692  -1.4692  -1.3861  -1.3861
    -1.3861  -1.3861  -1.3139  -1.3139  -1.3021  -1.3021  -1.3021  -1.3021
    -1.3021  -1.3021  -1.3021  -1.3021  -1.2780  -1.2780  -1.2780  -1.2780
    -1.2698  -1.2698  -1.2698  -1.2698  -1.2677  -1.2677  -1.2677  -1.2677
    -1.0995  -1.0995  -1.0995  -1.0995  -1.0994  -1.0994  -1.0994  -1.0994
    -0.9840  -0.9840  -0.9840  -0.9839  -0.9522  -0.9522  -0.9522  -0.9522
    -0.8054  -0.8054  -0.8054  -0.8053  -0.8053  -0.8053  -0.8053  -0.8053
    -0.6388  -0.6388  -0.6388  -0.6388  -0.6355  -0.6355  -0.6355  -0.6355
    -0.5264  -0.5264  -0.5263  -0.5263  -0.2870  -0.2869  -0.2869  -0.2869
    -0.2709  -0.2709  -0.2709  -0.2709  -0.0250  -0.0250  -0.0250  -0.0250
     1.2918   1.2918   1.2919   1.2919   1.4996   1.4996   1.4996   1.4996
     1.5302   1.5303   1.5303   1.5303   1.8077   1.8077   1.8078   1.8078
     1.8078   1.8078   1.8078   1.8079   1.8668   1.8668   1.8668   1.8669
     2.3821   2.3821   2.3821   2.3821   2.5760   2.5760   2.5760   2.5761
     2.6498   2.6498   2.6498   2.6498   2.6572   2.6572   2.6572   2.6572
     2.7330   2.7330   2.7330   2.7330   2.7411   2.7411   2.7411   2.7411
     2.9207   2.9207   2.9207   2.9207   2.9208   2.9208   2.9208   2.9208
     3.3324   3.3324   3.3324   3.3324   3.4236   3.4236   3.4236   3.4236
     3.5336   3.5336   3.5336   3.5336   3.5336   3.5336   3.5336   3.5336
     3.6384   3.6384   3.6927   3.6927   3.6927   3.6927   3.6927   3.6927
     3.6927   3.6927   3.7018   3.7018   3.7161   3.7161   3.7304   3.7304
     3.8230   3.8230   3.8230   3.8230   3.8230   3.8230   3.8230   3.8230
     3.8812   3.8812   3.8812   3.8812   3.8812   3.8812   3.8812   3.8812
     3.9380   3.9380   3.9380   3.9380   4.0339   4.0339   4.0339   4.0339
     4.0339   4.0339   4.0340   4.0340   4.0502   4.0502   4.0655   4.0655
     4.0656   4.0656   4.0656   4.0656   4.0656   4.0656   4.0889   4.0889
     4.0889   4.0889   4.1165   4.1165   4.1501   4.1501   4.1501   4.1501
     4.1575   4.1575   4.2121   4.2121   4.2121   4.2121   4.2479   4.2479
     4.4239   4.4239   4.4239   4.4239   4.4240   4.4240   4.4240   4.4240
     4.4752   4.4752   4.4752   4.4752   4.5621   4.5621   4.5621   4.5621
     4.6160   4.6160   4.6160   4.6160   4.6161   4.6161   4.6161   4.6161
     4.6275   4.6275   4.6594   4.6594   4.6594   4.6594   4.6594   4.6594
     4.6594   4.6594   4.6890   4.6890   4.6890   4.6890   4.7095   4.7095
     4.7095   4.7095   4.7251   4.7251   4.7251   4.7252   4.7752   4.7752
     4.7833   4.7833   4.7833   4.7833   4.7833   4.7833   4.7833   4.7834
     4.8199   4.8200

     the Fermi energy is     3.4400 ev

!    total energy              =  -11908.17601780 Ry
     estimated scf accuracy    <       0.00000006 Ry
     smearing contrib. (-TS)   =      -0.01261890 Ry
     internal energy E=F+TS    =  -11908.16339890 Ry

     The total energy is F=E-TS. E is the sum of the following terms:
     one-electron contribution = -158628.38746143 Ry
     hartree contribution      =   79403.49927337 Ry
     xc contribution           =   -1804.22677634 Ry
     ewald contribution        =   69124.39829296 Ry
     DFT-D3 Dispersion         =      -3.44672746 Ry

     convergence has been achieved in  22 iterations

     negative rho (up, down):  7.776E-02 0.000E+00

     Forces acting on atoms (cartesian axes, Ry/au):

     atom    1 type  1   force =     0.00000000    0.00000000    0.09413318
     atom    2 type  1   force =    -0.00000161    0.00000000   -0.02012010
     atom    3 type  1   force =     0.00000000   -0.00000161   -0.02012010
     atom    4 type  1   force =    -0.00000253   -0.00000253    0.09413198
     atom    5 type  1   force =     0.00000000    0.00000000    0.00002079
     atom    6 type  1   force =    -0.00000174    0.00000000   -0.00122980
     atom    7 type  1   force =     0.00000000   -0.00000174   -0.00122980
     atom    8 type  1   force =     0.00000844    0.00000844    0.00002412
     atom    9 type  1   force =     0.00000000    0.00000061    0.09413074
     atom   10 type  1   force =    -0.00000070    0.00000078   -0.02012110
     atom   11 type  1   force =     0.00000000    0.00000000   -0.02011288
     atom   12 type  1   force =    -0.00000120    0.00000000    0.09413060
     atom   13 type  1   force =     0.00000000    0.00000614    0.00002194
     atom   14 type  1   force =     0.00000057    0.00000470   -0.00122974
     atom   15 type  1   force =     0.00000000    0.00000000   -0.00123503
     atom   16 type  1   force =     0.00000736   -0.00000000    0.00002264
     atom   17 type  1   force =     0.00000000   -0.00000061    0.09413074
     atom   18 type  1   force =    -0.00000070   -0.00000078   -0.02012110
     atom   19 type  1   force =     0.00000000    0.00000161   -0.02012010
     atom   20 type  1   force =    -0.00000253    0.00000253    0.09413198
     atom   21 type  1   force =     0.00000000   -0.00000614    0.00002194
     atom   22 type  1   force =     0.00000057   -0.00000470   -0.00122974
     atom   23 type  1   force =    -0.00000000    0.00000174   -0.00122980
     atom   24 type  1   force =     0.00000844   -0.00000844    0.00002412
     atom   25 type  1   force =     0.00000061    0.00000000    0.09413074
     atom   26 type  1   force =     0.00000000    0.00000000   -0.02011288
     atom   27 type  1   force =     0.00000078   -0.00000070   -0.02012110
     atom   28 type  1   force =     0.00000000   -0.00000120    0.09413060
     atom   29 type  1   force =     0.00000614    0.00000000    0.00002194
     atom   30 type  1   force =     0.00000000    0.00000000   -0.00123503
     atom   31 type  1   force =     0.00000470    0.00000057   -0.00122974
     atom   32 type  1   force =     0.00000000    0.00000736    0.00002264
     atom   33 type  1   force =     0.00000259    0.00000259    0.09413447
     atom   34 type  1   force =     0.00000000    0.00000186   -0.02011189
     atom   35 type  1   force =     0.00000186    0.00000000   -0.02011189
     atom   36 type  1   force =     0.00000000    0.00000000    0.09413496
     atom   37 type  1   force =     0.00000690    0.00000690    0.00002357
     atom   38 type  1   force =     0.00000000    0.00000491   -0.00123109
     atom   39 type  1   force =     0.00000491   -0.00000000   -0.00123109
     atom   40 type  1   force =     0.00000000    0.00000000    0.00002908
     atom   41 type  1   force =     0.00000259   -0.00000259    0.09413447
     atom   42 type  1   force =     0.00000000   -0.00000186   -0.02011189
     atom   43 type  1   force =     0.00000078    0.00000070   -0.02012110
     atom   44 type  1   force =     0.00000000    0.00000120    0.09413060
     atom   45 type  1   force =     0.00000690   -0.00000690    0.00002357
     atom   46 type  1   force =    -0.00000000   -0.00000491   -0.00123109
     atom   47 type  1   force =     0.00000470   -0.00000057   -0.00122974
     atom   48 type  1   force =    -0.00000000   -0.00000736    0.00002264
     atom   49 type  1   force =    -0.00000061    0.00000000    0.09413074
     atom   50 type  1   force =     0.00000161    0.00000000   -0.02012010
     atom   51 type  1   force =    -0.00000078   -0.00000070   -0.02012110
     atom   52 type  1   force =     0.00000253   -0.00000253    0.09413198
     atom   53 type  1   force =    -0.00000614   -0.00000000    0.00002194
     atom   54 type  1   force =     0.00000174   -0.00000000   -0.00122980
     atom   55 type  1   force =    -0.00000470    0.00000057   -0.00122974
     atom   56 type  1   force =    -0.00000844    0.00000844    0.00002412
     atom   57 type  1   force =    -0.00000259    0.00000259    0.09413447
     atom   58 type  1   force =     0.00000070    0.00000078   -0.02012110
     atom   59 type  1   force =    -0.00000186    0.00000000   -0.02011189
     atom   60 type  1   force =     0.00000120    0.00000000    0.09413060
     atom   61 type  1   force =    -0.00000690    0.00000690    0.00002357
     atom   62 type  1   force =    -0.00000057    0.00000470   -0.00122974
     atom   63 type  1   force =    -0.00000491    0.00000000   -0.00123109
     atom   64 type  1   force =    -0.00000736    0.00000000    0.00002264
     atom   65 type  1   force =    -0.00000259   -0.00000259    0.09413447
     atom   66 type  1   force =     0.00000070   -0.00000078   -0.02012110
     atom   67 type  1   force =    -0.00000078    0.00000070   -0.02012110
     atom   68 type  1   force =     0.00000253    0.00000253    0.09413198
     atom   69 type  1   force =    -0.00000690   -0.00000690    0.00002357
     atom   70 type  1   force =    -0.00000057   -0.00000470   -0.00122974
     atom   71 type  1   force =    -0.00000470   -0.00000057   -0.00122974
     atom   72 type  1   force =    -0.00000844   -0.00000844    0.00002412
     atom   73 type  2   force =     0.00000000    0.00000366   -0.05269551
     atom   74 type  2   force =     0.00000366    0.00000000   -0.05269551
     atom   75 type  2   force =     0.00000000    0.00000000   -0.02146407
     atom   76 type  2   force =     0.00000485    0.00000485   -0.02147930
     atom   77 type  2   force =     0.00000000    0.00000441    0.00046420
     atom   78 type  2   force =     0.00000441   -0.00000000    0.00046420
     atom   79 type  2   force =     0.00000000    0.00000000    0.00090906
     atom   80 type  2   force =     0.00000647    0.00000647    0.00089857
     atom   81 type  2   force =     0.00000000    0.00000000   -0.05269391
     atom   82 type  2   force =    -0.00000029   -0.00000104   -0.05269006
     atom   83 type  2   force =     0.00000000   -0.00000158   -0.02146816
     atom   84 type  2   force =     0.00000260   -0.00000000   -0.02146325
     atom   85 type  2   force =     0.00000000    0.00000000    0.00046030
     atom   86 type  2   force =     0.00000015    0.00000556    0.00045931
     atom   87 type  2   force =     0.00000000    0.00000371    0.00089714
     atom   88 type  2   force =     0.00000144    0.00000000    0.00089359
     atom   89 type  2   force =     0.00000000   -0.00000366   -0.05269551
     atom   90 type  2   force =    -0.00000029    0.00000104   -0.05269006
     atom   91 type  2   force =     0.00000000    0.00000158   -0.02146816
     atom   92 type  2   force =     0.00000485   -0.00000485   -0.02147930
     atom   93 type  2   force =     0.00000000   -0.00000441    0.00046420
     atom   94 type  2   force =     0.00000015   -0.00000556    0.00045931
     atom   95 type  2   force =     0.00000000   -0.00000371    0.00089714
     atom   96 type  2   force =     0.00000647   -0.00000647    0.00089857
     atom   97 type  2   force =    -0.00000104   -0.00000029   -0.05269006
     atom   98 type  2   force =     0.00000000    0.00000000   -0.05269391
     atom   99 type  2   force =    -0.00000158    0.00000000   -0.02146816
     atom  100 type  2   force =     0.00000000    0.00000260   -0.02146325
     atom  101 type  2   force =     0.00000556    0.00000015    0.00045931
     atom  102 type  2   force =     0.00000000    0.00000000    0.00046030
     atom  103 type  2   force =     0.00000371    0.00000000    0.00089714
     atom  104 type  2   force =    -0.00000000    0.00000144    0.00089359
     atom  105 type  2   force =    -0.00000355    0.00000000   -0.05269395
     atom  106 type  2   force =    -0.00000000   -0.00000355   -0.05269395
     atom  107 type  2   force =    -0.00000342   -0.00000342   -0.02147329
     atom  108 type  2   force =     0.00000000    0.00000000   -0.02145730
     atom  109 type  2   force =     0.00000236    0.00000000    0.00045764
     atom  110 type  2   force =    -0.00000000    0.00000236    0.00045764
     atom  111 type  2   force =    -0.00000028   -0.00000028    0.00089047
     atom  112 type  2   force =     0.00000000    0.00000000    0.00088888
     atom  113 type  2   force =    -0.00000104    0.00000029   -0.05269006
     atom  114 type  2   force =     0.00000000    0.00000355   -0.05269395
     atom  115 type  2   force =    -0.00000342    0.00000342   -0.02147329
     atom  116 type  2   force =     0.00000000   -0.00000260   -0.02146325
     atom  117 type  2   force =     0.00000556   -0.00000015    0.00045931
     atom  118 type  2   force =     0.00000000   -0.00000236    0.00045764
     atom  119 type  2   force =    -0.00000028    0.00000028    0.00089047
     atom  120 type  2   force =     0.00000000   -0.00000144    0.00089359
     atom  121 type  2   force =     0.00000104   -0.00000029   -0.05269006
     atom  122 type  2   force =    -0.00000366    0.00000000   -0.05269551
     atom  123 type  2   force =     0.00000158    0.00000000   -0.02146816
     atom  124 type  2   force =    -0.00000485    0.00000485   -0.02147930
     atom  125 type  2   force =    -0.00000556    0.00000015    0.00045931
     atom  126 type  2   force =    -0.00000441    0.00000000    0.00046420
     atom  127 type  2   force =    -0.00000371    0.00000000    0.00089714
     atom  128 type  2   force =    -0.00000647    0.00000647    0.00089857
     atom  129 type  2   force =     0.00000355   -0.00000000   -0.05269395
     atom  130 type  2   force =     0.00000029   -0.00000104   -0.05269006
     atom  131 type  2   force =     0.00000342   -0.00000342   -0.02147329
     atom  132 type  2   force =    -0.00000260    0.00000000   -0.02146325
     atom  133 type  2   force =    -0.00000236   -0.00000000    0.00045764
     atom  134 type  2   force =    -0.00000015    0.00000556    0.00045931
     atom  135 type  2   force =     0.00000028   -0.00000028    0.00089047
     atom  136 type  2   force =    -0.00000144   -0.00000000    0.00089359
     atom  137 type  2   force =     0.00000104    0.00000029   -0.05269006
     atom  138 type  2   force =     0.00000029    0.00000104   -0.05269006
     atom  139 type  2   force =     0.00000342    0.00000342   -0.02147329
     atom  140 type  2   force =    -0.00000485   -0.00000485   -0.02147930
     atom  141 type  2   force =    -0.00000556   -0.00000015    0.00045931
     atom  142 type  2   force =    -0.00000015   -0.00000556    0.00045931
     atom  143 type  2   force =     0.00000028    0.00000028    0.00089047
     atom  144 type  2   force =    -0.00000647   -0.00000647    0.00089857

     Total force =     0.006747     Total SCF correction =     0.000714
     SCF correction compared to forces is large: reduce conv_thr to get better values
     Energy error            =      4.8E-04 Ry
     Gradient error          =      1.2E-03 Ry/Bohr

     number of scf cycles    =  11
     number of bfgs steps    =  10

     energy             old  =  -11908.1755330815 Ry
     energy             new  =  -11908.1760178028 Ry

     CASE: energy            _new < energy            _old

     new trust radius        =       0.0022968928 bohr
     new conv_thr            =       0.0000000794 Ry


ATOMIC_POSITIONS (angstrom)
V                0.0000000000        0.0000000000       10.0000000000    0   0   0
V                2.0432625400        0.0000000000       12.0432625400    0   0   0
V                0.0000000000        2.0432625400       12.0432625400    0   0   0
V                2.0432625400        2.0432625400       10.0000000000    0   0   0
V                0.0000001400        0.0000001700       14.1591470560
V                2.0431786866        0.0000000600       16.0193761964
V               -0.0000000900        2.0431786066       16.0193760064
V                2.0432467734        2.0432466834       14.1591545868
V                0.0000000000        4.0865250700       10.0000000000    0   0   0
V                2.0432625400        4.0865250700       12.0432625400    0   0   0
V                0.0000000000        6.1297876100       12.0432625400    0   0   0
V                2.0432625400        6.1297876100       10.0000000000    0   0   0
V                0.0000001200        4.0865104189       14.1591574207
V                2.0431893478        4.0866084857       16.0194005024
V               -0.0000001500        6.1297875000       16.0193641302
V                2.0432506629        6.1297873900       14.1591696449
V                0.0000000000        8.1730501500       10.0000000000    0   0   0
V                2.0432625400        8.1730501500       12.0432625400    0   0   0
V                0.0000000000       10.2163126900       12.0432625400    0   0   0
V                2.0432625400       10.2163126900       10.0000000000    0   0   0
V               -0.0000002100        8.1730645511       14.1591574007
V                2.0431894278        8.1729669343       16.0194003224
V               -0.0000000100       10.2163965134       16.0193762764
V                2.0432467034       10.2163282966       14.1591543768
V                4.0865250700        0.0000000000       10.0000000000    0   0   0
V                6.1297876100        0.0000000000       12.0432625400    0   0   0
V                4.0865250700        2.0432625400       12.0432625400    0   0   0
V                6.1297876100        2.0432625400       10.0000000000    0   0   0
V                4.0865104389        0.0000001700       14.1591573307
V                6.1297876200        0.0000000500       16.0193647102
V                4.0866082957        2.0431894278       16.0194006124
V                6.1297873700        2.0432507429       14.1591696449
V                4.0865250700        4.0865250700       10.0000000000    0   0   0
V                6.1297876100        4.0865250700       12.0432625400    0   0   0
V                4.0865250700        6.1297876100       12.0432625400    0   0   0
V                6.1297876100        6.1297876100       10.0000000000    0   0   0
V                4.0865116120        4.0865114220       14.1591661536
V                6.1297875500        4.0865726566       16.0193846479
V                4.0865726066        6.1297875500       16.0193844079
V                6.1297874000        6.1297875000       14.1591515256
V                4.0865250700        8.1730501500       10.0000000000    0   0   0
V                6.1297876100        8.1730501500       12.0432625400    0   0   0
V                4.0865250700       10.2163126900       12.0432625400    0   0   0
V                6.1297876100       10.2163126900       10.0000000000    0   0   0
V                4.0865116320        8.1730639180       14.1591661636
V                6.1297875800        8.1730024834       16.0193843679
V                4.0866083157       10.2163857222       16.0194000824
V                6.1297875400       10.2163242571       14.1591697149
V                8.1730501500        0.0000000000       10.0000000000    0   0   0
V               10.2163126900        0.0000000000       12.0432625400    0   0   0
V                8.1730501500        2.0432625400       12.0432625400    0   0   0
V               10.2163126900        2.0432625400       10.0000000000    0   0   0
V                8.1730647511        0.0000000500       14.1591573107
V               10.2163965934        0.0000001000       16.0193761364
V                8.1729668843        2.0431894278       16.0194008524
V               10.2163285066        2.0432467034       14.1591542468
V                8.1730501500        4.0865250700       10.0000000000    0   0   0
V               10.2163126900        4.0865250700       12.0432625400    0   0   0
V                8.1730501500        6.1297876100       12.0432625400    0   0   0
V               10.2163126900        6.1297876100       10.0000000000    0   0   0
V                8.1730634380        4.0865116120       14.1591660736
V               10.2163857822        4.0866085157       16.0194003024
V                8.1730026534        6.1297876500       16.0193846379
V               10.2163246371        6.1297875900       14.1591697649
V                8.1730501500        8.1730501500       10.0000000000    0   0   0
V               10.2163126900        8.1730501500       12.0432625400    0   0   0
V                8.1730501500       10.2163126900       12.0432625400    0   0   0
V               10.2163126900       10.2163126900       10.0000000000    0   0   0
V                8.1730637880        8.1730636680       14.1591662736
V               10.2163857822        8.1729667343       16.0194004924
V                8.1729667543       10.2163858222       16.0194001024
V               10.2163283866       10.2163282566       14.1591543568
N                0.0000000000        2.0432625400       10.0000000000    0   0   0
N                2.0432625400        0.0000000000       10.0000000000    0   0   0
N                0.0000000000        0.0000000000       12.0432625400    0   0   0
N                2.0432625400        2.0432625400       12.0432625400    0   0   0
N                0.0000001100        2.0432516243       14.1177486709
N                2.0432513943        0.0000001000       14.1177483709
N               -0.0000000300       -0.0000000400       16.2814009716
N                2.0432808826        2.0432808026       16.2813146737
N                0.0000000000        6.1297876100       10.0000000000    0   0   0
N                2.0432625400        4.0865250700       10.0000000000    0   0   0
N                0.0000000000        4.0865250700       12.0432625400    0   0   0
N                2.0432625400        6.1297876100       12.0432625400    0   0   0
N               -0.0000000400        6.1297876300       14.1177463216
N                2.0432539453        4.0865182497       14.1177672343
N               -0.0000001500        4.0864874159       16.2813702353
N                2.0432710150        6.1297874600       16.2814018982
N                0.0000000000       10.2163126900       10.0000000000    0   0   0
N                2.0432625400        8.1730501500       10.0000000000    0   0   0
N                0.0000000000        8.1730501500       12.0432625400    0   0   0
N                2.0432625400       10.2163126900       12.0432625400    0   0   0
N                0.0000000200       10.2163236057       14.1177481909
N                2.0432539353        8.1730571303       14.1177673743
N                0.0000000800        8.1730879141       16.2813702053
N                2.0432808126       10.2162944374       16.2813145837
N                4.0865250700        2.0432625400       10.0000000000    0   0   0
N                6.1297876100        0.0000000000       10.0000000000    0   0   0
N                4.0865250700        0.0000000000       12.0432625400    0   0   0
N                6.1297876100        2.0432625400       12.0432625400    0   0   0
N                4.0865180597        2.0432540053       14.1177670643
N                6.1297875500        0.0000000900       14.1177461516
N                4.0864873659       -0.0000000300       16.2813707253
N                6.1297876600        2.0432711250       16.2814023182
N                4.0865250700        6.1297876100       10.0000000000    0   0   0
N                6.1297876100        4.0865250700       10.0000000000    0   0   0
N                4.0865250700        4.0865250700       12.0432625400    0   0   0
N                6.1297876100        6.1297876100       12.0432625400    0   0   0
N                4.0865194352        6.1297874900       14.1177620182
N                6.1297876500        4.0865193652       14.1177616882
N                4.0864968837        4.0864967637       16.2813529306
N                6.1297876300        6.1297875100       16.2814372718
N                4.0865250700       10.2163126900       10.0000000000    0   0   0
N                6.1297876100        8.1730501500       10.0000000000    0   0   0
N                4.0865250700        8.1730501500       12.0432625400    0   0   0
N                6.1297876100       10.2163126900       12.0432625400    0   0   0
N                4.0865180297       10.2163210447       14.1177674943
N                6.1297875600        8.1730558648       14.1177620182
N                4.0864968637        8.1730785863       16.2813524706
N                6.1297876400       10.2163042350       16.2814020682
N                8.1730501500        2.0432625400       10.0000000000    0   0   0
N               10.2163126900        0.0000000000       10.0000000000    0   0   0
N                8.1730501500        0.0000000000       12.0432625400    0   0   0
N               10.2163126900        2.0432625400       12.0432625400    0   0   0
N                8.1730570503        2.0432538853       14.1177669243
N               10.2163238957       -0.0000001200       14.1177484709
N                8.1730877441        0.0000000100       16.2813704353
N               10.2162944674        2.0432808126       16.2813145937
N                8.1730501500        6.1297876100       10.0000000000    0   0   0
N               10.2163126900        4.0865250700       10.0000000000    0   0   0
N                8.1730501500        4.0865250700       12.0432625400    0   0   0
N               10.2163126900        6.1297876100       12.0432625400    0   0   0
N                8.1730556448        6.1297873400       14.1177615882
N               10.2163213347        4.0865182297       14.1177675143
N                8.1730785163        4.0864967537       16.2813526406
N               10.2163042150        6.1297876700       16.2814018482
N                8.1730501500       10.2163126900       10.0000000000    0   0   0
N               10.2163126900        8.1730501500       10.0000000000    0   0   0
N                8.1730501500        8.1730501500       12.0432625400    0   0   0
N               10.2163126900       10.2163126900       12.0432625400    0   0   0
N                8.1730569803       10.2163213547       14.1177674643
N               10.2163213247        8.1730569303       14.1177668843
N                8.1730784263        8.1730784863       16.2813526306
N               10.2162944574       10.2162943574       16.2813146137



     Writing config-only to output data dir ./tmp/VN_slab.save/ :
     XML data file
     NEW-OLD atomic charge density approx. for the potential

     Check: negative core charge=   -0.000004

     negative rho (up, down):  7.777E-02 0.000E+00

     total cpu time spent up to now is    25757.9 secs

     per-process dynamical memory:   807.7 Mb

     Self-consistent Calculation

     iteration #  1     ecut=    45.00 Ry     beta= 0.25
     Davidson diagonalization with overlap
     ethr =  1.00E-06,  avg # of iterations =  3.0

     Threshold (ethr) on eigenvalues was too large:
     Diagonalizing with lowered threshold

     Davidson diagonalization with overlap
     ethr =  7.25E-09,  avg # of iterations =  5.3

     negative rho (up, down):  7.777E-02 0.000E+00

     total cpu time spent up to now is    25960.2 secs

     total energy              =  -11908.17603704 Ry
     estimated scf accuracy    <       0.00008348 Ry

     iteration #  2     ecut=    45.00 Ry     beta= 0.25
     Davidson diagonalization with overlap
     c_bands:  1 eigenvalues not converged
     ethr =  6.44E-09,  avg # of iterations =  8.5

     negative rho (up, down):  7.777E-02 0.000E+00

     total cpu time spent up to now is    26058.6 secs

     total energy              =  -11908.17595120 Ry
     estimated scf accuracy    <       0.00445540 Ry

     iteration #  3     ecut=    45.00 Ry     beta= 0.25
     Davidson diagonalization with overlap
     ethr =  6.44E-09,  avg # of iterations =  6.0

     negative rho (up, down):  7.777E-02 0.000E+00

     total cpu time spent up to now is    26151.5 secs

     total energy              =  -11908.17601997 Ry
     estimated scf accuracy    <       0.00329662 Ry

     iteration #  4     ecut=    45.00 Ry     beta= 0.25
     Davidson diagonalization with overlap
     ethr =  6.44E-09,  avg # of iterations =  5.8

     negative rho (up, down):  7.777E-02 0.000E+00

     total cpu time spent up to now is    26234.4 secs

     total energy              =  -11908.17605522 Ry
     estimated scf accuracy    <       0.00011889 Ry

     iteration #  5     ecut=    45.00 Ry     beta= 0.25
     Davidson diagonalization with overlap
     ethr =  6.44E-09,  avg # of iterations =  2.3

     negative rho (up, down):  7.777E-02 0.000E+00

     total cpu time spent up to now is    26311.4 secs

     total energy              =  -11908.17605500 Ry
     estimated scf accuracy    <       0.00015381 Ry

     iteration #  6     ecut=    45.00 Ry     beta= 0.25
     Davidson diagonalization with overlap
     ethr =  6.44E-09,  avg # of iterations =  2.3

     negative rho (up, down):  7.777E-02 0.000E+00

     total cpu time spent up to now is    26389.4 secs

     total energy              =  -11908.17605738 Ry
     estimated scf accuracy    <       0.00007736 Ry

     iteration #  7     ecut=    45.00 Ry     beta= 0.25
     Davidson diagonalization with overlap
     ethr =  5.97E-09,  avg # of iterations =  1.0

     negative rho (up, down):  7.777E-02 0.000E+00

     total cpu time spent up to now is    26456.1 secs

     total energy              =  -11908.17605874 Ry
     estimated scf accuracy    <       0.00002535 Ry

     iteration #  8     ecut=    45.00 Ry     beta= 0.25
     Davidson diagonalization with overlap
     ethr =  1.96E-09,  avg # of iterations =  1.0

     negative rho (up, down):  7.777E-02 0.000E+00

     total cpu time spent up to now is    26522.4 secs

     total energy              =  -11908.17605952 Ry
     estimated scf accuracy    <       0.00000412 Ry

     iteration #  9     ecut=    45.00 Ry     beta= 0.25
     Davidson diagonalization with overlap
     ethr =  3.18E-10,  avg # of iterations =  5.5

     negative rho (up, down):  7.777E-02 0.000E+00

     total cpu time spent up to now is    26603.7 secs

     total energy              =  -11908.17605953 Ry
     estimated scf accuracy    <       0.00000377 Ry

     iteration # 10     ecut=    45.00 Ry     beta= 0.25
     Davidson diagonalization with overlap
     ethr =  2.91E-10,  avg # of iterations =  4.3

     negative rho (up, down):  7.777E-02 0.000E+00

     total cpu time spent up to now is    26685.3 secs

     total energy              =  -11908.17605964 Ry
     estimated scf accuracy    <       0.00000241 Ry

     iteration # 11     ecut=    45.00 Ry     beta= 0.25
     Davidson diagonalization with overlap
     ethr =  1.86E-10,  avg # of iterations =  2.5

     negative rho (up, down):  7.777E-02 0.000E+00

     total cpu time spent up to now is    26762.4 secs

     total energy              =  -11908.17605973 Ry
     estimated scf accuracy    <       0.00000065 Ry

     iteration # 12     ecut=    45.00 Ry     beta= 0.25
     Davidson diagonalization with overlap
     ethr =  4.99E-11,  avg # of iterations =  5.8

     negative rho (up, down):  7.777E-02 0.000E+00

     total cpu time spent up to now is    26851.1 secs

     total energy              =  -11908.17605969 Ry
     estimated scf accuracy    <       0.00000299 Ry

     iteration # 13     ecut=    45.00 Ry     beta= 0.25
     Davidson diagonalization with overlap
     ethr =  4.99E-11,  avg # of iterations =  5.2

     negative rho (up, down):  7.777E-02 0.000E+00

     total cpu time spent up to now is    26936.4 secs

     total energy              =  -11908.17605969 Ry
     estimated scf accuracy    <       0.00000657 Ry

     iteration # 14     ecut=    45.00 Ry     beta= 0.25
     Davidson diagonalization with overlap
     ethr =  4.99E-11,  avg # of iterations =  3.8

     negative rho (up, down):  7.777E-02 0.000E+00

     total cpu time spent up to now is    27020.2 secs

     total energy              =  -11908.17605978 Ry
     estimated scf accuracy    <       0.00000038 Ry

     iteration # 15     ecut=    45.00 Ry     beta= 0.25
     Davidson diagonalization with overlap
     ethr =  2.91E-11,  avg # of iterations =  5.8

     negative rho (up, down):  7.777E-02 0.000E+00

     total cpu time spent up to now is    27098.3 secs

     total energy              =  -11908.17605974 Ry
     estimated scf accuracy    <       0.00000230 Ry

     iteration # 16     ecut=    45.00 Ry     beta= 0.25
     Davidson diagonalization with overlap
     ethr =  2.91E-11,  avg # of iterations =  5.0

     negative rho (up, down):  7.777E-02 0.000E+00

     total cpu time spent up to now is    27172.8 secs

     total energy              =  -11908.17605974 Ry
     estimated scf accuracy    <       0.00000368 Ry

     iteration # 17     ecut=    45.00 Ry     beta= 0.25
     Davidson diagonalization with overlap
     ethr =  2.91E-11,  avg # of iterations =  3.3

     negative rho (up, down):  7.777E-02 0.000E+00

     total cpu time spent up to now is    27256.0 secs

     total energy              =  -11908.17605978 Ry
     estimated scf accuracy    <       0.00000030 Ry

     iteration # 18     ecut=    45.00 Ry     beta= 0.25
     Davidson diagonalization with overlap
     ethr =  2.28E-11,  avg # of iterations =  2.5

     negative rho (up, down):  7.777E-02 0.000E+00

     total cpu time spent up to now is    27336.7 secs

     total energy              =  -11908.17605979 Ry
     estimated scf accuracy    <       0.00000048 Ry

     iteration # 19     ecut=    45.00 Ry     beta= 0.25
     Davidson diagonalization with overlap
     ethr =  2.28E-11,  avg # of iterations =  2.5

     negative rho (up, down):  7.777E-02 0.000E+00

     total cpu time spent up to now is    27414.1 secs

     total energy              =  -11908.17605980 Ry
     estimated scf accuracy    <       0.00000016 Ry

     iteration # 20     ecut=    45.00 Ry     beta= 0.25
     Davidson diagonalization with overlap
     ethr =  1.23E-11,  avg # of iterations =  2.0

     negative rho (up, down):  7.777E-02 0.000E+00

     total cpu time spent up to now is    27491.5 secs

     total energy              =  -11908.17605980 Ry
     estimated scf accuracy    <       0.00000011 Ry

     iteration # 21     ecut=    45.00 Ry     beta= 0.25
     Davidson diagonalization with overlap
     ethr =  8.45E-12,  avg # of iterations =  1.3

     negative rho (up, down):  7.777E-02 0.000E+00

     total cpu time spent up to now is    27566.1 secs

     End of self-consistent calculation

          k = 0.0000 0.0000 0.0000 (135157 PWs)   bands (ev):

   -61.8937 -61.8743 -61.8743 -61.8743 -61.8743 -61.8627 -61.8627 -61.8627
   -61.8627 -61.8449 -61.8449 -61.8448 -61.8448 -61.8393 -61.8393 -61.8393
   -61.8393 -61.8246 -61.8209 -61.8129 -61.8080 -61.8080 -61.8080 -61.8080
   -61.8044 -61.8044 -61.8044 -61.8044 -61.7947 -61.7947 -61.7947 -61.7947
   -61.7944 -61.7944 -61.7944 -61.7944 -61.7870 -61.7870 -61.7870 -61.7870
   -61.7807 -61.7806 -61.7806 -61.7806 -61.7747 -61.7597 -61.7596 -61.7596
   -61.7596 -61.7554 -61.7553 -61.7553 -61.7553 -61.7401 -61.7078 -61.7057
   -61.7057 -61.7057 -61.7056 -61.7040 -61.7040 -61.7040 -61.7040 -61.7005
   -61.7005 -61.7005 -61.7004 -61.6913 -61.6913 -61.6913 -61.6913 -61.6799
   -35.9884 -35.9884 -35.9884 -35.9884 -35.9651 -35.9651 -35.9651 -35.9651
   -35.9595 -35.9595 -35.9482 -35.9482 -35.9482 -35.9482 -35.9318 -35.9318
   -35.9318 -35.9318 -35.8965 -35.8965 -35.8965 -35.8965 -35.8959 -35.8959
   -35.8959 -35.8958 -35.8927 -35.8927 -35.8927 -35.8927 -35.8813 -35.8813
   -35.8786 -35.8786 -35.8786 -35.8786 -35.8701 -35.8701 -35.8701 -35.8701
   -35.8638 -35.8460 -35.8460 -35.8460 -35.8460 -35.8455 -35.8455 -35.8455
   -35.8455 -35.8232 -35.8232 -35.8232 -35.8232 -35.8180 -35.8180 -35.8180
   -35.8180 -35.8062 -35.8062 -35.8062 -35.8062 -35.8017 -35.8017 -35.8017
   -35.8017 -35.7726 -35.7726 -35.7596 -35.7596 -35.7596 -35.7596 -35.7570
   -35.7570 -35.7570 -35.7570 -35.7502 -35.7235 -35.7235 -35.7235 -35.7235
   -35.7217 -35.7217 -35.7217 -35.7217 -35.6972 -35.6934 -35.6934 -35.6898
   -35.6898 -35.6897 -35.6897 -35.6875 -35.6875 -35.6875 -35.6875 -35.6850
   -35.6850 -35.6850 -35.6850 -35.6788 -35.6788 -35.6788 -35.6788 -35.6640
   -35.6640 -35.6640 -35.6640 -35.6607 -35.6607 -35.6515 -35.6514 -35.6514
   -35.6514 -35.6416 -35.6416 -35.6416 -35.6416 -35.6260 -35.6260 -35.6259
   -35.6259 -35.6248 -35.6248 -35.6198 -35.6198 -35.6198 -35.6198 -35.6195
   -35.6195 -35.6195 -35.6195 -35.6150 -35.6150 -35.6150 -35.6150 -35.6145
   -35.6096 -35.6051 -35.6051 -35.6051 -35.6051 -35.5954 -35.5942 -35.5942
   -35.5942 -35.5942 -35.5927 -35.5927 -35.5927 -35.5926 -35.5883 -35.5883
   -35.5883 -35.5883 -35.5761 -35.5761 -35.5761 -35.5761 -35.5700 -35.5699
   -35.5699 -35.5699 -35.5681 -35.5681 -35.5655 -35.5655 -35.5655 -35.5655
   -35.5547 -35.5547 -35.5547 -35.5547 -35.5547 -35.5546 -35.5546 -35.5546
   -35.5257 -35.5257 -35.5257 -35.5257 -35.5236 -35.5236 -35.5235 -35.5235
   -35.5178 -35.5178 -35.5178 -35.5178 -35.5083 -35.5083 -35.5083 -35.5083
   -35.4979 -35.4898 -35.4897 -35.4897 -35.4897 -35.4777 -35.4777 -35.4487
   -35.4487 -35.4487 -35.4487 -35.4470 -35.4470 -35.4470 -35.4469 -35.4195
   -35.4195 -35.4194 -35.4194 -35.4190 -35.4039 -35.4039 -35.4038 -35.4038
   -14.2923 -13.6339 -13.6339 -13.6339 -13.6338 -13.4166 -13.0317 -13.0316
   -13.0316 -13.0316 -12.8576 -12.8576 -12.8576 -12.8576 -12.8225 -12.7885
   -12.7885 -12.7885 -12.7885 -12.6103 -12.5629 -12.4568 -12.4568 -12.4568
   -12.4568 -12.4313 -12.4313 -12.4313 -12.4313 -12.4014 -12.3917 -12.3917
   -12.3917 -12.3917 -12.2471 -12.2471 -12.2471 -12.2471 -12.0895 -12.0895
   -12.0895 -12.0895 -11.8926 -11.8926 -11.8925 -11.8925 -11.8384 -11.6982
   -11.6982 -11.6982 -11.6982 -11.6798 -11.6798 -11.6798 -11.6797 -11.5292
   -11.4549 -11.4549 -11.4549 -11.4549 -11.4431 -11.4430 -11.4430 -11.4428
   -11.4108 -11.4107 -11.4105 -11.4105 -11.1767 -11.1765 -11.1765 -11.1763
    -4.7394  -4.7393  -4.7393  -4.7393  -4.5400  -4.5400  -4.5400  -4.5400
    -4.4238  -4.4238  -4.4238  -4.4238  -4.3017  -4.3017  -4.3017  -4.3017
    -3.9825  -3.9825  -3.9825  -3.9825  -3.7677  -3.7677  -3.7677  -3.7677
    -3.6660  -3.6660  -3.6660  -3.6660  -3.6591  -3.6590  -3.6590  -3.6590
    -3.5448  -3.5134  -3.5133  -3.5133  -3.5133  -3.2697  -3.2697  -3.2697
    -3.2696  -3.1848  -3.1848  -3.1337  -3.1337  -3.1337  -3.1337  -3.1171
    -3.1170  -3.1170  -3.1170  -3.1151  -3.1151  -3.1151  -3.1151  -3.0348
    -3.0348  -3.0348  -3.0348  -2.7170  -2.7170  -2.7170  -2.7169  -2.5953
    -2.5953  -2.5505  -2.4844  -2.4843  -2.4843  -2.4842  -2.4636  -2.4636
    -2.4636  -2.4636  -2.4554  -2.4554  -2.4554  -2.4554  -2.4503  -2.4503
    -2.4503  -2.4503  -2.3902  -2.3902  -2.3902  -2.3902  -2.3452  -2.3452
    -2.3452  -2.3452  -2.2280  -2.2280  -2.2280  -2.2280  -2.2152  -2.2152
    -2.2152  -2.2152  -2.1645  -2.1645  -2.1645  -2.1645  -2.1563  -2.1563
    -2.1563  -2.1563  -2.1523  -2.1523  -2.1523  -2.1523  -2.0119  -2.0119
    -2.0119  -2.0119  -2.0013  -1.9793  -1.9793  -1.9793  -1.9793  -1.8497
    -1.8497  -1.8497  -1.8497  -1.8419  -1.8419  -1.8418  -1.8418  -1.7194
    -1.7193  -1.7193  -1.7193  -1.7158  -1.7158  -1.7158  -1.7158  -1.6710
    -1.6666  -1.6666  -1.6666  -1.6666  -1.5865  -1.5865  -1.5778  -1.5778
    -1.5778  -1.5778  -1.4650  -1.4650  -1.4650  -1.4650  -1.3987  -1.3987
    -1.3987  -1.3987  -1.3948  -1.3947  -1.3947  -1.3947  -1.3744  -1.3449
    -1.3449  -1.3444  -1.3444  -1.2655  -1.2652  -1.2652  -1.2650  -1.2247
    -1.2246  -1.2246  -1.2246  -1.1681  -1.1680  -1.1680  -1.1678  -0.9318
    -0.9317  -0.9317  -0.9316  -0.9188  -0.9188  -0.9188  -0.9188  -0.8796
    -0.8796  -0.8267  -0.8267  -0.8266  -0.8266  -0.7583  -0.7583  -0.7580
    -0.7580  -0.6465  -0.6465  -0.6464  -0.6464  -0.4452  -0.4112  -0.4112
    -0.3353  -0.3352  -0.3351  -0.3351  -0.2633  -0.2633  -0.2631  -0.2631
    -0.2562  -0.0137  -0.0137   0.1208   0.3377   0.4237   0.5333   0.5333
     0.8776   0.8776   0.8860   0.8860   0.8861   0.8861   1.1689   1.1689
     1.2929   1.8179   1.8179   1.8179   1.8179   1.8354   2.3994   2.3994
     2.4838   2.4839   2.4839   2.4839   2.5169   2.5169   2.5169   2.5169
     2.5568   2.5568   2.5644   2.5644   2.5644   2.5644   2.6200   2.6200
     2.6201   2.6201   2.6623   2.6623   2.6624   2.6624   2.6910   2.6911
     2.6911   2.6911   2.9256   3.0419   3.0419   3.0419   3.0420   3.0814
     3.0814   3.0814   3.0815   3.1174   3.2026   3.2026   3.2031   3.2031
     3.2272   3.2272   3.2272   3.2272   3.2394   3.2394   3.2394   3.2395
     3.3327   3.3327   3.3327   3.3328   3.3854   3.3881   3.3881   3.3881
     3.3882   3.4207   3.4207   3.4208   3.4208   3.4333   3.4334   3.4334
     3.4335   3.4629   3.4629   3.4629   3.4629   3.4794   3.4794   3.4794
     3.4794   3.5332   3.5332   3.5332   3.5332   3.7205   3.7205   3.7205
     3.7206   3.7578   3.7578   3.8218   3.8563   3.8563   3.8564   3.8564
     3.8841   3.8843   3.8843   3.8846   3.9716   3.9716   3.9717   3.9717
     3.9746   3.9746   3.9746   3.9746   4.0463   4.0463   4.0463   4.0463
     4.0722   4.0816   4.0816   4.0816   4.0816   4.1626   4.1626   4.1910
     4.1910   4.1910   4.1910   4.2207   4.2245   4.2245   4.2245   4.2245
     4.2265   4.2265   4.2265   4.2265   4.3436   4.3436   4.3436   4.3436
     4.3747   4.3747   4.3747   4.3747   4.3918   4.3919   4.3919   4.3919
     4.3956   4.4198   4.4199   4.4199   4.4199   4.4914   4.4914   4.4915
     4.4915   4.5009   4.5009   4.5009   4.5009   4.5199   4.5199   4.5201
     4.5201   4.5791   4.5791   4.5792   4.5792   4.5957   4.5957   4.5957
     4.5957   4.6327   4.6327   4.6327   4.6327   4.6840   4.6840   4.7129
     4.7129   4.7129   4.7129   4.7535   4.7686   4.7686   4.7686   4.7686
     4.7993   4.8222   4.8223   4.8223   4.8223   4.8263   4.8656   4.8957
     4.8958   4.8958

          k = 0.0000 0.2500 0.0000 (135097 PWs)   bands (ev):

   -61.8924 -61.8822 -61.8734 -61.8734 -61.8673 -61.8673 -61.8653 -61.8576
   -61.8576 -61.8484 -61.8484 -61.8471 -61.8423 -61.8423 -61.8396 -61.8396
   -61.8329 -61.8256 -61.8197 -61.8125 -61.8120 -61.8077 -61.8077 -61.8059
   -61.8059 -61.8031 -61.8031 -61.8025 -61.8025 -61.7974 -61.7974 -61.7937
   -61.7937 -61.7924 -61.7916 -61.7916 -61.7876 -61.7876 -61.7864 -61.7863
   -61.7847 -61.7821 -61.7756 -61.7744 -61.7743 -61.7640 -61.7633 -61.7633
   -61.7574 -61.7573 -61.7555 -61.7554 -61.7485 -61.7410 -61.7076 -61.7058
   -61.7057 -61.7057 -61.7052 -61.7052 -61.7042 -61.7041 -61.7033 -61.7032
   -61.7017 -61.6973 -61.6972 -61.6954 -61.6921 -61.6921 -61.6871 -61.6808
   -35.9941 -35.9941 -35.9744 -35.9743 -35.9732 -35.9732 -35.9727 -35.9727
   -35.9571 -35.9571 -35.9550 -35.9549 -35.9451 -35.9451 -35.9215 -35.9207
   -35.9207 -35.9204 -35.9161 -35.9161 -35.8986 -35.8986 -35.8959 -35.8959
   -35.8906 -35.8905 -35.8886 -35.8886 -35.8811 -35.8781 -35.8781 -35.8770
   -35.8769 -35.8737 -35.8731 -35.8731 -35.8704 -35.8704 -35.8698 -35.8698
   -35.8618 -35.8605 -35.8562 -35.8546 -35.8546 -35.8499 -35.8497 -35.8486
   -35.8486 -35.8442 -35.8391 -35.8391 -35.8278 -35.8278 -35.8192 -35.8192
   -35.8174 -35.8023 -35.7956 -35.7942 -35.7942 -35.7916 -35.7916 -35.7872
   -35.7820 -35.7767 -35.7751 -35.7751 -35.7739 -35.7739 -35.7691 -35.7575
   -35.7474 -35.7474 -35.7428 -35.7321 -35.7278 -35.7230 -35.7212 -35.7212
   -35.7209 -35.7159 -35.7147 -35.7147 -35.7007 -35.7007 -35.6979 -35.6978
   -35.6971 -35.6970 -35.6970 -35.6967 -35.6927 -35.6841 -35.6841 -35.6782
   -35.6782 -35.6689 -35.6689 -35.6668 -35.6663 -35.6663 -35.6647 -35.6646
   -35.6633 -35.6629 -35.6619 -35.6619 -35.6617 -35.6617 -35.6576 -35.6561
   -35.6561 -35.6508 -35.6508 -35.6463 -35.6463 -35.6461 -35.6442 -35.6391
   -35.6391 -35.6388 -35.6339 -35.6328 -35.6328 -35.6292 -35.6281 -35.6281
   -35.6134 -35.6125 -35.6125 -35.6065 -35.6064 -35.6064 -35.6045 -35.6045
   -35.6029 -35.6001 -35.5994 -35.5994 -35.5982 -35.5930 -35.5930 -35.5930
   -35.5895 -35.5895 -35.5884 -35.5884 -35.5873 -35.5873 -35.5848 -35.5848
   -35.5845 -35.5834 -35.5834 -35.5832 -35.5792 -35.5792 -35.5768 -35.5742
   -35.5742 -35.5740 -35.5733 -35.5716 -35.5678 -35.5615 -35.5615 -35.5612
   -35.5612 -35.5562 -35.5562 -35.5506 -35.5506 -35.5456 -35.5450 -35.5449
   -35.5419 -35.5273 -35.5273 -35.5242 -35.5242 -35.5234 -35.5234 -35.5216
   -35.5215 -35.5174 -35.5148 -35.5148 -35.5052 -35.5051 -35.5046 -35.5006
   -35.4991 -35.4991 -35.4944 -35.4894 -35.4894 -35.4819 -35.4808 -35.4676
   -35.4501 -35.4501 -35.4492 -35.4492 -35.4404 -35.4403 -35.4309 -35.4256
   -35.4255 -35.4161 -35.4138 -35.4138 -35.4075 -35.4052 -35.4052 -35.4051
   -14.2450 -13.8961 -13.5899 -13.5899 -13.3745 -13.3551 -13.2682 -13.2682
   -13.0718 -12.9031 -12.8204 -12.8204 -12.8070 -12.7896 -12.7896 -12.7568
   -12.7568 -12.7534 -12.6513 -12.5942 -12.5609 -12.5609 -12.5516 -12.5516
   -12.5262 -12.4862 -12.4626 -12.4626 -12.4241 -12.4124 -12.4124 -12.3634
   -12.3030 -12.3030 -12.2672 -12.2519 -12.2519 -12.1943 -12.1943 -12.0892
   -12.0568 -12.0568 -11.9207 -11.8577 -11.8575 -11.8300 -11.8300 -11.8218
   -11.7284 -11.7142 -11.6973 -11.6752 -11.6752 -11.6109 -11.6108 -11.5443
   -11.5443 -11.5294 -11.5294 -11.5139 -11.4412 -11.4310 -11.4218 -11.4217
   -11.3881 -11.3879 -11.2897 -11.2896 -11.2465 -11.2463 -11.1486 -11.1484
    -4.8934  -4.8934  -4.7227  -4.7227  -4.6814  -4.6814  -4.5525  -4.5525
    -4.4804  -4.4804  -4.2993  -4.2993  -4.0825  -4.0825  -4.0470  -4.0393
    -4.0393  -3.9732  -3.9732  -3.8728  -3.8728  -3.7850  -3.7828  -3.7680
    -3.7680  -3.7550  -3.7010  -3.7010  -3.6204  -3.6204  -3.5992  -3.5991
    -3.5971  -3.5818  -3.5818  -3.5500  -3.4629  -3.4166  -3.3955  -3.3954
    -3.3303  -3.3303  -3.2795  -3.2656  -3.2632  -3.2632  -3.2109  -3.2108
    -3.1780  -3.1107  -3.0446  -3.0445  -2.9238  -2.9171  -2.9112  -2.9112
    -2.8794  -2.8794  -2.8331  -2.8239  -2.7465  -2.7429  -2.7429  -2.6442
    -2.6442  -2.6168  -2.6168  -2.5886  -2.5761  -2.5517  -2.5517  -2.5231
    -2.5218  -2.5217  -2.5217  -2.5217  -2.5155  -2.4704  -2.4704  -2.4407
    -2.4375  -2.4375  -2.3890  -2.3890  -2.3395  -2.3395  -2.3378  -2.3315
    -2.3315  -2.2664  -2.2664  -2.2640  -2.2640  -2.2594  -2.2526  -2.2526
    -2.2469  -2.2468  -2.2102  -2.2101  -2.1504  -2.1504  -2.1333  -2.1256
    -2.0482  -2.0388  -2.0388  -2.0377  -2.0377  -2.0165  -2.0164  -1.9971
    -1.9678  -1.9678  -1.9539  -1.9334  -1.9090  -1.9047  -1.9047  -1.8926
    -1.8926  -1.8872  -1.8871  -1.8443  -1.8443  -1.8424  -1.8363  -1.8215
    -1.7699  -1.7699  -1.7552  -1.7179  -1.7178  -1.6904  -1.6904  -1.6422
    -1.6422  -1.6351  -1.6350  -1.6331  -1.5812  -1.5659  -1.5275  -1.5182
    -1.5182  -1.5019  -1.5019  -1.4839  -1.4839  -1.4717  -1.4528  -1.4527
    -1.4211  -1.4209  -1.4028  -1.3660  -1.3099  -1.3062  -1.3062  -1.3034
    -1.3033  -1.2360  -1.2360  -1.2259  -1.2207  -1.2207  -1.1997  -1.1996
    -1.1850  -1.0716  -1.0716  -1.0683  -1.0654  -1.0653  -1.0634  -1.0394
    -1.0393  -1.0328  -1.0194  -0.9728  -0.9728  -0.8885  -0.8845  -0.8844
    -0.8787  -0.8600  -0.7947  -0.7946  -0.7731  -0.7730  -0.7617  -0.7185
    -0.7183  -0.7174  -0.6798  -0.6685  -0.6272  -0.5156  -0.5128  -0.4998
    -0.4880  -0.4382  -0.4190  -0.4189  -0.4080  -0.3953  -0.3951  -0.2297
    -0.1152  -0.0982   0.0204   0.1007   0.2719   0.5537   0.5718   0.6024
     0.7127   0.7273   0.8134   0.9061   1.0619   1.0620   1.0890   1.1359
     1.5773   1.6413   1.8366   1.9236   1.9236   2.0044   2.0089   2.0090
     2.0221   2.0780   2.2061   2.4076   2.4575   2.4861   2.5007   2.5007
     2.5245   2.5245   2.5405   2.5406   2.5462   2.5489   2.6133   2.6134
     2.6644   2.6645   2.6645   2.6999   2.7000   2.7197   2.7198   2.8077
     2.8137   2.8598   2.8598   2.9321   2.9322   2.9626   2.9931   3.0218
     3.0666   3.0667   3.0949   3.0950   3.1011   3.1140   3.1210   3.1211
     3.1327   3.1327   3.1403   3.1507   3.1758   3.1759   3.2522   3.2524
     3.2655   3.2864   3.2864   3.3045   3.3045   3.3400   3.3956   3.3957
     3.4117   3.4118   3.4822   3.4822   3.4971   3.4971   3.5274   3.5274
     3.5495   3.5496   3.5671   3.5671   3.5680   3.6030   3.6484   3.6484
     3.6514   3.6516   3.6580   3.6927   3.7027   3.7379   3.7410   3.7425
     3.7425   3.7999   3.8000   3.8154   3.8154   3.8171   3.8393   3.8393
     3.8521   3.9321   3.9383   3.9419   3.9419   3.9902   3.9903   4.0311
     4.0898   4.0899   4.0919   4.1136   4.1156   4.1157   4.1216   4.1237
     4.1237   4.1280   4.1280   4.1515   4.1577   4.1737   4.1737   4.1775
     4.1775   4.1803   4.1835   4.1836   4.1901   4.2287   4.2287   4.2610
     4.2610   4.2703   4.2745   4.2773   4.2798   4.2798   4.2810   4.2810
     4.2983   4.2983   4.3052   4.3058   4.3059   4.3453   4.3453   4.3834
     4.3834   4.4027   4.4027   4.4200   4.4200   4.4341   4.4525   4.4555
     4.4631   4.4696   4.4697   4.4711   4.4712   4.4982   4.4985   4.5163
     4.5551   4.5553   4.5685   4.5685   4.6031   4.6203   4.6451   4.6468
     4.6604   4.6622   4.6786   4.6868   4.7026   4.7100   4.7100   4.7393
     4.7394   4.7400   4.7400   4.7542   4.7581   4.7581   4.7765   4.7765
     4.7828   4.7828   4.7953   4.8179   4.8243   4.8284   4.8461   4.8461
     4.8583   4.8634

          k = 0.0000-0.5000 0.0000 (135178 PWs)   bands (ev):

   -61.8884 -61.8884 -61.8710 -61.8710 -61.8710 -61.8710 -61.8560 -61.8560
   -61.8527 -61.8527 -61.8527 -61.8527 -61.8406 -61.8406 -61.8406 -61.8405
   -61.8284 -61.8283 -61.8166 -61.8166 -61.8089 -61.8089 -61.8070 -61.8070
   -61.8070 -61.8070 -61.8002 -61.8001 -61.8001 -61.8001 -61.7979 -61.7979
   -61.7909 -61.7909 -61.7908 -61.7908 -61.7892 -61.7892 -61.7892 -61.7892
   -61.7782 -61.7782 -61.7741 -61.7741 -61.7684 -61.7684 -61.7683 -61.7683
   -61.7561 -61.7561 -61.7560 -61.7560 -61.7437 -61.7437 -61.7069 -61.7069
   -61.7050 -61.7050 -61.7050 -61.7050 -61.7046 -61.7046 -61.7046 -61.7046
   -61.6989 -61.6989 -61.6942 -61.6942 -61.6942 -61.6942 -61.6834 -61.6834
   -35.9889 -35.9889 -35.9889 -35.9889 -35.9717 -35.9717 -35.9717 -35.9717
   -35.9490 -35.9490 -35.9490 -35.9490 -35.9419 -35.9419 -35.9416 -35.9416
   -35.9172 -35.9172 -35.9172 -35.9172 -35.8873 -35.8873 -35.8873 -35.8872
   -35.8814 -35.8814 -35.8814 -35.8814 -35.8801 -35.8801 -35.8784 -35.8784
   -35.8784 -35.8784 -35.8678 -35.8678 -35.8678 -35.8678 -35.8643 -35.8643
   -35.8625 -35.8625 -35.8625 -35.8624 -35.8597 -35.8597 -35.8566 -35.8566
   -35.8566 -35.8566 -35.8564 -35.8564 -35.8343 -35.8343 -35.8261 -35.8261
   -35.7966 -35.7966 -35.7961 -35.7961 -35.7961 -35.7961 -35.7861 -35.7860
   -35.7738 -35.7738 -35.7639 -35.7639 -35.7639 -35.7639 -35.7590 -35.7590
   -35.7541 -35.7541 -35.7451 -35.7451 -35.7451 -35.7451 -35.7139 -35.7139
   -35.7111 -35.7111 -35.7038 -35.7038 -35.7024 -35.7023 -35.6922 -35.6922
   -35.6922 -35.6922 -35.6808 -35.6808 -35.6808 -35.6808 -35.6730 -35.6730
   -35.6730 -35.6730 -35.6709 -35.6709 -35.6709 -35.6709 -35.6706 -35.6706
   -35.6689 -35.6689 -35.6689 -35.6689 -35.6686 -35.6686 -35.6601 -35.6601
   -35.6539 -35.6539 -35.6533 -35.6533 -35.6533 -35.6533 -35.6485 -35.6485
   -35.6453 -35.6453 -35.6453 -35.6453 -35.6422 -35.6422 -35.6104 -35.6104
   -35.6104 -35.6104 -35.6100 -35.6100 -35.6078 -35.6078 -35.6078 -35.6078
   -35.5948 -35.5948 -35.5948 -35.5948 -35.5920 -35.5920 -35.5920 -35.5920
   -35.5888 -35.5888 -35.5843 -35.5843 -35.5843 -35.5842 -35.5832 -35.5832
   -35.5819 -35.5819 -35.5781 -35.5781 -35.5770 -35.5770 -35.5770 -35.5770
   -35.5740 -35.5740 -35.5709 -35.5709 -35.5709 -35.5709 -35.5693 -35.5693
   -35.5627 -35.5627 -35.5627 -35.5627 -35.5401 -35.5401 -35.5401 -35.5401
   -35.5290 -35.5290 -35.5222 -35.5222 -35.5221 -35.5221 -35.5217 -35.5217
   -35.5217 -35.5217 -35.5143 -35.5143 -35.5143 -35.5143 -35.4964 -35.4964
   -35.4964 -35.4964 -35.4914 -35.4914 -35.4900 -35.4900 -35.4839 -35.4839
   -35.4502 -35.4502 -35.4502 -35.4502 -35.4326 -35.4326 -35.4326 -35.4325
   -35.4166 -35.4166 -35.4102 -35.4102 -35.4088 -35.4088 -35.4087 -35.4087
   -14.1081 -14.1080 -13.4629 -13.4629 -13.4629 -13.4629 -13.2539 -13.2539
   -13.0993 -13.0993 -12.7727 -12.7727 -12.7149 -12.7149 -12.7149 -12.7149
   -12.6694 -12.6694 -12.6694 -12.6694 -12.5854 -12.5854 -12.5854 -12.5854
   -12.5491 -12.5491 -12.4967 -12.4967 -12.4218 -12.4218 -12.3632 -12.3632
   -12.3632 -12.3632 -12.2545 -12.2544 -12.1828 -12.1828 -12.1828 -12.1828
   -11.9645 -11.9645 -11.9645 -11.9645 -11.7896 -11.7896 -11.7787 -11.7787
   -11.7583 -11.7582 -11.7581 -11.7581 -11.6126 -11.6126 -11.6126 -11.6126
   -11.5384 -11.5384 -11.4747 -11.4746 -11.4518 -11.4518 -11.4518 -11.4518
   -11.3268 -11.3267 -11.3266 -11.3266 -11.1852 -11.1852 -11.1850 -11.1850
    -4.8904  -4.8903  -4.8903  -4.8903  -4.6878  -4.6878  -4.6878  -4.6878
    -4.2139  -4.2139  -4.2139  -4.2139  -4.0162  -4.0161  -4.0161  -4.0161
    -3.9585  -3.9585  -3.8364  -3.8364  -3.8363  -3.8363  -3.8195  -3.8194
    -3.8194  -3.8194  -3.6771  -3.6771  -3.5891  -3.5891  -3.5891  -3.5890
    -3.5865  -3.5865  -3.5865  -3.5864  -3.5661  -3.5661  -3.5145  -3.5144
    -3.3872  -3.3872  -3.3872  -3.3872  -3.2121  -3.2121  -3.1554  -3.1554
    -3.1471  -3.1471  -3.1471  -3.1471  -3.0742  -3.0742  -2.7471  -2.7471
    -2.7050  -2.7049  -2.7049  -2.7049  -2.6848  -2.6848  -2.6848  -2.6848
    -2.6596  -2.6596  -2.5817  -2.5817  -2.5817  -2.5817  -2.5664  -2.5664
    -2.5661  -2.5660  -2.5660  -2.5660  -2.5438  -2.5438  -2.5438  -2.5438
    -2.4656  -2.4656  -2.4514  -2.4514  -2.4442  -2.4442  -2.4442  -2.4442
    -2.3139  -2.3139  -2.3138  -2.3138  -2.2915  -2.2915  -2.2915  -2.2915
    -2.1754  -2.1754  -2.1035  -2.1035  -2.1012  -2.1012  -2.1012  -2.1012
    -2.0735  -2.0735  -2.0735  -2.0735  -2.0714  -2.0714  -1.9743  -1.9743
    -1.9743  -1.9743  -1.9575  -1.9575  -1.9575  -1.9575  -1.8777  -1.8777
    -1.8777  -1.8777  -1.7909  -1.7908  -1.7869  -1.7869  -1.7869  -1.7869
    -1.6466  -1.6465  -1.6465  -1.6465  -1.6171  -1.6171  -1.6171  -1.6171
    -1.5634  -1.5634  -1.5606  -1.5606  -1.5606  -1.5606  -1.5372  -1.5372
    -1.5221  -1.5221  -1.5220  -1.5220  -1.5004  -1.5004  -1.3973  -1.3973
    -1.3801  -1.3801  -1.3525  -1.3525  -1.3524  -1.3524  -1.2548  -1.2548
    -1.2548  -1.2547  -1.2203  -1.2203  -1.1709  -1.1709  -1.1587  -1.1587
    -1.1586  -1.1586  -1.0768  -1.0768  -1.0166  -1.0166  -1.0166  -1.0166
    -0.9929  -0.9929  -0.9929  -0.9929  -0.8857  -0.8857  -0.8795  -0.8795
    -0.8794  -0.8794  -0.8741  -0.8741  -0.8262  -0.8261  -0.6859  -0.6859
    -0.6859  -0.6858  -0.6522  -0.6522  -0.6344  -0.6344  -0.5983  -0.5982
    -0.5981  -0.5981  -0.5871  -0.5871  -0.4425  -0.4425  -0.0896  -0.0896
    -0.0829  -0.0829   0.0989   0.0989   0.1050   0.1050   0.3417   0.3417
     0.6171   0.6171   1.2000   1.2001   1.3253   1.3253   1.4339   1.4339
     1.4846   1.4846   1.4847   1.4847   1.5554   1.5554   2.0648   2.0648
     2.2111   2.2111   2.2111   2.2111   2.4064   2.4064   2.4347   2.4347
     2.4883   2.4884   2.4884   2.4884   2.6116   2.6116   2.6116   2.6117
     2.6691   2.6691   2.6864   2.6864   2.7048   2.7048   2.7675   2.7675
     2.7956   2.7957   2.7957   2.7957   2.8300   2.8300   2.8301   2.8301
     2.8842   2.8843   2.8843   2.8843   3.0232   3.0232   3.1322   3.1322
     3.1323   3.1323   3.2292   3.2292   3.2292   3.2292   3.3485   3.3485
     3.3487   3.3487   3.3832   3.3832   3.3912   3.3912   3.3913   3.3913
     3.3977   3.3978   3.3978   3.3978   3.4602   3.4602   3.5257   3.5258
     3.5259   3.5259   3.6431   3.6431   3.7019   3.7019   3.7236   3.7236
     3.7237   3.7237   3.8596   3.8596   3.8597   3.8597   3.8844   3.8844
     3.8910   3.8910   3.8910   3.8910   3.9208   3.9208   3.9565   3.9565
     3.9715   3.9715   3.9715   3.9715   3.9735   3.9735   4.0481   4.0481
     4.0482   4.0482   4.0676   4.0676   4.0703   4.0703   4.0703   4.0703
     4.0769   4.0769   4.0769   4.0769   4.0806   4.0806   4.1249   4.1249
     4.1876   4.1876   4.1877   4.1877   4.2426   4.2426   4.2426   4.2426
     4.2443   4.2443   4.2443   4.2443   4.2655   4.2655   4.2655   4.2655
     4.3337   4.3337   4.3482   4.3482   4.3614   4.3614   4.3614   4.3614
     4.4323   4.4323   4.4716   4.4716   4.4799   4.4799   4.4802   4.4802
     4.4983   4.4983   4.4985   4.4985   4.5138   4.5139   4.5140   4.5140
     4.5294   4.5294   4.5601   4.5601   4.6410   4.6410   4.6410   4.6410
     4.6629   4.6629   4.6629   4.6629   4.6640   4.6640   4.6988   4.6988
     4.7128   4.7128   4.7142   4.7142   4.7671   4.7671   4.7786   4.7786
     4.7961   4.7961   4.7961   4.7962   4.8077   4.8077   4.8077   4.8077
     4.8161   4.8161

          k = 0.2500 0.2500 0.0000 (135083 PWs)   bands (ev):

   -61.8911 -61.8812 -61.8812 -61.8733 -61.8647 -61.8647 -61.8606 -61.8606
   -61.8546 -61.8498 -61.8476 -61.8476 -61.8471 -61.8471 -61.8381 -61.8335
   -61.8335 -61.8264 -61.8186 -61.8120 -61.8120 -61.8110 -61.8085 -61.8031
   -61.8031 -61.8029 -61.8028 -61.8020 -61.8020 -61.8018 -61.7992 -61.7955
   -61.7955 -61.7934 -61.7928 -61.7928 -61.7879 -61.7839 -61.7839 -61.7828
   -61.7828 -61.7784 -61.7784 -61.7765 -61.7702 -61.7644 -61.7639 -61.7639
   -61.7632 -61.7632 -61.7531 -61.7489 -61.7489 -61.7418 -61.7074 -61.7067
   -61.7057 -61.7057 -61.7056 -61.7055 -61.7044 -61.7044 -61.7021 -61.7021
   -61.7004 -61.7004 -61.6960 -61.6960 -61.6936 -61.6880 -61.6880 -61.6817
   -36.0065 -35.9956 -35.9891 -35.9802 -35.9710 -35.9709 -35.9663 -35.9551
   -35.9482 -35.9482 -35.9475 -35.9416 -35.9416 -35.9366 -35.9366 -35.9335
   -35.9240 -35.9240 -35.9127 -35.9127 -35.9042 -35.9028 -35.9028 -35.8917
   -35.8909 -35.8872 -35.8866 -35.8809 -35.8809 -35.8796 -35.8796 -35.8793
   -35.8772 -35.8760 -35.8760 -35.8720 -35.8708 -35.8690 -35.8671 -35.8671
   -35.8610 -35.8610 -35.8601 -35.8561 -35.8561 -35.8521 -35.8521 -35.8492
   -35.8492 -35.8452 -35.8452 -35.8424 -35.8424 -35.8210 -35.8210 -35.8194
   -35.8194 -35.8081 -35.8081 -35.7988 -35.7926 -35.7926 -35.7809 -35.7809
   -35.7778 -35.7778 -35.7776 -35.7665 -35.7652 -35.7633 -35.7626 -35.7626
   -35.7494 -35.7494 -35.7366 -35.7346 -35.7346 -35.7198 -35.7198 -35.7180
   -35.7180 -35.7153 -35.7153 -35.7058 -35.7058 -35.7045 -35.6957 -35.6956
   -35.6954 -35.6891 -35.6891 -35.6890 -35.6867 -35.6867 -35.6809 -35.6809
   -35.6796 -35.6795 -35.6782 -35.6711 -35.6672 -35.6671 -35.6671 -35.6653
   -35.6627 -35.6627 -35.6625 -35.6618 -35.6618 -35.6611 -35.6605 -35.6605
   -35.6595 -35.6575 -35.6562 -35.6489 -35.6488 -35.6429 -35.6411 -35.6411
   -35.6365 -35.6353 -35.6353 -35.6292 -35.6278 -35.6224 -35.6223 -35.6203
   -35.6196 -35.6196 -35.6192 -35.6192 -35.6140 -35.6140 -35.6120 -35.6046
   -35.6024 -35.6024 -35.5971 -35.5947 -35.5919 -35.5904 -35.5904 -35.5895
   -35.5894 -35.5894 -35.5883 -35.5880 -35.5880 -35.5871 -35.5853 -35.5853
   -35.5830 -35.5830 -35.5819 -35.5814 -35.5814 -35.5784 -35.5784 -35.5777
   -35.5777 -35.5711 -35.5711 -35.5695 -35.5668 -35.5621 -35.5621 -35.5587
   -35.5574 -35.5574 -35.5536 -35.5476 -35.5409 -35.5400 -35.5400 -35.5386
   -35.5386 -35.5356 -35.5323 -35.5242 -35.5242 -35.5242 -35.5242 -35.5226
   -35.5214 -35.5172 -35.5172 -35.5117 -35.5117 -35.5112 -35.5049 -35.5049
   -35.5018 -35.4919 -35.4919 -35.4914 -35.4909 -35.4826 -35.4779 -35.4671
   -35.4671 -35.4598 -35.4397 -35.4382 -35.4381 -35.4319 -35.4319 -35.4315
   -35.4191 -35.4191 -35.4142 -35.4104 -35.4090 -35.4090 -35.4059 -35.4059
   -14.1979 -13.8507 -13.8507 -13.5167 -13.3327 -13.3131 -13.3131 -13.0323
   -13.0323 -13.0086 -13.0086 -12.8671 -12.8671 -12.7901 -12.7520 -12.7270
   -12.7270 -12.6183 -12.6183 -12.6175 -12.6175 -12.5793 -12.5781 -12.5744
   -12.4897 -12.4700 -12.4700 -12.4004 -12.4004 -12.3891 -12.3891 -12.3688
   -12.3669 -12.3256 -12.2582 -12.2582 -12.2327 -12.2327 -12.1579 -12.1556
   -12.0528 -12.0528 -11.9920 -11.8901 -11.8901 -11.8047 -11.7927 -11.7079
   -11.7079 -11.6885 -11.6885 -11.6801 -11.6801 -11.6646 -11.6645 -11.5842
   -11.5190 -11.5190 -11.4980 -11.4376 -11.4376 -11.4276 -11.4150 -11.4149
   -11.4114 -11.4114 -11.3594 -11.2949 -11.2441 -11.2441 -11.1638 -11.0894
    -5.0821  -4.9910  -4.8538  -4.7865  -4.6085  -4.6085  -4.4132  -4.4132
    -4.3757  -4.3757  -4.2383  -4.2383  -4.2332  -4.1164  -4.1164  -4.0843
    -4.0331  -3.8873  -3.8568  -3.8568  -3.8522  -3.8522  -3.8419  -3.8261
    -3.8261  -3.7725  -3.6507  -3.6507  -3.6425  -3.6198  -3.6197  -3.5966
    -3.5892  -3.5892  -3.5567  -3.5459  -3.5459  -3.4246  -3.3967  -3.3966
    -3.3193  -3.3192  -3.2933  -3.2791  -3.2633  -3.2633  -3.1924  -3.1564
    -3.1564  -3.1265  -3.1265  -2.9821  -2.9821  -2.9568  -2.9568  -2.9296
    -2.9296  -2.9164  -2.9164  -2.7942  -2.7791  -2.7101  -2.6986  -2.6575
    -2.6575  -2.6287  -2.6229  -2.6229  -2.6076  -2.6070  -2.5836  -2.5730
    -2.5722  -2.5260  -2.5171  -2.5171  -2.4918  -2.4897  -2.4897  -2.4681
    -2.4681  -2.4597  -2.4597  -2.3728  -2.3728  -2.3620  -2.3552  -2.3552
    -2.3414  -2.2914  -2.2913  -2.2841  -2.2742  -2.2742  -2.1662  -2.1662
    -2.1602  -2.1602  -2.1592  -2.1268  -2.1268  -2.1128  -2.1128  -2.1090
    -2.1090  -2.0933  -2.0933  -2.0671  -2.0320  -2.0320  -2.0037  -1.9819
    -1.9819  -1.9566  -1.9566  -1.9545  -1.9545  -1.9326  -1.9097  -1.9097
    -1.8889  -1.8698  -1.8523  -1.8297  -1.8297  -1.8254  -1.7713  -1.7398
    -1.7064  -1.7064  -1.6723  -1.6723  -1.6224  -1.6182  -1.6173  -1.6173
    -1.6097  -1.6037  -1.5924  -1.5920  -1.5763  -1.5691  -1.5691  -1.5199
    -1.5199  -1.4792  -1.4792  -1.4535  -1.4299  -1.4299  -1.4249  -1.4249
    -1.4212  -1.3338  -1.3338  -1.3096  -1.3096  -1.2801  -1.2792  -1.2791
    -1.2519  -1.2519  -1.2464  -1.2464  -1.1931  -1.1828  -1.1735  -1.1181
    -1.1181  -1.1030  -1.1030  -1.0649  -1.0587  -1.0428  -1.0428  -1.0285
    -1.0285  -1.0260  -1.0260  -1.0087  -0.9930  -0.9097  -0.9055  -0.9055
    -0.9052  -0.9052  -0.7977  -0.7976  -0.7882  -0.7882  -0.7342  -0.7281
    -0.7281  -0.7240  -0.6813  -0.6169  -0.5895  -0.5895  -0.5818  -0.5818
    -0.5656  -0.5656  -0.5016  -0.4320  -0.4320  -0.3129  -0.2409  -0.2409
    -0.1953  -0.1222  -0.1222  -0.0157   0.0729   0.3284   0.4913   0.7328
     0.7938   0.8256   0.9396   0.9396   0.9589   1.1673   1.2391   1.2391
     1.6929   1.6929   1.7974   1.8543   1.8712   1.8712   1.9980   1.9981
     2.0751   2.0751   2.0831   2.1299   2.1299   2.2016   2.2454   2.2454
     2.3782   2.4454   2.4466   2.4466   2.4860   2.4970   2.5489   2.5489
     2.5639   2.6236   2.6781   2.6782   2.7702   2.7744   2.7744   2.7869
     2.8605   2.8605   2.9383   2.9383   2.9440   2.9440   2.9797   2.9797
     3.0062   3.0219   3.0219   3.0586   3.0679   3.0857   3.1155   3.1491
     3.1491   3.1722   3.1722   3.2479   3.2479   3.2613   3.2810   3.2854
     3.2854   3.3077   3.3459   3.3459   3.3533   3.3533   3.3555   3.3756
     3.3756   3.4472   3.5282   3.5282   3.5383   3.5383   3.5559   3.5677
     3.5677   3.5791   3.5791   3.6249   3.6249   3.6615   3.7009   3.7009
     3.7022   3.7022   3.7101   3.7330   3.7330   3.7520   3.7901   3.7928
     3.8306   3.8306   3.8364   3.8823   3.9115   3.9115   3.9121   3.9121
     3.9239   4.0065   4.0065   4.0067   4.0082   4.0082   4.0261   4.0343
     4.0372   4.0432   4.0432   4.0840   4.0840   4.0894   4.0931   4.0931
     4.1252   4.1252   4.1599   4.1676   4.1676   4.1700   4.1700   4.1799
     4.1809   4.1826   4.1826   4.1987   4.1987   4.2195   4.2267   4.2367
     4.2400   4.2400   4.2515   4.2527   4.2527   4.2614   4.2615   4.2848
     4.2887   4.3081   4.3081   4.3284   4.3309   4.3309   4.3366   4.3632
     4.3632   4.3720   4.3806   4.3806   4.4201   4.4351   4.4351   4.4572
     4.4572   4.4834   4.4972   4.4972   4.5406   4.5620   4.5659   4.5817
     4.5850   4.5850   4.6311   4.6311   4.6374   4.6374   4.6658   4.6658
     4.6662   4.6861   4.6861   4.6874   4.6874   4.6981   4.6981   4.7048
     4.7048   4.7181   4.7181   4.7303   4.7375   4.7600   4.7904   4.7985
     4.7985   4.8037   4.8038   4.8098   4.8099   4.8169   4.8169   4.8186
     4.8187   4.8233

          k = 0.2500-0.5000 0.0000 (135080 PWs)   bands (ev):

   -61.8872 -61.8872 -61.8781 -61.8781 -61.8631 -61.8631 -61.8557 -61.8557
   -61.8538 -61.8538 -61.8519 -61.8519 -61.8472 -61.8472 -61.8352 -61.8352
   -61.8291 -61.8291 -61.8157 -61.8157 -61.8106 -61.8105 -61.8078 -61.8078
   -61.8030 -61.8030 -61.8008 -61.8008 -61.7993 -61.7993 -61.7987 -61.7987
   -61.7981 -61.7981 -61.7939 -61.7939 -61.7848 -61.7848 -61.7817 -61.7817
   -61.7790 -61.7790 -61.7736 -61.7736 -61.7704 -61.7704 -61.7667 -61.7667
   -61.7635 -61.7635 -61.7504 -61.7504 -61.7444 -61.7444 -61.7067 -61.7067
   -61.7067 -61.7067 -61.7057 -61.7057 -61.7030 -61.7030 -61.7028 -61.7028
   -61.6994 -61.6994 -61.6978 -61.6978 -61.6903 -61.6903 -61.6843 -61.6843
   -36.0071 -36.0071 -35.9911 -35.9911 -35.9604 -35.9604 -35.9532 -35.9532
   -35.9486 -35.9486 -35.9411 -35.9411 -35.9393 -35.9393 -35.9331 -35.9331
   -35.9183 -35.9183 -35.9132 -35.9132 -35.9039 -35.9039 -35.9026 -35.9026
   -35.8892 -35.8892 -35.8847 -35.8847 -35.8844 -35.8844 -35.8842 -35.8842
   -35.8811 -35.8811 -35.8692 -35.8692 -35.8673 -35.8673 -35.8639 -35.8639
   -35.8630 -35.8630 -35.8620 -35.8620 -35.8599 -35.8599 -35.8559 -35.8559
   -35.8439 -35.8439 -35.8396 -35.8396 -35.8387 -35.8387 -35.8185 -35.8185
   -35.8145 -35.8145 -35.7998 -35.7998 -35.7929 -35.7929 -35.7862 -35.7862
   -35.7805 -35.7805 -35.7764 -35.7764 -35.7590 -35.7590 -35.7525 -35.7525
   -35.7437 -35.7437 -35.7324 -35.7324 -35.7297 -35.7297 -35.7232 -35.7232
   -35.7096 -35.7096 -35.7052 -35.7052 -35.6986 -35.6986 -35.6978 -35.6978
   -35.6941 -35.6941 -35.6887 -35.6886 -35.6848 -35.6848 -35.6840 -35.6840
   -35.6824 -35.6824 -35.6732 -35.6732 -35.6731 -35.6731 -35.6700 -35.6700
   -35.6662 -35.6662 -35.6627 -35.6627 -35.6576 -35.6576 -35.6566 -35.6566
   -35.6527 -35.6527 -35.6516 -35.6516 -35.6487 -35.6487 -35.6466 -35.6465
   -35.6450 -35.6450 -35.6361 -35.6361 -35.6281 -35.6281 -35.6235 -35.6235
   -35.6229 -35.6229 -35.6087 -35.6087 -35.6055 -35.6055 -35.6047 -35.6047
   -35.6011 -35.6011 -35.6008 -35.6008 -35.6005 -35.6005 -35.5961 -35.5961
   -35.5958 -35.5958 -35.5876 -35.5876 -35.5858 -35.5858 -35.5808 -35.5808
   -35.5806 -35.5806 -35.5792 -35.5792 -35.5774 -35.5774 -35.5763 -35.5763
   -35.5720 -35.5720 -35.5698 -35.5698 -35.5657 -35.5657 -35.5615 -35.5615
   -35.5573 -35.5573 -35.5489 -35.5489 -35.5373 -35.5373 -35.5340 -35.5340
   -35.5287 -35.5287 -35.5283 -35.5283 -35.5275 -35.5275 -35.5239 -35.5239
   -35.5184 -35.5184 -35.5181 -35.5181 -35.5142 -35.5142 -35.5115 -35.5115
   -35.5024 -35.5024 -35.4841 -35.4841 -35.4821 -35.4821 -35.4818 -35.4818
   -35.4651 -35.4651 -35.4364 -35.4364 -35.4347 -35.4347 -35.4272 -35.4272
   -35.4180 -35.4180 -35.4131 -35.4131 -35.4098 -35.4097 -35.4078 -35.4078
   -14.0616 -14.0616 -13.7193 -13.7193 -13.2129 -13.2129 -13.1922 -13.1922
   -13.0599 -13.0599 -12.9196 -12.9196 -12.7790 -12.7790 -12.7655 -12.7655
   -12.7519 -12.7519 -12.6577 -12.6577 -12.5334 -12.5334 -12.5230 -12.5230
   -12.4676 -12.4676 -12.4271 -12.4271 -12.4128 -12.4127 -12.3861 -12.3861
   -12.3373 -12.3373 -12.2808 -12.2808 -12.2171 -12.2171 -12.1352 -12.1352
   -12.1310 -12.1310 -11.9488 -11.9487 -11.8041 -11.8041 -11.7613 -11.7613
   -11.7603 -11.7603 -11.6534 -11.6534 -11.6174 -11.6174 -11.5722 -11.5721
   -11.5703 -11.5703 -11.5087 -11.5086 -11.4574 -11.4574 -11.3596 -11.3596
   -11.3595 -11.3595 -11.3428 -11.3428 -11.3079 -11.3079 -11.0921 -11.0921
    -5.1195  -5.1195  -4.8924  -4.8924  -4.5726  -4.5726  -4.3922  -4.3922
    -4.3181  -4.3181  -4.1108  -4.1108  -4.0549  -4.0549  -4.0454  -4.0454
    -4.0357  -4.0357  -3.9745  -3.9745  -3.8925  -3.8925  -3.8167  -3.8166
    -3.7904  -3.7904  -3.7891  -3.7891  -3.6946  -3.6945  -3.5780  -3.5780
    -3.5466  -3.5466  -3.5423  -3.5423  -3.4559  -3.4559  -3.3436  -3.3436
    -3.3383  -3.3383  -3.2497  -3.2497  -3.2441  -3.2441  -3.2086  -3.2085
    -3.1592  -3.1592  -3.0525  -3.0525  -3.0482  -3.0482  -3.0170  -3.0170
    -2.8789  -2.8789  -2.8473  -2.8473  -2.7869  -2.7869  -2.7489  -2.7489
    -2.7130  -2.7130  -2.6111  -2.6111  -2.5947  -2.5947  -2.5657  -2.5657
    -2.5569  -2.5569  -2.5005  -2.5005  -2.4777  -2.4777  -2.4501  -2.4501
    -2.3941  -2.3941  -2.3886  -2.3886  -2.3764  -2.3764  -2.3665  -2.3665
    -2.3323  -2.3323  -2.2667  -2.2667  -2.2616  -2.2616  -2.2578  -2.2578
    -2.2230  -2.2230  -2.1957  -2.1957  -2.1726  -2.1725  -2.1604  -2.1604
    -2.0958  -2.0958  -2.0932  -2.0932  -2.0695  -2.0695  -2.0503  -2.0503
    -2.0103  -2.0103  -1.9464  -1.9463  -1.9172  -1.9172  -1.9073  -1.9072
    -1.7320  -1.7320  -1.7133  -1.7133  -1.7004  -1.7004  -1.6613  -1.6613
    -1.6559  -1.6559  -1.6556  -1.6556  -1.6515  -1.6515  -1.5469  -1.5469
    -1.5463  -1.5463  -1.5298  -1.5298  -1.5059  -1.5059  -1.5029  -1.5029
    -1.4605  -1.4605  -1.4368  -1.4368  -1.3623  -1.3623  -1.3619  -1.3619
    -1.3411  -1.3411  -1.3393  -1.3393  -1.3290  -1.3290  -1.3213  -1.3213
    -1.2981  -1.2981  -1.2707  -1.2707  -1.2093  -1.2093  -1.1473  -1.1473
    -1.1136  -1.1136  -1.1017  -1.1017  -1.0511  -1.0510  -1.0197  -1.0197
    -1.0194  -1.0193  -1.0175  -1.0175  -0.9961  -0.9961  -0.8574  -0.8574
    -0.8478  -0.8478  -0.8032  -0.8032  -0.7522  -0.7522  -0.7497  -0.7497
    -0.7268  -0.7268  -0.6867  -0.6867  -0.6489  -0.6489  -0.6393  -0.6393
    -0.4766  -0.4766  -0.4446  -0.4446  -0.4102  -0.4102  -0.3457  -0.3456
    -0.1735  -0.1735  -0.0755  -0.0755   0.0524   0.0524   0.2549   0.2549
     0.8799   0.8799   1.2535   1.2535   1.3931   1.3931   1.4264   1.4264
     1.4558   1.4558   1.6045   1.6045   1.6244   1.6244   1.9777   1.9777
     2.0078   2.0078   2.0272   2.0272   2.1461   2.1461   2.2788   2.2788
     2.2882   2.2882   2.4353   2.4353   2.4424   2.4424   2.4877   2.4877
     2.5883   2.5883   2.6796   2.6796   2.6936   2.6936   2.7385   2.7385
     2.7694   2.7695   2.7961   2.7961   2.7976   2.7976   2.9330   2.9331
     3.0095   3.0095   3.0262   3.0262   3.0336   3.0336   3.1435   3.1435
     3.1671   3.1671   3.2021   3.2021   3.2386   3.2386   3.2855   3.2855
     3.3964   3.3964   3.4080   3.4080   3.4124   3.4124   3.4308   3.4308
     3.5109   3.5109   3.5853   3.5853   3.5981   3.5981   3.6272   3.6272
     3.6284   3.6284   3.6505   3.6505   3.7044   3.7044   3.7622   3.7622
     3.7888   3.7888   3.8194   3.8194   3.8499   3.8499   3.8690   3.8690
     3.8882   3.8882   3.9060   3.9060   3.9166   3.9166   3.9287   3.9287
     3.9778   3.9778   3.9795   3.9795   4.0059   4.0059   4.0063   4.0063
     4.0484   4.0484   4.0496   4.0496   4.0660   4.0660   4.0693   4.0693
     4.0925   4.0925   4.0986   4.0986   4.1029   4.1029   4.1065   4.1065
     4.1427   4.1427   4.1618   4.1618   4.1661   4.1661   4.1962   4.1962
     4.2051   4.2051   4.2298   4.2298   4.2563   4.2563   4.2571   4.2571
     4.2725   4.2725   4.4003   4.4003   4.4263   4.4263   4.4300   4.4300
     4.4367   4.4368   4.4437   4.4437   4.4508   4.4508   4.4928   4.4928
     4.5484   4.5484   4.5765   4.5765   4.5773   4.5773   4.5816   4.5816
     4.5895   4.5895   4.6141   4.6141   4.6203   4.6203   4.6712   4.6712
     4.6956   4.6956   4.6994   4.6994   4.7080   4.7080   4.7081   4.7081
     4.7347   4.7347   4.7458   4.7458   4.7543   4.7543   4.7663   4.7663
     4.7693   4.7693   4.7710   4.7710   4.8012   4.8012   4.8163   4.8164
     4.8235   4.8235

          k =-0.5000-0.5000 0.0000 (135004 PWs)   bands (ev):

   -61.8837 -61.8837 -61.8837 -61.8836 -61.8549 -61.8549 -61.8549 -61.8549
   -61.8549 -61.8549 -61.8549 -61.8549 -61.8516 -61.8516 -61.8314 -61.8314
   -61.8314 -61.8314 -61.8135 -61.8135 -61.8135 -61.8135 -61.8045 -61.8045
   -61.8045 -61.8045 -61.8010 -61.8010 -61.7986 -61.7986 -61.7986 -61.7986
   -61.7986 -61.7986 -61.7986 -61.7986 -61.7813 -61.7813 -61.7813 -61.7813
   -61.7723 -61.7723 -61.7723 -61.7723 -61.7723 -61.7723 -61.7723 -61.7723
   -61.7661 -61.7661 -61.7466 -61.7466 -61.7466 -61.7466 -61.7073 -61.7073
   -61.7064 -61.7064 -61.7064 -61.7064 -61.7008 -61.7008 -61.7008 -61.7008
   -61.7008 -61.7008 -61.7008 -61.7008 -61.6868 -61.6868 -61.6867 -61.6867
   -36.0133 -36.0133 -35.9977 -35.9977 -35.9528 -35.9528 -35.9528 -35.9528
   -35.9240 -35.9240 -35.9240 -35.9240 -35.9240 -35.9240 -35.9240 -35.9239
   -35.9239 -35.9239 -35.9239 -35.9239 -35.9079 -35.9079 -35.9025 -35.9025
   -35.9025 -35.9025 -35.9025 -35.9025 -35.9025 -35.9025 -35.8901 -35.8901
   -35.8872 -35.8872 -35.8872 -35.8872 -35.8720 -35.8720 -35.8720 -35.8720
   -35.8562 -35.8562 -35.8562 -35.8562 -35.8373 -35.8373 -35.8373 -35.8373
   -35.8373 -35.8373 -35.8373 -35.8373 -35.8177 -35.8177 -35.8177 -35.8177
   -35.8177 -35.8177 -35.8177 -35.8177 -35.8118 -35.8118 -35.8118 -35.8118
   -35.7706 -35.7706 -35.7706 -35.7706 -35.7495 -35.7494 -35.7494 -35.7494
   -35.7338 -35.7338 -35.7338 -35.7338 -35.7139 -35.7139 -35.7138 -35.7138
   -35.7138 -35.7138 -35.7138 -35.7138 -35.7033 -35.7033 -35.7033 -35.7033
   -35.6883 -35.6883 -35.6883 -35.6883 -35.6883 -35.6883 -35.6883 -35.6883
   -35.6879 -35.6879 -35.6879 -35.6879 -35.6768 -35.6768 -35.6768 -35.6768
   -35.6607 -35.6607 -35.6607 -35.6607 -35.6543 -35.6543 -35.6543 -35.6543
   -35.6527 -35.6527 -35.6372 -35.6372 -35.6372 -35.6372 -35.6371 -35.6371
   -35.6371 -35.6371 -35.6283 -35.6283 -35.6283 -35.6283 -35.6225 -35.6225
   -35.6192 -35.6192 -35.6192 -35.6192 -35.6192 -35.6192 -35.6192 -35.6192
   -35.6075 -35.6075 -35.6075 -35.6075 -35.6061 -35.6061 -35.6061 -35.6061
   -35.6033 -35.6033 -35.5835 -35.5835 -35.5835 -35.5835 -35.5809 -35.5809
   -35.5809 -35.5809 -35.5809 -35.5809 -35.5809 -35.5808 -35.5632 -35.5632
   -35.5632 -35.5632 -35.5619 -35.5619 -35.5619 -35.5619 -35.5528 -35.5528
   -35.5447 -35.5446 -35.5446 -35.5446 -35.5446 -35.5446 -35.5446 -35.5446
   -35.5275 -35.5275 -35.5275 -35.5275 -35.5275 -35.5275 -35.5275 -35.5275
   -35.5221 -35.5221 -35.5171 -35.5171 -35.5166 -35.5166 -35.5124 -35.5124
   -35.5123 -35.5123 -35.4792 -35.4792 -35.4792 -35.4792 -35.4762 -35.4762
   -35.4762 -35.4762 -35.4377 -35.4377 -35.4219 -35.4219 -35.4219 -35.4219
   -35.4218 -35.4218 -35.4218 -35.4218 -35.4087 -35.4086 -35.4086 -35.4086
   -13.9271 -13.9271 -13.9271 -13.9271 -13.0956 -13.0956 -13.0956 -13.0956
   -12.9473 -12.9473 -12.9473 -12.9473 -12.9473 -12.9473 -12.9473 -12.9473
   -12.7013 -12.7013 -12.7013 -12.7013 -12.4899 -12.4899 -12.4899 -12.4899
   -12.3879 -12.3879 -12.3879 -12.3879 -12.3879 -12.3879 -12.3879 -12.3879
   -12.3340 -12.3340 -12.2848 -12.2847 -12.2847 -12.2847 -12.1252 -12.1252
   -12.1102 -12.1102 -12.1102 -12.1101 -11.7121 -11.7121 -11.7121 -11.7121
   -11.6824 -11.6824 -11.6824 -11.6824 -11.6824 -11.6824 -11.6824 -11.6824
   -11.4258 -11.4257 -11.4257 -11.4256 -11.4255 -11.4255 -11.4255 -11.4255
   -11.4125 -11.4125 -11.4125 -11.4124 -11.3242 -11.3242 -11.0574 -11.0574
    -5.2027  -5.2027  -4.9647  -4.9647  -4.2564  -4.2564  -4.2564  -4.2564
    -4.2563  -4.2563  -4.2563  -4.2563  -4.1317  -4.1317  -4.0666  -4.0666
    -4.0666  -4.0666  -4.0665  -4.0665  -4.0665  -4.0665  -3.8698  -3.8698
    -3.6796  -3.6796  -3.6796  -3.6796  -3.6167  -3.6167  -3.6167  -3.6167
    -3.6040  -3.6040  -3.6040  -3.6040  -3.3471  -3.3471  -3.3471  -3.3471
    -3.3471  -3.3471  -3.3471  -3.3471  -3.0988  -3.0988  -3.0988  -3.0988
    -3.0767  -3.0767  -3.0767  -3.0767  -3.0767  -3.0767  -3.0767  -3.0767
    -2.9201  -2.9201  -2.9200  -2.9200  -2.8913  -2.8913  -2.8913  -2.8913
    -2.8196  -2.8196  -2.6078  -2.6078  -2.5894  -2.5894  -2.5136  -2.5136
    -2.5136  -2.5136  -2.5136  -2.5136  -2.5135  -2.5135  -2.4357  -2.4357
    -2.3902  -2.3902  -2.3901  -2.3901  -2.3648  -2.3648  -2.3648  -2.3648
    -2.3647  -2.3647  -2.3647  -2.3647  -2.1345  -2.1345  -2.1345  -2.1344
    -2.1344  -2.1344  -2.1344  -2.1344  -2.1159  -2.1159  -2.1159  -2.1159
    -2.1159  -2.1159  -2.1159  -2.1159  -2.0730  -2.0730  -2.0730  -2.0730
    -2.0529  -2.0529  -2.0422  -2.0422  -2.0422  -2.0422  -1.8531  -1.8531
    -1.8531  -1.8531  -1.7541  -1.7541  -1.7541  -1.7541  -1.7186  -1.7186
    -1.7011  -1.7011  -1.5045  -1.5045  -1.5045  -1.5044  -1.4699  -1.4699
    -1.4699  -1.4699  -1.4699  -1.4699  -1.4699  -1.4699  -1.3890  -1.3890
    -1.3890  -1.3890  -1.3110  -1.3110  -1.3038  -1.3038  -1.3038  -1.3038
    -1.3038  -1.3038  -1.3038  -1.3038  -1.2795  -1.2795  -1.2795  -1.2795
    -1.2731  -1.2731  -1.2731  -1.2731  -1.2709  -1.2708  -1.2708  -1.2708
    -1.1019  -1.1019  -1.1019  -1.1019  -1.1018  -1.1018  -1.1018  -1.1018
    -0.9854  -0.9854  -0.9854  -0.9854  -0.9548  -0.9548  -0.9548  -0.9548
    -0.8039  -0.8039  -0.8038  -0.8038  -0.8038  -0.8038  -0.8038  -0.8038
    -0.6418  -0.6418  -0.6418  -0.6418  -0.6374  -0.6374  -0.6373  -0.6373
    -0.5279  -0.5279  -0.5279  -0.5279  -0.2844  -0.2844  -0.2844  -0.2844
    -0.2732  -0.2732  -0.2732  -0.2732  -0.0239  -0.0238  -0.0238  -0.0238
     1.2883   1.2883   1.2884   1.2884   1.4968   1.4968   1.4968   1.4968
     1.5281   1.5281   1.5282   1.5282   1.8043   1.8043   1.8043   1.8044
     1.8044   1.8044   1.8044   1.8044   1.8647   1.8647   1.8647   1.8647
     2.3803   2.3803   2.3803   2.3803   2.5734   2.5734   2.5734   2.5734
     2.6478   2.6478   2.6478   2.6478   2.6527   2.6527   2.6527   2.6527
     2.7320   2.7320   2.7320   2.7320   2.7395   2.7395   2.7395   2.7395
     2.9183   2.9183   2.9184   2.9184   2.9184   2.9184   2.9184   2.9184
     3.3300   3.3300   3.3300   3.3300   3.4211   3.4211   3.4211   3.4211
     3.5312   3.5312   3.5312   3.5312   3.5312   3.5312   3.5312   3.5312
     3.6362   3.6362   3.6905   3.6905   3.6905   3.6905   3.6905   3.6905
     3.6905   3.6905   3.6971   3.6971   3.7138   3.7138   3.7284   3.7284
     3.8205   3.8205   3.8205   3.8205   3.8205   3.8205   3.8205   3.8205
     3.8795   3.8795   3.8795   3.8795   3.8795   3.8795   3.8795   3.8795
     3.9368   3.9368   3.9368   3.9368   4.0316   4.0316   4.0316   4.0316
     4.0316   4.0317   4.0317   4.0317   4.0482   4.0482   4.0636   4.0636
     4.0636   4.0636   4.0637   4.0637   4.0637   4.0637   4.0872   4.0872
     4.0872   4.0872   4.1150   4.1150   4.1479   4.1479   4.1479   4.1479
     4.1555   4.1555   4.2104   4.2104   4.2104   4.2104   4.2461   4.2461
     4.4216   4.4216   4.4216   4.4216   4.4217   4.4217   4.4217   4.4217
     4.4729   4.4729   4.4729   4.4729   4.5603   4.5603   4.5603   4.5603
     4.6135   4.6135   4.6135   4.6135   4.6135   4.6135   4.6135   4.6135
     4.6242   4.6242   4.6576   4.6576   4.6576   4.6576   4.6576   4.6576
     4.6576   4.6576   4.6875   4.6875   4.6875   4.6875   4.7074   4.7074
     4.7074   4.7074   4.7230   4.7230   4.7230   4.7230   4.7721   4.7721
     4.7814   4.7815   4.7815   4.7815   4.7815   4.7815   4.7815   4.7815
     4.8180   4.8180

     the Fermi energy is     3.4375 ev

!    total energy              =  -11908.17605978 Ry
     estimated scf accuracy    <       0.00000004 Ry
     smearing contrib. (-TS)   =      -0.01257401 Ry
     internal energy E=F+TS    =  -11908.16348577 Ry

     The total energy is F=E-TS. E is the sum of the following terms:
     one-electron contribution = -158628.30274832 Ry
     hartree contribution      =   79403.35586790 Ry
     xc contribution           =   -1804.22488612 Ry
     ewald contribution        =   69124.45501326 Ry
     DFT-D3 Dispersion         =      -3.44673249 Ry

     convergence has been achieved in  21 iterations

     negative rho (up, down):  7.777E-02 0.000E+00

     Forces acting on atoms (cartesian axes, Ry/au):

     atom    1 type  1   force =     0.00000000    0.00000000    0.09410011
     atom    2 type  1   force =    -0.00000207    0.00000000   -0.02005054
     atom    3 type  1   force =     0.00000000   -0.00000207   -0.02005054
     atom    4 type  1   force =    -0.00000229   -0.00000229    0.09410315
     atom    5 type  1   force =     0.00000000    0.00000000   -0.00002876
     atom    6 type  1   force =    -0.00000589   -0.00000000   -0.00011792
     atom    7 type  1   force =     0.00000000   -0.00000589   -0.00011792
     atom    8 type  1   force =     0.00000497    0.00000497   -0.00003253
     atom    9 type  1   force =     0.00000000    0.00000072    0.09410096
     atom   10 type  1   force =     0.00000005   -0.00000119   -0.02005217
     atom   11 type  1   force =     0.00000000    0.00000000   -0.02004606
     atom   12 type  1   force =    -0.00000124    0.00000000    0.09409951
     atom   13 type  1   force =     0.00000000    0.00000057   -0.00003028
     atom   14 type  1   force =    -0.00000107    0.00000533   -0.00012028
     atom   15 type  1   force =     0.00000000    0.00000000   -0.00011700
     atom   16 type  1   force =     0.00000596   -0.00000000   -0.00003190
     atom   17 type  1   force =     0.00000000   -0.00000072    0.09410096
     atom   18 type  1   force =     0.00000005    0.00000119   -0.02005217
     atom   19 type  1   force =     0.00000000    0.00000207   -0.02005054
     atom   20 type  1   force =    -0.00000229    0.00000229    0.09410315
     atom   21 type  1   force =    -0.00000000   -0.00000057   -0.00003028
     atom   22 type  1   force =    -0.00000107   -0.00000533   -0.00012028
     atom   23 type  1   force =     0.00000000    0.00000589   -0.00011792
     atom   24 type  1   force =     0.00000497   -0.00000497   -0.00003253
     atom   25 type  1   force =     0.00000072    0.00000000    0.09410096
     atom   26 type  1   force =     0.00000000    0.00000000   -0.02004606
     atom   27 type  1   force =    -0.00000119    0.00000005   -0.02005217
     atom   28 type  1   force =     0.00000000   -0.00000124    0.09409951
     atom   29 type  1   force =     0.00000057   -0.00000000   -0.00003028
     atom   30 type  1   force =     0.00000000    0.00000000   -0.00011700
     atom   31 type  1   force =     0.00000533   -0.00000107   -0.00012028
     atom   32 type  1   force =    -0.00000000    0.00000596   -0.00003190
     atom   33 type  1   force =     0.00000296    0.00000296    0.09410225
     atom   34 type  1   force =    -0.00000000    0.00000289   -0.02004541
     atom   35 type  1   force =     0.00000289    0.00000000   -0.02004541
     atom   36 type  1   force =     0.00000000    0.00000000    0.09410167
     atom   37 type  1   force =     0.00000400    0.00000400   -0.00003322
     atom   38 type  1   force =     0.00000000    0.00000561   -0.00011558
     atom   39 type  1   force =     0.00000561    0.00000000   -0.00011558
     atom   40 type  1   force =     0.00000000    0.00000000   -0.00002787
     atom   41 type  1   force =     0.00000296   -0.00000296    0.09410225
     atom   42 type  1   force =     0.00000000   -0.00000289   -0.02004541
     atom   43 type  1   force =    -0.00000119   -0.00000005   -0.02005217
     atom   44 type  1   force =     0.00000000    0.00000124    0.09409951
     atom   45 type  1   force =     0.00000400   -0.00000400   -0.00003322
     atom   46 type  1   force =     0.00000000   -0.00000561   -0.00011558
     atom   47 type  1   force =     0.00000533    0.00000107   -0.00012028
     atom   48 type  1   force =    -0.00000000   -0.00000596   -0.00003190
     atom   49 type  1   force =    -0.00000072    0.00000000    0.09410096
     atom   50 type  1   force =     0.00000207    0.00000000   -0.02005054
     atom   51 type  1   force =     0.00000119    0.00000005   -0.02005217
     atom   52 type  1   force =     0.00000229   -0.00000229    0.09410315
     atom   53 type  1   force =    -0.00000057   -0.00000000   -0.00003028
     atom   54 type  1   force =     0.00000589    0.00000000   -0.00011792
     atom   55 type  1   force =    -0.00000533   -0.00000107   -0.00012028
     atom   56 type  1   force =    -0.00000497    0.00000497   -0.00003253
     atom   57 type  1   force =    -0.00000296    0.00000296    0.09410225
     atom   58 type  1   force =    -0.00000005   -0.00000119   -0.02005217
     atom   59 type  1   force =    -0.00000289   -0.00000000   -0.02004541
     atom   60 type  1   force =     0.00000124    0.00000000    0.09409951
     atom   61 type  1   force =    -0.00000400    0.00000400   -0.00003322
     atom   62 type  1   force =     0.00000107    0.00000533   -0.00012028
     atom   63 type  1   force =    -0.00000561    0.00000000   -0.00011558
     atom   64 type  1   force =    -0.00000596    0.00000000   -0.00003190
     atom   65 type  1   force =    -0.00000296   -0.00000296    0.09410225
     atom   66 type  1   force =    -0.00000005    0.00000119   -0.02005217
     atom   67 type  1   force =     0.00000119   -0.00000005   -0.02005217
     atom   68 type  1   force =     0.00000229    0.00000229    0.09410315
     atom   69 type  1   force =    -0.00000400   -0.00000400   -0.00003322
     atom   70 type  1   force =     0.00000107   -0.00000533   -0.00012028
     atom   71 type  1   force =    -0.00000533    0.00000107   -0.00012028
     atom   72 type  1   force =    -0.00000497   -0.00000497   -0.00003253
     atom   73 type  2   force =     0.00000000    0.00000300   -0.05263887
     atom   74 type  2   force =     0.00000300    0.00000000   -0.05263887
     atom   75 type  2   force =     0.00000000    0.00000000   -0.02131287
     atom   76 type  2   force =     0.00000226    0.00000226   -0.02133110
     atom   77 type  2   force =     0.00000000   -0.00000076   -0.00029338
     atom   78 type  2   force =    -0.00000076    0.00000000   -0.00029338
     atom   79 type  2   force =     0.00000000    0.00000000    0.00036222
     atom   80 type  2   force =     0.00000282    0.00000282    0.00035538
     atom   81 type  2   force =     0.00000000    0.00000000   -0.05264227
     atom   82 type  2   force =     0.00000184    0.00000023   -0.05263665
     atom   83 type  2   force =     0.00000000   -0.00000484   -0.02132199
     atom   84 type  2   force =     0.00000394   -0.00000000   -0.02131893
     atom   85 type  2   force =     0.00000000    0.00000000   -0.00029433
     atom   86 type  2   force =     0.00000160    0.00000229   -0.00029357
     atom   87 type  2   force =     0.00000000    0.00000025    0.00035734
     atom   88 type  2   force =     0.00000301    0.00000000    0.00035425
     atom   89 type  2   force =     0.00000000   -0.00000300   -0.05263887
     atom   90 type  2   force =     0.00000184   -0.00000023   -0.05263665
     atom   91 type  2   force =     0.00000000    0.00000484   -0.02132199
     atom   92 type  2   force =     0.00000226   -0.00000226   -0.02133110
     atom   93 type  2   force =     0.00000000    0.00000076   -0.00029338
     atom   94 type  2   force =     0.00000160   -0.00000229   -0.00029357
     atom   95 type  2   force =     0.00000000   -0.00000025    0.00035734
     atom   96 type  2   force =     0.00000282   -0.00000282    0.00035538
     atom   97 type  2   force =     0.00000023    0.00000184   -0.05263665
     atom   98 type  2   force =     0.00000000    0.00000000   -0.05264227
     atom   99 type  2   force =    -0.00000484    0.00000000   -0.02132199
     atom  100 type  2   force =     0.00000000    0.00000394   -0.02131893
     atom  101 type  2   force =     0.00000229    0.00000160   -0.00029357
     atom  102 type  2   force =     0.00000000    0.00000000   -0.00029433
     atom  103 type  2   force =     0.00000025    0.00000000    0.00035734
     atom  104 type  2   force =    -0.00000000    0.00000301    0.00035425
     atom  105 type  2   force =    -0.00000209    0.00000000   -0.05263925
     atom  106 type  2   force =     0.00000000   -0.00000209   -0.05263925
     atom  107 type  2   force =    -0.00000298   -0.00000298   -0.02132833
     atom  108 type  2   force =     0.00000000    0.00000000   -0.02131386
     atom  109 type  2   force =     0.00000381    0.00000000   -0.00029471
     atom  110 type  2   force =     0.00000000    0.00000381   -0.00029471
     atom  111 type  2   force =     0.00000193    0.00000193    0.00034947
     atom  112 type  2   force =     0.00000000    0.00000000    0.00034658
     atom  113 type  2   force =     0.00000023   -0.00000184   -0.05263665
     atom  114 type  2   force =     0.00000000    0.00000209   -0.05263925
     atom  115 type  2   force =    -0.00000298    0.00000298   -0.02132833
     atom  116 type  2   force =     0.00000000   -0.00000394   -0.02131893
     atom  117 type  2   force =     0.00000229   -0.00000160   -0.00029357
     atom  118 type  2   force =     0.00000000   -0.00000381   -0.00029471
     atom  119 type  2   force =     0.00000193   -0.00000193    0.00034947
     atom  120 type  2   force =     0.00000000   -0.00000301    0.00035425
     atom  121 type  2   force =    -0.00000023    0.00000184   -0.05263665
     atom  122 type  2   force =    -0.00000300    0.00000000   -0.05263887
     atom  123 type  2   force =     0.00000484    0.00000000   -0.02132199
     atom  124 type  2   force =    -0.00000226    0.00000226   -0.02133110
     atom  125 type  2   force =    -0.00000229    0.00000160   -0.00029357
     atom  126 type  2   force =     0.00000076   -0.00000000   -0.00029338
     atom  127 type  2   force =    -0.00000025    0.00000000    0.00035734
     atom  128 type  2   force =    -0.00000282    0.00000282    0.00035538
     atom  129 type  2   force =     0.00000209    0.00000000   -0.05263925
     atom  130 type  2   force =    -0.00000184    0.00000023   -0.05263665
     atom  131 type  2   force =     0.00000298   -0.00000298   -0.02132833
     atom  132 type  2   force =    -0.00000394    0.00000000   -0.02131893
     atom  133 type  2   force =    -0.00000381    0.00000000   -0.00029471
     atom  134 type  2   force =    -0.00000160    0.00000229   -0.00029357
     atom  135 type  2   force =    -0.00000193    0.00000193    0.00034947
     atom  136 type  2   force =    -0.00000301   -0.00000000    0.00035425
     atom  137 type  2   force =    -0.00000023   -0.00000184   -0.05263665
     atom  138 type  2   force =    -0.00000184   -0.00000023   -0.05263665
     atom  139 type  2   force =     0.00000298    0.00000298   -0.02132833
     atom  140 type  2   force =    -0.00000226   -0.00000226   -0.02133110
     atom  141 type  2   force =    -0.00000229   -0.00000160   -0.00029357
     atom  142 type  2   force =    -0.00000160   -0.00000229   -0.00029357
     atom  143 type  2   force =    -0.00000193   -0.00000193    0.00034947
     atom  144 type  2   force =    -0.00000282   -0.00000282    0.00035538

     Total force =     0.002021     Total SCF correction =     0.000652
     SCF correction compared to forces is large: reduce conv_thr to get better values
     Energy error            =      4.2E-05 Ry
     Gradient error          =      3.6E-04 Ry/Bohr

     bfgs converged in  12 scf cycles and  11 bfgs steps
     (criteria: energy <  1.0E-04 Ry, force <  7.8E-04 Ry/Bohr)

     End of BFGS Geometry Optimization

     Final energy             =  -11908.1760597776 Ry

     File ./tmp/VN_slab.bfgs deleted, as requested
Begin final coordinates

ATOMIC_POSITIONS (angstrom)
V                0.0000000000        0.0000000000       10.0000000000    0   0   0
V                2.0432625400        0.0000000000       12.0432625400    0   0   0
V                0.0000000000        2.0432625400       12.0432625400    0   0   0
V                2.0432625400        2.0432625400       10.0000000000    0   0   0
V                0.0000001400        0.0000001700       14.1591470560
V                2.0431786866        0.0000000600       16.0193761964
V               -0.0000000900        2.0431786066       16.0193760064
V                2.0432467734        2.0432466834       14.1591545868
V                0.0000000000        4.0865250700       10.0000000000    0   0   0
V                2.0432625400        4.0865250700       12.0432625400    0   0   0
V                0.0000000000        6.1297876100       12.0432625400    0   0   0
V                2.0432625400        6.1297876100       10.0000000000    0   0   0
V                0.0000001200        4.0865104189       14.1591574207
V                2.0431893478        4.0866084857       16.0194005024
V               -0.0000001500        6.1297875000       16.0193641302
V                2.0432506629        6.1297873900       14.1591696449
V                0.0000000000        8.1730501500       10.0000000000    0   0   0
V                2.0432625400        8.1730501500       12.0432625400    0   0   0
V                0.0000000000       10.2163126900       12.0432625400    0   0   0
V                2.0432625400       10.2163126900       10.0000000000    0   0   0
V               -0.0000002100        8.1730645511       14.1591574007
V                2.0431894278        8.1729669343       16.0194003224
V               -0.0000000100       10.2163965134       16.0193762764
V                2.0432467034       10.2163282966       14.1591543768
V                4.0865250700        0.0000000000       10.0000000000    0   0   0
V                6.1297876100        0.0000000000       12.0432625400    0   0   0
V                4.0865250700        2.0432625400       12.0432625400    0   0   0
V                6.1297876100        2.0432625400       10.0000000000    0   0   0
V                4.0865104389        0.0000001700       14.1591573307
V                6.1297876200        0.0000000500       16.0193647102
V                4.0866082957        2.0431894278       16.0194006124
V                6.1297873700        2.0432507429       14.1591696449
V                4.0865250700        4.0865250700       10.0000000000    0   0   0
V                6.1297876100        4.0865250700       12.0432625400    0   0   0
V                4.0865250700        6.1297876100       12.0432625400    0   0   0
V                6.1297876100        6.1297876100       10.0000000000    0   0   0
V                4.0865116120        4.0865114220       14.1591661536
V                6.1297875500        4.0865726566       16.0193846479
V                4.0865726066        6.1297875500       16.0193844079
V                6.1297874000        6.1297875000       14.1591515256
V                4.0865250700        8.1730501500       10.0000000000    0   0   0
V                6.1297876100        8.1730501500       12.0432625400    0   0   0
V                4.0865250700       10.2163126900       12.0432625400    0   0   0
V                6.1297876100       10.2163126900       10.0000000000    0   0   0
V                4.0865116320        8.1730639180       14.1591661636
V                6.1297875800        8.1730024834       16.0193843679
V                4.0866083157       10.2163857222       16.0194000824
V                6.1297875400       10.2163242571       14.1591697149
V                8.1730501500        0.0000000000       10.0000000000    0   0   0
V               10.2163126900        0.0000000000       12.0432625400    0   0   0
V                8.1730501500        2.0432625400       12.0432625400    0   0   0
V               10.2163126900        2.0432625400       10.0000000000    0   0   0
V                8.1730647511        0.0000000500       14.1591573107
V               10.2163965934        0.0000001000       16.0193761364
V                8.1729668843        2.0431894278       16.0194008524
V               10.2163285066        2.0432467034       14.1591542468
V                8.1730501500        4.0865250700       10.0000000000    0   0   0
V               10.2163126900        4.0865250700       12.0432625400    0   0   0
V                8.1730501500        6.1297876100       12.0432625400    0   0   0
V               10.2163126900        6.1297876100       10.0000000000    0   0   0
V                8.1730634380        4.0865116120       14.1591660736
V               10.2163857822        4.0866085157       16.0194003024
V                8.1730026534        6.1297876500       16.0193846379
V               10.2163246371        6.1297875900       14.1591697649
V                8.1730501500        8.1730501500       10.0000000000    0   0   0
V               10.2163126900        8.1730501500       12.0432625400    0   0   0
V                8.1730501500       10.2163126900       12.0432625400    0   0   0
V               10.2163126900       10.2163126900       10.0000000000    0   0   0
V                8.1730637880        8.1730636680       14.1591662736
V               10.2163857822        8.1729667343       16.0194004924
V                8.1729667543       10.2163858222       16.0194001024
V               10.2163283866       10.2163282566       14.1591543568
N                0.0000000000        2.0432625400       10.0000000000    0   0   0
N                2.0432625400        0.0000000000       10.0000000000    0   0   0
N                0.0000000000        0.0000000000       12.0432625400    0   0   0
N                2.0432625400        2.0432625400       12.0432625400    0   0   0
N                0.0000001100        2.0432516243       14.1177486709
N                2.0432513943        0.0000001000       14.1177483709
N               -0.0000000300       -0.0000000400       16.2814009716
N                2.0432808826        2.0432808026       16.2813146737
N                0.0000000000        6.1297876100       10.0000000000    0   0   0
N                2.0432625400        4.0865250700       10.0000000000    0   0   0
N                0.0000000000        4.0865250700       12.0432625400    0   0   0
N                2.0432625400        6.1297876100       12.0432625400    0   0   0
N               -0.0000000400        6.1297876300       14.1177463216
N                2.0432539453        4.0865182497       14.1177672343
N               -0.0000001500        4.0864874159       16.2813702353
N                2.0432710150        6.1297874600       16.2814018982
N                0.0000000000       10.2163126900       10.0000000000    0   0   0
N                2.0432625400        8.1730501500       10.0000000000    0   0   0
N                0.0000000000        8.1730501500       12.0432625400    0   0   0
N                2.0432625400       10.2163126900       12.0432625400    0   0   0
N                0.0000000200       10.2163236057       14.1177481909
N                2.0432539353        8.1730571303       14.1177673743
N                0.0000000800        8.1730879141       16.2813702053
N                2.0432808126       10.2162944374       16.2813145837
N                4.0865250700        2.0432625400       10.0000000000    0   0   0
N                6.1297876100        0.0000000000       10.0000000000    0   0   0
N                4.0865250700        0.0000000000       12.0432625400    0   0   0
N                6.1297876100        2.0432625400       12.0432625400    0   0   0
N                4.0865180597        2.0432540053       14.1177670643
N                6.1297875500        0.0000000900       14.1177461516
N                4.0864873659       -0.0000000300       16.2813707253
N                6.1297876600        2.0432711250       16.2814023182
N                4.0865250700        6.1297876100       10.0000000000    0   0   0
N                6.1297876100        4.0865250700       10.0000000000    0   0   0
N                4.0865250700        4.0865250700       12.0432625400    0   0   0
N                6.1297876100        6.1297876100       12.0432625400    0   0   0
N                4.0865194352        6.1297874900       14.1177620182
N                6.1297876500        4.0865193652       14.1177616882
N                4.0864968837        4.0864967637       16.2813529306
N                6.1297876300        6.1297875100       16.2814372718
N                4.0865250700       10.2163126900       10.0000000000    0   0   0
N                6.1297876100        8.1730501500       10.0000000000    0   0   0
N                4.0865250700        8.1730501500       12.0432625400    0   0   0
N                6.1297876100       10.2163126900       12.0432625400    0   0   0
N                4.0865180297       10.2163210447       14.1177674943
N                6.1297875600        8.1730558648       14.1177620182
N                4.0864968637        8.1730785863       16.2813524706
N                6.1297876400       10.2163042350       16.2814020682
N                8.1730501500        2.0432625400       10.0000000000    0   0   0
N               10.2163126900        0.0000000000       10.0000000000    0   0   0
N                8.1730501500        0.0000000000       12.0432625400    0   0   0
N               10.2163126900        2.0432625400       12.0432625400    0   0   0
N                8.1730570503        2.0432538853       14.1177669243
N               10.2163238957       -0.0000001200       14.1177484709
N                8.1730877441        0.0000000100       16.2813704353
N               10.2162944674        2.0432808126       16.2813145937
N                8.1730501500        6.1297876100       10.0000000000    0   0   0
N               10.2163126900        4.0865250700       10.0000000000    0   0   0
N                8.1730501500        4.0865250700       12.0432625400    0   0   0
N               10.2163126900        6.1297876100       12.0432625400    0   0   0
N                8.1730556448        6.1297873400       14.1177615882
N               10.2163213347        4.0865182297       14.1177675143
N                8.1730785163        4.0864967537       16.2813526406
N               10.2163042150        6.1297876700       16.2814018482
N                8.1730501500       10.2163126900       10.0000000000    0   0   0
N               10.2163126900        8.1730501500       10.0000000000    0   0   0
N                8.1730501500        8.1730501500       12.0432625400    0   0   0
N               10.2163126900       10.2163126900       12.0432625400    0   0   0
N                8.1730569803       10.2163213547       14.1177674643
N               10.2163213247        8.1730569303       14.1177668843
N                8.1730784263        8.1730784863       16.2813526306
N               10.2162944574       10.2162943574       16.2813146137
End final coordinates



     Writing all to output data dir ./tmp/VN_slab.save/ :
     XML data file, charge density, pseudopotentials, collected wavefunctions

     init_run     :     35.10s CPU     36.34s WALL (       1 calls)
     electrons    :  26474.02s CPU  27229.29s WALL (      12 calls)
     update_pot   :      8.88s CPU      9.61s WALL (      11 calls)
     forces       :    302.39s CPU    308.25s WALL (      12 calls)
     force_dftd3  :      4.24s CPU      4.59s WALL (      12 calls)

     Called by init_run:
     wfcinit      :     29.39s CPU     30.35s WALL (       1 calls)
     potinit      :      1.13s CPU      1.22s WALL (       1 calls)
     hinit0       :      1.21s CPU      1.25s WALL (       1 calls)

     Called by electrons:
     c_bands      :  23836.72s CPU  24426.14s WALL (     313 calls)
     sum_band     :   2261.05s CPU   2379.93s WALL (     313 calls)
     v_of_rho     :    178.44s CPU    194.26s WALL (     324 calls)
     newd         :    156.11s CPU    179.01s WALL (     324 calls)
     mix_rho      :     17.93s CPU     19.87s WALL (     313 calls)
     energy_dftd3 :      1.35s CPU      1.36s WALL (      12 calls)

     Called by c_bands:
     init_us_2    :    140.41s CPU    141.84s WALL (    1278 calls)
     cegterg      :  22724.59s CPU  23306.68s WALL (     638 calls)

     Called by *egterg:
     cdiaghg      :   1171.04s CPU   1227.74s WALL (    4315 calls)
     h_psi        :   8919.23s CPU   9297.86s WALL (    4341 calls)
     s_psi        :   3098.89s CPU   3117.83s WALL (    4341 calls)
     g_psi        :     17.82s CPU     18.00s WALL (    3701 calls)

     Called by h_psi:
     h_psi:calbec :   3243.23s CPU   3274.90s WALL (    4341 calls)
     vloc_psi     :   2542.15s CPU   2839.56s WALL (    4341 calls)
                                        0.00s GPU  (    4341 calls)
     add_vuspsi   :   3107.71s CPU   3128.72s WALL (    4341 calls)

     General routines
     calbec       :   4815.75s CPU   4862.62s WALL (    5063 calls)
     fft          :    163.04s CPU    179.20s WALL (    4332 calls)
     ffts         :      5.11s CPU      5.56s WALL (     637 calls)
     fftw         :   2912.01s CPU   3266.16s WALL ( 2740994 calls)
     interpolate  :     15.75s CPU     16.93s WALL (     324 calls)

     Parallel routines

     PWSCF        :  26831.80s CPU  27616.99s WALL


   This run was terminated on:  20:20:44  23Feb2026            

=------------------------------------------------------------------------------=
   JOB DONE.
=------------------------------------------------------------------------------=
