8
Lattice="18.723252 0.0 0.0 0.0 20.66365 0.0 0.0 0.0 19.087904" Properties=species:S:1:pos:R:3:spacegroup_kinds:I:1 spacegroup="P 1" unit_cell=conventional occupancy="_JSON {\"0\": {\"S\": 1.0}, \"1\": {\"S\": 1.0}, \"2\": {\"S\": 1.0}, \"3\": {\"S\": 1.0}, \"4\": {\"S\": 1.0}, \"5\": {\"S\": 1.0}, \"6\": {\"Li\": 1.0}, \"7\": {\"Li\": 1.0}}" energy=-2063.1273228245377 pbc="T T T"
S        9.53033692       8.44512010      11.15529158        0
S        9.41339635      12.17970145      11.01314129        1
S        9.50428932      12.58806911       8.98176532        2
S        8.58787750      11.03765788       8.01073253        3
S       10.06579234       9.36795541       8.01175831        4
S        9.24439092       7.89722033       9.17522638        5
Li      10.79187519      10.32941583      10.41975944        6
Li       8.09888851      10.24699989      10.53879886        7
