4
Lattice="16.0 0.0 0.0 0.0 19.892998 0.0 0.0 0.0 18.200662" Properties=species:S:1:pos:R:3:spacegroup_kinds:I:1 spacegroup="P 1" unit_cell=conventional occupancy="_JSON {\"0\": {\"S\": 1.0}, \"1\": {\"S\": 1.0}, \"2\": {\"Li\": 1.0}, \"3\": {\"Li\": 1.0}}" energy=-946.212344768014 pbc="T T T"
S        8.07148016       9.92659964      10.16189298        0
S        8.20022096       9.96238953       8.00475162        1
Li       8.19603664      11.89028561       9.11926551        2
Li       8.07070384       7.99873021       9.04707623        3
