10
Lattice="20.822066 0.0 0.0 0.0 20.917495 0.0 0.0 0.0 18.34466" Properties=species:S:1:pos:R:3:spacegroup_kinds:I:1 spacegroup="P 1" unit_cell=conventional occupancy="_JSON {\"0\": {\"S\": 1.0}, \"1\": {\"S\": 1.0}, \"2\": {\"S\": 1.0}, \"3\": {\"S\": 1.0}, \"4\": {\"S\": 1.0}, \"5\": {\"S\": 1.0}, \"6\": {\"S\": 1.0}, \"7\": {\"S\": 1.0}, \"8\": {\"Li\": 1.0}, \"9\": {\"Li\": 1.0}}" energy=-2620.7909529419085 pbc="T T T"
S        8.11959358      12.13653747       9.69365368        0
S       11.87583703      12.26744188       9.39793685        1
S       12.92064374      10.86674931       8.25239373        2
S       12.91979836       9.12111909       9.31992710        3
S       11.34308635       7.90741700       8.73389464        4
S        9.64666245       8.47086696       9.90570126        5
S        7.99764894       8.91161322       8.70946561        6
S        8.05019551      10.88314360       8.05879923        7
Li       9.92377979      12.50754648       8.21111274        8
Li      10.16134436      10.94714549      10.35387525        9
