6
Lattice="18.953278 0.0 0.0 0.0 19.57087 0.0 0.0 0.0 18.177086" Properties=species:S:1:pos:R:3:spacegroup_kinds:I:1 spacegroup="P 1" unit_cell=conventional occupancy="_JSON {\"0\": {\"S\": 1.0}, \"1\": {\"S\": 1.0}, \"2\": {\"S\": 1.0}, \"3\": {\"S\": 1.0}, \"4\": {\"Li\": 1.0}, \"5\": {\"Li\": 1.0}}" energy=-1505.1180872109064 pbc="T T T"
S        9.71131129      11.62521812       8.38912527        0
S        9.45032446       7.89283969       8.09986548        1
S        9.99609339       8.65966454       9.95559055        2
S        9.01905532      10.59459438      10.05861609        3
Li       8.19208077       9.90148556       7.94436124        4
Li      10.99175760       9.65469239       8.04498141        5
