
     Program PWSCF v.7.5 starts on 19Apr2026 at 15:15:52 

     This program is part of the open-source Quantum ESPRESSO suite
     for quantum simulation of materials; please cite
         "P. Giannozzi et al., J. Phys.:Condens. Matter 21 395502 (2009);
         "P. Giannozzi et al., J. Phys.:Condens. Matter 29 465901 (2017);
         "P. Giannozzi et al., J. Chem. Phys. 152 154105 (2020);
          URL http://www.quantum-espresso.org", 
     in publications or presentations arising from this work. More details at
     http://www.quantum-espresso.org/quote

     Parallel version (MPI & OpenMP), running on      64 processor cores
     Number of MPI processes:                64
     Threads/MPI process:                     1

     MPI processes distributed on     1 nodes
     537740 MiB available memory on the printing compute node when the environment starts

     Reading input from TiN_Li2S6_combi_u.in

     Current dimensions of program PWSCF are:
     Max number of different atomic species (ntypx) = 10
     Max number of k-points (npk) =  40000
     Max angular momentum in pseudopotentials (lmaxx) =  4
     Message from routine iosys:
     pot_extrapolation='second_order' not available, using 'atomic'
     Message from routine iosys:
     wfc_extrapolation='second_order' not available, using 'atomic'

     K-points division:     npool     =       4
     R & G space division:  proc/nbgrp/npool/nimage =      16
     Subspace diagonalization in iterative solution of the eigenvalue problem:
     one sub-group per band group will be used
     ELPA distributed-memory algorithm (size of sub-group:  4*  4 procs)


     Parallelization info
     --------------------
     sticks:   dense  smooth     PW     G-vecs:    dense   smooth      PW
     Min        1312     525    138               295020    74641   10122
     Max        1313     526    139               295029    74652   10133
     Sum       20993    8405   2217              4720353  1194337  162045

     Using Slab Decomposition



     bravais-lattice index     =            0
     lattice parameter (alat)  =      24.2220  a.u.
     unit-cell volume          =   29279.8673 (a.u.)^3
     number of atoms/cell      =          152
     number of atomic types    =            4
     number of electrons       =      1266.00
     number of Kohn-Sham states=          760
     kinetic-energy cutoff     =      45.0000  Ry
     charge density cutoff     =     450.0000  Ry
     scf convergence threshold =      1.0E-06
     mixing beta               =       0.2000
     number of iterations used =            8  local-TF  mixing
     energy convergence thresh.=      1.0E-04
     force convergence thresh. =      1.9E-03
     Exchange-correlation=  SLA  PW   PBX  PBC
                           (   1   4   3   4   0   0   0)
     nstep                     =          170

     Hubbard projectors: atomic
     Hubbard parameters of DFT+U (Dudarev formulation) in eV:
     U(Ti-3d) =  4.4400

     Internal variables: lda_plus_u =T, lda_plus_u_kind = 0

     Internal variables: orbital_resolved =F, hub_pot_fix =F, apply_U = F

     celldm(1)=  24.222000  celldm(2)=   0.000000  celldm(3)=   0.000000
     celldm(4)=   0.000000  celldm(5)=   0.000000  celldm(6)=   0.000000

     crystal axes: (cart. coord. in units of alat)
               a(1) = (   1.000000   0.000000   0.000000 )  
               a(2) = (   0.000000   1.000000   0.000000 )  
               a(3) = (   0.000000   0.000000   2.060341 )  

     reciprocal axes: (cart. coord. in units 2 pi/alat)
               b(1) = (  1.000000  0.000000  0.000000 )  
               b(2) = (  0.000000  1.000000  0.000000 )  
               b(3) = (  0.000000  0.000000  0.485357 )  


     PseudoPot. # 1 for Ti read from file:
     /scratch/anizami/QE_2/USPP/ti_pbe_v1.4.uspp.F.UPF
     MD5 check sum: 88a00a6731bd790ddea75d31a80cb452
     Pseudo is Ultrasoft + core correction, Zval = 12.0
     Generated by new atomic code, or converted to UPF format
     Using radial grid of  851 points,  6 beta functions with: 
                l(1) =   0
                l(2) =   0
                l(3) =   1
                l(4) =   1
                l(5) =   2
                l(6) =   2
     Q(r) pseudized with  6 coefficients,  rinner =    1.000   1.000   1.000
                                                       1.000   1.000

     PseudoPot. # 2 for N  read from file:
     /scratch/anizami/QE_2/USPP/n_pbe_v1.2.uspp.F.UPF
     MD5 check sum: 95339753478d7afb44899504a8723017
     Pseudo is Ultrasoft + core correction, Zval =  5.0
     Generated by new atomic code, or converted to UPF format
     Using radial grid of  729 points,  4 beta functions with: 
                l(1) =   0
                l(2) =   0
                l(3) =   1
                l(4) =   1
     Q(r) pseudized with  8 coefficients,  rinner =    0.900   0.900   0.900


     PseudoPot. # 3 for S  read from file:
     /scratch/anizami/QE_2/USPP/s_pbe_v1.4.uspp.F.UPF
     MD5 check sum: 88d86576ff6df21479756cfb9bdac1df
     Pseudo is Ultrasoft + core correction, Zval =  6.0
     Generated by new atomic code, or converted to UPF format
     Using radial grid of  907 points,  6 beta functions with: 
                l(1) =   0
                l(2) =   0
                l(3) =   1
                l(4) =   1
                l(5) =   2
                l(6) =   2
     Q(r) pseudized with  8 coefficients,  rinner =    1.300   1.300   1.300
                                                       1.300   1.300

     PseudoPot. # 4 for Li read from file:
     /scratch/anizami/QE_2/USPP/li_pbe_v1.4.uspp.F.UPF
     MD5 check sum: e912e257baa3777c20ea3d68f190483c
     Pseudo is Ultrasoft, Zval =  3.0
     Generated by new atomic code, or converted to UPF format
     Using radial grid of  751 points,  5 beta functions with: 
                l(1) =   0
                l(2) =   0
                l(3) =   0
                l(4) =   1
                l(5) =   1
     Q(r) pseudized with 10 coefficients,  rinner =    1.150   1.150   1.150


     atomic species   valence    mass     pseudopotential
     Ti               12.00     1.00000     Ti( 1.00)
     N                 5.00     1.00000     N ( 1.00)
     S                 6.00     1.00000     S ( 1.00)
     Li                3.00     1.00000     Li( 1.00)

     No symmetry found



   Cartesian axes

     site n.     atom                  positions (alat units)
         1        Ti     tau(   1) = (   0.0000000   0.0000000   0.7801693  )
         2        Ti     tau(   2) = (   0.1666664   0.0000000   0.9468357  )
         3        Ti     tau(   3) = (   0.0000000   0.1666664   0.9468357  )
         4        Ti     tau(   4) = (   0.1666664   0.1666664   0.7801693  )
         5        N      tau(   5) = (   0.0000000   0.1666664   0.7801693  )
         6        N      tau(   6) = (   0.1666664   0.0000000   0.7801693  )
         7        N      tau(   7) = (   0.0000000   0.0000000   0.9468357  )
         8        N      tau(   8) = (   0.1666664   0.1666664   0.9468357  )
         9        Ti     tau(   9) = (   0.0000000   0.0000000   1.1126691  )
        10        Ti     tau(  10) = (   0.1666664   0.0000000   1.2734683  )
        11        Ti     tau(  11) = (   0.0000000   0.1666664   1.2734683  )
        12        Ti     tau(  12) = (   0.1666664   0.1666664   1.1126684  )
        13        N      tau(  13) = (   0.0000000   0.1666664   1.1147903  )
        14        N      tau(  14) = (   0.1666664   0.0000000   1.1147903  )
        15        N      tau(  15) = (   0.0000000   0.0000000   1.2857892  )
        16        N      tau(  16) = (   0.1666664   0.1666664   1.2857888  )
        17        Ti     tau(  17) = (   0.0000000   0.3333328   0.7801693  )
        18        Ti     tau(  18) = (   0.1666664   0.3333328   0.9468357  )
        19        Ti     tau(  19) = (   0.0000000   0.4999991   0.9468357  )
        20        Ti     tau(  20) = (   0.1666664   0.4999991   0.7801693  )
        21        N      tau(  21) = (   0.0000000   0.4999991   0.7801693  )
        22        N      tau(  22) = (   0.1666664   0.3333328   0.7801693  )
        23        N      tau(  23) = (   0.0000000   0.3333328   0.9468357  )
        24        N      tau(  24) = (   0.1666664   0.4999991   0.9468357  )
        25        Ti     tau(  25) = (   0.0000000   0.3333328   1.1126692  )
        26        Ti     tau(  26) = (   0.1666664   0.3333327   1.2734683  )
        27        Ti     tau(  27) = (   0.0000000   0.4999991   1.2734683  )
        28        Ti     tau(  28) = (   0.1666664   0.4999991   1.1126684  )
        29        N      tau(  29) = (   0.0000000   0.4999991   1.1147903  )
        30        N      tau(  30) = (   0.1666664   0.3333328   1.1147904  )
        31        N      tau(  31) = (   0.0000000   0.3333328   1.2857892  )
        32        N      tau(  32) = (   0.1666664   0.4999991   1.2857888  )
        33        Ti     tau(  33) = (   0.0000000   0.6666655   0.7801693  )
        34        Ti     tau(  34) = (   0.1666664   0.6666655   0.9468357  )
        35        Ti     tau(  35) = (   0.0000000   0.8333319   0.9468357  )
        36        Ti     tau(  36) = (   0.1666664   0.8333319   0.7801693  )
        37        N      tau(  37) = (   0.0000000   0.8333319   0.7801693  )
        38        N      tau(  38) = (   0.1666664   0.6666655   0.7801693  )
        39        N      tau(  39) = (   0.0000000   0.6666655   0.9468357  )
        40        N      tau(  40) = (   0.1666664   0.8333319   0.9468357  )
        41        Ti     tau(  41) = (   0.0000000   0.6666655   1.1126692  )
        42        Ti     tau(  42) = (   0.1666664   0.6666655   1.2734683  )
        43        Ti     tau(  43) = (   0.0000000   0.8333319   1.2734683  )
        44        Ti     tau(  44) = (   0.1666664   0.8333319   1.1126684  )
        45        N      tau(  45) = (   0.0000000   0.8333319   1.1147903  )
        46        N      tau(  46) = (   0.1666664   0.6666655   1.1147904  )
        47        N      tau(  47) = (   0.0000000   0.6666655   1.2857892  )
        48        N      tau(  48) = (   0.1666664   0.8333319   1.2857888  )
        49        Ti     tau(  49) = (   0.3333328   0.0000000   0.7801693  )
        50        Ti     tau(  50) = (   0.4999991   0.0000000   0.9468357  )
        51        Ti     tau(  51) = (   0.3333328   0.1666664   0.9468357  )
        52        Ti     tau(  52) = (   0.4999991   0.1666664   0.7801693  )
        53        N      tau(  53) = (   0.3333328   0.1666664   0.7801693  )
        54        N      tau(  54) = (   0.4999991   0.0000000   0.7801693  )
        55        N      tau(  55) = (   0.3333328   0.0000000   0.9468357  )
        56        N      tau(  56) = (   0.4999991   0.1666664   0.9468357  )
        57        Ti     tau(  57) = (   0.3333328   0.0000000   1.1126692  )
        58        Ti     tau(  58) = (   0.4999991   0.0000000   1.2734683  )
        59        Ti     tau(  59) = (   0.3333327   0.1666664   1.2734683  )
        60        Ti     tau(  60) = (   0.4999991   0.1666664   1.1126684  )
        61        N      tau(  61) = (   0.3333328   0.1666664   1.1147904  )
        62        N      tau(  62) = (   0.4999991   0.0000000   1.1147903  )
        63        N      tau(  63) = (   0.3333328   0.0000000   1.2857892  )
        64        N      tau(  64) = (   0.4999991   0.1666664   1.2857888  )
        65        Ti     tau(  65) = (   0.3333328   0.3333328   0.7801693  )
        66        Ti     tau(  66) = (   0.4999991   0.3333328   0.9468357  )
        67        Ti     tau(  67) = (   0.3333328   0.4999991   0.9468357  )
        68        Ti     tau(  68) = (   0.4999991   0.4999991   0.7801693  )
        69        N      tau(  69) = (   0.3333328   0.4999991   0.7801693  )
        70        N      tau(  70) = (   0.4999991   0.3333328   0.7801693  )
        71        N      tau(  71) = (   0.3333328   0.3333328   0.9468357  )
        72        N      tau(  72) = (   0.4999991   0.4999991   0.9468357  )
        73        Ti     tau(  73) = (   0.3333328   0.3333328   1.1126692  )
        74        Ti     tau(  74) = (   0.4999991   0.3333327   1.2734683  )
        75        Ti     tau(  75) = (   0.3333327   0.4999991   1.2734683  )
        76        Ti     tau(  76) = (   0.4999991   0.4999991   1.1126684  )
        77        N      tau(  77) = (   0.3333328   0.4999991   1.1147904  )
        78        N      tau(  78) = (   0.4999991   0.3333328   1.1147904  )
        79        N      tau(  79) = (   0.3333328   0.3333328   1.2857892  )
        80        N      tau(  80) = (   0.4999991   0.4999991   1.2857887  )
        81        Ti     tau(  81) = (   0.3333328   0.6666655   0.7801693  )
        82        Ti     tau(  82) = (   0.4999991   0.6666655   0.9468357  )
        83        Ti     tau(  83) = (   0.3333328   0.8333319   0.9468357  )
        84        Ti     tau(  84) = (   0.4999991   0.8333319   0.7801693  )
        85        N      tau(  85) = (   0.3333328   0.8333319   0.7801693  )
        86        N      tau(  86) = (   0.4999991   0.6666655   0.7801693  )
        87        N      tau(  87) = (   0.3333328   0.6666655   0.9468357  )
        88        N      tau(  88) = (   0.4999991   0.8333319   0.9468357  )
        89        Ti     tau(  89) = (   0.3333328   0.6666655   1.1126692  )
        90        Ti     tau(  90) = (   0.4999991   0.6666655   1.2734683  )
        91        Ti     tau(  91) = (   0.3333327   0.8333319   1.2734683  )
        92        Ti     tau(  92) = (   0.4999991   0.8333319   1.1126684  )
        93        N      tau(  93) = (   0.3333328   0.8333319   1.1147904  )
        94        N      tau(  94) = (   0.4999991   0.6666655   1.1147904  )
        95        N      tau(  95) = (   0.3333328   0.6666655   1.2857892  )
        96        N      tau(  96) = (   0.4999991   0.8333319   1.2857888  )
        97        Ti     tau(  97) = (   0.6666655   0.0000000   0.7801693  )
        98        Ti     tau(  98) = (   0.8333319   0.0000000   0.9468357  )
        99        Ti     tau(  99) = (   0.6666655   0.1666664   0.9468357  )
       100        Ti     tau( 100) = (   0.8333319   0.1666664   0.7801693  )
       101        N      tau( 101) = (   0.6666655   0.1666664   0.7801693  )
       102        N      tau( 102) = (   0.8333319   0.0000000   0.7801693  )
       103        N      tau( 103) = (   0.6666655   0.0000000   0.9468357  )
       104        N      tau( 104) = (   0.8333319   0.1666664   0.9468357  )
       105        Ti     tau( 105) = (   0.6666655   0.0000000   1.1126692  )
       106        Ti     tau( 106) = (   0.8333319   0.0000000   1.2734683  )
       107        Ti     tau( 107) = (   0.6666655   0.1666664   1.2734683  )
       108        Ti     tau( 108) = (   0.8333319   0.1666664   1.1126684  )
       109        N      tau( 109) = (   0.6666655   0.1666664   1.1147904  )
       110        N      tau( 110) = (   0.8333319   0.0000000   1.1147903  )
       111        N      tau( 111) = (   0.6666655   0.0000000   1.2857892  )
       112        N      tau( 112) = (   0.8333319   0.1666664   1.2857888  )
       113        Ti     tau( 113) = (   0.6666655   0.3333328   0.7801693  )
       114        Ti     tau( 114) = (   0.8333319   0.3333328   0.9468357  )
       115        Ti     tau( 115) = (   0.6666655   0.4999991   0.9468357  )
       116        Ti     tau( 116) = (   0.8333319   0.4999991   0.7801693  )
       117        N      tau( 117) = (   0.6666655   0.4999991   0.7801693  )
       118        N      tau( 118) = (   0.8333319   0.3333328   0.7801693  )
       119        N      tau( 119) = (   0.6666655   0.3333328   0.9468357  )
       120        N      tau( 120) = (   0.8333319   0.4999991   0.9468357  )
       121        Ti     tau( 121) = (   0.6666655   0.3333328   1.1126692  )
       122        Ti     tau( 122) = (   0.8333319   0.3333327   1.2734683  )
       123        Ti     tau( 123) = (   0.6666655   0.4999991   1.2734683  )
       124        Ti     tau( 124) = (   0.8333319   0.4999991   1.1126684  )
       125        N      tau( 125) = (   0.6666655   0.4999991   1.1147904  )
       126        N      tau( 126) = (   0.8333319   0.3333328   1.1147904  )
       127        N      tau( 127) = (   0.6666655   0.3333328   1.2857892  )
       128        N      tau( 128) = (   0.8333319   0.4999991   1.2857888  )
       129        Ti     tau( 129) = (   0.6666655   0.6666655   0.7801693  )
       130        Ti     tau( 130) = (   0.8333319   0.6666655   0.9468357  )
       131        Ti     tau( 131) = (   0.6666655   0.8333319   0.9468357  )
       132        Ti     tau( 132) = (   0.8333319   0.8333319   0.7801693  )
       133        N      tau( 133) = (   0.6666655   0.8333319   0.7801693  )
       134        N      tau( 134) = (   0.8333319   0.6666655   0.7801693  )
       135        N      tau( 135) = (   0.6666655   0.6666655   0.9468357  )
       136        N      tau( 136) = (   0.8333319   0.8333319   0.9468357  )
       137        Ti     tau( 137) = (   0.6666655   0.6666655   1.1126692  )
       138        Ti     tau( 138) = (   0.8333319   0.6666655   1.2734683  )
       139        Ti     tau( 139) = (   0.6666655   0.8333319   1.2734683  )
       140        Ti     tau( 140) = (   0.8333319   0.8333319   1.1126684  )
       141        N      tau( 141) = (   0.6666655   0.8333319   1.1147904  )
       142        N      tau( 142) = (   0.8333319   0.6666655   1.1147904  )
       143        N      tau( 143) = (   0.6666655   0.6666655   1.2857892  )
       144        N      tau( 144) = (   0.8333319   0.8333319   1.2857888  )
       145        S      tau( 145) = (   0.5073694   0.2986492   1.4629892  )
       146        S      tau( 146) = (   0.3070537   0.5118352   1.4741098  )
       147        S      tau( 147) = (   0.2802382   0.5288121   1.6326340  )
       148        S      tau( 148) = (   0.4157400   0.4929640   1.7088931  )
       149        S      tau( 149) = (   0.4268530   0.3213311   1.7089163  )
       150        S      tau( 150) = (   0.5525542   0.2846583   1.6175968  )
       151        Li     tau( 151) = (   0.3333328   0.3333328   1.5198400  )
       152        Li     tau( 152) = (   0.4865830   0.4774237   1.5104671  )

     --------------------------------------------
     DFT-D3 Dispersion Correction (3-body terms):
     --------------------------------------------
       Reference C6 values for interpolation: 

         atom   Coordination number   C6
         Li         0.000          2326.89
         Li         0.987           170.64
         N          0.000            50.54
         N          0.994            44.25
         N          2.014            39.35
         N          2.990            31.16
         S          0.000           268.01
         S          0.995           261.99
         S          1.990           251.62
         Ti         0.000          2723.84
         Ti         1.830           604.00
         Ti         3.868           643.18

       Values used:

         atom   Coordination number  R0_AB[au]  C6      C8
         Ti        11.203            3.557    643.18  76289.64
         Ti        15.343            3.557    643.18  76289.64
         Ti        15.343            3.557    643.18  76289.64
         Ti        11.203            3.557    643.18  76289.64
         N          4.884            2.478     31.16    687.49
         N          4.884            2.478     31.16    687.49
         N          5.895            2.478     31.16    687.49
         N          5.895            2.478     31.16    687.49
         Ti        15.504            3.557    643.18  76289.64
         Ti        11.430            3.557    643.18  76289.64
         Ti        11.430            3.557    643.18  76289.64
         Ti        15.505            3.557    643.18  76289.64
         N          5.911            2.478     31.16    687.49
         N          5.911            2.478     31.16    687.49
         N          4.835            2.478     31.16    687.49
         N          4.837            2.478     31.16    687.49
         Ti        11.203            3.557    643.18  76289.64
         Ti        15.343            3.557    643.18  76289.64
         Ti        15.343            3.557    643.18  76289.64
         Ti        11.203            3.557    643.18  76289.64
         N          4.884            2.478     31.16    687.49
         N          4.884            2.478     31.16    687.49
         N          5.895            2.478     31.16    687.49
         N          5.895            2.478     31.16    687.49
         Ti        15.505            3.557    643.18  76289.64
         Ti        11.535            3.557    643.18  76289.64
         Ti        11.433            3.557    643.18  76289.64
         Ti        15.507            3.557    643.18  76289.64
         N          5.911            2.478     31.16    687.49
         N          5.911            2.478     31.16    687.49
         N          4.835            2.478     31.16    687.49
         N          4.860            2.478     31.16    687.49
         Ti        11.203            3.557    643.18  76289.64
         Ti        15.343            3.557    643.18  76289.64
         Ti        15.343            3.557    643.18  76289.64
         Ti        11.203            3.557    643.18  76289.64
         N          4.884            2.478     31.16    687.49
         N          4.884            2.478     31.16    687.49
         N          5.895            2.478     31.16    687.49
         N          5.895            2.478     31.16    687.49
         Ti        15.505            3.557    643.18  76289.64
         Ti        11.474            3.557    643.18  76289.64
         Ti        11.429            3.557    643.18  76289.64
         Ti        15.505            3.557    643.18  76289.64
         N          5.911            2.478     31.16    687.49
         N          5.911            2.478     31.16    687.49
         N          4.835            2.478     31.16    687.49
         N          4.835            2.478     31.16    687.49
         Ti        11.203            3.557    643.18  76289.64
         Ti        15.343            3.557    643.18  76289.64
         Ti        15.343            3.557    643.18  76289.64
         Ti        11.203            3.557    643.18  76289.64
         N          4.884            2.478     31.16    687.49
         N          4.884            2.478     31.16    687.49
         N          5.895            2.478     31.16    687.49
         N          5.895            2.478     31.16    687.49
         Ti        15.505            3.557    643.18  76289.64
         Ti        11.434            3.557    643.18  76289.64
         Ti        11.554            3.557    643.18  76289.64
         Ti        15.508            3.557    643.18  76289.64
         N          5.911            2.478     31.16    687.49
         N          5.911            2.478     31.16    687.49
         N          4.835            2.478     31.16    687.49
         N          4.886            2.478     31.16    687.49
         Ti        11.203            3.557    643.18  76289.64
         Ti        15.343            3.557    643.18  76289.64
         Ti        15.343            3.557    643.18  76289.64
         Ti        11.203            3.557    643.18  76289.64
         N          4.884            2.478     31.16    687.49
         N          4.884            2.478     31.16    687.49
         N          5.895            2.478     31.16    687.49
         N          5.895            2.478     31.16    687.49
         Ti        15.510            3.557    643.18  76289.64
         Ti        12.670            3.557    643.18  76289.64
         Ti        12.583            3.557    643.18  76289.64
         Ti        15.510            3.557    643.18  76289.64
         N          5.912            2.478     31.16    687.49
         N          5.912            2.478     31.16    687.49
         N          4.938            2.478     31.16    687.49
         N          4.972            2.478     31.16    687.49
         Ti        11.203            3.557    643.18  76289.64
         Ti        15.343            3.557    643.18  76289.64
         Ti        15.343            3.557    643.18  76289.64
         Ti        11.203            3.557    643.18  76289.64
         N          4.884            2.478     31.16    687.49
         N          4.884            2.478     31.16    687.49
         N          5.895            2.478     31.16    687.49
         N          5.895            2.478     31.16    687.49
         Ti        15.507            3.557    643.18  76289.64
         Ti        11.506            3.557    643.18  76289.64
         Ti        11.432            3.557    643.18  76289.64
         Ti        15.505            3.557    643.18  76289.64
         N          5.911            2.478     31.16    687.49
         N          5.911            2.478     31.16    687.49
         N          4.851            2.478     31.16    687.49
         N          4.835            2.478     31.16    687.49
         Ti        11.203            3.557    643.18  76289.64
         Ti        15.343            3.557    643.18  76289.64
         Ti        15.343            3.557    643.18  76289.64
         Ti        11.203            3.557    643.18  76289.64
         N          4.884            2.478     31.16    687.49
         N          4.884            2.478     31.16    687.49
         N          5.895            2.478     31.16    687.49
         N          5.895            2.478     31.16    687.49
         Ti        15.505            3.557    643.18  76289.64
         Ti        11.429            3.557    643.18  76289.64
         Ti        11.495            3.557    643.18  76289.64
         Ti        15.505            3.557    643.18  76289.64
         N          5.911            2.478     31.16    687.49
         N          5.911            2.478     31.16    687.49
         N          4.835            2.478     31.16    687.49
         N          4.835            2.478     31.16    687.49
         Ti        11.203            3.557    643.18  76289.64
         Ti        15.343            3.557    643.18  76289.64
         Ti        15.343            3.557    643.18  76289.64
         Ti        11.203            3.557    643.18  76289.64
         N          4.884            2.478     31.16    687.49
         N          4.884            2.478     31.16    687.49
         N          5.895            2.478     31.16    687.49
         N          5.895            2.478     31.16    687.49
         Ti        15.507            3.557    643.18  76289.64
         Ti        11.432            3.557    643.18  76289.64
         Ti        11.520            3.557    643.18  76289.64
         Ti        15.505            3.557    643.18  76289.64
         N          5.911            2.478     31.16    687.49
         N          5.911            2.478     31.16    687.49
         N          4.855            2.478     31.16    687.49
         N          4.835            2.478     31.16    687.49
         Ti        11.203            3.557    643.18  76289.64
         Ti        15.343            3.557    643.18  76289.64
         Ti        15.343            3.557    643.18  76289.64
         Ti        11.203            3.557    643.18  76289.64
         N          4.884            2.478     31.16    687.49
         N          4.884            2.478     31.16    687.49
         N          5.895            2.478     31.16    687.49
         N          5.895            2.478     31.16    687.49
         Ti        15.505            3.557    643.18  76289.64
         Ti        11.429            3.557    643.18  76289.64
         Ti        11.429            3.557    643.18  76289.64
         Ti        15.504            3.557    643.18  76289.64
         N          5.911            2.478     31.16    687.49
         N          5.911            2.478     31.16    687.49
         N          4.836            2.478     31.16    687.49
         N          4.835            2.478     31.16    687.49
         S          4.220            3.128    251.62  12327.25
         S          4.094            3.128    251.62  12327.25
         S          2.809            3.128    251.62  12327.27
         S          3.026            3.128    251.62  12327.26
         S          3.034            3.128    251.62  12327.26
         S          2.845            3.128    251.62  12327.26
         Li         5.059            3.303    170.64  12899.87
         Li         5.290            3.303    170.64  12899.87

         Molecular C6 ( Ry / a.u.^6 ) =   5411257.29


     number of k points=    10  Marzari-Vanderbilt smearing, width (Ry)=  0.0250
                       cart. coord. in units 2pi/alat
        k(    1) = (   0.0000000   0.0000000   0.0000000), wk =   0.1250000
        k(    2) = (   0.0000000   0.2500000   0.0000000), wk =   0.2500000
        k(    3) = (   0.0000000  -0.5000000   0.0000000), wk =   0.1250000
        k(    4) = (   0.2500000   0.2500000   0.0000000), wk =   0.2500000
        k(    5) = (   0.2500000  -0.5000000   0.0000000), wk =   0.2500000
        k(    6) = (  -0.5000000  -0.5000000   0.0000000), wk =   0.1250000
        k(    7) = (   0.2500000   0.0000000   0.0000000), wk =   0.2500000
        k(    8) = (  -0.5000000   0.0000000   0.0000000), wk =   0.1250000
        k(    9) = (  -0.2500000   0.2500000   0.0000000), wk =   0.2500000
        k(   10) = (  -0.5000000   0.2500000   0.0000000), wk =   0.2500000

     Dense  grid:  4720353 G-vectors     FFT dimensions: ( 180, 180, 360)

     Smooth grid:  1194337 G-vectors     FFT dimensions: ( 108, 108, 216)

     Estimated max dynamical RAM per process >       1.76 GB

     Estimated total dynamical RAM >     109.55 GB

     Atomic positions and unit cell read from directory:
     ./tmp/TiN_Li2S6_combi_u.save/
     Atomic positions from file used, from input discarded


     Check: negative core charge=   -0.000003

     The initial density is read from file :
     ./tmp/TiN_Li2S6_combi_u.save/charge-density


     negative rho (up, down):  7.138E-02 0.000E+00
     Number of Hubbard iterations with fixed ns = 20

     STARTING HUBBARD OCCUPATIONS:

     =================== HUBBARD OCCUPATIONS ===================
     ------------------------ ATOM    1 ------------------------
     Tr[ns(  1)] =   3.02258
     eigenvalues:
       0.262  0.280  0.290  0.300  0.380
     eigenvectors (columns):
      -0.991 -0.053 -0.081 -0.096 -0.004
       0.028  0.321 -0.899  0.298  0.005
       0.114  0.032 -0.299 -0.946 -0.029
      -0.001 -0.000 -0.004 -0.030  1.000
      -0.069  0.945  0.311 -0.074 -0.001
     occupation matrix ns (before diag.):
       0.263  0.001  0.004 -0.000 -0.001
       0.001  0.290 -0.003  0.000 -0.003
       0.004 -0.003  0.298 -0.002  0.001
      -0.000  0.000 -0.002  0.379 -0.000
      -0.001 -0.003  0.001 -0.000  0.281
     ------------------------ ATOM    2 ------------------------
     Tr[ns(  2)] =   3.18097
     eigenvalues:
       0.235  0.292  0.345  0.350  0.368
     eigenvectors (columns):
      -0.012  0.010  0.129 -0.368 -0.921
       0.001  0.003  0.608  0.763 -0.219
       1.000 -0.010  0.012 -0.013 -0.007
       0.014  0.001 -0.783  0.531 -0.322
       0.010  1.000 -0.003  0.001  0.010
     occupation matrix ns (before diag.):
       0.365  0.003  0.002  0.006 -0.001
       0.003  0.349 -0.000  0.004 -0.000
       0.002 -0.000  0.235 -0.002 -0.001
       0.006  0.004 -0.002  0.349 -0.000
      -0.001 -0.000 -0.001 -0.000  0.292
     ------------------------ ATOM    3 ------------------------
     Tr[ns(  3)] =   3.18918
     eigenvalues:
       0.239  0.287  0.345  0.358  0.366
     eigenvectors (columns):
       0.004  0.004 -0.310  0.199 -0.930
       1.000 -0.000  0.018  0.004 -0.001
       0.005 -0.012 -0.099 -0.979 -0.176
       0.017  0.000 -0.945  0.038  0.323
       0.000  1.000  0.000 -0.012  0.002
     occupation matrix ns (before diag.):
       0.364 -0.000  0.001 -0.006 -0.000
      -0.000  0.239 -0.001 -0.002 -0.000
       0.001 -0.001  0.358 -0.002  0.001
      -0.006 -0.002 -0.002  0.347  0.000
      -0.000 -0.000  0.001  0.000  0.287
     ------------------------ ATOM    4 ------------------------
     Tr[ns(  4)] =   2.98783
     eigenvalues:
       0.224  0.264  0.305  0.316  0.385
     eigenvectors (columns):
       0.074  0.531  0.840 -0.071 -0.038
       0.056 -0.847  0.521 -0.075 -0.049
      -0.994 -0.007  0.086 -0.071  0.010
      -0.016  0.021 -0.057  0.003 -0.998
      -0.061 -0.027  0.106  0.992 -0.002
     occupation matrix ns (before diag.):
       0.293  0.019  0.006  0.003  0.000
       0.019  0.276  0.004  0.005 -0.001
       0.006  0.004  0.225 -0.002 -0.006
       0.003  0.005 -0.002  0.385  0.000
       0.000 -0.001 -0.006  0.000  0.315
     ------------------------ ATOM    9 ------------------------
     Tr[ns(  9)] =   3.20057
     eigenvalues:
       0.269  0.272  0.335  0.356  0.368
     eigenvectors (columns):
      -0.000 -0.000  0.030 -0.203  0.979
       0.109 -0.994  0.011 -0.021 -0.005
      -0.993 -0.109 -0.032 -0.009 -0.001
       0.033 -0.007 -0.999 -0.031  0.024
      -0.006 -0.023 -0.026  0.978  0.204
     occupation matrix ns (before diag.):
       0.368 -0.000 -0.000  0.001  0.002
      -0.000  0.272  0.000 -0.001 -0.002
      -0.000  0.000  0.269  0.002 -0.001
       0.001 -0.001  0.002  0.335 -0.000
       0.002 -0.002 -0.001 -0.000  0.356
     ------------------------ ATOM   10 ------------------------
     Tr[ns( 10)] =   3.01697
     eigenvalues:
       0.191  0.208  0.242  0.368  0.499
     eigenvectors (columns):
       0.144 -0.192 -0.959 -0.150 -0.034
       0.978  0.174  0.113 -0.008  0.010
      -0.006 -0.005 -0.032 -0.022  0.999
       0.029 -0.028 -0.145  0.988  0.017
      -0.147  0.965 -0.215  0.000 -0.003
     occupation matrix ns (before diag.):
       0.243 -0.006 -0.008 -0.019  0.008
      -0.006  0.192  0.003 -0.002  0.002
      -0.008  0.003  0.499  0.002 -0.001
      -0.019 -0.002  0.002  0.365  0.001
       0.008  0.002 -0.001  0.001  0.209
     ------------------------ ATOM   11 ------------------------
     Tr[ns( 11)] =   3.02885
     eigenvalues:
       0.179  0.218  0.232  0.366  0.520
     eigenvectors (columns):
      -0.029 -0.011  0.986 -0.157  0.049
      -0.002  0.023 -0.046  0.027  0.998
      -0.997 -0.072 -0.030  0.003 -0.001
       0.003 -0.019 -0.158 -0.987  0.020
      -0.072  0.997  0.007 -0.021 -0.022
     occupation matrix ns (before diag.):
       0.236  0.014 -0.002  0.021  0.000
       0.014  0.519 -0.000  0.002 -0.007
      -0.002 -0.000  0.180 -0.000 -0.003
       0.021  0.002 -0.000  0.362  0.003
       0.000 -0.007 -0.003  0.003  0.218
     ------------------------ ATOM   12 ------------------------
     Tr[ns( 12)] =   3.19077
     eigenvalues:
       0.253  0.261  0.320  0.347  0.414
     eigenvectors (columns):
       0.030 -0.037  0.927  0.373 -0.013
       0.978  0.188 -0.049  0.064  0.040
      -0.037 -0.044 -0.010  0.059  0.997
       0.077 -0.001  0.370 -0.924  0.061
      -0.188  0.981  0.044  0.004  0.036
     occupation matrix ns (before diag.):
       0.324 -0.001 -0.001 -0.010  0.002
      -0.001  0.255  0.007 -0.006  0.001
      -0.001  0.007  0.413  0.004  0.005
      -0.010 -0.006  0.004  0.343  0.001
       0.002  0.001  0.005  0.001  0.261
     ------------------------ ATOM   17 ------------------------
     Tr[ns( 17)] =   3.00996
     eigenvalues:
       0.263  0.270  0.292  0.297  0.383
     eigenvectors (columns):
       0.274  0.922 -0.270  0.036 -0.011
      -0.924  0.328  0.189  0.054  0.007
       0.266  0.194  0.940  0.078  0.052
      -0.004 -0.002 -0.053 -0.005  0.999
       0.020 -0.067 -0.075  0.995  0.000
     occupation matrix ns (before diag.):
       0.271  0.001 -0.006 -0.001  0.001
       0.001  0.265  0.006  0.001  0.001
      -0.006  0.006  0.290  0.005  0.000
      -0.001  0.001  0.005  0.382  0.000
       0.001  0.001  0.000  0.000  0.297
     ------------------------ ATOM   18 ------------------------
     Tr[ns( 18)] =   3.18846
     eigenvalues:
       0.270  0.289  0.330  0.345  0.360
     eigenvectors (columns):
      -0.063 -0.012 -0.031 -0.219  0.973
       0.069 -0.090 -0.991 -0.050 -0.039
      -0.995 -0.024 -0.066  0.026 -0.061
       0.016 -0.003 -0.056  0.974  0.218
      -0.018  0.996 -0.092 -0.004  0.008
     occupation matrix ns (before diag.):
       0.359 -0.001 -0.006  0.003  0.001
      -0.001  0.329  0.004 -0.001  0.004
      -0.006  0.004  0.270  0.001 -0.000
       0.003 -0.001  0.001  0.346  0.000
       0.001  0.004 -0.000  0.000  0.289
     ------------------------ ATOM   19 ------------------------
     Tr[ns( 19)] =   3.20370
     eigenvalues:
       0.291  0.299  0.313  0.342  0.357
     eigenvectors (columns):
       0.026 -0.046  0.021  0.007 -0.998
       0.377 -0.923  0.056  0.005  0.054
      -0.083 -0.094 -0.988  0.092 -0.018
       0.002 -0.011 -0.092 -0.996 -0.008
       0.922  0.370 -0.112  0.008  0.005
     occupation matrix ns (before diag.):
       0.357 -0.003  0.001  0.000 -0.001
      -0.003  0.298 -0.001 -0.000 -0.003
       0.001 -0.001  0.313 -0.003  0.002
       0.000 -0.000 -0.003  0.342 -0.000
      -0.001 -0.003  0.002 -0.000  0.292
     ------------------------ ATOM   20 ------------------------
     Tr[ns( 20)] =   3.00389
     eigenvalues:
       0.265  0.271  0.283  0.301  0.381
     eigenvectors (columns):
       0.074  0.681  0.727  0.041 -0.018
      -0.271  0.711 -0.643  0.087 -0.011
      -0.955 -0.137  0.233 -0.119  0.017
      -0.015 -0.023 -0.002 -0.006 -1.000
       0.095  0.108 -0.055 -0.988  0.002
     occupation matrix ns (before diag.):
       0.277 -0.006  0.002  0.002 -0.002
      -0.006  0.276 -0.004  0.001 -0.002
       0.002 -0.004  0.267 -0.002  0.004
       0.002  0.001 -0.002  0.381 -0.000
      -0.002 -0.002  0.004 -0.000  0.301
     ------------------------ ATOM   25 ------------------------
     Tr[ns( 25)] =   3.19691
     eigenvalues:
       0.280  0.298  0.311  0.346  0.364
     eigenvectors (columns):
       0.018  0.030  0.007  0.005 -0.999
      -0.198  0.136  0.969  0.052  0.008
      -0.173 -0.970  0.094  0.136 -0.031
      -0.038 -0.126  0.063 -0.989 -0.009
       0.964 -0.152  0.218 -0.004  0.014
     occupation matrix ns (before diag.):
       0.364 -0.000  0.002  0.000 -0.001
      -0.000  0.310  0.001 -0.002  0.006
       0.002  0.001  0.299 -0.006  0.003
       0.000 -0.002 -0.006  0.345  0.001
      -0.001  0.006  0.003  0.001  0.282
     ------------------------ ATOM   26 ------------------------
     Tr[ns( 26)] =   3.03874
     eigenvalues:
       0.215  0.269  0.296  0.336  0.404
     eigenvectors (columns):
       0.001  0.185 -0.497 -0.841  0.103
      -0.991 -0.119 -0.058  0.004 -0.022
      -0.076  0.194  0.861 -0.463  0.025
       0.023 -0.004 -0.026 -0.107 -0.994
      -0.108  0.956 -0.086  0.257 -0.031
     occupation matrix ns (before diag.):
       0.324  0.000  0.015 -0.007 -0.014
       0.000  0.216 -0.006  0.004 -0.006
       0.015 -0.006  0.303 -0.001 -0.010
      -0.007  0.004 -0.001  0.403  0.003
      -0.014 -0.006 -0.010  0.003  0.273
     ------------------------ ATOM   27 ------------------------
     Tr[ns( 27)] =   3.03198
     eigenvalues:
       0.225  0.278  0.295  0.318  0.400
     eigenvectors (columns):
       0.024  0.269 -0.214 -0.936  0.076
       0.999 -0.030  0.027  0.010 -0.008
       0.026  0.962  0.012  0.272 -0.027
      -0.007 -0.005 -0.015 -0.079 -0.997
      -0.023  0.047  0.976 -0.210  0.002
     occupation matrix ns (before diag.):
       0.315 -0.002 -0.011 -0.006  0.005
      -0.002  0.225 -0.001  0.001  0.002
      -0.011 -0.001  0.281  0.002 -0.002
      -0.006  0.001  0.002  0.400  0.000
       0.005  0.002 -0.002  0.000  0.296
     ------------------------ ATOM   28 ------------------------
     Tr[ns( 28)] =   3.20039
     eigenvalues:
       0.253  0.293  0.317  0.346  0.392
     eigenvectors (columns):
      -0.043 -0.011 -0.019  0.064 -0.997
       0.997  0.033 -0.028 -0.046 -0.046
      -0.035  0.242 -0.969 -0.013  0.016
       0.048  0.025 -0.008  0.997  0.062
      -0.027  0.969  0.243 -0.020 -0.015
     occupation matrix ns (before diag.):
       0.391  0.006 -0.001 -0.003  0.001
       0.006  0.253  0.002 -0.005  0.001
      -0.001  0.002  0.316 -0.000 -0.006
      -0.003 -0.005 -0.000  0.346 -0.001
       0.001  0.001 -0.006 -0.001  0.294
     ------------------------ ATOM   33 ------------------------
     Tr[ns( 33)] =   3.00175
     eigenvalues:
       0.258  0.271  0.280  0.308  0.384
     eigenvectors (columns):
       0.071 -0.127  0.989 -0.014  0.004
      -0.050 -0.987 -0.124 -0.090  0.018
      -0.996  0.041  0.077 -0.003 -0.015
      -0.014  0.019 -0.000  0.003  1.000
       0.007  0.091 -0.003 -0.996  0.001
     occupation matrix ns (before diag.):
       0.280 -0.001  0.002  0.000  0.001
      -0.001  0.271 -0.001  0.002  0.003
       0.002 -0.001  0.258 -0.002  0.000
       0.000  0.002 -0.002  0.384  0.000
       0.001  0.003  0.000  0.000  0.308
     ------------------------ ATOM   34 ------------------------
     Tr[ns( 34)] =   3.19380
     eigenvalues:
       0.285  0.292  0.321  0.345  0.355
     eigenvectors (columns):
       0.010  0.059 -0.007 -0.164 -0.985
       0.113 -0.075 -0.991  0.001  0.004
      -0.136 -0.987  0.058 -0.008 -0.059
      -0.001  0.002  0.001  0.986 -0.165
       0.984 -0.129  0.122  0.002  0.001
     occupation matrix ns (before diag.):
       0.354 -0.000  0.004  0.002 -0.000
      -0.000  0.320 -0.002  0.000 -0.004
       0.004 -0.002  0.292  0.000  0.001
       0.002  0.000  0.000  0.345  0.000
      -0.000 -0.004  0.001  0.000  0.285
     ------------------------ ATOM   35 ------------------------
     Tr[ns( 35)] =   3.18733
     eigenvalues:
       0.261  0.289  0.334  0.347  0.362
     eigenvectors (columns):
       0.013 -0.010 -0.010 -0.325  0.946
      -0.997  0.079 -0.010 -0.023  0.007
       0.015 -0.004 -0.944 -0.309 -0.116
       0.015 -0.005  0.331 -0.893 -0.304
       0.079  0.997 -0.002 -0.007  0.007
     occupation matrix ns (before diag.):
       0.361  0.001 -0.002 -0.004  0.001
       0.001  0.261  0.001  0.001  0.002
      -0.002  0.001  0.336  0.005  0.000
      -0.004  0.001  0.005  0.347  0.000
       0.001  0.002  0.000  0.000  0.289
     ------------------------ ATOM   36 ------------------------
     Tr[ns( 36)] =   2.98945
     eigenvalues:
       0.233  0.269  0.293  0.314  0.385
     eigenvectors (columns):
      -0.135  0.171 -0.967 -0.132  0.017
       0.117 -0.975 -0.180 -0.063  0.010
      -0.984 -0.139  0.109  0.023  0.025
       0.026  0.011  0.015  0.004  0.999
      -0.013  0.036  0.143 -0.989  0.002
     occupation matrix ns (before diag.):
       0.292  0.005 -0.007  0.002  0.003
       0.005  0.270  0.004  0.001  0.002
      -0.007  0.004  0.235  0.004 -0.001
       0.002  0.001  0.004  0.385  0.000
       0.003  0.002 -0.001  0.000  0.314
     ------------------------ ATOM   41 ------------------------
     Tr[ns( 41)] =   3.19965
     eigenvalues:
       0.254  0.299  0.341  0.349  0.357
     eigenvectors (columns):
      -0.005 -0.009 -0.230 -0.820 -0.524
       0.008 -0.998  0.047  0.017 -0.031
      -0.010 -0.022  0.250 -0.570  0.782
       0.001 -0.054 -0.939  0.050  0.335
       1.000  0.007  0.002 -0.010  0.005
     occupation matrix ns (before diag.):
       0.351 -0.000 -0.003 -0.003  0.001
      -0.000  0.299 -0.001 -0.002 -0.000
      -0.003 -0.001  0.354  0.004  0.001
      -0.003 -0.002  0.004  0.343 -0.000
       0.001 -0.000  0.001 -0.000  0.254
     ------------------------ ATOM   42 ------------------------
     Tr[ns( 42)] =   3.01334
     eigenvalues:
       0.222  0.262  0.304  0.329  0.389
     eigenvectors (columns):
       0.066  0.058 -0.947  0.308  0.016
      -0.970 -0.160 -0.019  0.179  0.024
      -0.204  0.940 -0.045 -0.271 -0.004
       0.020  0.005  0.013 -0.017  1.000
       0.110  0.297  0.317  0.894  0.008
     occupation matrix ns (before diag.):
       0.306  0.007 -0.003  0.001  0.006
       0.007  0.227 -0.011  0.004  0.015
      -0.003 -0.011  0.266 -0.000 -0.016
       0.001  0.004 -0.000  0.389  0.000
       0.006  0.015 -0.016  0.000  0.319
     ------------------------ ATOM   43 ------------------------
     Tr[ns( 43)] =   3.03149
     eigenvalues:
       0.219  0.242  0.279  0.378  0.397
     eigenvectors (columns):
      -0.175 -0.007  0.978  0.079 -0.077
      -0.024  0.036  0.067  0.090  0.993
       0.980  0.091  0.178 -0.014  0.010
       0.029  0.001 -0.081  0.993 -0.084
      -0.090  0.995 -0.012 -0.003 -0.037
     occupation matrix ns (before diag.):
       0.279 -0.009  0.010  0.009 -0.000
      -0.009  0.396  0.002 -0.001 -0.006
       0.010  0.002  0.221 -0.003  0.002
       0.009 -0.001 -0.003  0.377  0.000
      -0.000 -0.006  0.002  0.000  0.242
     ------------------------ ATOM   44 ------------------------
     Tr[ns( 44)] =   3.20257
     eigenvalues:
       0.246  0.284  0.324  0.342  0.405
     eigenvectors (columns):
       0.032  0.085  0.938  0.335 -0.018
       0.028 -0.024 -0.010 -0.023 -0.999
       0.061 -0.985  0.124 -0.102  0.027
       0.008 -0.137 -0.323  0.936 -0.015
       0.997  0.059 -0.035 -0.011  0.027
     occupation matrix ns (before diag.):
       0.326  0.001  0.002  0.006 -0.003
       0.001  0.405 -0.003  0.001 -0.004
       0.002 -0.003  0.286 -0.007 -0.002
       0.006  0.001 -0.007  0.339 -0.001
      -0.003 -0.004 -0.002 -0.001  0.246
     ------------------------ ATOM   49 ------------------------
     Tr[ns( 49)] =   3.01254
     eigenvalues:
       0.245  0.267  0.289  0.324  0.381
     eigenvectors (columns):
      -0.132  0.991  0.008  0.022  0.023
      -0.990 -0.131  0.001 -0.049  0.019
       0.046  0.028 -0.049 -0.997  0.029
      -0.020  0.021 -0.002 -0.029 -0.999
      -0.004  0.006 -0.999  0.049  0.001
     occupation matrix ns (before diag.):
       0.267 -0.003 -0.001 -0.003 -0.000
      -0.003  0.245  0.004 -0.003 -0.000
      -0.001  0.004  0.323 -0.002 -0.002
      -0.003 -0.003 -0.002  0.381 -0.000
      -0.000 -0.000 -0.002 -0.000  0.289
     ------------------------ ATOM   50 ------------------------
     Tr[ns( 50)] =   3.19697
     eigenvalues:
       0.272  0.299  0.320  0.345  0.362
     eigenvectors (columns):
      -0.028 -0.022 -0.022 -0.084  0.996
       0.062 -0.219 -0.973  0.010 -0.023
      -0.996 -0.035 -0.055  0.062 -0.025
       0.059  0.001  0.012  0.994  0.086
      -0.023  0.975 -0.221  0.001  0.016
     occupation matrix ns (before diag.):
       0.362 -0.001 -0.003  0.002  0.001
      -0.001  0.319  0.003 -0.000  0.005
      -0.003  0.003  0.272  0.004 -0.000
       0.002 -0.000  0.004  0.345  0.000
       0.001  0.005 -0.000  0.000  0.300
     ------------------------ ATOM   51 ------------------------
     Tr[ns( 51)] =   3.19376
     eigenvalues:
       0.275  0.295  0.329  0.344  0.353
     eigenvectors (columns):
       0.001  0.025  0.167 -0.307 -0.937
       0.189 -0.979 -0.045  0.041 -0.047
      -0.042  0.049 -0.976  0.067 -0.195
       0.008 -0.046 -0.125 -0.948  0.288
       0.981  0.191 -0.032  0.003 -0.000
     occupation matrix ns (before diag.):
       0.352  0.002  0.004 -0.002 -0.000
       0.002  0.295  0.002 -0.003 -0.004
       0.004  0.002  0.330 -0.002  0.002
      -0.002 -0.003 -0.002  0.345 -0.000
      -0.000 -0.004  0.002 -0.000  0.276
     ------------------------ ATOM   52 ------------------------
     Tr[ns( 52)] =   3.00784
     eigenvalues:
       0.236  0.274  0.292  0.322  0.380
     eigenvectors (columns):
       0.025 -0.996 -0.054 -0.068  0.021
      -0.034  0.068 -0.019 -0.996 -0.036
      -0.999 -0.027 -0.023  0.034 -0.021
      -0.023  0.023  0.001 -0.034  0.999
      -0.022 -0.053  0.998 -0.022 -0.001
     occupation matrix ns (before diag.):
       0.274  0.003  0.001  0.002 -0.001
       0.003  0.322 -0.003 -0.002  0.001
       0.001 -0.003  0.236 -0.003 -0.001
       0.002 -0.002 -0.003  0.380 -0.000
      -0.001  0.001 -0.001 -0.000  0.292
     ------------------------ ATOM   57 ------------------------
     Tr[ns( 57)] =   3.18046
     eigenvalues:
       0.246  0.307  0.325  0.347  0.366
     eigenvectors (columns):
      -0.049 -0.014 -0.027  0.179  0.982
      -0.017  0.007  0.979 -0.195  0.061
       0.992  0.115  0.011 -0.012  0.053
      -0.010 -0.072 -0.202 -0.962  0.168
      -0.117  0.991 -0.023 -0.065  0.020
     occupation matrix ns (before diag.):
       0.365  0.002  0.006  0.003  0.000
       0.002  0.326  0.002  0.004  0.000
       0.006  0.002  0.247  0.002  0.007
       0.003  0.004  0.002  0.346  0.003
       0.000  0.000  0.007  0.003  0.306
     ------------------------ ATOM   58 ------------------------
     Tr[ns( 58)] =   3.04489
     eigenvalues:
       0.251  0.267  0.288  0.318  0.399
     eigenvectors (columns):
       0.034  0.363  0.397 -0.841  0.040
       0.696 -0.389  0.587  0.138  0.017
       0.222 -0.617 -0.549 -0.518 -0.020
       0.013 -0.003 -0.051  0.023  0.998
       0.682  0.580 -0.440  0.069 -0.031
     occupation matrix ns (before diag.):
       0.306 -0.001  0.017  0.004 -0.007
      -0.001  0.268 -0.013  0.002 -0.012
       0.017 -0.013  0.286 -0.003  0.001
       0.004  0.002 -0.003  0.399 -0.004
      -0.007 -0.012  0.001 -0.004  0.264
     ------------------------ ATOM   59 ------------------------
     Tr[ns( 59)] =   2.91608
     eigenvalues:
       0.138  0.167  0.352  0.368  0.433
     eigenvectors (columns):
       0.193 -0.436  0.019 -0.762  0.439
      -0.315 -0.873  0.071  0.335 -0.149
       0.923 -0.208 -0.067  0.305 -0.081
       0.085  0.053  0.993 -0.016 -0.055
       0.059 -0.053 -0.058 -0.463 -0.881
     occupation matrix ns (before diag.):
       0.334 -0.067 -0.062 -0.001 -0.032
      -0.067  0.193  0.031  0.015  0.004
      -0.062  0.031  0.163 -0.014 -0.010
      -0.001  0.015 -0.014  0.350  0.003
      -0.032  0.004 -0.010  0.003  0.417
     ------------------------ ATOM   60 ------------------------
     Tr[ns( 60)] =   3.19418
     eigenvalues:
       0.252  0.269  0.312  0.351  0.414
     eigenvectors (columns):
      -0.090 -0.026  0.015 -0.000  0.995
      -0.865  0.484  0.105 -0.053 -0.067
       0.482  0.871 -0.031 -0.063  0.067
       0.014 -0.080 -0.023 -0.996 -0.001
      -0.108  0.026 -0.994  0.019  0.006
     occupation matrix ns (before diag.):
       0.412 -0.011  0.010 -0.000  0.000
      -0.011  0.257  0.007  0.004 -0.006
       0.010  0.007  0.266  0.005  0.002
      -0.000  0.004  0.005  0.350 -0.001
       0.000 -0.006  0.002 -0.001  0.311
     ------------------------ ATOM   65 ------------------------
     Tr[ns( 65)] =   3.00679
     eigenvalues:
       0.246  0.283  0.291  0.300  0.383
     eigenvectors (columns):
       0.266  0.938 -0.122  0.183 -0.019
       0.962 -0.257 -0.015 -0.092  0.003
      -0.040 -0.142 -0.980  0.135  0.018
       0.003  0.021  0.015  0.001  1.000
       0.047 -0.182  0.158  0.969  0.000
     occupation matrix ns (before diag.):
       0.281 -0.010  0.002 -0.002  0.002
      -0.010  0.249  0.001  0.000 -0.003
       0.002  0.001  0.291  0.002  0.001
      -0.002  0.000  0.002  0.383  0.000
       0.002 -0.003  0.001  0.000  0.299
     ------------------------ ATOM   66 ------------------------
     Tr[ns( 66)] =   3.20362
     eigenvalues:
       0.274  0.308  0.321  0.344  0.355
     eigenvectors (columns):
      -0.000  0.029 -0.206  0.005 -0.978
       0.039 -0.252 -0.947 -0.026  0.192
      -0.077  0.964 -0.243  0.001  0.080
      -0.000  0.008  0.023 -1.000 -0.010
       0.996  0.084  0.018  0.001 -0.002
     occupation matrix ns (before diag.):
       0.354 -0.006 -0.003  0.000  0.000
      -0.006  0.321  0.004  0.001 -0.002
      -0.003  0.004  0.309 -0.000  0.003
       0.000  0.001 -0.000  0.344 -0.000
       0.000 -0.002  0.003 -0.000  0.274
     ------------------------ ATOM   67 ------------------------
     Tr[ns( 67)] =   3.20849
     eigenvalues:
       0.280  0.304  0.314  0.343  0.363
     eigenvectors (columns):
      -0.011 -0.069 -0.010 -0.011  0.997
       0.007 -0.907  0.414  0.046 -0.058
      -0.006  0.413  0.910  0.003  0.038
       0.001 -0.040  0.022 -0.999 -0.013
       1.000  0.008  0.002  0.000  0.012
     occupation matrix ns (before diag.):
       0.363 -0.003  0.002 -0.000  0.001
      -0.003  0.306  0.004 -0.002 -0.000
       0.002  0.004  0.313  0.000  0.000
      -0.000 -0.002  0.000  0.342 -0.000
       0.001 -0.000  0.000 -0.000  0.280
     ------------------------ ATOM   68 ------------------------
     Tr[ns( 68)] =   3.00178
     eigenvalues:
       0.239  0.281  0.294  0.304  0.382
     eigenvectors (columns):
       0.229  0.902  0.345 -0.123 -0.022
       0.030  0.366 -0.822  0.435  0.006
       0.972 -0.226 -0.046  0.034 -0.020
      -0.024 -0.013 -0.010  0.007 -1.000
      -0.020 -0.045  0.451  0.891  0.002
     occupation matrix ns (before diag.):
       0.281 -0.005 -0.010  0.002 -0.000
      -0.005  0.294 -0.000 -0.000  0.004
      -0.010 -0.000  0.242  0.003  0.001
       0.002 -0.000  0.003  0.382 -0.000
      -0.000  0.004  0.001 -0.000  0.302
     ------------------------ ATOM   73 ------------------------
     Tr[ns( 73)] =   3.17920
     eigenvalues:
       0.233  0.267  0.317  0.354  0.418
     eigenvectors (columns):
       0.042  0.059  0.007  0.023 -0.997
      -0.083 -0.994  0.020  0.035 -0.061
       0.996 -0.086 -0.003  0.006  0.037
       0.005 -0.033  0.035 -0.999 -0.025
       0.005  0.020  0.999  0.034  0.009
     occupation matrix ns (before diag.):
       0.417  0.009 -0.007  0.002 -0.001
       0.009  0.268  0.002 -0.003  0.001
      -0.007  0.002  0.234 -0.001 -0.000
       0.002 -0.003 -0.001  0.354 -0.001
      -0.001  0.001 -0.000 -0.001  0.317
     ------------------------ ATOM   74 ------------------------
     Tr[ns( 74)] =   2.95561
     eigenvalues:
       0.151  0.175  0.341  0.375  0.436
     eigenvectors (columns):
       0.094 -0.427 -0.014 -0.773  0.460
      -0.821  0.476  0.046 -0.261  0.172
       0.558  0.767 -0.044 -0.301  0.092
      -0.062 -0.005 -0.998  0.024  0.020
      -0.055 -0.050 -0.026 -0.493 -0.866
     occupation matrix ns (before diag.):
       0.349  0.063  0.056  0.001 -0.027
       0.063  0.180  0.031 -0.009 -0.014
       0.056  0.031  0.188  0.007  0.010
       0.001 -0.009  0.007  0.341 -0.003
      -0.027 -0.014  0.010 -0.003  0.419
     ------------------------ ATOM   75 ------------------------
     Tr[ns( 75)] =   2.96375
     eigenvalues:
       0.178  0.187  0.301  0.379  0.435
     eigenvectors (columns):
       0.007  0.214  0.013 -0.055 -0.975
      -0.106 -0.971 -0.026 -0.014 -0.214
      -0.994  0.104  0.016  0.034  0.014
       0.033 -0.005 -0.027  0.997 -0.057
      -0.013  0.030 -0.999 -0.027 -0.005
     occupation matrix ns (before diag.):
       0.424  0.052 -0.004  0.003  0.000
       0.052  0.198 -0.002  0.000  0.003
      -0.004 -0.002  0.179  0.007 -0.002
       0.003  0.000  0.007  0.379 -0.002
       0.000  0.003 -0.002 -0.002  0.301
     ------------------------ ATOM   76 ------------------------
     Tr[ns( 76)] =   3.16701
     eigenvalues:
       0.219  0.268  0.348  0.359  0.390
     eigenvectors (columns):
       0.021  0.009  0.013  0.029 -0.999
      -0.998  0.054 -0.009 -0.013 -0.021
       0.054  0.997 -0.054 -0.008  0.009
      -0.007  0.054  0.998  0.032  0.014
      -0.013  0.007 -0.033  0.999  0.028
     occupation matrix ns (before diag.):
       0.389  0.003 -0.001 -0.001 -0.001
       0.003  0.219  0.003 -0.001 -0.002
      -0.001  0.003  0.268 -0.004 -0.001
      -0.001 -0.001 -0.004  0.348  0.000
      -0.001 -0.002 -0.001  0.000  0.359
     ------------------------ ATOM   81 ------------------------
     Tr[ns( 81)] =   3.00886
     eigenvalues:
       0.263  0.273  0.289  0.297  0.382
     eigenvectors (columns):
       0.295  0.944 -0.119 -0.085 -0.013
       0.953 -0.286  0.019  0.096 -0.008
       0.001 -0.144 -0.956 -0.256 -0.002
       0.011  0.010 -0.004 -0.000  1.000
      -0.069  0.074 -0.268  0.958 -0.000
     occupation matrix ns (before diag.):
       0.272 -0.003  0.002 -0.001 -0.001
      -0.003  0.264 -0.001 -0.001  0.003
       0.002 -0.001  0.289 -0.000 -0.002
      -0.001 -0.001 -0.000  0.382 -0.000
      -0.001  0.003 -0.002 -0.000  0.296
     ------------------------ ATOM   82 ------------------------
     Tr[ns( 82)] =   3.18989
     eigenvalues:
       0.277  0.293  0.319  0.347  0.359
     eigenvectors (columns):
      -0.003  0.004  0.053  0.149  0.987
      -0.033  0.089 -0.991 -0.073  0.063
      -0.993 -0.103  0.018  0.056 -0.012
      -0.055 -0.013  0.083 -0.985  0.144
      -0.101  0.991  0.092 -0.001 -0.009
     occupation matrix ns (before diag.):
       0.359  0.002 -0.000  0.002 -0.000
       0.002  0.319 -0.001  0.002 -0.002
      -0.000 -0.001  0.278 -0.004 -0.002
       0.002  0.002 -0.004  0.346  0.000
      -0.000 -0.002 -0.002  0.000  0.294
     ------------------------ ATOM   83 ------------------------
     Tr[ns( 83)] =   3.18543
     eigenvalues:
       0.275  0.292  0.319  0.346  0.361
     eigenvectors (columns):
      -0.028  0.013 -0.025 -0.249 -0.968
      -0.988  0.127  0.065  0.059  0.013
      -0.086 -0.153 -0.983 -0.041  0.036
      -0.050  0.009  0.053 -0.966  0.249
       0.115  0.980 -0.162 -0.002  0.014
     occupation matrix ns (before diag.):
       0.360 -0.002 -0.001 -0.004 -0.001
      -0.002  0.276 -0.003 -0.004  0.002
      -0.001 -0.003  0.318  0.001  0.004
      -0.004 -0.004  0.001  0.346  0.000
      -0.001  0.002  0.004  0.000  0.293
     ------------------------ ATOM   84 ------------------------
     Tr[ns( 84)] =   2.99621
     eigenvalues:
       0.208  0.277  0.302  0.329  0.382
     eigenvectors (columns):
      -0.024  0.995  0.042  0.081  0.042
      -0.000 -0.087  0.107  0.990  0.038
       1.000  0.025 -0.019  0.004 -0.001
       0.002 -0.039 -0.005 -0.041  0.998
       0.020 -0.032  0.993 -0.110 -0.001
     occupation matrix ns (before diag.):
       0.277  0.004  0.002  0.004  0.001
       0.004  0.329  0.000  0.002 -0.003
       0.002  0.000  0.208 -0.000 -0.002
       0.004  0.002 -0.000  0.382  0.000
       0.001 -0.003 -0.002  0.000  0.302
     ------------------------ ATOM   89 ------------------------
     Tr[ns( 89)] =   3.18410
     eigenvalues:
       0.246  0.300  0.309  0.350  0.387
     eigenvectors (columns):
      -0.046  0.016  0.048  0.079  0.994
      -0.045 -0.986 -0.159  0.013  0.021
      -0.998  0.042  0.017  0.021 -0.049
      -0.025 -0.014  0.023 -0.996  0.078
       0.013 -0.160  0.986  0.021 -0.046
     occupation matrix ns (before diag.):
       0.386  0.002 -0.007  0.003 -0.003
       0.002  0.300 -0.003 -0.001 -0.001
      -0.007 -0.003  0.247 -0.003  0.001
       0.003 -0.001 -0.003  0.350 -0.001
      -0.003 -0.001  0.001 -0.001  0.309
     ------------------------ ATOM   90 ------------------------
     Tr[ns( 90)] =   3.01639
     eigenvalues:
       0.239  0.270  0.286  0.325  0.388
     eigenvectors (columns):
       0.059 -0.053  0.913  0.396 -0.055
       0.842  0.536 -0.004 -0.049 -0.027
       0.028 -0.119  0.391 -0.908  0.089
       0.016  0.035  0.018  0.100  0.994
      -0.535  0.833  0.116 -0.078 -0.015
     occupation matrix ns (before diag.):
       0.292 -0.002 -0.015 -0.004  0.001
      -0.002  0.248  0.001 -0.004  0.014
      -0.015  0.001  0.319  0.005  0.005
      -0.004 -0.004  0.005  0.387 -0.002
       0.001  0.014  0.005 -0.002  0.262
     ------------------------ ATOM   91 ------------------------
     Tr[ns( 91)] =   3.02294
     eigenvalues:
       0.185  0.253  0.279  0.390  0.404
     eigenvectors (columns):
       0.023 -0.153  0.978 -0.081 -0.117
       0.001  0.004 -0.086  0.323 -0.942
      -0.998 -0.055  0.014 -0.007 -0.005
       0.006  0.025 -0.112 -0.943 -0.313
      -0.052  0.986  0.156  0.009 -0.007
     occupation matrix ns (before diag.):
       0.281  0.011  0.002  0.013  0.004
       0.011  0.402  0.000  0.003  0.001
       0.002  0.000  0.185  0.002 -0.003
       0.013  0.003  0.002  0.390 -0.001
       0.004  0.001 -0.003 -0.001  0.254
     ------------------------ ATOM   92 ------------------------
     Tr[ns( 92)] =   3.20865
     eigenvalues:
       0.244  0.289  0.329  0.343  0.398
     eigenvectors (columns):
       0.016  0.012  0.780  0.625 -0.033
      -0.055  0.996 -0.051  0.046 -0.000
      -0.011 -0.006 -0.028  0.088  0.996
       0.017  0.068  0.623 -0.774  0.086
       0.998  0.054 -0.026  0.007  0.010
     occupation matrix ns (before diag.):
       0.335 -0.000 -0.002 -0.007 -0.001
      -0.000  0.289  0.000 -0.003  0.003
      -0.002  0.000  0.398  0.005  0.002
      -0.007 -0.003  0.005  0.338 -0.002
      -0.001  0.003  0.002 -0.002  0.244
     ------------------------ ATOM   97 ------------------------
     Tr[ns( 97)] =   3.00757
     eigenvalues:
       0.249  0.272  0.299  0.302  0.383
     eigenvectors (columns):
       0.163 -0.979  0.120 -0.027 -0.012
      -0.977 -0.160  0.055  0.131  0.021
       0.134 -0.006 -0.003  0.991  0.010
       0.021 -0.008 -0.001 -0.013  1.000
       0.034  0.127  0.991 -0.001  0.002
     occupation matrix ns (before diag.):
       0.272  0.004 -0.001 -0.001  0.003
       0.004  0.251  0.007  0.003  0.002
      -0.001  0.007  0.301  0.001 -0.000
      -0.001  0.003  0.001  0.383  0.000
       0.003  0.002 -0.000  0.000  0.298
     ------------------------ ATOM   98 ------------------------
     Tr[ns( 98)] =   3.18868
     eigenvalues:
       0.254  0.290  0.338  0.347  0.364
     eigenvectors (columns):
      -0.008  0.013 -0.015 -0.315 -0.949
       0.048  0.050  0.902 -0.409  0.122
       0.997  0.050 -0.048  0.014 -0.012
       0.005 -0.001  0.427  0.856 -0.291
      -0.053  0.997 -0.043  0.024  0.007
     occupation matrix ns (before diag.):
       0.362 -0.002  0.001  0.005 -0.001
      -0.002  0.340 -0.004 -0.004 -0.002
       0.001 -0.004  0.254 -0.000  0.002
       0.005 -0.004 -0.000  0.347  0.000
      -0.001 -0.002  0.002  0.000  0.290
     ------------------------ ATOM   99 ------------------------
     Tr[ns( 99)] =   3.18752
     eigenvalues:
       0.274  0.288  0.329  0.345  0.358
     eigenvectors (columns):
      -0.051 -0.015  0.070 -0.185 -0.979
       0.997 -0.007 -0.044 -0.054 -0.045
      -0.049  0.061 -0.994 -0.051 -0.059
      -0.042 -0.001  0.041 -0.980  0.191
       0.010  0.998  0.062 -0.001 -0.011
     occupation matrix ns (before diag.):
       0.357  0.004  0.002 -0.003  0.001
       0.004  0.275  0.003  0.003 -0.000
       0.002  0.003  0.328  0.000 -0.002
      -0.003  0.003  0.000  0.345 -0.000
       0.001 -0.000 -0.002 -0.000  0.288
     ------------------------ ATOM  100 ------------------------
     Tr[ns(100)] =   2.98503
     eigenvalues:
       0.236  0.252  0.298  0.321  0.385
     eigenvectors (columns):
       0.097  0.251 -0.955 -0.127  0.012
       0.186  0.946  0.260  0.055 -0.024
      -0.976  0.206 -0.038 -0.058 -0.008
      -0.005  0.021  0.017  0.003  1.000
       0.055  0.009  0.139 -0.989  0.001
     occupation matrix ns (before diag.):
       0.295 -0.012  0.004  0.001  0.002
      -0.012  0.255  0.002 -0.003 -0.002
       0.004  0.002  0.237 -0.001  0.005
       0.001 -0.003 -0.001  0.385  0.000
       0.002 -0.002  0.005  0.000  0.320
     ------------------------ ATOM  105 ------------------------
     Tr[ns(105)] =   3.19558
     eigenvalues:
       0.261  0.308  0.330  0.343  0.356
     eigenvectors (columns):
       0.044 -0.032 -0.003 -0.069 -0.996
       0.012 -0.456 -0.844 -0.280  0.037
       0.008 -0.888  0.448  0.100  0.020
       0.006 -0.043 -0.295  0.952 -0.063
       0.999  0.014  0.008 -0.000  0.043
     occupation matrix ns (before diag.):
       0.356 -0.001 -0.001  0.001 -0.004
      -0.001  0.326 -0.009 -0.004 -0.001
      -0.001 -0.009  0.312  0.000 -0.000
       0.001 -0.004  0.000  0.342 -0.000
      -0.004 -0.001 -0.000 -0.000  0.261
     ------------------------ ATOM  106 ------------------------
     Tr[ns(106)] =   3.03769
     eigenvalues:
       0.207  0.235  0.266  0.378  0.432
     eigenvectors (columns):
      -0.080  0.039  0.989  0.117  0.004
       0.996  0.028  0.080 -0.009 -0.003
      -0.005  0.014  0.015 -0.098 -0.995
      -0.018 -0.005  0.115 -0.988  0.099
      -0.025  0.999 -0.040 -0.008  0.014
     occupation matrix ns (before diag.):
       0.268  0.005 -0.002 -0.013 -0.001
       0.005  0.207  0.001  0.002  0.001
      -0.002  0.001  0.431 -0.005 -0.003
      -0.013  0.002 -0.005  0.377  0.001
      -0.001  0.001 -0.003  0.001  0.235
     ------------------------ ATOM  107 ------------------------
     Tr[ns(107)] =   3.02965
     eigenvalues:
       0.231  0.265  0.286  0.327  0.406
     eigenvectors (columns):
      -0.064  0.353 -0.061  0.929  0.066
       0.158  0.883 -0.277 -0.344  0.010
       0.951 -0.040  0.288  0.101 -0.007
      -0.002  0.023 -0.037  0.059 -0.997
      -0.256  0.305  0.914 -0.072 -0.031
     occupation matrix ns (before diag.):
       0.319 -0.019  0.007 -0.006 -0.006
      -0.019  0.273 -0.009 -0.002 -0.002
       0.007 -0.009  0.236  0.001  0.013
      -0.006 -0.002  0.001  0.405  0.003
      -0.006 -0.002  0.013  0.003  0.281
     ------------------------ ATOM  108 ------------------------
     Tr[ns(108)] =   3.22274
     eigenvalues:
       0.245  0.315  0.331  0.338  0.382
     eigenvectors (columns):
       0.055  0.992  0.090  0.013 -0.067
      -0.000 -0.050 -0.167 -0.096 -0.980
       0.026  0.040 -0.217 -0.966  0.129
      -0.020 -0.091  0.957 -0.238 -0.135
       0.998 -0.058  0.020  0.020 -0.003
     occupation matrix ns (before diag.):
       0.315  0.004 -0.001  0.002 -0.004
       0.004  0.380 -0.006  0.007  0.000
      -0.001 -0.006  0.338  0.001 -0.002
       0.002  0.007  0.001  0.332  0.002
      -0.004  0.000 -0.002  0.002  0.246
     ------------------------ ATOM  113 ------------------------
     Tr[ns(113)] =   3.00542
     eigenvalues:
       0.252  0.275  0.290  0.302  0.383
     eigenvectors (columns):
      -0.006 -0.977 -0.204 -0.060 -0.016
      -0.996  0.009  0.013 -0.092 -0.003
      -0.023  0.195 -0.971  0.134 -0.007
      -0.003 -0.014 -0.011 -0.001  1.000
      -0.090 -0.085  0.121  0.985  0.001
     occupation matrix ns (before diag.):
       0.276 -0.000  0.003 -0.002 -0.002
      -0.000  0.252 -0.001 -0.000 -0.004
       0.003 -0.001  0.290 -0.001  0.002
      -0.002 -0.000 -0.001  0.383  0.000
      -0.002 -0.004  0.002  0.000  0.301
     ------------------------ ATOM  114 ------------------------
     Tr[ns(114)] =   3.18724
     eigenvalues:
       0.270  0.292  0.327  0.345  0.360
     eigenvectors (columns):
      -0.034 -0.017  0.064 -0.256 -0.964
       0.054 -0.192  0.977 -0.017  0.071
      -0.997  0.031  0.058  0.012  0.036
       0.005  0.003  0.036  0.966 -0.255
       0.041  0.981  0.190 -0.011 -0.003
     occupation matrix ns (before diag.):
       0.359 -0.002 -0.003  0.004  0.001
      -0.002  0.326  0.003 -0.001  0.006
      -0.003  0.003  0.270  0.000  0.001
       0.004 -0.001  0.000  0.346 -0.000
       0.001  0.006  0.001 -0.000  0.293
     ------------------------ ATOM  115 ------------------------
     Tr[ns(115)] =   3.19839
     eigenvalues:
       0.278  0.294  0.327  0.344  0.355
     eigenvectors (columns):
       0.006 -0.013 -0.058 -0.114 -0.992
      -0.114 -0.993  0.037 -0.006  0.010
      -0.037 -0.031 -0.990 -0.108  0.071
       0.000  0.011  0.115 -0.988  0.106
       0.993 -0.115 -0.033 -0.004  0.010
     occupation matrix ns (before diag.):
       0.355 -0.001 -0.002 -0.001 -0.001
      -0.001  0.294 -0.001  0.000  0.002
      -0.002 -0.001  0.328  0.002  0.002
      -0.001  0.000  0.002  0.344  0.000
      -0.001  0.002  0.002  0.000  0.279
     ------------------------ ATOM  116 ------------------------
     Tr[ns(116)] =   2.99824
     eigenvalues:
       0.257  0.274  0.281  0.305  0.383
     eigenvectors (columns):
      -0.070  0.299 -0.948 -0.078  0.017
       0.232 -0.923 -0.306 -0.022 -0.007
      -0.970 -0.242 -0.007  0.024 -0.005
      -0.002 -0.012  0.014  0.003  1.000
      -0.023 -0.009  0.081 -0.996  0.002
     occupation matrix ns (before diag.):
       0.280  0.002 -0.001  0.002  0.002
       0.002  0.274  0.004 -0.001  0.001
      -0.001  0.004  0.258 -0.001 -0.001
       0.002 -0.001 -0.001  0.383  0.000
       0.002  0.001 -0.001  0.000  0.305
     ------------------------ ATOM  121 ------------------------
     Tr[ns(121)] =   3.16384
     eigenvalues:
       0.266  0.281  0.308  0.355  0.373
     eigenvectors (columns):
       0.093  0.036  0.014  0.086 -0.991
       0.371  0.925 -0.003 -0.045  0.064
      -0.923  0.374 -0.037 -0.037 -0.076
       0.026 -0.053 -0.004 -0.995 -0.086
      -0.034  0.016  0.999 -0.007  0.011
     occupation matrix ns (before diag.):
       0.372 -0.007  0.008  0.002 -0.001
      -0.007  0.279  0.005  0.003  0.000
       0.008  0.005  0.269  0.004 -0.002
       0.002  0.003  0.004  0.355  0.000
      -0.001  0.000 -0.002  0.000  0.308
     ------------------------ ATOM  122 ------------------------
     Tr[ns(122)] =   3.02876
     eigenvalues:
       0.211  0.259  0.290  0.366  0.389
     eigenvectors (columns):
      -0.050  0.078 -0.993 -0.022 -0.072
      -0.984 -0.149  0.042 -0.086 -0.029
      -0.067 -0.165 -0.046  0.961  0.205
      -0.010 -0.020 -0.067 -0.215  0.974
      -0.158  0.972  0.077  0.147  0.056
     occupation matrix ns (before diag.):
       0.290 -0.003 -0.003 -0.007 -0.004
      -0.003  0.213 -0.013 -0.002 -0.009
      -0.003 -0.013  0.363  0.004  0.016
      -0.007 -0.002  0.004  0.388  0.004
      -0.004 -0.009  0.016  0.004  0.261
     ------------------------ ATOM  123 ------------------------
     Tr[ns(123)] =   2.89723
     eigenvalues:
       0.158  0.188  0.302  0.377  0.423
     eigenvectors (columns):
      -0.186  0.095  0.053  0.072 -0.974
       0.976  0.119  0.043 -0.024 -0.174
      -0.103  0.973  0.162  0.026  0.125
       0.039 -0.030 -0.005  0.997  0.063
      -0.016 -0.171  0.984 -0.002  0.040
     occupation matrix ns (before diag.):
       0.411  0.045 -0.028 -0.001 -0.003
       0.045  0.167 -0.002 -0.008  0.004
      -0.028 -0.002  0.194  0.007  0.019
      -0.001 -0.008  0.007  0.377 -0.000
      -0.003  0.004  0.019 -0.000  0.299
     ------------------------ ATOM  124 ------------------------
     Tr[ns(124)] =   3.18891
     eigenvalues:
       0.246  0.297  0.341  0.352  0.359
     eigenvectors (columns):
       0.053 -0.007  0.238  0.666 -0.705
       0.998 -0.025 -0.007 -0.030  0.044
      -0.010 -0.111 -0.191  0.740  0.635
      -0.006  0.017  0.952 -0.015  0.306
       0.025  0.993 -0.036  0.086  0.062
     occupation matrix ns (before diag.):
       0.354 -0.006 -0.003 -0.004  0.000
      -0.006  0.247  0.001  0.001 -0.001
      -0.003  0.001  0.354  0.004  0.006
      -0.004  0.001  0.004  0.342 -0.000
       0.000 -0.001  0.006 -0.000  0.297
     ------------------------ ATOM  129 ------------------------
     Tr[ns(129)] =   3.00287
     eigenvalues:
       0.236  0.279  0.297  0.306  0.384
     eigenvectors (columns):
       0.050  0.994  0.057 -0.070  0.027
       0.997 -0.049  0.040  0.049  0.000
      -0.018  0.090 -0.500  0.861 -0.014
       0.002  0.026  0.008 -0.014 -1.000
      -0.060 -0.012  0.863  0.502 -0.000
     occupation matrix ns (before diag.):
       0.279 -0.002 -0.002 -0.003  0.000
      -0.002  0.236  0.002 -0.000  0.004
      -0.002  0.002  0.304  0.001  0.004
      -0.003 -0.000  0.001  0.384 -0.000
       0.000  0.004  0.004 -0.000  0.299
     ------------------------ ATOM  130 ------------------------
     Tr[ns(130)] =   3.18588
     eigenvalues:
       0.277  0.294  0.314  0.347  0.361
     eigenvectors (columns):
      -0.009  0.013  0.075 -0.159 -0.984
      -0.010  0.186  0.976 -0.073  0.089
       0.985  0.169 -0.022  0.000 -0.008
      -0.001  0.007  0.086  0.985 -0.152
      -0.170  0.968 -0.185  0.009 -0.001
     occupation matrix ns (before diag.):
       0.361 -0.004  0.001  0.002 -0.000
      -0.004  0.314 -0.000 -0.003 -0.004
       0.001 -0.000  0.278  0.000  0.003
       0.002 -0.003  0.000  0.347  0.000
      -0.000 -0.004  0.003  0.000  0.294
     ------------------------ ATOM  131 ------------------------
     Tr[ns(131)] =   3.19011
     eigenvalues:
       0.285  0.295  0.315  0.345  0.354
     eigenvectors (columns):
       0.011 -0.022 -0.083 -0.205  0.975
      -0.088  0.994  0.031 -0.046  0.016
       0.055  0.041 -0.992  0.074 -0.069
       0.006 -0.039 -0.060 -0.975 -0.211
       0.994  0.087  0.059 -0.000 -0.004
     occupation matrix ns (before diag.):
       0.354  0.001 -0.003 -0.002 -0.000
       0.001  0.295 -0.001  0.002  0.001
      -0.003 -0.001  0.316 -0.002 -0.002
      -0.002  0.002 -0.002  0.345 -0.000
      -0.000  0.001 -0.002 -0.000  0.285
     ------------------------ ATOM  132 ------------------------
     Tr[ns(132)] =   2.99566
     eigenvalues:
       0.239  0.278  0.291  0.306  0.383
     eigenvectors (columns):
       0.113  0.760 -0.602 -0.216  0.022
       0.191  0.607  0.764  0.100 -0.031
       0.974 -0.202 -0.088  0.045  0.012
      -0.008  0.005  0.038  0.009  0.999
      -0.040  0.116 -0.209  0.970 -0.002
     occupation matrix ns (before diag.):
       0.284 -0.008 -0.004  0.002 -0.004
      -0.008  0.285 -0.008 -0.003  0.001
      -0.004 -0.008  0.241  0.002  0.003
       0.002 -0.003  0.002  0.383 -0.000
      -0.004  0.001  0.003 -0.000  0.305
     ------------------------ ATOM  137 ------------------------
     Tr[ns(137)] =   3.17965
     eigenvalues:
       0.245  0.281  0.348  0.349  0.368
     eigenvectors (columns):
      -0.086 -0.038 -0.232 -0.121  0.961
      -0.007  0.012 -0.464  0.886  0.000
      -0.996  0.014  0.008 -0.004 -0.087
      -0.017  0.014  0.855  0.447  0.262
       0.011  0.999 -0.015 -0.021  0.035
     occupation matrix ns (before diag.):
       0.366 -0.000 -0.011  0.005  0.003
      -0.000  0.348 -0.001  0.000 -0.001
      -0.011 -0.001  0.246 -0.002  0.000
       0.005  0.000 -0.002  0.349 -0.001
       0.003 -0.001  0.000 -0.001  0.281
     ------------------------ ATOM  138 ------------------------
     Tr[ns(138)] =   3.02796
     eigenvalues:
       0.262  0.268  0.293  0.306  0.385
     eigenvectors (columns):
      -0.108 -0.121 -0.628  0.761  0.003
      -0.409  0.840  0.234  0.269 -0.022
      -0.084 -0.415  0.736  0.529  0.002
       0.012 -0.018 -0.006 -0.001 -1.000
       0.902  0.328  0.100  0.261  0.004
     occupation matrix ns (before diag.):
       0.300  0.004  0.004 -0.000  0.007
       0.004  0.271  0.009  0.003  0.005
       0.004  0.009  0.292 -0.000  0.007
      -0.000  0.003 -0.000  0.385 -0.001
       0.007  0.005  0.007 -0.001  0.266
     ------------------------ ATOM  139 ------------------------
     Tr[ns(139)] =   3.02257
     eigenvalues:
       0.223  0.278  0.304  0.311  0.394
     eigenvectors (columns):
       0.111  0.019  0.712  0.691  0.048
       0.016 -0.177  0.687 -0.704 -0.029
       0.993  0.035 -0.087 -0.071 -0.002
      -0.004  0.011 -0.012 -0.056  0.998
      -0.035  0.983  0.113 -0.136 -0.018
     occupation matrix ns (before diag.):
       0.307 -0.003 -0.009  0.004 -0.001
      -0.003  0.307 -0.001 -0.002  0.005
      -0.009 -0.001  0.225  0.000  0.002
       0.004 -0.002  0.000  0.394 -0.002
      -0.001  0.005  0.002 -0.002  0.279
     ------------------------ ATOM  140 ------------------------
     Tr[ns(140)] =   3.20334
     eigenvalues:
       0.264  0.314  0.337  0.341  0.346
     eigenvectors (columns):
      -0.069  0.052 -0.023 -0.824 -0.559
      -0.001  0.915  0.386  0.097 -0.073
      -0.015 -0.374  0.716  0.301 -0.506
      -0.007 -0.144  0.581 -0.466  0.651
       0.997 -0.002  0.014 -0.056 -0.041
     occupation matrix ns (before diag.):
       0.342 -0.001  0.002 -0.001  0.005
      -0.001  0.318  0.008  0.002  0.000
       0.002  0.008  0.336 -0.005  0.001
      -0.001  0.002 -0.005  0.341  0.000
       0.005  0.000  0.001  0.000  0.264

     Number of occupied Hubbard levels =  223.0871

     Atomic wfc used for Hubbard projectors are NOT orthogonalized

     Cannot read wfcs: file not found
     Starting wfcs are 1042 randomized atomic wfcs

     total cpu time spent up to now is       95.6 secs

     per-process dynamical memory:  1196.2 Mb

     Self-consistent Calculation

     iteration #  1     ecut=    45.00 Ry     beta= 0.20
     Davidson diagonalization with overlap
     c_bands:  5 eigenvalues not converged
     ethr =  1.00E-05,  avg # of iterations = 44.4

     =================== HUBBARD OCCUPATIONS ===================
     ------------------------ ATOM    1 ------------------------
     Tr[ns(  1)] =   3.02173
     eigenvalues:
       0.262  0.279  0.290  0.300  0.380
     eigenvectors (columns):
      -0.991 -0.046 -0.087 -0.088 -0.005
       0.039  0.341 -0.900  0.271  0.006
       0.107  0.034 -0.270 -0.956 -0.028
      -0.002 -0.001 -0.002 -0.029  1.000
      -0.067  0.938  0.332 -0.068 -0.001
     occupation matrix ns (before diag.):
       0.262  0.001  0.004 -0.000 -0.001
       0.001  0.289 -0.003  0.000 -0.003
       0.004 -0.003  0.299 -0.002  0.001
      -0.000  0.000 -0.002  0.379 -0.000
      -0.001 -0.003  0.001 -0.000  0.281
     ------------------------ ATOM    2 ------------------------
     Tr[ns(  2)] =   3.19909
     eigenvalues:
       0.237  0.294  0.346  0.354  0.369
     eigenvectors (columns):
       0.012  0.013 -0.200  0.390  0.899
      -0.004  0.000 -0.421 -0.862  0.280
      -1.000 -0.011 -0.013  0.012  0.005
      -0.014  0.000  0.884 -0.322  0.337
      -0.012  1.000  0.002 -0.005 -0.012
     occupation matrix ns (before diag.):
       0.366  0.003  0.001  0.006 -0.001
       0.003  0.354 -0.000  0.004 -0.000
       0.001 -0.000  0.237 -0.001 -0.001
       0.006  0.004 -0.001  0.349 -0.000
      -0.001 -0.000 -0.001 -0.000  0.294
     ------------------------ ATOM    3 ------------------------
     Tr[ns(  3)] =   3.17873
     eigenvalues:
       0.238  0.285  0.345  0.357  0.365
     eigenvectors (columns):
       0.004  0.005  0.339  0.212  0.917
       1.000 -0.001 -0.018  0.005  0.001
       0.007 -0.005  0.113 -0.976  0.184
       0.017 -0.000  0.934  0.041 -0.354
       0.001  1.000 -0.001 -0.006 -0.003
     occupation matrix ns (before diag.):
       0.363 -0.000  0.001 -0.007 -0.000
      -0.000  0.238 -0.001 -0.002 -0.000
       0.001 -0.001  0.357 -0.002  0.000
      -0.007 -0.002 -0.002  0.347  0.000
      -0.000 -0.000  0.000  0.000  0.285
     ------------------------ ATOM    4 ------------------------
     Tr[ns(  4)] =   2.98052
     eigenvalues:
       0.224  0.262  0.305  0.315  0.385
     eigenvectors (columns):
       0.067  0.511  0.852 -0.082 -0.037
       0.056 -0.859  0.501 -0.078 -0.047
      -0.994 -0.013  0.079 -0.072  0.009
      -0.014  0.021 -0.055  0.004 -0.998
      -0.062 -0.026  0.116  0.991 -0.002
     occupation matrix ns (before diag.):
       0.294  0.019  0.006  0.003  0.000
       0.019  0.273  0.004  0.005 -0.001
       0.006  0.004  0.225 -0.002 -0.006
       0.003  0.005 -0.002  0.384  0.000
       0.000 -0.001 -0.006  0.000  0.315
     ------------------------ ATOM    9 ------------------------
     Tr[ns(  9)] =   3.17516
     eigenvalues:
       0.265  0.269  0.335  0.352  0.368
     eigenvectors (columns):
       0.003  0.000  0.026 -0.135  0.991
       0.095 -0.995  0.005 -0.022 -0.003
      -0.995 -0.095 -0.029 -0.008  0.002
       0.030 -0.001 -0.998 -0.042  0.020
      -0.004 -0.023 -0.039  0.990  0.136
     occupation matrix ns (before diag.):
       0.368 -0.000  0.000  0.001  0.002
      -0.000  0.269  0.000 -0.000 -0.002
       0.000  0.000  0.265  0.002 -0.001
       0.001 -0.000  0.002  0.335 -0.001
       0.002 -0.002 -0.001 -0.001  0.352
     ------------------------ ATOM   10 ------------------------
     Tr[ns( 10)] =   2.99840
     eigenvalues:
       0.189  0.206  0.241  0.367  0.496
     eigenvectors (columns):
       0.149 -0.191 -0.959  0.146  0.028
       0.977  0.175  0.118  0.007 -0.011
      -0.008 -0.005 -0.025  0.026 -0.999
       0.029 -0.027 -0.142 -0.989 -0.022
      -0.147  0.965 -0.215  0.000  0.002
     occupation matrix ns (before diag.):
       0.241 -0.006 -0.007 -0.019  0.008
      -0.006  0.190  0.003 -0.002  0.001
      -0.007  0.003  0.496  0.002 -0.000
      -0.019 -0.002  0.002  0.365  0.001
       0.008  0.001 -0.000  0.001  0.207
     ------------------------ ATOM   11 ------------------------
     Tr[ns( 11)] =   3.01054
     eigenvalues:
       0.176  0.213  0.231  0.366  0.518
     eigenvectors (columns):
      -0.027 -0.038 -0.987 -0.149  0.041
      -0.002  0.021  0.037  0.024  0.999
      -0.996 -0.088  0.030  0.001 -0.001
       0.004 -0.012  0.150 -0.988  0.019
      -0.089  0.995 -0.034 -0.018 -0.020
     occupation matrix ns (before diag.):
       0.235  0.011 -0.002  0.020  0.001
       0.011  0.518 -0.000  0.002 -0.006
      -0.002 -0.000  0.177 -0.000 -0.003
       0.020  0.002 -0.000  0.363  0.003
       0.001 -0.006 -0.003  0.003  0.213
     ------------------------ ATOM   12 ------------------------
     Tr[ns( 12)] =   3.17031
     eigenvalues:
       0.245  0.261  0.321  0.348  0.411
     eigenvectors (columns):
       0.032 -0.038  0.907  0.418 -0.025
       0.989  0.121 -0.053  0.052  0.037
      -0.035 -0.039  0.005  0.048  0.997
       0.069 -0.006  0.416 -0.906  0.044
      -0.120  0.991  0.044  0.006  0.034
     occupation matrix ns (before diag.):
       0.325 -0.002 -0.002 -0.010  0.003
      -0.002  0.246  0.006 -0.006  0.002
      -0.002  0.006  0.411  0.003  0.005
      -0.010 -0.006  0.003  0.343  0.001
       0.003  0.002  0.005  0.001  0.261
     ------------------------ ATOM   17 ------------------------
     Tr[ns( 17)] =   3.01203
     eigenvalues:
       0.263  0.270  0.293  0.297  0.383
     eigenvectors (columns):
       0.282  0.928 -0.241 -0.039  0.012
      -0.926  0.327  0.182 -0.048 -0.004
       0.250  0.169  0.950 -0.064 -0.050
      -0.006  0.001 -0.051  0.003 -0.999
       0.017 -0.062 -0.061 -0.996  0.000
     occupation matrix ns (before diag.):
       0.271  0.001 -0.006 -0.001  0.001
       0.001  0.265  0.006  0.000  0.001
      -0.006  0.006  0.291  0.005  0.000
      -0.001  0.000  0.005  0.382 -0.000
       0.001  0.001  0.000 -0.000  0.297
     ------------------------ ATOM   18 ------------------------
     Tr[ns( 18)] =   3.17593
     eigenvalues:
       0.267  0.289  0.329  0.345  0.359
     eigenvectors (columns):
      -0.062 -0.011 -0.005 -0.248  0.967
       0.067 -0.086 -0.994 -0.032 -0.010
      -0.996 -0.023 -0.066  0.025 -0.058
       0.012 -0.003 -0.032  0.968  0.249
      -0.018  0.996 -0.087 -0.002  0.009
     occupation matrix ns (before diag.):
       0.358  0.000 -0.006  0.004  0.001
       0.000  0.328  0.004 -0.001  0.004
      -0.006  0.004  0.268  0.001 -0.000
       0.004 -0.001  0.001  0.345  0.000
       0.001  0.004 -0.000  0.000  0.289
     ------------------------ ATOM   19 ------------------------
     Tr[ns( 19)] =   3.24021
     eigenvalues:
       0.296  0.304  0.320  0.343  0.357
     eigenvectors (columns):
       0.024 -0.036  0.021 -0.008 -0.999
       0.431 -0.900  0.053 -0.016  0.044
      -0.049 -0.084 -0.988  0.123 -0.020
      -0.003  0.009 -0.124 -0.992  0.005
       0.901  0.427 -0.079  0.010  0.005
     occupation matrix ns (before diag.):
       0.357 -0.002  0.001  0.000 -0.000
      -0.002  0.303 -0.001  0.001 -0.003
       0.001 -0.001  0.320 -0.003  0.002
       0.000  0.001 -0.003  0.343 -0.000
      -0.000 -0.003  0.002 -0.000  0.297
     ------------------------ ATOM   20 ------------------------
     Tr[ns( 20)] =   3.01721
     eigenvalues:
       0.265  0.273  0.285  0.304  0.382
     eigenvectors (columns):
       0.172  0.707  0.685  0.038 -0.020
      -0.176  0.701 -0.684  0.096 -0.010
      -0.965  0.007  0.241 -0.104  0.019
      -0.020 -0.021 -0.002 -0.006 -1.000
       0.091  0.094 -0.065 -0.989  0.002
     occupation matrix ns (before diag.):
       0.278 -0.006  0.003  0.002 -0.002
      -0.006  0.279 -0.004  0.001 -0.002
       0.003 -0.004  0.267 -0.002  0.004
       0.002  0.001 -0.002  0.382 -0.000
      -0.002 -0.002  0.004 -0.000  0.303
     ------------------------ ATOM   25 ------------------------
     Tr[ns( 25)] =   3.19197
     eigenvalues:
       0.277  0.297  0.310  0.347  0.365
     eigenvectors (columns):
       0.016  0.028 -0.003  0.016 -0.999
      -0.197  0.141  0.970  0.009 -0.002
      -0.136 -0.975  0.112  0.130 -0.028
      -0.031 -0.125  0.021 -0.991 -0.019
       0.970 -0.113  0.214 -0.011  0.011
     occupation matrix ns (before diag.):
       0.365  0.000  0.002  0.001 -0.001
       0.000  0.308  0.001 -0.000  0.006
       0.002  0.001  0.298 -0.006  0.003
       0.001 -0.000 -0.006  0.346  0.001
      -0.001  0.006  0.003  0.001  0.279
     ------------------------ ATOM   26 ------------------------
     Tr[ns( 26)] =   3.07128
     eigenvalues:
       0.217  0.270  0.306  0.336  0.406
     eigenvectors (columns):
       0.001  0.172  0.570  0.799  0.083
       0.989 -0.139  0.049 -0.004 -0.016
       0.065  0.157 -0.819  0.548  0.027
      -0.016  0.002  0.024  0.086 -0.996
       0.132  0.962  0.039 -0.233 -0.019
     occupation matrix ns (before diag.):
       0.325  0.001  0.012 -0.006 -0.012
       0.001  0.219 -0.005  0.003 -0.007
       0.012 -0.005  0.314 -0.001 -0.010
      -0.006  0.003 -0.001  0.405  0.001
      -0.012 -0.007 -0.010  0.001  0.273
     ------------------------ ATOM   27 ------------------------
     Tr[ns( 27)] =   3.01420
     eigenvalues:
       0.218  0.274  0.294  0.319  0.403
     eigenvectors (columns):
       0.035  0.241 -0.142  0.957  0.068
       0.999 -0.027  0.030 -0.025 -0.006
       0.019  0.970  0.043 -0.237 -0.024
      -0.004 -0.007 -0.004  0.072 -0.997
      -0.026 -0.007  0.988  0.149  0.007
     occupation matrix ns (before diag.):
       0.316 -0.003 -0.011 -0.006  0.004
      -0.003  0.218 -0.001  0.001  0.002
      -0.011 -0.001  0.277  0.002 -0.001
      -0.006  0.001  0.002  0.402 -0.001
       0.004  0.002 -0.001 -0.001  0.294
     ------------------------ ATOM   28 ------------------------
     Tr[ns( 28)] =   3.28183
     eigenvalues:
       0.261  0.308  0.337  0.348  0.387
     eigenvectors (columns):
      -0.037 -0.011 -0.022  0.073 -0.996
       0.997  0.037 -0.028 -0.050 -0.041
      -0.035  0.249 -0.967  0.016  0.021
       0.052  0.040  0.027  0.995  0.070
      -0.032  0.967  0.249 -0.043 -0.018
     occupation matrix ns (before diag.):
       0.387  0.005 -0.001 -0.003  0.001
       0.005  0.262  0.002 -0.005  0.001
      -0.001  0.002  0.335  0.000 -0.007
      -0.003 -0.005  0.000  0.348 -0.002
       0.001  0.001 -0.007 -0.002  0.310
     ------------------------ ATOM   33 ------------------------
     Tr[ns( 33)] =   3.02104
     eigenvalues:
       0.262  0.272  0.280  0.311  0.384
     eigenvectors (columns):
      -0.076 -0.065 -0.995 -0.017  0.005
       0.085 -0.990  0.060 -0.092  0.017
       0.993  0.080 -0.082  0.002 -0.015
       0.014  0.018  0.002  0.004  1.000
      -0.004  0.093  0.011 -0.996  0.002
     occupation matrix ns (before diag.):
       0.280 -0.000  0.001  0.001  0.001
      -0.000  0.273 -0.001  0.002  0.004
       0.001 -0.001  0.263 -0.002 -0.000
       0.001  0.002 -0.002  0.384  0.000
       0.001  0.004 -0.000  0.000  0.311
     ------------------------ ATOM   34 ------------------------
     Tr[ns( 34)] =   3.24406
     eigenvalues:
       0.292  0.297  0.331  0.346  0.356
     eigenvectors (columns):
       0.010  0.067  0.009 -0.188 -0.980
       0.117 -0.052 -0.992  0.009 -0.014
      -0.157 -0.985  0.034 -0.003 -0.068
      -0.001  0.011  0.011  0.982 -0.188
       0.981 -0.152  0.123  0.002  0.001
     occupation matrix ns (before diag.):
       0.355  0.000  0.004  0.002 -0.000
       0.000  0.330 -0.001  0.000 -0.005
       0.004 -0.001  0.298  0.001  0.001
       0.002  0.000  0.001  0.346  0.000
      -0.000 -0.005  0.001  0.000  0.293
     ------------------------ ATOM   35 ------------------------
     Tr[ns( 35)] =   3.19575
     eigenvalues:
       0.261  0.290  0.336  0.348  0.363
     eigenvectors (columns):
       0.011 -0.010  0.015  0.322  0.947
      -0.996  0.087 -0.010  0.023  0.005
       0.017  0.004 -0.914  0.389 -0.118
       0.014 -0.006  0.406  0.863 -0.300
       0.087  0.996  0.007  0.005  0.008
     occupation matrix ns (before diag.):
       0.362  0.001 -0.002 -0.005  0.001
       0.001  0.261  0.001  0.001  0.003
      -0.002  0.001  0.338  0.005 -0.000
      -0.005  0.001  0.005  0.347  0.000
       0.001  0.003 -0.000  0.000  0.290
     ------------------------ ATOM   36 ------------------------
     Tr[ns( 36)] =   3.00838
     eigenvalues:
       0.235  0.273  0.295  0.316  0.385
     eigenvectors (columns):
      -0.134  0.204 -0.959 -0.142  0.018
       0.115 -0.968 -0.211 -0.074  0.011
      -0.984 -0.141  0.104  0.026  0.025
       0.026  0.011  0.017  0.005  0.999
      -0.015  0.039  0.157 -0.987  0.002
     occupation matrix ns (before diag.):
       0.294  0.005 -0.007  0.002  0.003
       0.005  0.274  0.004  0.001  0.002
      -0.007  0.004  0.236  0.004 -0.001
       0.002  0.001  0.004  0.385  0.000
       0.003  0.002 -0.001  0.000  0.315
     ------------------------ ATOM   41 ------------------------
     Tr[ns( 41)] =   3.23429
     eigenvalues:
       0.256  0.306  0.342  0.352  0.361
     eigenvectors (columns):
      -0.002  0.009  0.103 -0.880 -0.464
       0.013 -0.999 -0.028  0.004 -0.035
      -0.006 -0.024 -0.266 -0.474  0.839
       0.002 -0.037  0.958 -0.036  0.282
       1.000  0.013 -0.003 -0.005  0.004
     occupation matrix ns (before diag.):
       0.354  0.001 -0.003 -0.002  0.000
       0.001  0.306 -0.001 -0.002 -0.001
      -0.003 -0.001  0.358  0.005  0.001
      -0.002 -0.002  0.005  0.344 -0.000
       0.000 -0.001  0.001 -0.000  0.256
     ------------------------ ATOM   42 ------------------------
     Tr[ns( 42)] =   3.06045
     eigenvalues:
       0.229  0.273  0.306  0.332  0.391
     eigenvectors (columns):
       0.062  0.015 -0.972  0.225  0.009
      -0.971 -0.150 -0.021  0.186  0.023
      -0.202  0.923 -0.073 -0.319 -0.013
       0.018  0.011  0.006 -0.020  1.000
       0.114  0.355  0.222  0.901  0.011
     occupation matrix ns (before diag.):
       0.307  0.006 -0.001  0.001  0.005
       0.006  0.233 -0.012  0.003  0.015
      -0.001 -0.012  0.277 -0.001 -0.017
       0.001  0.003 -0.001  0.391  0.000
       0.005  0.015 -0.017  0.000  0.322
     ------------------------ ATOM   43 ------------------------
     Tr[ns( 43)] =   2.99969
     eigenvalues:
       0.215  0.240  0.276  0.377  0.392
     eigenvectors (columns):
      -0.166 -0.001  0.979  0.083 -0.079
      -0.023  0.036  0.064  0.138  0.987
       0.982  0.086  0.168 -0.012  0.010
       0.029 -0.002 -0.090  0.987 -0.131
      -0.084  0.996 -0.016 -0.002 -0.037
     occupation matrix ns (before diag.):
       0.276 -0.008  0.010  0.010 -0.001
      -0.008  0.391  0.002 -0.001 -0.006
       0.010  0.002  0.217 -0.003  0.002
       0.010 -0.001 -0.003  0.376  0.001
      -0.001 -0.006  0.002  0.001  0.240
     ------------------------ ATOM   44 ------------------------
     Tr[ns( 44)] =   3.24270
     eigenvalues:
       0.251  0.290  0.327  0.343  0.410
     eigenvectors (columns):
       0.036  0.085  0.936  0.337 -0.031
       0.028 -0.025 -0.017 -0.039 -0.998
       0.066 -0.983  0.127 -0.108  0.028
       0.010 -0.145 -0.324  0.934 -0.027
       0.997  0.064 -0.038 -0.013  0.028
     occupation matrix ns (before diag.):
       0.329  0.002  0.002  0.006 -0.003
       0.002  0.410 -0.003  0.002 -0.004
       0.002 -0.003  0.291 -0.007 -0.003
       0.006  0.002 -0.007  0.340 -0.001
      -0.003 -0.004 -0.003 -0.001  0.251
     ------------------------ ATOM   49 ------------------------
     Tr[ns( 49)] =   3.01424
     eigenvalues:
       0.245  0.267  0.289  0.325  0.381
     eigenvectors (columns):
       0.147  0.988  0.012  0.034  0.023
       0.988 -0.146 -0.000 -0.047  0.018
      -0.042  0.040 -0.041 -0.997  0.021
       0.021  0.021 -0.002 -0.021 -0.999
       0.003  0.010 -0.999  0.042  0.001
     occupation matrix ns (before diag.):
       0.266 -0.003 -0.002 -0.003 -0.000
      -0.003  0.245  0.004 -0.002 -0.000
      -0.002  0.004  0.325 -0.001 -0.002
      -0.003 -0.002 -0.001  0.381 -0.000
      -0.000 -0.000 -0.002 -0.000  0.289
     ------------------------ ATOM   50 ------------------------
     Tr[ns( 50)] =   3.17451
     eigenvalues:
       0.266  0.296  0.319  0.344  0.362
     eigenvectors (columns):
      -0.028 -0.021 -0.024 -0.093  0.995
       0.052 -0.206 -0.977  0.008 -0.026
      -0.997 -0.014 -0.049  0.060 -0.024
       0.057 -0.001  0.009  0.994  0.095
      -0.004  0.978 -0.207  0.002  0.016
     occupation matrix ns (before diag.):
       0.362 -0.001 -0.003  0.002  0.001
      -0.001  0.318  0.003 -0.000  0.005
      -0.003  0.003  0.266  0.004  0.000
       0.002 -0.000  0.004  0.344  0.000
       0.001  0.005  0.000  0.000  0.297
     ------------------------ ATOM   51 ------------------------
     Tr[ns( 51)] =   3.16540
     eigenvalues:
       0.272  0.289  0.324  0.344  0.355
     eigenvectors (columns):
      -0.003  0.031  0.110 -0.258 -0.959
       0.227 -0.971 -0.051  0.035 -0.047
      -0.037  0.052 -0.986  0.075 -0.132
       0.008 -0.040 -0.108 -0.963  0.245
       0.973  0.228 -0.024  0.002  0.002
     occupation matrix ns (before diag.):
       0.353  0.002  0.003 -0.002 -0.000
       0.002  0.288  0.002 -0.002 -0.004
       0.003  0.002  0.324 -0.002  0.001
      -0.002 -0.002 -0.002  0.344 -0.000
      -0.000 -0.004  0.001 -0.000  0.273
     ------------------------ ATOM   52 ------------------------
     Tr[ns( 52)] =   2.99542
     eigenvalues:
       0.234  0.273  0.291  0.319  0.380
     eigenvectors (columns):
       0.038 -0.994 -0.055 -0.082  0.020
      -0.025  0.081 -0.016 -0.996 -0.037
      -0.998 -0.039 -0.020  0.023 -0.023
      -0.024  0.022  0.001 -0.035  0.999
      -0.019 -0.055  0.998 -0.020 -0.001
     occupation matrix ns (before diag.):
       0.273  0.004  0.001  0.002 -0.001
       0.004  0.319 -0.002 -0.002  0.001
       0.001 -0.002  0.235 -0.003 -0.001
       0.002 -0.002 -0.003  0.380 -0.000
      -0.001  0.001 -0.001 -0.000  0.291
     ------------------------ ATOM   57 ------------------------
     Tr[ns( 57)] =   3.16548
     eigenvalues:
       0.244  0.305  0.323  0.346  0.365
     eigenvectors (columns):
       0.052 -0.019  0.019  0.185  0.981
       0.013  0.051 -0.980 -0.184  0.054
      -0.993  0.105 -0.002 -0.013  0.057
       0.015 -0.070  0.187 -0.964  0.176
       0.106  0.991  0.065 -0.053  0.022
     occupation matrix ns (before diag.):
       0.364  0.001  0.006  0.003  0.001
       0.001  0.324  0.001  0.005 -0.001
       0.006  0.001  0.245  0.002  0.007
       0.003  0.005  0.002  0.346  0.002
       0.001 -0.001  0.007  0.002  0.305
     ------------------------ ATOM   58 ------------------------
     Tr[ns( 58)] =   3.02251
     eigenvalues:
       0.246  0.264  0.285  0.318  0.398
     eigenvectors (columns):
       0.007 -0.397  0.386 -0.832  0.032
      -0.792  0.279  0.533  0.108  0.011
      -0.239  0.588 -0.554 -0.539 -0.012
      -0.012 -0.004 -0.041  0.021  0.999
      -0.562 -0.647 -0.509  0.067 -0.031
     occupation matrix ns (before diag.):
       0.305 -0.001  0.020  0.003 -0.007
      -0.001  0.259 -0.013  0.001 -0.013
       0.020 -0.013  0.285 -0.002  0.001
       0.003  0.001 -0.002  0.398 -0.004
      -0.007 -0.013  0.001 -0.004  0.264
     ------------------------ ATOM   59 ------------------------
     Tr[ns( 59)] =   2.91021
     eigenvalues:
       0.138  0.158  0.345  0.379  0.435
     eigenvectors (columns):
       0.179  0.458 -0.003  0.700 -0.518
      -0.285  0.866  0.087 -0.353  0.191
       0.937  0.178 -0.050 -0.274  0.110
       0.075 -0.062  0.994  0.049  0.032
       0.050  0.066 -0.053  0.555  0.826
     occupation matrix ns (before diag.):
       0.340 -0.081 -0.061  0.002 -0.033
      -0.081  0.195  0.032  0.014 -0.000
      -0.061  0.032  0.161 -0.013 -0.009
       0.002  0.014 -0.013  0.344  0.003
      -0.033 -0.000 -0.009  0.003  0.415
     ------------------------ ATOM   60 ------------------------
     Tr[ns( 60)] =   3.16261
     eigenvalues:
       0.246  0.262  0.304  0.351  0.418
     eigenvectors (columns):
      -0.096 -0.030  0.016 -0.005  0.995
      -0.883  0.450  0.099 -0.053 -0.073
       0.446  0.889 -0.039 -0.060  0.070
       0.018 -0.077 -0.022 -0.997 -0.005
      -0.107  0.011 -0.994  0.019  0.007
     occupation matrix ns (before diag.):
       0.417 -0.013  0.012 -0.000  0.000
      -0.013  0.251  0.006  0.005 -0.006
       0.012  0.006  0.260  0.005  0.002
      -0.000  0.005  0.005  0.351 -0.001
       0.000 -0.006  0.002 -0.001  0.304
     ------------------------ ATOM   65 ------------------------
     Tr[ns( 65)] =   3.00618
     eigenvalues:
       0.245  0.282  0.292  0.301  0.383
     eigenvectors (columns):
       0.242  0.946 -0.131  0.170 -0.021
       0.968 -0.234 -0.021 -0.091  0.005
      -0.044 -0.148 -0.978  0.139  0.015
       0.001  0.023  0.012  0.002  1.000
       0.054 -0.166  0.161  0.971 -0.000
     occupation matrix ns (before diag.):
       0.280 -0.009  0.002 -0.002  0.003
      -0.009  0.248  0.002  0.000 -0.004
       0.002  0.002  0.292  0.001  0.001
      -0.002  0.000  0.001  0.383  0.000
       0.003 -0.004  0.001  0.000  0.300
     ------------------------ ATOM   66 ------------------------
     Tr[ns( 66)] =   3.21524
     eigenvalues:
       0.275  0.311  0.323  0.345  0.354
     eigenvectors (columns):
       0.001  0.019 -0.221  0.012 -0.975
       0.041 -0.288 -0.934 -0.012  0.206
      -0.079  0.953 -0.279  0.007  0.082
       0.000  0.011  0.007 -1.000 -0.013
       0.996  0.088  0.016  0.001 -0.001
     occupation matrix ns (before diag.):
       0.353 -0.006 -0.003  0.000 -0.000
      -0.006  0.323  0.004  0.000 -0.002
      -0.003  0.004  0.312 -0.000  0.003
       0.000  0.000 -0.000  0.345 -0.000
      -0.000 -0.002  0.003 -0.000  0.275
     ------------------------ ATOM   67 ------------------------
     Tr[ns( 67)] =   3.22882
     eigenvalues:
       0.283  0.307  0.318  0.343  0.363
     eigenvectors (columns):
      -0.009 -0.059 -0.024  0.016 -0.998
       0.015 -0.936  0.344 -0.046  0.046
       0.004  0.343  0.938  0.005 -0.043
       0.002 -0.044  0.012  0.999  0.018
       1.000  0.012 -0.009 -0.001 -0.010
     occupation matrix ns (before diag.):
       0.363 -0.003  0.002 -0.000  0.001
      -0.003  0.309  0.004 -0.002 -0.000
       0.002  0.004  0.317  0.000 -0.000
      -0.000 -0.002  0.000  0.343 -0.000
       0.001 -0.000 -0.000 -0.000  0.283
     ------------------------ ATOM   68 ------------------------
     Tr[ns( 68)] =   3.01266
     eigenvalues:
       0.239  0.282  0.297  0.306  0.383
     eigenvectors (columns):
       0.212  0.920  0.311 -0.106 -0.024
       0.015  0.331 -0.845  0.421  0.005
       0.977 -0.206 -0.045  0.037 -0.022
      -0.027 -0.016 -0.010  0.006 -0.999
      -0.022 -0.037  0.434  0.900  0.002
     occupation matrix ns (before diag.):
       0.282 -0.005 -0.009  0.003 -0.000
      -0.005  0.297  0.000 -0.000  0.004
      -0.009  0.000  0.241  0.003  0.001
       0.003 -0.000  0.003  0.382 -0.000
      -0.000  0.004  0.001 -0.000  0.304
     ------------------------ ATOM   73 ------------------------
     Tr[ns( 73)] =   3.18258
     eigenvalues:
       0.232  0.269  0.320  0.358  0.412
     eigenvectors (columns):
       0.039  0.053  0.003  0.027 -0.997
      -0.083 -0.994  0.017  0.033 -0.055
       0.996 -0.085 -0.001  0.005  0.035
       0.004 -0.031  0.047 -0.998 -0.029
       0.002  0.018  0.999  0.046  0.006
     occupation matrix ns (before diag.):
       0.412  0.008 -0.006  0.002 -0.001
       0.008  0.269  0.003 -0.003  0.001
      -0.006  0.003  0.233 -0.001 -0.000
       0.002 -0.003 -0.001  0.358 -0.002
      -0.001  0.001 -0.000 -0.002  0.320
     ------------------------ ATOM   74 ------------------------
     Tr[ns( 74)] =   2.90578
     eigenvalues:
       0.142  0.161  0.340  0.365  0.445
     eigenvectors (columns):
       0.026 -0.446 -0.047 -0.794  0.410
      -0.795  0.532  0.027 -0.250  0.149
       0.600  0.718 -0.071 -0.336  0.085
      -0.064 -0.015 -0.996  0.061 -0.007
      -0.063 -0.048 -0.016 -0.437 -0.896
     occupation matrix ns (before diag.):
       0.337  0.058  0.065 -0.002 -0.033
       0.058  0.168  0.029 -0.009 -0.017
       0.065  0.029  0.180  0.009  0.009
      -0.002 -0.009  0.009  0.340 -0.001
      -0.033 -0.017  0.009 -0.001  0.427
     ------------------------ ATOM   75 ------------------------
     Tr[ns( 75)] =   3.00868
     eigenvalues:
       0.185  0.187  0.310  0.380  0.443
     eigenvectors (columns):
       0.145 -0.071  0.015  0.015 -0.987
      -0.969  0.191 -0.028 -0.011 -0.157
      -0.199 -0.978  0.008 -0.036  0.041
       0.021  0.032 -0.024 -0.999 -0.015
       0.027 -0.015 -0.999  0.024 -0.009
     occupation matrix ns (before diag.):
       0.436  0.040 -0.010  0.001  0.001
       0.040  0.191 -0.002  0.003  0.004
      -0.010 -0.002  0.187  0.007 -0.001
       0.001  0.003  0.007  0.380 -0.002
       0.001  0.004 -0.001 -0.002  0.310
     ------------------------ ATOM   76 ------------------------
     Tr[ns( 76)] =   3.19136
     eigenvalues:
       0.216  0.272  0.352  0.368  0.388
     eigenvectors (columns):
       0.012 -0.009 -0.037  0.050  0.998
      -0.999 -0.041  0.004 -0.012  0.013
       0.041 -0.998  0.052  0.003 -0.007
      -0.003 -0.052 -0.997  0.042 -0.039
      -0.013  0.005  0.043  0.998 -0.049
     occupation matrix ns (before diag.):
       0.388  0.002 -0.001 -0.001 -0.001
       0.002  0.216  0.002 -0.001 -0.002
      -0.001  0.002  0.272 -0.004  0.001
      -0.001 -0.001 -0.004  0.352  0.001
      -0.001 -0.002  0.001  0.001  0.368
     ------------------------ ATOM   81 ------------------------
     Tr[ns( 81)] =   3.02753
     eigenvalues:
       0.264  0.274  0.294  0.299  0.383
     eigenvectors (columns):
      -0.288  0.948 -0.097 -0.091  0.013
      -0.954 -0.281 -0.007  0.106  0.009
       0.007 -0.125 -0.935 -0.331  0.003
      -0.012  0.009 -0.004 -0.001 -1.000
       0.082  0.080 -0.340  0.933  0.001
     occupation matrix ns (before diag.):
       0.274 -0.003  0.003 -0.001 -0.001
      -0.003  0.265 -0.001 -0.001  0.003
       0.003 -0.001  0.294 -0.000 -0.002
      -0.001 -0.001 -0.000  0.383 -0.000
      -0.001  0.003 -0.002 -0.000  0.298
     ------------------------ ATOM   82 ------------------------
     Tr[ns( 82)] =   3.21452
     eigenvalues:
       0.277  0.299  0.324  0.347  0.361
     eigenvectors (columns):
      -0.000  0.007 -0.031  0.165  0.986
      -0.016  0.101  0.991 -0.079  0.044
      -0.997 -0.058 -0.005  0.055 -0.009
      -0.055 -0.010 -0.086 -0.982  0.161
      -0.057  0.993 -0.101 -0.000 -0.011
     occupation matrix ns (before diag.):
       0.361  0.001 -0.000  0.002 -0.001
       0.001  0.324 -0.001  0.002 -0.003
      -0.000 -0.001  0.277 -0.004 -0.001
       0.002  0.002 -0.004  0.347  0.000
      -0.001 -0.003 -0.001  0.000  0.299
     ------------------------ ATOM   83 ------------------------
     Tr[ns( 83)] =   3.22079
     eigenvalues:
       0.278  0.298  0.326  0.347  0.362
     eigenvectors (columns):
       0.027  0.016  0.025 -0.261 -0.965
       0.987  0.136 -0.058  0.060  0.012
       0.081 -0.147  0.982 -0.074  0.045
       0.049  0.012 -0.086 -0.961  0.259
      -0.126  0.980  0.156 -0.003  0.018
     occupation matrix ns (before diag.):
       0.361 -0.002 -0.001 -0.004 -0.001
      -0.002  0.279 -0.003 -0.003  0.002
      -0.001 -0.003  0.325  0.002  0.005
      -0.004 -0.003  0.002  0.347  0.000
      -0.001  0.002  0.005  0.000  0.298
     ------------------------ ATOM   84 ------------------------
     Tr[ns( 84)] =   3.00335
     eigenvalues:
       0.205  0.278  0.303  0.332  0.383
     eigenvectors (columns):
      -0.026  0.996  0.039  0.068  0.044
      -0.002 -0.073  0.100  0.992  0.034
       0.999  0.026 -0.017  0.005 -0.001
       0.002 -0.042 -0.006 -0.037  0.998
       0.018 -0.032  0.994 -0.102  0.000
     occupation matrix ns (before diag.):
       0.279  0.004  0.002  0.004  0.001
       0.004  0.332  0.000  0.002 -0.003
       0.002  0.000  0.205 -0.000 -0.002
       0.004  0.002 -0.000  0.382  0.000
       0.001 -0.003 -0.002  0.000  0.304
     ------------------------ ATOM   89 ------------------------
     Tr[ns( 89)] =   3.27443
     eigenvalues:
       0.255  0.316  0.324  0.352  0.390
     eigenvectors (columns):
       0.047  0.007  0.058  0.060 -0.995
       0.037 -0.983 -0.177  0.011 -0.015
       0.998  0.034  0.013  0.026  0.050
       0.029 -0.011  0.011 -0.998 -0.058
      -0.009 -0.178  0.982  0.009  0.056
     occupation matrix ns (before diag.):
       0.390  0.001 -0.007  0.002 -0.004
       0.001  0.316 -0.002 -0.000 -0.001
      -0.007 -0.002  0.256 -0.003  0.001
       0.002 -0.000 -0.003  0.352 -0.000
      -0.004 -0.001  0.001 -0.000  0.324
     ------------------------ ATOM   90 ------------------------
     Tr[ns( 90)] =   3.08948
     eigenvalues:
       0.241  0.279  0.289  0.345  0.391
     eigenvectors (columns):
       0.074 -0.088  0.942  0.309 -0.069
       0.832  0.553 -0.011 -0.016 -0.020
       0.037 -0.072  0.307 -0.940  0.126
       0.013  0.022  0.027  0.140  0.989
      -0.548  0.825  0.133 -0.042 -0.009
     occupation matrix ns (before diag.):
       0.294 -0.003 -0.018 -0.005  0.002
      -0.003  0.253 -0.000 -0.003  0.017
      -0.018 -0.000  0.340  0.005  0.004
      -0.005 -0.003  0.005  0.390 -0.001
       0.002  0.017  0.004 -0.001  0.268
     ------------------------ ATOM   91 ------------------------
     Tr[ns( 91)] =   3.06770
     eigenvalues:
       0.187  0.258  0.281  0.391  0.417
     eigenvectors (columns):
       0.026 -0.197  0.971 -0.094 -0.091
       0.001  0.006 -0.070  0.211 -0.975
      -0.999 -0.047  0.015 -0.009 -0.005
       0.007  0.027 -0.108 -0.973 -0.202
      -0.043  0.979  0.199  0.006 -0.007
     occupation matrix ns (before diag.):
       0.282  0.010  0.002  0.013  0.005
       0.010  0.415  0.001  0.004  0.001
       0.002  0.001  0.187  0.002 -0.003
       0.013  0.004  0.002  0.391 -0.001
       0.005  0.001 -0.003 -0.001  0.258
     ------------------------ ATOM   92 ------------------------
     Tr[ns( 92)] =   3.23954
     eigenvalues:
       0.242  0.296  0.327  0.342  0.412
     eigenvectors (columns):
       0.014  0.022  0.828  0.559 -0.032
      -0.047  0.995 -0.064  0.057 -0.001
      -0.011 -0.005 -0.011  0.074  0.997
       0.016  0.083  0.556 -0.824  0.068
       0.999  0.045 -0.024  0.009  0.010
     occupation matrix ns (before diag.):
       0.332 -0.000 -0.002 -0.007 -0.001
      -0.000  0.296  0.000 -0.003  0.003
      -0.002  0.000  0.412  0.005  0.002
      -0.007 -0.003  0.005  0.338 -0.002
      -0.001  0.003  0.002 -0.002  0.242
     ------------------------ ATOM   97 ------------------------
     Tr[ns( 97)] =   3.00334
     eigenvalues:
       0.250  0.270  0.298  0.302  0.382
     eigenvectors (columns):
       0.189  0.975  0.112  0.039  0.012
      -0.972  0.185  0.072 -0.126 -0.020
       0.135  0.004  0.080 -0.987 -0.012
       0.020  0.008 -0.002  0.015 -1.000
       0.039 -0.125  0.988  0.085 -0.002
     occupation matrix ns (before diag.):
       0.269  0.004 -0.002 -0.001  0.003
       0.004  0.252  0.007  0.003  0.002
      -0.002  0.007  0.301  0.001 -0.001
      -0.001  0.003  0.001  0.382  0.000
       0.003  0.002 -0.001  0.000  0.297
     ------------------------ ATOM   98 ------------------------
     Tr[ns( 98)] =   3.16556
     eigenvalues:
       0.250  0.288  0.335  0.346  0.364
     eigenvectors (columns):
       0.007  0.011  0.014 -0.290 -0.957
      -0.047  0.044 -0.948 -0.303  0.078
      -0.998  0.035  0.048  0.008 -0.009
      -0.005 -0.001 -0.313  0.908 -0.279
       0.037  0.998  0.039  0.017  0.007
     occupation matrix ns (before diag.):
       0.363 -0.001  0.001  0.005 -0.001
      -0.001  0.336 -0.004 -0.004 -0.002
       0.001 -0.004  0.250 -0.000  0.001
       0.005 -0.004 -0.000  0.346  0.000
      -0.001 -0.002  0.001  0.000  0.288
     ------------------------ ATOM   99 ------------------------
     Tr[ns( 99)] =   3.15551
     eigenvalues:
       0.269  0.284  0.325  0.344  0.357
     eigenvectors (columns):
      -0.052 -0.012  0.076 -0.214  0.972
       0.996 -0.033 -0.038 -0.059  0.043
      -0.042  0.058 -0.994 -0.053  0.064
      -0.046  0.001  0.039 -0.974 -0.220
       0.035  0.998  0.057 -0.000  0.009
     occupation matrix ns (before diag.):
       0.356  0.004  0.002 -0.003  0.001
       0.004  0.270  0.003  0.003 -0.001
       0.002  0.003  0.324  0.000 -0.002
      -0.003  0.003  0.000  0.344 -0.000
       0.001 -0.001 -0.002 -0.000  0.284
     ------------------------ ATOM  100 ------------------------
     Tr[ns(100)] =   2.96531
     eigenvalues:
       0.231  0.249  0.297  0.320  0.385
     eigenvectors (columns):
       0.094  0.235 -0.960 -0.123  0.009
       0.188  0.950  0.245  0.050 -0.022
      -0.976  0.206 -0.038 -0.054 -0.009
      -0.005  0.021  0.013  0.003  1.000
       0.051  0.008  0.134 -0.990  0.001
     occupation matrix ns (before diag.):
       0.294 -0.012  0.004  0.001  0.002
      -0.012  0.251  0.003 -0.003 -0.002
       0.004  0.003  0.232 -0.001  0.004
       0.001 -0.003 -0.001  0.385  0.000
       0.002 -0.002  0.004  0.000  0.320
     ------------------------ ATOM  105 ------------------------
     Tr[ns(105)] =   3.14011
     eigenvalues:
       0.255  0.297  0.318  0.342  0.358
     eigenvectors (columns):
       0.036 -0.012  0.009 -0.020  0.999
       0.008 -0.456  0.877 -0.147 -0.017
       0.022 -0.889 -0.454  0.049 -0.006
       0.007 -0.024  0.153  0.988  0.018
       0.999  0.024  0.001 -0.006 -0.036
     occupation matrix ns (before diag.):
       0.358 -0.001 -0.001  0.000 -0.004
      -0.001  0.314 -0.009 -0.004 -0.000
      -0.001 -0.009  0.301  0.001 -0.001
       0.000 -0.004  0.001  0.341 -0.001
      -0.004 -0.000 -0.001 -0.001  0.255
     ------------------------ ATOM  106 ------------------------
     Tr[ns(106)] =   2.99105
     eigenvalues:
       0.199  0.232  0.261  0.377  0.427
     eigenvectors (columns):
       0.068  0.045  0.988 -0.128  0.003
      -0.998  0.015  0.068  0.007 -0.002
       0.004  0.011  0.017  0.108 -0.994
       0.015 -0.004  0.127  0.986  0.109
       0.012  0.999 -0.045  0.008  0.011
     occupation matrix ns (before diag.):
       0.262  0.004 -0.002 -0.015 -0.001
       0.004  0.199  0.001  0.002  0.000
      -0.002  0.001  0.427 -0.006 -0.002
      -0.015  0.002 -0.006  0.376  0.001
      -0.001  0.000 -0.002  0.001  0.232
     ------------------------ ATOM  107 ------------------------
     Tr[ns(107)] =   2.97793
     eigenvalues:
       0.216  0.261  0.277  0.326  0.409
     eigenvectors (columns):
      -0.061  0.342 -0.127  0.928  0.047
       0.125  0.815 -0.442 -0.353  0.023
       0.967  0.018  0.236  0.089 -0.008
      -0.002  0.021 -0.044  0.036 -0.998
      -0.211  0.468  0.855 -0.068 -0.030
     occupation matrix ns (before diag.):
       0.317 -0.020  0.007 -0.005 -0.007
      -0.020  0.272 -0.009 -0.004 -0.003
       0.007 -0.009  0.220  0.001  0.012
      -0.005 -0.004  0.001  0.409  0.004
      -0.007 -0.003  0.012  0.004  0.271
     ------------------------ ATOM  108 ------------------------
     Tr[ns(108)] =   3.17891
     eigenvalues:
       0.238  0.311  0.326  0.332  0.383
     eigenvectors (columns):
       0.051  0.985  0.124 -0.065 -0.082
       0.002 -0.059 -0.138  0.088 -0.985
       0.029  0.109 -0.952 -0.263  0.103
      -0.018 -0.102  0.240 -0.958 -0.114
       0.998 -0.055  0.026 -0.007  0.001
     occupation matrix ns (before diag.):
       0.312  0.005 -0.002  0.002 -0.004
       0.005  0.381 -0.006  0.006 -0.000
      -0.002 -0.006  0.326  0.001 -0.002
       0.002  0.006  0.001  0.332  0.002
      -0.004 -0.000 -0.002  0.002  0.239
     ------------------------ ATOM  113 ------------------------
     Tr[ns(113)] =   3.00540
     eigenvalues:
       0.254  0.276  0.289  0.301  0.383
     eigenvectors (columns):
      -0.008  0.986  0.154  0.068  0.017
       0.995  0.003 -0.013  0.095  0.002
       0.022 -0.148  0.985 -0.089  0.012
       0.002  0.015  0.014  0.001 -1.000
       0.093  0.081 -0.079 -0.989 -0.001
     occupation matrix ns (before diag.):
       0.276  0.000  0.002 -0.002 -0.002
       0.000  0.254 -0.001 -0.000 -0.004
       0.002 -0.001  0.288 -0.001  0.001
      -0.002 -0.000 -0.001  0.383  0.000
      -0.002 -0.004  0.001  0.000  0.301
     ------------------------ ATOM  114 ------------------------
     Tr[ns(114)] =   3.17880
     eigenvalues:
       0.269  0.290  0.325  0.345  0.360
     eigenvectors (columns):
      -0.033 -0.018  0.057 -0.240 -0.968
       0.055 -0.170  0.982  0.017  0.055
      -0.998  0.017  0.056  0.014  0.033
       0.005  0.006 -0.002  0.971 -0.241
       0.026  0.985  0.170 -0.007 -0.007
     occupation matrix ns (before diag.):
       0.359 -0.002 -0.003  0.004  0.001
      -0.002  0.324  0.003 -0.000  0.006
      -0.003  0.003  0.269  0.000  0.001
       0.004 -0.000  0.000  0.346 -0.000
       0.001  0.006  0.001 -0.000  0.291
     ------------------------ ATOM  115 ------------------------
     Tr[ns(115)] =   3.21990
     eigenvalues:
       0.280  0.295  0.330  0.344  0.362
     eigenvectors (columns):
       0.008 -0.003 -0.042 -0.074 -0.996
      -0.115 -0.993  0.024 -0.001  0.001
      -0.044 -0.019 -0.990 -0.123  0.050
       0.000  0.004  0.127 -0.990  0.068
       0.992 -0.116 -0.041 -0.005  0.011
     occupation matrix ns (before diag.):
       0.362 -0.000 -0.001 -0.001 -0.001
      -0.000  0.294 -0.001  0.000  0.002
      -0.001 -0.001  0.330  0.002  0.002
      -0.001  0.000  0.002  0.343  0.000
      -0.001  0.002  0.002  0.000  0.280
     ------------------------ ATOM  116 ------------------------
     Tr[ns(116)] =   3.00920
     eigenvalues:
       0.257  0.276  0.283  0.306  0.383
     eigenvectors (columns):
       0.035  0.633 -0.769  0.073  0.020
      -0.168 -0.758 -0.630  0.015 -0.006
       0.985 -0.150 -0.082 -0.026 -0.006
       0.004 -0.018  0.011 -0.004  1.000
       0.025 -0.038  0.064  0.997  0.002
     occupation matrix ns (before diag.):
       0.280  0.004 -0.000  0.002  0.002
       0.004  0.278  0.004 -0.001  0.000
      -0.000  0.004  0.258 -0.001 -0.001
       0.002 -0.001 -0.001  0.383  0.000
       0.002  0.000 -0.001  0.000  0.306
     ------------------------ ATOM  121 ------------------------
     Tr[ns(121)] =   3.10447
     eigenvalues:
       0.248  0.266  0.303  0.355  0.380
     eigenvectors (columns):
      -0.076  0.041  0.012  0.082 -0.993
      -0.322  0.944 -0.013 -0.033  0.061
       0.943  0.324 -0.034 -0.031 -0.062
      -0.026 -0.038 -0.006 -0.996 -0.082
       0.028  0.022  0.999 -0.008  0.011
     occupation matrix ns (before diag.):
       0.379 -0.008  0.008  0.002 -0.001
      -0.008  0.265  0.005  0.002 -0.000
       0.008  0.005  0.251  0.004 -0.002
       0.002  0.002  0.004  0.355  0.000
      -0.001 -0.000 -0.002  0.000  0.303
     ------------------------ ATOM  122 ------------------------
     Tr[ns(122)] =   2.91807
     eigenvalues:
       0.200  0.246  0.283  0.342  0.389
     eigenvectors (columns):
      -0.066  0.048 -0.994  0.007 -0.078
      -0.986 -0.114  0.061 -0.101 -0.019
      -0.082 -0.172 -0.006  0.974  0.121
      -0.009 -0.016 -0.079 -0.127  0.989
      -0.127  0.977  0.054  0.158  0.039
     occupation matrix ns (before diag.):
       0.283 -0.005 -0.001 -0.008 -0.003
      -0.005  0.202 -0.014 -0.002 -0.007
      -0.001 -0.014  0.339  0.005  0.015
      -0.008 -0.002  0.005  0.387  0.003
      -0.003 -0.007  0.015  0.003  0.248
     ------------------------ ATOM  123 ------------------------
     Tr[ns(123)] =   2.90972
     eigenvalues:
       0.185  0.211  0.263  0.355  0.441
     eigenvectors (columns):
       0.091  0.089 -0.028 -0.056 -0.990
      -0.995  0.028 -0.008  0.028 -0.090
       0.019  0.969 -0.225 -0.037  0.097
      -0.034 -0.038  0.018 -0.997  0.050
       0.000 -0.227 -0.974 -0.008  0.008
     occupation matrix ns (before diag.):
       0.437  0.023 -0.022 -0.003 -0.000
       0.023  0.187 -0.002 -0.006  0.000
      -0.022 -0.002  0.216  0.006  0.012
      -0.003 -0.006  0.006  0.355  0.000
      -0.000  0.000  0.012  0.000  0.260
     ------------------------ ATOM  124 ------------------------
     Tr[ns(124)] =   3.17330
     eigenvalues:
       0.237  0.295  0.340  0.349  0.365
     eigenvectors (columns):
      -0.052 -0.006 -0.146  0.223  0.962
      -0.999 -0.007 -0.005 -0.004 -0.053
       0.005 -0.126  0.248  0.943 -0.181
       0.014  0.010 -0.957  0.215 -0.194
      -0.007  0.992  0.040  0.119 -0.015
     occupation matrix ns (before diag.):
       0.364 -0.007 -0.003 -0.004  0.000
      -0.007  0.237  0.001  0.002 -0.000
      -0.003  0.001  0.348  0.003  0.007
      -0.004  0.002  0.003  0.342 -0.000
       0.000 -0.000  0.007 -0.000  0.296
     ------------------------ ATOM  129 ------------------------
     Tr[ns(129)] =   3.01734
     eigenvalues:
       0.239  0.278  0.299  0.310  0.384
     eigenvectors (columns):
       0.043  0.996  0.038 -0.063  0.026
       0.997 -0.042  0.048  0.046 -0.001
      -0.021  0.075 -0.372  0.925 -0.016
       0.001  0.024  0.006 -0.017 -1.000
      -0.062 -0.009  0.926  0.371 -0.000
     occupation matrix ns (before diag.):
       0.278 -0.002 -0.002 -0.003  0.000
      -0.002  0.239  0.002  0.000  0.004
      -0.002  0.002  0.308  0.001  0.004
      -0.003  0.000  0.001  0.383 -0.000
       0.000  0.004  0.004 -0.000  0.300
     ------------------------ ATOM  130 ------------------------
     Tr[ns(130)] =   3.21261
     eigenvalues:
       0.279  0.298  0.320  0.347  0.363
     eigenvectors (columns):
       0.016  0.011 -0.067 -0.168 -0.983
      -0.017  0.172 -0.978 -0.080  0.082
      -0.991  0.126  0.038 -0.001 -0.017
      -0.001  0.006 -0.092  0.983 -0.161
       0.131  0.977  0.169  0.010  0.000
     occupation matrix ns (before diag.):
       0.362 -0.003  0.001  0.002 -0.000
      -0.003  0.320 -0.001 -0.003 -0.004
       0.001 -0.001  0.279  0.000  0.003
       0.002 -0.003  0.000  0.347  0.000
      -0.000 -0.004  0.003  0.000  0.298
     ------------------------ ATOM  131 ------------------------
     Tr[ns(131)] =   3.20229
     eigenvalues:
       0.287  0.294  0.319  0.345  0.356
     eigenvectors (columns):
       0.011 -0.020 -0.080  0.218 -0.972
      -0.156  0.986  0.026  0.048 -0.014
       0.056  0.039 -0.992 -0.081  0.063
       0.009 -0.041 -0.066  0.971  0.224
       0.986  0.154  0.062  0.001  0.003
     occupation matrix ns (before diag.):
       0.355  0.001 -0.003 -0.003 -0.000
       0.001  0.294 -0.001  0.002  0.001
      -0.003 -0.001  0.319 -0.001 -0.002
      -0.003  0.002 -0.001  0.345 -0.000
      -0.000  0.001 -0.002 -0.000  0.287
     ------------------------ ATOM  132 ------------------------
     Tr[ns(132)] =   2.99661
     eigenvalues:
       0.236  0.279  0.292  0.307  0.383
     eigenvectors (columns):
       0.109  0.781 -0.578 -0.211  0.022
       0.183  0.583  0.784  0.103 -0.030
       0.976 -0.192 -0.090  0.043  0.013
      -0.010  0.003  0.037  0.009  0.999
      -0.039  0.116 -0.206  0.971 -0.002
     occupation matrix ns (before diag.):
       0.284 -0.008 -0.004  0.002 -0.004
      -0.008  0.286 -0.008 -0.003  0.001
      -0.004 -0.008  0.239  0.002  0.003
       0.002 -0.003  0.002  0.383 -0.000
      -0.004  0.001  0.003 -0.000  0.306
     ------------------------ ATOM  137 ------------------------
     Tr[ns(137)] =   3.21630
     eigenvalues:
       0.242  0.288  0.349  0.350  0.379
     eigenvectors (columns):
      -0.066 -0.039  0.128  0.141  0.979
      -0.011  0.018  0.747 -0.664 -0.002
      -0.997  0.008  0.002  0.018 -0.070
      -0.028  0.014 -0.652 -0.733  0.190
       0.006  0.999  0.001  0.028  0.036
     occupation matrix ns (before diag.):
       0.377 -0.000 -0.009  0.005  0.003
      -0.000  0.349 -0.001  0.000 -0.001
      -0.009 -0.001  0.243 -0.003  0.000
       0.005  0.000 -0.003  0.350 -0.001
       0.003 -0.001  0.000 -0.001  0.289
     ------------------------ ATOM  138 ------------------------
     Tr[ns(138)] =   3.03331
     eigenvalues:
       0.258  0.267  0.298  0.305  0.388
     eigenvectors (columns):
       0.006 -0.153 -0.823 -0.546 -0.014
       0.837  0.416  0.145 -0.325 -0.013
      -0.152 -0.433  0.545 -0.702  0.002
      -0.016  0.003  0.012  0.008 -1.000
      -0.525  0.785  0.063 -0.321  0.009
     occupation matrix ns (before diag.):
       0.299  0.003  0.001  0.001  0.005
       0.003  0.266  0.012  0.002  0.008
       0.001  0.012  0.295 -0.000  0.009
       0.001  0.002 -0.000  0.388 -0.001
       0.005  0.008  0.009 -0.001  0.269
     ------------------------ ATOM  139 ------------------------
     Tr[ns(139)] =   3.01824
     eigenvalues:
       0.214  0.279  0.305  0.316  0.396
     eigenvectors (columns):
       0.093  0.031 -0.969 -0.215 -0.069
       0.012 -0.138 -0.220  0.965  0.033
       0.995  0.013  0.093  0.011 -0.005
      -0.011  0.013  0.059  0.049 -0.997
      -0.014  0.990 -0.002  0.141  0.020
     occupation matrix ns (before diag.):
       0.305 -0.002 -0.008  0.006 -0.001
      -0.002  0.315 -0.001 -0.002  0.005
      -0.008 -0.001  0.215  0.001  0.001
       0.006 -0.002  0.001  0.396 -0.002
      -0.001  0.005  0.001 -0.002  0.279
     ------------------------ ATOM  140 ------------------------
     Tr[ns(140)] =   3.20287
     eigenvalues:
       0.260  0.316  0.339  0.340  0.347
     eigenvectors (columns):
      -0.069  0.060 -0.076 -0.950 -0.288
       0.010  0.932 -0.283  0.136 -0.183
      -0.013 -0.324 -0.423  0.259 -0.806
      -0.008 -0.153 -0.857 -0.087  0.484
       0.997 -0.011 -0.014 -0.064 -0.024
     occupation matrix ns (before diag.):
       0.340 -0.001  0.002 -0.001  0.006
      -0.001  0.319  0.008  0.003 -0.001
       0.002  0.008  0.342 -0.005  0.001
      -0.001  0.003 -0.005  0.340  0.000
       0.006 -0.001  0.001  0.000  0.260

     Number of occupied Hubbard levels =  223.2407

     RESET ns to initial values (iter <= mixing_fixed_ns)


     negative rho (up, down):  7.101E-02 0.000E+00

     total cpu time spent up to now is      866.0 secs

     total energy              =  -10204.48401942 Ry
     estimated scf accuracy    <       0.25689404 Ry

     iteration #  2     ecut=    45.00 Ry     beta= 0.20
     Davidson diagonalization with overlap
     ethr =  2.03E-05,  avg # of iterations =  1.0

     RESET ns to initial values (iter <= mixing_fixed_ns)


     negative rho (up, down):  7.077E-02 0.000E+00

     total cpu time spent up to now is      986.3 secs

     total energy              =  -10204.46516372 Ry
     estimated scf accuracy    <       0.11921010 Ry

     iteration #  3     ecut=    45.00 Ry     beta= 0.20
     Davidson diagonalization with overlap
     ethr =  9.42E-06,  avg # of iterations =  2.0

     RESET ns to initial values (iter <= mixing_fixed_ns)


     negative rho (up, down):  7.095E-02 0.000E+00

     total cpu time spent up to now is     1122.0 secs

     total energy              =  -10204.46261962 Ry
     estimated scf accuracy    <       0.02075529 Ry

     iteration #  4     ecut=    45.00 Ry     beta= 0.20
     Davidson diagonalization with overlap
     c_bands:  1 eigenvalues not converged
     c_bands:  1 eigenvalues not converged
     ethr =  1.64E-06,  avg # of iterations = 17.5

     RESET ns to initial values (iter <= mixing_fixed_ns)


     negative rho (up, down):  7.085E-02 0.000E+00

     total cpu time spent up to now is     1294.8 secs

     total energy              =  -10204.46339215 Ry
     estimated scf accuracy    <       0.00434478 Ry

     iteration #  5     ecut=    45.00 Ry     beta= 0.20
     Davidson diagonalization with overlap
     c_bands:  3 eigenvalues not converged
     c_bands:  2 eigenvalues not converged
     ethr =  3.43E-07,  avg # of iterations = 19.4

     RESET ns to initial values (iter <= mixing_fixed_ns)


     negative rho (up, down):  7.070E-02 0.000E+00

     total cpu time spent up to now is     1482.0 secs

     total energy              =  -10204.46358900 Ry
     estimated scf accuracy    <       0.00125585 Ry

     iteration #  6     ecut=    45.00 Ry     beta= 0.20
     Davidson diagonalization with overlap
     ethr =  9.92E-08,  avg # of iterations =  2.3

     RESET ns to initial values (iter <= mixing_fixed_ns)


     negative rho (up, down):  7.056E-02 0.000E+00

     total cpu time spent up to now is     1620.9 secs

     total energy              =  -10204.46358095 Ry
     estimated scf accuracy    <       0.00055928 Ry

     iteration #  7     ecut=    45.00 Ry     beta= 0.20
     Davidson diagonalization with overlap
     ethr =  4.42E-08,  avg # of iterations =  4.8

     RESET ns to initial values (iter <= mixing_fixed_ns)


     negative rho (up, down):  7.045E-02 0.000E+00

     total cpu time spent up to now is     1764.5 secs

     total energy              =  -10204.46358872 Ry
     estimated scf accuracy    <       0.00026974 Ry

     iteration #  8     ecut=    45.00 Ry     beta= 0.20
     Davidson diagonalization with overlap
     ethr =  2.13E-08,  avg # of iterations =  5.1

     RESET ns to initial values (iter <= mixing_fixed_ns)


     negative rho (up, down):  7.031E-02 0.000E+00

     total cpu time spent up to now is     1908.4 secs

     total energy              =  -10204.46357476 Ry
     estimated scf accuracy    <       0.00012929 Ry

     iteration #  9     ecut=    45.00 Ry     beta= 0.20
     Davidson diagonalization with overlap
     ethr =  1.02E-08,  avg # of iterations =  5.2

     RESET ns to initial values (iter <= mixing_fixed_ns)


     negative rho (up, down):  7.030E-02 0.000E+00

     total cpu time spent up to now is     2060.3 secs

     total energy              =  -10204.46358822 Ry
     estimated scf accuracy    <       0.00003843 Ry

     iteration # 10     ecut=    45.00 Ry     beta= 0.20
     Davidson diagonalization with overlap
     ethr =  3.04E-09,  avg # of iterations =  5.7

     RESET ns to initial values (iter <= mixing_fixed_ns)


     negative rho (up, down):  7.034E-02 0.000E+00

     total cpu time spent up to now is     2207.4 secs

     total energy              =  -10204.46358823 Ry
     estimated scf accuracy    <       0.00002206 Ry

     iteration # 11     ecut=    45.00 Ry     beta= 0.20
     Davidson diagonalization with overlap
     ethr =  1.74E-09,  avg # of iterations =  5.3

     RESET ns to initial values (iter <= mixing_fixed_ns)


     negative rho (up, down):  7.037E-02 0.000E+00

     total cpu time spent up to now is     2355.9 secs

     total energy              =  -10204.46359039 Ry
     estimated scf accuracy    <       0.00000613 Ry

     iteration # 12     ecut=    45.00 Ry     beta= 0.20
     Davidson diagonalization with overlap
     ethr =  4.84E-10,  avg # of iterations =  5.2

     RESET ns to initial values (iter <= mixing_fixed_ns)


     negative rho (up, down):  7.051E-02 0.000E+00

     total cpu time spent up to now is     2500.5 secs

     total energy              =  -10204.46359035 Ry
     estimated scf accuracy    <       0.00000415 Ry

     iteration # 13     ecut=    45.00 Ry     beta= 0.20
     Davidson diagonalization with overlap
     ethr =  3.28E-10,  avg # of iterations =  5.3

     RESET ns to initial values (iter <= mixing_fixed_ns)


     negative rho (up, down):  7.057E-02 0.000E+00

     total cpu time spent up to now is     2652.4 secs

     total energy              =  -10204.46359066 Ry
     estimated scf accuracy    <       0.00000123 Ry

     iteration # 14     ecut=    45.00 Ry     beta= 0.20
     Davidson diagonalization with overlap
     ethr =  9.70E-11,  avg # of iterations =  6.0

     RESET ns to initial values (iter <= mixing_fixed_ns)


     negative rho (up, down):  7.124E-02 0.000E+00

     total cpu time spent up to now is     2802.2 secs

     End of self-consistent calculation

     =================== HUBBARD OCCUPATIONS ===================
     ------------------------ ATOM    1 ------------------------
     Tr[ns(  1)] =   3.02258
     eigenvalues:
       0.262  0.280  0.290  0.300  0.380
     eigenvectors (columns):
      -0.991 -0.053 -0.081 -0.096 -0.004
       0.028  0.321 -0.899  0.298  0.005
       0.114  0.032 -0.299 -0.946 -0.029
      -0.001 -0.000 -0.004 -0.030  1.000
      -0.069  0.945  0.311 -0.074 -0.001
     occupation matrix ns (before diag.):
       0.263  0.001  0.004 -0.000 -0.001
       0.001  0.290 -0.003  0.000 -0.003
       0.004 -0.003  0.298 -0.002  0.001
      -0.000  0.000 -0.002  0.379 -0.000
      -0.001 -0.003  0.001 -0.000  0.281
     ------------------------ ATOM    2 ------------------------
     Tr[ns(  2)] =   3.18097
     eigenvalues:
       0.235  0.292  0.345  0.350  0.368
     eigenvectors (columns):
      -0.012  0.010  0.129 -0.368 -0.921
       0.001  0.003  0.608  0.763 -0.219
       1.000 -0.010  0.012 -0.013 -0.007
       0.014  0.001 -0.783  0.531 -0.322
       0.010  1.000 -0.003  0.001  0.010
     occupation matrix ns (before diag.):
       0.365  0.003  0.002  0.006 -0.001
       0.003  0.349 -0.000  0.004 -0.000
       0.002 -0.000  0.235 -0.002 -0.001
       0.006  0.004 -0.002  0.349 -0.000
      -0.001 -0.000 -0.001 -0.000  0.292
     ------------------------ ATOM    3 ------------------------
     Tr[ns(  3)] =   3.18918
     eigenvalues:
       0.239  0.287  0.345  0.358  0.366
     eigenvectors (columns):
       0.004  0.004 -0.310  0.199 -0.930
       1.000 -0.000  0.018  0.004 -0.001
       0.005 -0.012 -0.099 -0.979 -0.176
       0.017  0.000 -0.945  0.038  0.323
       0.000  1.000  0.000 -0.012  0.002
     occupation matrix ns (before diag.):
       0.364 -0.000  0.001 -0.006 -0.000
      -0.000  0.239 -0.001 -0.002 -0.000
       0.001 -0.001  0.358 -0.002  0.001
      -0.006 -0.002 -0.002  0.347  0.000
      -0.000 -0.000  0.001  0.000  0.287
     ------------------------ ATOM    4 ------------------------
     Tr[ns(  4)] =   2.98783
     eigenvalues:
       0.224  0.264  0.305  0.316  0.385
     eigenvectors (columns):
       0.074  0.531  0.840 -0.071 -0.038
       0.056 -0.847  0.521 -0.075 -0.049
      -0.994 -0.007  0.086 -0.071  0.010
      -0.016  0.021 -0.057  0.003 -0.998
      -0.061 -0.027  0.106  0.992 -0.002
     occupation matrix ns (before diag.):
       0.293  0.019  0.006  0.003  0.000
       0.019  0.276  0.004  0.005 -0.001
       0.006  0.004  0.225 -0.002 -0.006
       0.003  0.005 -0.002  0.385  0.000
       0.000 -0.001 -0.006  0.000  0.315
     ------------------------ ATOM    9 ------------------------
     Tr[ns(  9)] =   3.20057
     eigenvalues:
       0.269  0.272  0.335  0.356  0.368
     eigenvectors (columns):
      -0.000 -0.000  0.030 -0.203  0.979
       0.109 -0.994  0.011 -0.021 -0.005
      -0.993 -0.109 -0.032 -0.009 -0.001
       0.033 -0.007 -0.999 -0.031  0.024
      -0.006 -0.023 -0.026  0.978  0.204
     occupation matrix ns (before diag.):
       0.368 -0.000 -0.000  0.001  0.002
      -0.000  0.272  0.000 -0.001 -0.002
      -0.000  0.000  0.269  0.002 -0.001
       0.001 -0.001  0.002  0.335 -0.000
       0.002 -0.002 -0.001 -0.000  0.356
     ------------------------ ATOM   10 ------------------------
     Tr[ns( 10)] =   3.01697
     eigenvalues:
       0.191  0.208  0.242  0.368  0.499
     eigenvectors (columns):
       0.144 -0.192 -0.959 -0.150 -0.034
       0.978  0.174  0.113 -0.008  0.010
      -0.006 -0.005 -0.032 -0.022  0.999
       0.029 -0.028 -0.145  0.988  0.017
      -0.147  0.965 -0.215  0.000 -0.003
     occupation matrix ns (before diag.):
       0.243 -0.006 -0.008 -0.019  0.008
      -0.006  0.192  0.003 -0.002  0.002
      -0.008  0.003  0.499  0.002 -0.001
      -0.019 -0.002  0.002  0.365  0.001
       0.008  0.002 -0.001  0.001  0.209
     ------------------------ ATOM   11 ------------------------
     Tr[ns( 11)] =   3.02885
     eigenvalues:
       0.179  0.218  0.232  0.366  0.520
     eigenvectors (columns):
      -0.029 -0.011  0.986 -0.157  0.049
      -0.002  0.023 -0.046  0.027  0.998
      -0.997 -0.072 -0.030  0.003 -0.001
       0.003 -0.019 -0.158 -0.987  0.020
      -0.072  0.997  0.007 -0.021 -0.022
     occupation matrix ns (before diag.):
       0.236  0.014 -0.002  0.021  0.000
       0.014  0.519 -0.000  0.002 -0.007
      -0.002 -0.000  0.180 -0.000 -0.003
       0.021  0.002 -0.000  0.362  0.003
       0.000 -0.007 -0.003  0.003  0.218
     ------------------------ ATOM   12 ------------------------
     Tr[ns( 12)] =   3.19077
     eigenvalues:
       0.253  0.261  0.320  0.347  0.414
     eigenvectors (columns):
       0.030 -0.037  0.927  0.373 -0.013
       0.978  0.188 -0.049  0.064  0.040
      -0.037 -0.044 -0.010  0.059  0.997
       0.077 -0.001  0.370 -0.924  0.061
      -0.188  0.981  0.044  0.004  0.036
     occupation matrix ns (before diag.):
       0.324 -0.001 -0.001 -0.010  0.002
      -0.001  0.255  0.007 -0.006  0.001
      -0.001  0.007  0.413  0.004  0.005
      -0.010 -0.006  0.004  0.343  0.001
       0.002  0.001  0.005  0.001  0.261
     ------------------------ ATOM   17 ------------------------
     Tr[ns( 17)] =   3.00996
     eigenvalues:
       0.263  0.270  0.292  0.297  0.383
     eigenvectors (columns):
       0.274  0.922 -0.270  0.036 -0.011
      -0.924  0.328  0.189  0.054  0.007
       0.266  0.194  0.940  0.078  0.052
      -0.004 -0.002 -0.053 -0.005  0.999
       0.020 -0.067 -0.075  0.995  0.000
     occupation matrix ns (before diag.):
       0.271  0.001 -0.006 -0.001  0.001
       0.001  0.265  0.006  0.001  0.001
      -0.006  0.006  0.290  0.005  0.000
      -0.001  0.001  0.005  0.382  0.000
       0.001  0.001  0.000  0.000  0.297
     ------------------------ ATOM   18 ------------------------
     Tr[ns( 18)] =   3.18846
     eigenvalues:
       0.270  0.289  0.330  0.345  0.360
     eigenvectors (columns):
      -0.063 -0.012 -0.031 -0.219  0.973
       0.069 -0.090 -0.991 -0.050 -0.039
      -0.995 -0.024 -0.066  0.026 -0.061
       0.016 -0.003 -0.056  0.974  0.218
      -0.018  0.996 -0.092 -0.004  0.008
     occupation matrix ns (before diag.):
       0.359 -0.001 -0.006  0.003  0.001
      -0.001  0.329  0.004 -0.001  0.004
      -0.006  0.004  0.270  0.001 -0.000
       0.003 -0.001  0.001  0.346  0.000
       0.001  0.004 -0.000  0.000  0.289
     ------------------------ ATOM   19 ------------------------
     Tr[ns( 19)] =   3.20370
     eigenvalues:
       0.291  0.299  0.313  0.342  0.357
     eigenvectors (columns):
       0.026 -0.046  0.021  0.007 -0.998
       0.377 -0.923  0.056  0.005  0.054
      -0.083 -0.094 -0.988  0.092 -0.018
       0.002 -0.011 -0.092 -0.996 -0.008
       0.922  0.370 -0.112  0.008  0.005
     occupation matrix ns (before diag.):
       0.357 -0.003  0.001  0.000 -0.001
      -0.003  0.298 -0.001 -0.000 -0.003
       0.001 -0.001  0.313 -0.003  0.002
       0.000 -0.000 -0.003  0.342 -0.000
      -0.001 -0.003  0.002 -0.000  0.292
     ------------------------ ATOM   20 ------------------------
     Tr[ns( 20)] =   3.00389
     eigenvalues:
       0.265  0.271  0.283  0.301  0.381
     eigenvectors (columns):
       0.074  0.681  0.727  0.041 -0.018
      -0.271  0.711 -0.643  0.087 -0.011
      -0.955 -0.137  0.233 -0.119  0.017
      -0.015 -0.023 -0.002 -0.006 -1.000
       0.095  0.108 -0.055 -0.988  0.002
     occupation matrix ns (before diag.):
       0.277 -0.006  0.002  0.002 -0.002
      -0.006  0.276 -0.004  0.001 -0.002
       0.002 -0.004  0.267 -0.002  0.004
       0.002  0.001 -0.002  0.381 -0.000
      -0.002 -0.002  0.004 -0.000  0.301
     ------------------------ ATOM   25 ------------------------
     Tr[ns( 25)] =   3.19691
     eigenvalues:
       0.280  0.298  0.311  0.346  0.364
     eigenvectors (columns):
       0.018  0.030  0.007  0.005 -0.999
      -0.198  0.136  0.969  0.052  0.008
      -0.173 -0.970  0.094  0.136 -0.031
      -0.038 -0.126  0.063 -0.989 -0.009
       0.964 -0.152  0.218 -0.004  0.014
     occupation matrix ns (before diag.):
       0.364 -0.000  0.002  0.000 -0.001
      -0.000  0.310  0.001 -0.002  0.006
       0.002  0.001  0.299 -0.006  0.003
       0.000 -0.002 -0.006  0.345  0.001
      -0.001  0.006  0.003  0.001  0.282
     ------------------------ ATOM   26 ------------------------
     Tr[ns( 26)] =   3.03874
     eigenvalues:
       0.215  0.269  0.296  0.336  0.404
     eigenvectors (columns):
       0.001  0.185 -0.497 -0.841  0.103
      -0.991 -0.119 -0.058  0.004 -0.022
      -0.076  0.194  0.861 -0.463  0.025
       0.023 -0.004 -0.026 -0.107 -0.994
      -0.108  0.956 -0.086  0.257 -0.031
     occupation matrix ns (before diag.):
       0.324  0.000  0.015 -0.007 -0.014
       0.000  0.216 -0.006  0.004 -0.006
       0.015 -0.006  0.303 -0.001 -0.010
      -0.007  0.004 -0.001  0.403  0.003
      -0.014 -0.006 -0.010  0.003  0.273
     ------------------------ ATOM   27 ------------------------
     Tr[ns( 27)] =   3.03198
     eigenvalues:
       0.225  0.278  0.295  0.318  0.400
     eigenvectors (columns):
       0.024  0.269 -0.214 -0.936  0.076
       0.999 -0.030  0.027  0.010 -0.008
       0.026  0.962  0.012  0.272 -0.027
      -0.007 -0.005 -0.015 -0.079 -0.997
      -0.023  0.047  0.976 -0.210  0.002
     occupation matrix ns (before diag.):
       0.315 -0.002 -0.011 -0.006  0.005
      -0.002  0.225 -0.001  0.001  0.002
      -0.011 -0.001  0.281  0.002 -0.002
      -0.006  0.001  0.002  0.400  0.000
       0.005  0.002 -0.002  0.000  0.296
     ------------------------ ATOM   28 ------------------------
     Tr[ns( 28)] =   3.20039
     eigenvalues:
       0.253  0.293  0.317  0.346  0.392
     eigenvectors (columns):
      -0.043 -0.011 -0.019  0.064 -0.997
       0.997  0.033 -0.028 -0.046 -0.046
      -0.035  0.242 -0.969 -0.013  0.016
       0.048  0.025 -0.008  0.997  0.062
      -0.027  0.969  0.243 -0.020 -0.015
     occupation matrix ns (before diag.):
       0.391  0.006 -0.001 -0.003  0.001
       0.006  0.253  0.002 -0.005  0.001
      -0.001  0.002  0.316 -0.000 -0.006
      -0.003 -0.005 -0.000  0.346 -0.001
       0.001  0.001 -0.006 -0.001  0.294
     ------------------------ ATOM   33 ------------------------
     Tr[ns( 33)] =   3.00175
     eigenvalues:
       0.258  0.271  0.280  0.308  0.384
     eigenvectors (columns):
       0.071 -0.127  0.989 -0.014  0.004
      -0.050 -0.987 -0.124 -0.090  0.018
      -0.996  0.041  0.077 -0.003 -0.015
      -0.014  0.019 -0.000  0.003  1.000
       0.007  0.091 -0.003 -0.996  0.001
     occupation matrix ns (before diag.):
       0.280 -0.001  0.002  0.000  0.001
      -0.001  0.271 -0.001  0.002  0.003
       0.002 -0.001  0.258 -0.002  0.000
       0.000  0.002 -0.002  0.384  0.000
       0.001  0.003  0.000  0.000  0.308
     ------------------------ ATOM   34 ------------------------
     Tr[ns( 34)] =   3.19380
     eigenvalues:
       0.285  0.292  0.321  0.345  0.355
     eigenvectors (columns):
       0.010  0.059 -0.007 -0.164 -0.985
       0.113 -0.075 -0.991  0.001  0.004
      -0.136 -0.987  0.058 -0.008 -0.059
      -0.001  0.002  0.001  0.986 -0.165
       0.984 -0.129  0.122  0.002  0.001
     occupation matrix ns (before diag.):
       0.354 -0.000  0.004  0.002 -0.000
      -0.000  0.320 -0.002  0.000 -0.004
       0.004 -0.002  0.292  0.000  0.001
       0.002  0.000  0.000  0.345  0.000
      -0.000 -0.004  0.001  0.000  0.285
     ------------------------ ATOM   35 ------------------------
     Tr[ns( 35)] =   3.18733
     eigenvalues:
       0.261  0.289  0.334  0.347  0.362
     eigenvectors (columns):
       0.013 -0.010 -0.010 -0.325  0.946
      -0.997  0.079 -0.010 -0.023  0.007
       0.015 -0.004 -0.944 -0.309 -0.116
       0.015 -0.005  0.331 -0.893 -0.304
       0.079  0.997 -0.002 -0.007  0.007
     occupation matrix ns (before diag.):
       0.361  0.001 -0.002 -0.004  0.001
       0.001  0.261  0.001  0.001  0.002
      -0.002  0.001  0.336  0.005  0.000
      -0.004  0.001  0.005  0.347  0.000
       0.001  0.002  0.000  0.000  0.289
     ------------------------ ATOM   36 ------------------------
     Tr[ns( 36)] =   2.98945
     eigenvalues:
       0.233  0.269  0.293  0.314  0.385
     eigenvectors (columns):
      -0.135  0.171 -0.967 -0.132  0.017
       0.117 -0.975 -0.180 -0.063  0.010
      -0.984 -0.139  0.109  0.023  0.025
       0.026  0.011  0.015  0.004  0.999
      -0.013  0.036  0.143 -0.989  0.002
     occupation matrix ns (before diag.):
       0.292  0.005 -0.007  0.002  0.003
       0.005  0.270  0.004  0.001  0.002
      -0.007  0.004  0.235  0.004 -0.001
       0.002  0.001  0.004  0.385  0.000
       0.003  0.002 -0.001  0.000  0.314
     ------------------------ ATOM   41 ------------------------
     Tr[ns( 41)] =   3.19965
     eigenvalues:
       0.254  0.299  0.341  0.349  0.357
     eigenvectors (columns):
      -0.005 -0.009 -0.230 -0.820 -0.524
       0.008 -0.998  0.047  0.017 -0.031
      -0.010 -0.022  0.250 -0.570  0.782
       0.001 -0.054 -0.939  0.050  0.335
       1.000  0.007  0.002 -0.010  0.005
     occupation matrix ns (before diag.):
       0.351 -0.000 -0.003 -0.003  0.001
      -0.000  0.299 -0.001 -0.002 -0.000
      -0.003 -0.001  0.354  0.004  0.001
      -0.003 -0.002  0.004  0.343 -0.000
       0.001 -0.000  0.001 -0.000  0.254
     ------------------------ ATOM   42 ------------------------
     Tr[ns( 42)] =   3.01334
     eigenvalues:
       0.222  0.262  0.304  0.329  0.389
     eigenvectors (columns):
       0.066  0.058 -0.947  0.308  0.016
      -0.970 -0.160 -0.019  0.179  0.024
      -0.204  0.940 -0.045 -0.271 -0.004
       0.020  0.005  0.013 -0.017  1.000
       0.110  0.297  0.317  0.894  0.008
     occupation matrix ns (before diag.):
       0.306  0.007 -0.003  0.001  0.006
       0.007  0.227 -0.011  0.004  0.015
      -0.003 -0.011  0.266 -0.000 -0.016
       0.001  0.004 -0.000  0.389  0.000
       0.006  0.015 -0.016  0.000  0.319
     ------------------------ ATOM   43 ------------------------
     Tr[ns( 43)] =   3.03149
     eigenvalues:
       0.219  0.242  0.279  0.378  0.397
     eigenvectors (columns):
      -0.175 -0.007  0.978  0.079 -0.077
      -0.024  0.036  0.067  0.090  0.993
       0.980  0.091  0.178 -0.014  0.010
       0.029  0.001 -0.081  0.993 -0.084
      -0.090  0.995 -0.012 -0.003 -0.037
     occupation matrix ns (before diag.):
       0.279 -0.009  0.010  0.009 -0.000
      -0.009  0.396  0.002 -0.001 -0.006
       0.010  0.002  0.221 -0.003  0.002
       0.009 -0.001 -0.003  0.377  0.000
      -0.000 -0.006  0.002  0.000  0.242
     ------------------------ ATOM   44 ------------------------
     Tr[ns( 44)] =   3.20257
     eigenvalues:
       0.246  0.284  0.324  0.342  0.405
     eigenvectors (columns):
       0.032  0.085  0.938  0.335 -0.018
       0.028 -0.024 -0.010 -0.023 -0.999
       0.061 -0.985  0.124 -0.102  0.027
       0.008 -0.137 -0.323  0.936 -0.015
       0.997  0.059 -0.035 -0.011  0.027
     occupation matrix ns (before diag.):
       0.326  0.001  0.002  0.006 -0.003
       0.001  0.405 -0.003  0.001 -0.004
       0.002 -0.003  0.286 -0.007 -0.002
       0.006  0.001 -0.007  0.339 -0.001
      -0.003 -0.004 -0.002 -0.001  0.246
     ------------------------ ATOM   49 ------------------------
     Tr[ns( 49)] =   3.01254
     eigenvalues:
       0.245  0.267  0.289  0.324  0.381
     eigenvectors (columns):
      -0.132  0.991  0.008  0.022  0.023
      -0.990 -0.131  0.001 -0.049  0.019
       0.046  0.028 -0.049 -0.997  0.029
      -0.020  0.021 -0.002 -0.029 -0.999
      -0.004  0.006 -0.999  0.049  0.001
     occupation matrix ns (before diag.):
       0.267 -0.003 -0.001 -0.003 -0.000
      -0.003  0.245  0.004 -0.003 -0.000
      -0.001  0.004  0.323 -0.002 -0.002
      -0.003 -0.003 -0.002  0.381 -0.000
      -0.000 -0.000 -0.002 -0.000  0.289
     ------------------------ ATOM   50 ------------------------
     Tr[ns( 50)] =   3.19697
     eigenvalues:
       0.272  0.299  0.320  0.345  0.362
     eigenvectors (columns):
      -0.028 -0.022 -0.022 -0.084  0.996
       0.062 -0.219 -0.973  0.010 -0.023
      -0.996 -0.035 -0.055  0.062 -0.025
       0.059  0.001  0.012  0.994  0.086
      -0.023  0.975 -0.221  0.001  0.016
     occupation matrix ns (before diag.):
       0.362 -0.001 -0.003  0.002  0.001
      -0.001  0.319  0.003 -0.000  0.005
      -0.003  0.003  0.272  0.004 -0.000
       0.002 -0.000  0.004  0.345  0.000
       0.001  0.005 -0.000  0.000  0.300
     ------------------------ ATOM   51 ------------------------
     Tr[ns( 51)] =   3.19376
     eigenvalues:
       0.275  0.295  0.329  0.344  0.353
     eigenvectors (columns):
       0.001  0.025  0.167 -0.307 -0.937
       0.189 -0.979 -0.045  0.041 -0.047
      -0.042  0.049 -0.976  0.067 -0.195
       0.008 -0.046 -0.125 -0.948  0.288
       0.981  0.191 -0.032  0.003 -0.000
     occupation matrix ns (before diag.):
       0.352  0.002  0.004 -0.002 -0.000
       0.002  0.295  0.002 -0.003 -0.004
       0.004  0.002  0.330 -0.002  0.002
      -0.002 -0.003 -0.002  0.345 -0.000
      -0.000 -0.004  0.002 -0.000  0.276
     ------------------------ ATOM   52 ------------------------
     Tr[ns( 52)] =   3.00784
     eigenvalues:
       0.236  0.274  0.292  0.322  0.380
     eigenvectors (columns):
       0.025 -0.996 -0.054 -0.068  0.021
      -0.034  0.068 -0.019 -0.996 -0.036
      -0.999 -0.027 -0.023  0.034 -0.021
      -0.023  0.023  0.001 -0.034  0.999
      -0.022 -0.053  0.998 -0.022 -0.001
     occupation matrix ns (before diag.):
       0.274  0.003  0.001  0.002 -0.001
       0.003  0.322 -0.003 -0.002  0.001
       0.001 -0.003  0.236 -0.003 -0.001
       0.002 -0.002 -0.003  0.380 -0.000
      -0.001  0.001 -0.001 -0.000  0.292
     ------------------------ ATOM   57 ------------------------
     Tr[ns( 57)] =   3.18046
     eigenvalues:
       0.246  0.307  0.325  0.347  0.366
     eigenvectors (columns):
      -0.049 -0.014 -0.027  0.179  0.982
      -0.017  0.007  0.979 -0.195  0.061
       0.992  0.115  0.011 -0.012  0.053
      -0.010 -0.072 -0.202 -0.962  0.168
      -0.117  0.991 -0.023 -0.065  0.020
     occupation matrix ns (before diag.):
       0.365  0.002  0.006  0.003  0.000
       0.002  0.326  0.002  0.004  0.000
       0.006  0.002  0.247  0.002  0.007
       0.003  0.004  0.002  0.346  0.003
       0.000  0.000  0.007  0.003  0.306
     ------------------------ ATOM   58 ------------------------
     Tr[ns( 58)] =   3.04489
     eigenvalues:
       0.251  0.267  0.288  0.318  0.399
     eigenvectors (columns):
       0.034  0.363  0.397 -0.841  0.040
       0.696 -0.389  0.587  0.138  0.017
       0.222 -0.617 -0.549 -0.518 -0.020
       0.013 -0.003 -0.051  0.023  0.998
       0.682  0.580 -0.440  0.069 -0.031
     occupation matrix ns (before diag.):
       0.306 -0.001  0.017  0.004 -0.007
      -0.001  0.268 -0.013  0.002 -0.012
       0.017 -0.013  0.286 -0.003  0.001
       0.004  0.002 -0.003  0.399 -0.004
      -0.007 -0.012  0.001 -0.004  0.264
     ------------------------ ATOM   59 ------------------------
     Tr[ns( 59)] =   2.91608
     eigenvalues:
       0.138  0.167  0.352  0.368  0.433
     eigenvectors (columns):
       0.193 -0.436  0.019 -0.762  0.439
      -0.315 -0.873  0.071  0.335 -0.149
       0.923 -0.208 -0.067  0.305 -0.081
       0.085  0.053  0.993 -0.016 -0.055
       0.059 -0.053 -0.058 -0.463 -0.881
     occupation matrix ns (before diag.):
       0.334 -0.067 -0.062 -0.001 -0.032
      -0.067  0.193  0.031  0.015  0.004
      -0.062  0.031  0.163 -0.014 -0.010
      -0.001  0.015 -0.014  0.350  0.003
      -0.032  0.004 -0.010  0.003  0.417
     ------------------------ ATOM   60 ------------------------
     Tr[ns( 60)] =   3.19418
     eigenvalues:
       0.252  0.269  0.312  0.351  0.414
     eigenvectors (columns):
      -0.090 -0.026  0.015 -0.000  0.995
      -0.865  0.484  0.105 -0.053 -0.067
       0.482  0.871 -0.031 -0.063  0.067
       0.014 -0.080 -0.023 -0.996 -0.001
      -0.108  0.026 -0.994  0.019  0.006
     occupation matrix ns (before diag.):
       0.412 -0.011  0.010 -0.000  0.000
      -0.011  0.257  0.007  0.004 -0.006
       0.010  0.007  0.266  0.005  0.002
      -0.000  0.004  0.005  0.350 -0.001
       0.000 -0.006  0.002 -0.001  0.311
     ------------------------ ATOM   65 ------------------------
     Tr[ns( 65)] =   3.00679
     eigenvalues:
       0.246  0.283  0.291  0.300  0.383
     eigenvectors (columns):
       0.266  0.938 -0.122  0.183 -0.019
       0.962 -0.257 -0.015 -0.092  0.003
      -0.040 -0.142 -0.980  0.135  0.018
       0.003  0.021  0.015  0.001  1.000
       0.047 -0.182  0.158  0.969  0.000
     occupation matrix ns (before diag.):
       0.281 -0.010  0.002 -0.002  0.002
      -0.010  0.249  0.001  0.000 -0.003
       0.002  0.001  0.291  0.002  0.001
      -0.002  0.000  0.002  0.383  0.000
       0.002 -0.003  0.001  0.000  0.299
     ------------------------ ATOM   66 ------------------------
     Tr[ns( 66)] =   3.20362
     eigenvalues:
       0.274  0.308  0.321  0.344  0.355
     eigenvectors (columns):
      -0.000  0.029 -0.206  0.005 -0.978
       0.039 -0.252 -0.947 -0.026  0.192
      -0.077  0.964 -0.243  0.001  0.080
      -0.000  0.008  0.023 -1.000 -0.010
       0.996  0.084  0.018  0.001 -0.002
     occupation matrix ns (before diag.):
       0.354 -0.006 -0.003  0.000  0.000
      -0.006  0.321  0.004  0.001 -0.002
      -0.003  0.004  0.309 -0.000  0.003
       0.000  0.001 -0.000  0.344 -0.000
       0.000 -0.002  0.003 -0.000  0.274
     ------------------------ ATOM   67 ------------------------
     Tr[ns( 67)] =   3.20849
     eigenvalues:
       0.280  0.304  0.314  0.343  0.363
     eigenvectors (columns):
      -0.011 -0.069 -0.010 -0.011  0.997
       0.007 -0.907  0.414  0.046 -0.058
      -0.006  0.413  0.910  0.003  0.038
       0.001 -0.040  0.022 -0.999 -0.013
       1.000  0.008  0.002  0.000  0.012
     occupation matrix ns (before diag.):
       0.363 -0.003  0.002 -0.000  0.001
      -0.003  0.306  0.004 -0.002 -0.000
       0.002  0.004  0.313  0.000  0.000
      -0.000 -0.002  0.000  0.342 -0.000
       0.001 -0.000  0.000 -0.000  0.280
     ------------------------ ATOM   68 ------------------------
     Tr[ns( 68)] =   3.00178
     eigenvalues:
       0.239  0.281  0.294  0.304  0.382
     eigenvectors (columns):
       0.229  0.902  0.345 -0.123 -0.022
       0.030  0.366 -0.822  0.435  0.006
       0.972 -0.226 -0.046  0.034 -0.020
      -0.024 -0.013 -0.010  0.007 -1.000
      -0.020 -0.045  0.451  0.891  0.002
     occupation matrix ns (before diag.):
       0.281 -0.005 -0.010  0.002 -0.000
      -0.005  0.294 -0.000 -0.000  0.004
      -0.010 -0.000  0.242  0.003  0.001
       0.002 -0.000  0.003  0.382 -0.000
      -0.000  0.004  0.001 -0.000  0.302
     ------------------------ ATOM   73 ------------------------
     Tr[ns( 73)] =   3.17920
     eigenvalues:
       0.233  0.267  0.317  0.354  0.418
     eigenvectors (columns):
       0.042  0.059  0.007  0.023 -0.997
      -0.083 -0.994  0.020  0.035 -0.061
       0.996 -0.086 -0.003  0.006  0.037
       0.005 -0.033  0.035 -0.999 -0.025
       0.005  0.020  0.999  0.034  0.009
     occupation matrix ns (before diag.):
       0.417  0.009 -0.007  0.002 -0.001
       0.009  0.268  0.002 -0.003  0.001
      -0.007  0.002  0.234 -0.001 -0.000
       0.002 -0.003 -0.001  0.354 -0.001
      -0.001  0.001 -0.000 -0.001  0.317
     ------------------------ ATOM   74 ------------------------
     Tr[ns( 74)] =   2.95561
     eigenvalues:
       0.151  0.175  0.341  0.375  0.436
     eigenvectors (columns):
       0.094 -0.427 -0.014 -0.773  0.460
      -0.821  0.476  0.046 -0.261  0.172
       0.558  0.767 -0.044 -0.301  0.092
      -0.062 -0.005 -0.998  0.024  0.020
      -0.055 -0.050 -0.026 -0.493 -0.866
     occupation matrix ns (before diag.):
       0.349  0.063  0.056  0.001 -0.027
       0.063  0.180  0.031 -0.009 -0.014
       0.056  0.031  0.188  0.007  0.010
       0.001 -0.009  0.007  0.341 -0.003
      -0.027 -0.014  0.010 -0.003  0.419
     ------------------------ ATOM   75 ------------------------
     Tr[ns( 75)] =   2.96375
     eigenvalues:
       0.178  0.187  0.301  0.379  0.435
     eigenvectors (columns):
       0.007  0.214  0.013 -0.055 -0.975
      -0.106 -0.971 -0.026 -0.014 -0.214
      -0.994  0.104  0.016  0.034  0.014
       0.033 -0.005 -0.027  0.997 -0.057
      -0.013  0.030 -0.999 -0.027 -0.005
     occupation matrix ns (before diag.):
       0.424  0.052 -0.004  0.003  0.000
       0.052  0.198 -0.002  0.000  0.003
      -0.004 -0.002  0.179  0.007 -0.002
       0.003  0.000  0.007  0.379 -0.002
       0.000  0.003 -0.002 -0.002  0.301
     ------------------------ ATOM   76 ------------------------
     Tr[ns( 76)] =   3.16701
     eigenvalues:
       0.219  0.268  0.348  0.359  0.390
     eigenvectors (columns):
       0.021  0.009  0.013  0.029 -0.999
      -0.998  0.054 -0.009 -0.013 -0.021
       0.054  0.997 -0.054 -0.008  0.009
      -0.007  0.054  0.998  0.032  0.014
      -0.013  0.007 -0.033  0.999  0.028
     occupation matrix ns (before diag.):
       0.389  0.003 -0.001 -0.001 -0.001
       0.003  0.219  0.003 -0.001 -0.002
      -0.001  0.003  0.268 -0.004 -0.001
      -0.001 -0.001 -0.004  0.348  0.000
      -0.001 -0.002 -0.001  0.000  0.359
     ------------------------ ATOM   81 ------------------------
     Tr[ns( 81)] =   3.00886
     eigenvalues:
       0.263  0.273  0.289  0.297  0.382
     eigenvectors (columns):
       0.295  0.944 -0.119 -0.085 -0.013
       0.953 -0.286  0.019  0.096 -0.008
       0.001 -0.144 -0.956 -0.256 -0.002
       0.011  0.010 -0.004 -0.000  1.000
      -0.069  0.074 -0.268  0.958 -0.000
     occupation matrix ns (before diag.):
       0.272 -0.003  0.002 -0.001 -0.001
      -0.003  0.264 -0.001 -0.001  0.003
       0.002 -0.001  0.289 -0.000 -0.002
      -0.001 -0.001 -0.000  0.382 -0.000
      -0.001  0.003 -0.002 -0.000  0.296
     ------------------------ ATOM   82 ------------------------
     Tr[ns( 82)] =   3.18989
     eigenvalues:
       0.277  0.293  0.319  0.347  0.359
     eigenvectors (columns):
      -0.003  0.004  0.053  0.149  0.987
      -0.033  0.089 -0.991 -0.073  0.063
      -0.993 -0.103  0.018  0.056 -0.012
      -0.055 -0.013  0.083 -0.985  0.144
      -0.101  0.991  0.092 -0.001 -0.009
     occupation matrix ns (before diag.):
       0.359  0.002 -0.000  0.002 -0.000
       0.002  0.319 -0.001  0.002 -0.002
      -0.000 -0.001  0.278 -0.004 -0.002
       0.002  0.002 -0.004  0.346  0.000
      -0.000 -0.002 -0.002  0.000  0.294
     ------------------------ ATOM   83 ------------------------
     Tr[ns( 83)] =   3.18543
     eigenvalues:
       0.275  0.292  0.319  0.346  0.361
     eigenvectors (columns):
      -0.028  0.013 -0.025 -0.249 -0.968
      -0.988  0.127  0.065  0.059  0.013
      -0.086 -0.153 -0.983 -0.041  0.036
      -0.050  0.009  0.053 -0.966  0.249
       0.115  0.980 -0.162 -0.002  0.014
     occupation matrix ns (before diag.):
       0.360 -0.002 -0.001 -0.004 -0.001
      -0.002  0.276 -0.003 -0.004  0.002
      -0.001 -0.003  0.318  0.001  0.004
      -0.004 -0.004  0.001  0.346  0.000
      -0.001  0.002  0.004  0.000  0.293
     ------------------------ ATOM   84 ------------------------
     Tr[ns( 84)] =   2.99621
     eigenvalues:
       0.208  0.277  0.302  0.329  0.382
     eigenvectors (columns):
      -0.024  0.995  0.042  0.081  0.042
      -0.000 -0.087  0.107  0.990  0.038
       1.000  0.025 -0.019  0.004 -0.001
       0.002 -0.039 -0.005 -0.041  0.998
       0.020 -0.032  0.993 -0.110 -0.001
     occupation matrix ns (before diag.):
       0.277  0.004  0.002  0.004  0.001
       0.004  0.329  0.000  0.002 -0.003
       0.002  0.000  0.208 -0.000 -0.002
       0.004  0.002 -0.000  0.382  0.000
       0.001 -0.003 -0.002  0.000  0.302
     ------------------------ ATOM   89 ------------------------
     Tr[ns( 89)] =   3.18410
     eigenvalues:
       0.246  0.300  0.309  0.350  0.387
     eigenvectors (columns):
      -0.046  0.016  0.048  0.079  0.994
      -0.045 -0.986 -0.159  0.013  0.021
      -0.998  0.042  0.017  0.021 -0.049
      -0.025 -0.014  0.023 -0.996  0.078
       0.013 -0.160  0.986  0.021 -0.046
     occupation matrix ns (before diag.):
       0.386  0.002 -0.007  0.003 -0.003
       0.002  0.300 -0.003 -0.001 -0.001
      -0.007 -0.003  0.247 -0.003  0.001
       0.003 -0.001 -0.003  0.350 -0.001
      -0.003 -0.001  0.001 -0.001  0.309
     ------------------------ ATOM   90 ------------------------
     Tr[ns( 90)] =   3.01639
     eigenvalues:
       0.239  0.270  0.286  0.325  0.388
     eigenvectors (columns):
       0.059 -0.053  0.913  0.396 -0.055
       0.842  0.536 -0.004 -0.049 -0.027
       0.028 -0.119  0.391 -0.908  0.089
       0.016  0.035  0.018  0.100  0.994
      -0.535  0.833  0.116 -0.078 -0.015
     occupation matrix ns (before diag.):
       0.292 -0.002 -0.015 -0.004  0.001
      -0.002  0.248  0.001 -0.004  0.014
      -0.015  0.001  0.319  0.005  0.005
      -0.004 -0.004  0.005  0.387 -0.002
       0.001  0.014  0.005 -0.002  0.262
     ------------------------ ATOM   91 ------------------------
     Tr[ns( 91)] =   3.02294
     eigenvalues:
       0.185  0.253  0.279  0.390  0.404
     eigenvectors (columns):
       0.023 -0.153  0.978 -0.081 -0.117
       0.001  0.004 -0.086  0.323 -0.942
      -0.998 -0.055  0.014 -0.007 -0.005
       0.006  0.025 -0.112 -0.943 -0.313
      -0.052  0.986  0.156  0.009 -0.007
     occupation matrix ns (before diag.):
       0.281  0.011  0.002  0.013  0.004
       0.011  0.402  0.000  0.003  0.001
       0.002  0.000  0.185  0.002 -0.003
       0.013  0.003  0.002  0.390 -0.001
       0.004  0.001 -0.003 -0.001  0.254
     ------------------------ ATOM   92 ------------------------
     Tr[ns( 92)] =   3.20865
     eigenvalues:
       0.244  0.289  0.329  0.343  0.398
     eigenvectors (columns):
       0.016  0.012  0.780  0.625 -0.033
      -0.055  0.996 -0.051  0.046 -0.000
      -0.011 -0.006 -0.028  0.088  0.996
       0.017  0.068  0.623 -0.774  0.086
       0.998  0.054 -0.026  0.007  0.010
     occupation matrix ns (before diag.):
       0.335 -0.000 -0.002 -0.007 -0.001
      -0.000  0.289  0.000 -0.003  0.003
      -0.002  0.000  0.398  0.005  0.002
      -0.007 -0.003  0.005  0.338 -0.002
      -0.001  0.003  0.002 -0.002  0.244
     ------------------------ ATOM   97 ------------------------
     Tr[ns( 97)] =   3.00757
     eigenvalues:
       0.249  0.272  0.299  0.302  0.383
     eigenvectors (columns):
       0.163 -0.979  0.120 -0.027 -0.012
      -0.977 -0.160  0.055  0.131  0.021
       0.134 -0.006 -0.003  0.991  0.010
       0.021 -0.008 -0.001 -0.013  1.000
       0.034  0.127  0.991 -0.001  0.002
     occupation matrix ns (before diag.):
       0.272  0.004 -0.001 -0.001  0.003
       0.004  0.251  0.007  0.003  0.002
      -0.001  0.007  0.301  0.001 -0.000
      -0.001  0.003  0.001  0.383  0.000
       0.003  0.002 -0.000  0.000  0.298
     ------------------------ ATOM   98 ------------------------
     Tr[ns( 98)] =   3.18868
     eigenvalues:
       0.254  0.290  0.338  0.347  0.364
     eigenvectors (columns):
      -0.008  0.013 -0.015 -0.315 -0.949
       0.048  0.050  0.902 -0.409  0.122
       0.997  0.050 -0.048  0.014 -0.012
       0.005 -0.001  0.427  0.856 -0.291
      -0.053  0.997 -0.043  0.024  0.007
     occupation matrix ns (before diag.):
       0.362 -0.002  0.001  0.005 -0.001
      -0.002  0.340 -0.004 -0.004 -0.002
       0.001 -0.004  0.254 -0.000  0.002
       0.005 -0.004 -0.000  0.347  0.000
      -0.001 -0.002  0.002  0.000  0.290
     ------------------------ ATOM   99 ------------------------
     Tr[ns( 99)] =   3.18752
     eigenvalues:
       0.274  0.288  0.329  0.345  0.358
     eigenvectors (columns):
      -0.051 -0.015  0.070 -0.185 -0.979
       0.997 -0.007 -0.044 -0.054 -0.045
      -0.049  0.061 -0.994 -0.051 -0.059
      -0.042 -0.001  0.041 -0.980  0.191
       0.010  0.998  0.062 -0.001 -0.011
     occupation matrix ns (before diag.):
       0.357  0.004  0.002 -0.003  0.001
       0.004  0.275  0.003  0.003 -0.000
       0.002  0.003  0.328  0.000 -0.002
      -0.003  0.003  0.000  0.345 -0.000
       0.001 -0.000 -0.002 -0.000  0.288
     ------------------------ ATOM  100 ------------------------
     Tr[ns(100)] =   2.98503
     eigenvalues:
       0.236  0.252  0.298  0.321  0.385
     eigenvectors (columns):
       0.097  0.251 -0.955 -0.127  0.012
       0.186  0.946  0.260  0.055 -0.024
      -0.976  0.206 -0.038 -0.058 -0.008
      -0.005  0.021  0.017  0.003  1.000
       0.055  0.009  0.139 -0.989  0.001
     occupation matrix ns (before diag.):
       0.295 -0.012  0.004  0.001  0.002
      -0.012  0.255  0.002 -0.003 -0.002
       0.004  0.002  0.237 -0.001  0.005
       0.001 -0.003 -0.001  0.385  0.000
       0.002 -0.002  0.005  0.000  0.320
     ------------------------ ATOM  105 ------------------------
     Tr[ns(105)] =   3.19558
     eigenvalues:
       0.261  0.308  0.330  0.343  0.356
     eigenvectors (columns):
       0.044 -0.032 -0.003 -0.069 -0.996
       0.012 -0.456 -0.844 -0.280  0.037
       0.008 -0.888  0.448  0.100  0.020
       0.006 -0.043 -0.295  0.952 -0.063
       0.999  0.014  0.008 -0.000  0.043
     occupation matrix ns (before diag.):
       0.356 -0.001 -0.001  0.001 -0.004
      -0.001  0.326 -0.009 -0.004 -0.001
      -0.001 -0.009  0.312  0.000 -0.000
       0.001 -0.004  0.000  0.342 -0.000
      -0.004 -0.001 -0.000 -0.000  0.261
     ------------------------ ATOM  106 ------------------------
     Tr[ns(106)] =   3.03769
     eigenvalues:
       0.207  0.235  0.266  0.378  0.432
     eigenvectors (columns):
      -0.080  0.039  0.989  0.117  0.004
       0.996  0.028  0.080 -0.009 -0.003
      -0.005  0.014  0.015 -0.098 -0.995
      -0.018 -0.005  0.115 -0.988  0.099
      -0.025  0.999 -0.040 -0.008  0.014
     occupation matrix ns (before diag.):
       0.268  0.005 -0.002 -0.013 -0.001
       0.005  0.207  0.001  0.002  0.001
      -0.002  0.001  0.431 -0.005 -0.003
      -0.013  0.002 -0.005  0.377  0.001
      -0.001  0.001 -0.003  0.001  0.235
     ------------------------ ATOM  107 ------------------------
     Tr[ns(107)] =   3.02965
     eigenvalues:
       0.231  0.265  0.286  0.327  0.406
     eigenvectors (columns):
      -0.064  0.353 -0.061  0.929  0.066
       0.158  0.883 -0.277 -0.344  0.010
       0.951 -0.040  0.288  0.101 -0.007
      -0.002  0.023 -0.037  0.059 -0.997
      -0.256  0.305  0.914 -0.072 -0.031
     occupation matrix ns (before diag.):
       0.319 -0.019  0.007 -0.006 -0.006
      -0.019  0.273 -0.009 -0.002 -0.002
       0.007 -0.009  0.236  0.001  0.013
      -0.006 -0.002  0.001  0.405  0.003
      -0.006 -0.002  0.013  0.003  0.281
     ------------------------ ATOM  108 ------------------------
     Tr[ns(108)] =   3.22274
     eigenvalues:
       0.245  0.315  0.331  0.338  0.382
     eigenvectors (columns):
       0.055  0.992  0.090  0.013 -0.067
      -0.000 -0.050 -0.167 -0.096 -0.980
       0.026  0.040 -0.217 -0.966  0.129
      -0.020 -0.091  0.957 -0.238 -0.135
       0.998 -0.058  0.020  0.020 -0.003
     occupation matrix ns (before diag.):
       0.315  0.004 -0.001  0.002 -0.004
       0.004  0.380 -0.006  0.007  0.000
      -0.001 -0.006  0.338  0.001 -0.002
       0.002  0.007  0.001  0.332  0.002
      -0.004  0.000 -0.002  0.002  0.246
     ------------------------ ATOM  113 ------------------------
     Tr[ns(113)] =   3.00542
     eigenvalues:
       0.252  0.275  0.290  0.302  0.383
     eigenvectors (columns):
      -0.006 -0.977 -0.204 -0.060 -0.016
      -0.996  0.009  0.013 -0.092 -0.003
      -0.023  0.195 -0.971  0.134 -0.007
      -0.003 -0.014 -0.011 -0.001  1.000
      -0.090 -0.085  0.121  0.985  0.001
     occupation matrix ns (before diag.):
       0.276 -0.000  0.003 -0.002 -0.002
      -0.000  0.252 -0.001 -0.000 -0.004
       0.003 -0.001  0.290 -0.001  0.002
      -0.002 -0.000 -0.001  0.383  0.000
      -0.002 -0.004  0.002  0.000  0.301
     ------------------------ ATOM  114 ------------------------
     Tr[ns(114)] =   3.18724
     eigenvalues:
       0.270  0.292  0.327  0.345  0.360
     eigenvectors (columns):
      -0.034 -0.017  0.064 -0.256 -0.964
       0.054 -0.192  0.977 -0.017  0.071
      -0.997  0.031  0.058  0.012  0.036
       0.005  0.003  0.036  0.966 -0.255
       0.041  0.981  0.190 -0.011 -0.003
     occupation matrix ns (before diag.):
       0.359 -0.002 -0.003  0.004  0.001
      -0.002  0.326  0.003 -0.001  0.006
      -0.003  0.003  0.270  0.000  0.001
       0.004 -0.001  0.000  0.346 -0.000
       0.001  0.006  0.001 -0.000  0.293
     ------------------------ ATOM  115 ------------------------
     Tr[ns(115)] =   3.19839
     eigenvalues:
       0.278  0.294  0.327  0.344  0.355
     eigenvectors (columns):
       0.006 -0.013 -0.058 -0.114 -0.992
      -0.114 -0.993  0.037 -0.006  0.010
      -0.037 -0.031 -0.990 -0.108  0.071
       0.000  0.011  0.115 -0.988  0.106
       0.993 -0.115 -0.033 -0.004  0.010
     occupation matrix ns (before diag.):
       0.355 -0.001 -0.002 -0.001 -0.001
      -0.001  0.294 -0.001  0.000  0.002
      -0.002 -0.001  0.328  0.002  0.002
      -0.001  0.000  0.002  0.344  0.000
      -0.001  0.002  0.002  0.000  0.279
     ------------------------ ATOM  116 ------------------------
     Tr[ns(116)] =   2.99824
     eigenvalues:
       0.257  0.274  0.281  0.305  0.383
     eigenvectors (columns):
      -0.070  0.299 -0.948 -0.078  0.017
       0.232 -0.923 -0.306 -0.022 -0.007
      -0.970 -0.242 -0.007  0.024 -0.005
      -0.002 -0.012  0.014  0.003  1.000
      -0.023 -0.009  0.081 -0.996  0.002
     occupation matrix ns (before diag.):
       0.280  0.002 -0.001  0.002  0.002
       0.002  0.274  0.004 -0.001  0.001
      -0.001  0.004  0.258 -0.001 -0.001
       0.002 -0.001 -0.001  0.383  0.000
       0.002  0.001 -0.001  0.000  0.305
     ------------------------ ATOM  121 ------------------------
     Tr[ns(121)] =   3.16384
     eigenvalues:
       0.266  0.281  0.308  0.355  0.373
     eigenvectors (columns):
       0.093  0.036  0.014  0.086 -0.991
       0.371  0.925 -0.003 -0.045  0.064
      -0.923  0.374 -0.037 -0.037 -0.076
       0.026 -0.053 -0.004 -0.995 -0.086
      -0.034  0.016  0.999 -0.007  0.011
     occupation matrix ns (before diag.):
       0.372 -0.007  0.008  0.002 -0.001
      -0.007  0.279  0.005  0.003  0.000
       0.008  0.005  0.269  0.004 -0.002
       0.002  0.003  0.004  0.355  0.000
      -0.001  0.000 -0.002  0.000  0.308
     ------------------------ ATOM  122 ------------------------
     Tr[ns(122)] =   3.02876
     eigenvalues:
       0.211  0.259  0.290  0.366  0.389
     eigenvectors (columns):
      -0.050  0.078 -0.993 -0.022 -0.072
      -0.984 -0.149  0.042 -0.086 -0.029
      -0.067 -0.165 -0.046  0.961  0.205
      -0.010 -0.020 -0.067 -0.215  0.974
      -0.158  0.972  0.077  0.147  0.056
     occupation matrix ns (before diag.):
       0.290 -0.003 -0.003 -0.007 -0.004
      -0.003  0.213 -0.013 -0.002 -0.009
      -0.003 -0.013  0.363  0.004  0.016
      -0.007 -0.002  0.004  0.388  0.004
      -0.004 -0.009  0.016  0.004  0.261
     ------------------------ ATOM  123 ------------------------
     Tr[ns(123)] =   2.89723
     eigenvalues:
       0.158  0.188  0.302  0.377  0.423
     eigenvectors (columns):
      -0.186  0.095  0.053  0.072 -0.974
       0.976  0.119  0.043 -0.024 -0.174
      -0.103  0.973  0.162  0.026  0.125
       0.039 -0.030 -0.005  0.997  0.063
      -0.016 -0.171  0.984 -0.002  0.040
     occupation matrix ns (before diag.):
       0.411  0.045 -0.028 -0.001 -0.003
       0.045  0.167 -0.002 -0.008  0.004
      -0.028 -0.002  0.194  0.007  0.019
      -0.001 -0.008  0.007  0.377 -0.000
      -0.003  0.004  0.019 -0.000  0.299
     ------------------------ ATOM  124 ------------------------
     Tr[ns(124)] =   3.18891
     eigenvalues:
       0.246  0.297  0.341  0.352  0.359
     eigenvectors (columns):
       0.053 -0.007  0.238  0.666 -0.705
       0.998 -0.025 -0.007 -0.030  0.044
      -0.010 -0.111 -0.191  0.740  0.635
      -0.006  0.017  0.952 -0.015  0.306
       0.025  0.993 -0.036  0.086  0.062
     occupation matrix ns (before diag.):
       0.354 -0.006 -0.003 -0.004  0.000
      -0.006  0.247  0.001  0.001 -0.001
      -0.003  0.001  0.354  0.004  0.006
      -0.004  0.001  0.004  0.342 -0.000
       0.000 -0.001  0.006 -0.000  0.297
     ------------------------ ATOM  129 ------------------------
     Tr[ns(129)] =   3.00287
     eigenvalues:
       0.236  0.279  0.297  0.306  0.384
     eigenvectors (columns):
       0.050  0.994  0.057 -0.070  0.027
       0.997 -0.049  0.040  0.049  0.000
      -0.018  0.090 -0.500  0.861 -0.014
       0.002  0.026  0.008 -0.014 -1.000
      -0.060 -0.012  0.863  0.502 -0.000
     occupation matrix ns (before diag.):
       0.279 -0.002 -0.002 -0.003  0.000
      -0.002  0.236  0.002 -0.000  0.004
      -0.002  0.002  0.304  0.001  0.004
      -0.003 -0.000  0.001  0.384 -0.000
       0.000  0.004  0.004 -0.000  0.299
     ------------------------ ATOM  130 ------------------------
     Tr[ns(130)] =   3.18588
     eigenvalues:
       0.277  0.294  0.314  0.347  0.361
     eigenvectors (columns):
      -0.009  0.013  0.075 -0.159 -0.984
      -0.010  0.186  0.976 -0.073  0.089
       0.985  0.169 -0.022  0.000 -0.008
      -0.001  0.007  0.086  0.985 -0.152
      -0.170  0.968 -0.185  0.009 -0.001
     occupation matrix ns (before diag.):
       0.361 -0.004  0.001  0.002 -0.000
      -0.004  0.314 -0.000 -0.003 -0.004
       0.001 -0.000  0.278  0.000  0.003
       0.002 -0.003  0.000  0.347  0.000
      -0.000 -0.004  0.003  0.000  0.294
     ------------------------ ATOM  131 ------------------------
     Tr[ns(131)] =   3.19011
     eigenvalues:
       0.285  0.295  0.315  0.345  0.354
     eigenvectors (columns):
       0.011 -0.022 -0.083 -0.205  0.975
      -0.088  0.994  0.031 -0.046  0.016
       0.055  0.041 -0.992  0.074 -0.069
       0.006 -0.039 -0.060 -0.975 -0.211
       0.994  0.087  0.059 -0.000 -0.004
     occupation matrix ns (before diag.):
       0.354  0.001 -0.003 -0.002 -0.000
       0.001  0.295 -0.001  0.002  0.001
      -0.003 -0.001  0.316 -0.002 -0.002
      -0.002  0.002 -0.002  0.345 -0.000
      -0.000  0.001 -0.002 -0.000  0.285
     ------------------------ ATOM  132 ------------------------
     Tr[ns(132)] =   2.99566
     eigenvalues:
       0.239  0.278  0.291  0.306  0.383
     eigenvectors (columns):
       0.113  0.760 -0.602 -0.216  0.022
       0.191  0.607  0.764  0.100 -0.031
       0.974 -0.202 -0.088  0.045  0.012
      -0.008  0.005  0.038  0.009  0.999
      -0.040  0.116 -0.209  0.970 -0.002
     occupation matrix ns (before diag.):
       0.284 -0.008 -0.004  0.002 -0.004
      -0.008  0.285 -0.008 -0.003  0.001
      -0.004 -0.008  0.241  0.002  0.003
       0.002 -0.003  0.002  0.383 -0.000
      -0.004  0.001  0.003 -0.000  0.305
     ------------------------ ATOM  137 ------------------------
     Tr[ns(137)] =   3.17965
     eigenvalues:
       0.245  0.281  0.348  0.349  0.368
     eigenvectors (columns):
      -0.086 -0.038 -0.232 -0.121  0.961
      -0.007  0.012 -0.464  0.886  0.000
      -0.996  0.014  0.008 -0.004 -0.087
      -0.017  0.014  0.855  0.447  0.262
       0.011  0.999 -0.015 -0.021  0.035
     occupation matrix ns (before diag.):
       0.366 -0.000 -0.011  0.005  0.003
      -0.000  0.348 -0.001  0.000 -0.001
      -0.011 -0.001  0.246 -0.002  0.000
       0.005  0.000 -0.002  0.349 -0.001
       0.003 -0.001  0.000 -0.001  0.281
     ------------------------ ATOM  138 ------------------------
     Tr[ns(138)] =   3.02796
     eigenvalues:
       0.262  0.268  0.293  0.306  0.385
     eigenvectors (columns):
      -0.108 -0.121 -0.628  0.761  0.003
      -0.409  0.840  0.234  0.269 -0.022
      -0.084 -0.415  0.736  0.529  0.002
       0.012 -0.018 -0.006 -0.001 -1.000
       0.902  0.328  0.100  0.261  0.004
     occupation matrix ns (before diag.):
       0.300  0.004  0.004 -0.000  0.007
       0.004  0.271  0.009  0.003  0.005
       0.004  0.009  0.292 -0.000  0.007
      -0.000  0.003 -0.000  0.385 -0.001
       0.007  0.005  0.007 -0.001  0.266
     ------------------------ ATOM  139 ------------------------
     Tr[ns(139)] =   3.02257
     eigenvalues:
       0.223  0.278  0.304  0.311  0.394
     eigenvectors (columns):
       0.111  0.019  0.712  0.691  0.048
       0.016 -0.177  0.687 -0.704 -0.029
       0.993  0.035 -0.087 -0.071 -0.002
      -0.004  0.011 -0.012 -0.056  0.998
      -0.035  0.983  0.113 -0.136 -0.018
     occupation matrix ns (before diag.):
       0.307 -0.003 -0.009  0.004 -0.001
      -0.003  0.307 -0.001 -0.002  0.005
      -0.009 -0.001  0.225  0.000  0.002
       0.004 -0.002  0.000  0.394 -0.002
      -0.001  0.005  0.002 -0.002  0.279
     ------------------------ ATOM  140 ------------------------
     Tr[ns(140)] =   3.20334
     eigenvalues:
       0.264  0.314  0.337  0.341  0.346
     eigenvectors (columns):
      -0.069  0.052 -0.023 -0.824 -0.559
      -0.001  0.915  0.386  0.097 -0.073
      -0.015 -0.374  0.716  0.301 -0.506
      -0.007 -0.144  0.581 -0.466  0.651
       0.997 -0.002  0.014 -0.056 -0.041
     occupation matrix ns (before diag.):
       0.342 -0.001  0.002 -0.001  0.005
      -0.001  0.318  0.008  0.002  0.000
       0.002  0.008  0.336 -0.005  0.001
      -0.001  0.002 -0.005  0.341  0.000
       0.005  0.000  0.001  0.000  0.264

     Number of occupied Hubbard levels =  223.0871

          k = 0.0000 0.0000 0.0000 (149287 PWs)   bands (ev):

   -55.5245 -55.5049 -55.4973 -55.4866 -55.4767 -55.4685 -55.4615 -55.4605
   -55.4562 -55.4515 -55.4472 -55.4445 -55.4413 -55.4370 -55.4294 -55.4241
   -55.4231 -55.4177 -55.4152 -55.4121 -55.4049 -55.3970 -55.3962 -55.3767
   -55.3658 -55.3627 -55.3522 -55.3408 -55.3396 -55.3305 -55.3175 -55.2880
   -55.2461 -55.2388 -55.2321 -55.2116 -55.1909 -55.1859 -55.1840 -55.1763
   -55.1750 -55.1714 -55.1634 -55.1623 -55.1561 -55.1529 -55.1499 -55.1487
   -55.1467 -55.1455 -55.1431 -55.1403 -55.1273 -55.1213 -55.1181 -55.1173
   -55.1072 -55.1056 -55.1040 -55.0960 -55.0888 -55.0852 -55.0739 -55.0667
   -55.0604 -55.0393 -54.9998 -54.9600 -54.9422 -54.9332 -54.9306 -54.8067
   -42.0300 -41.7994 -31.9715 -31.9500 -31.9453 -31.9349 -31.9092 -31.9064
   -31.8993 -31.8899 -31.8861 -31.8820 -31.8801 -31.8776 -31.8712 -31.8653
   -31.8549 -31.8531 -31.8516 -31.8422 -31.8394 -31.8361 -31.8309 -31.8262
   -31.8238 -31.8221 -31.8185 -31.8139 -31.8098 -31.8070 -31.7925 -31.7887
   -31.7849 -31.7818 -31.7783 -31.7738 -31.7706 -31.7681 -31.7646 -31.7604
   -31.7548 -31.7517 -31.7478 -31.7444 -31.7360 -31.7342 -31.7318 -31.7290
   -31.7190 -31.7181 -31.7120 -31.7104 -31.7082 -31.7053 -31.7023 -31.6896
   -31.6882 -31.6856 -31.6818 -31.6804 -31.6775 -31.6731 -31.6698 -31.6556
   -31.6503 -31.6449 -31.6368 -31.6353 -31.6246 -31.6212 -31.6200 -31.6163
   -31.6149 -31.6110 -31.6091 -31.6064 -31.6029 -31.5996 -31.5992 -31.5934
   -31.5901 -31.5875 -31.5848 -31.5831 -31.5781 -31.5733 -31.5710 -31.5686
   -31.5668 -31.5654 -31.5635 -31.5620 -31.5610 -31.5590 -31.5571 -31.5565
   -31.5529 -31.5518 -31.5471 -31.5445 -31.5391 -31.5362 -31.5325 -31.5320
   -31.5303 -31.5271 -31.5233 -31.5207 -31.5176 -31.5169 -31.5151 -31.5134
   -31.5086 -31.5072 -31.5052 -31.4965 -31.4932 -31.4906 -31.4855 -31.4846
   -31.4826 -31.4782 -31.4737 -31.4733 -31.4703 -31.4691 -31.4661 -31.4649
   -31.4621 -31.4563 -31.4523 -31.4519 -31.4488 -31.4462 -31.4405 -31.4400
   -31.4364 -31.4319 -31.4288 -31.4211 -31.4157 -31.4127 -31.4116 -31.4070
   -31.3993 -31.3977 -31.3932 -31.3886 -31.3833 -31.3792 -31.3760 -31.3718
   -31.3680 -31.3645 -31.3629 -31.3622 -31.3581 -31.3561 -31.3542 -31.3493
   -31.3464 -31.3420 -31.3394 -31.3353 -31.3315 -31.3304 -31.3295 -31.3241
   -31.3235 -31.3210 -31.3202 -31.3184 -31.3156 -31.3121 -31.3095 -31.3044
   -31.3026 -31.2995 -31.2981 -31.2950 -31.2890 -31.2861 -31.2844 -31.2801
   -31.2785 -31.2754 -31.2738 -31.2703 -31.2643 -31.2622 -31.2538 -31.2528
   -31.2506 -31.2430 -31.2426 -31.2398 -31.2349 -31.2338 -31.2302 -31.2272
   -31.2257 -31.2172 -31.2163 -31.2126 -31.2047 -31.1943 -31.1511 -31.1478
   -31.1404 -31.1189 -31.1057 -31.0948 -31.0611 -31.0507 -31.0375 -30.9789
   -30.9631 -30.8688 -13.4271 -12.8764 -12.8304 -12.8284 -12.8099 -12.7585
   -12.6385 -12.3427 -12.3098 -12.3070 -12.2872 -12.1920 -12.1457 -12.1419
   -12.1192 -12.0315 -12.0145 -11.9875 -11.9756 -11.9120 -11.8739 -11.8679
   -11.7918 -11.7754 -11.7673 -11.7651 -11.7441 -11.7400 -11.7329 -11.7208
   -11.7030 -11.6865 -11.6797 -11.6681 -11.6653 -11.6316 -11.6254 -11.5980
   -11.5521 -11.5084 -11.4969 -11.4883 -11.4868 -11.3840 -11.3273 -11.2995
   -11.2720 -11.2241 -11.2112 -11.2018 -11.1971 -11.1961 -11.1877 -11.1874
   -11.1821 -11.1816 -11.0890 -11.0412 -11.0247 -11.0198 -11.0171 -11.0127
   -11.0071 -11.0021 -10.9733 -10.9314 -10.9163 -10.9025 -10.8558 -10.8167
   -10.7782 -10.7349 -10.7240  -9.5468  -8.3382  -8.1770  -7.9432  -6.3063
    -3.6601  -3.6528  -3.6466  -3.6422  -3.6300  -3.6211  -3.6077  -3.6053
    -3.4517  -3.4264  -3.4198  -3.4115  -3.3686  -3.3653  -3.3515  -3.3438
    -3.0764  -3.0717  -3.0637  -3.0444  -2.9692  -2.9616  -2.9552  -2.9397
    -2.9165  -2.9151  -2.9012  -2.8861  -2.8423  -2.8192  -2.8162  -2.8058
    -2.7910  -2.7809  -2.7711  -2.7424  -2.7398  -2.5790  -2.5451  -2.5347
    -2.5297  -2.4819  -2.4777  -2.4729  -2.4680  -2.4658  -2.4557  -2.4329
    -2.4203  -2.4079  -2.4036  -2.3157  -2.2978  -2.2783  -2.2713  -2.2462
    -2.2375  -2.2349  -2.2171  -2.1442  -2.1112  -1.9645  -1.9512  -1.7987
    -1.7863  -1.7714  -1.7641  -1.7622  -1.7573  -1.7522  -1.7484  -1.7413
    -1.7401  -1.7326  -1.7230  -1.7183  -1.7117  -1.7043  -1.7003  -1.6938
    -1.6884  -1.6825  -1.6755  -1.5933  -1.5885  -1.5782  -1.5637  -1.5426
    -1.5330  -1.5135  -1.5039  -1.4999  -1.4900  -1.4882  -1.4777  -1.4705
    -1.4669  -1.4622  -1.4541  -1.4444  -1.4311  -1.4096  -1.4007  -1.3918
    -1.3886  -1.3839  -1.3781  -1.3737  -1.3627  -1.3609  -1.3528  -1.3418
    -1.3362  -1.3277  -1.3158  -1.3069  -1.2962  -1.2934  -1.2791  -1.2561
    -1.2419  -1.2377  -1.2312  -1.2300  -1.2244  -1.2154  -1.2142  -1.2078
    -1.2002  -1.1984  -1.1916  -1.1738  -1.1714  -1.1542  -1.1328  -1.1109
    -1.0934  -1.0796  -1.0537  -1.0461  -1.0430  -1.0104  -0.9960  -0.9932
    -0.9902  -0.9872  -0.9687  -0.9438  -0.9304  -0.9176  -0.9135  -0.9066
    -0.8967  -0.8841  -0.8768  -0.8684  -0.8540  -0.8453  -0.8370  -0.8305
    -0.8120  -0.8003  -0.7868  -0.7829  -0.7624  -0.7541  -0.7529  -0.7493
    -0.7411  -0.7177  -0.7101  -0.6944  -0.6661  -0.6425  -0.5695  -0.5433
    -0.5284  -0.4882  -0.4638  -0.4560  -0.4307  -0.4112  -0.3937  -0.3877
    -0.3766  -0.3233  -0.2787  -0.2758  -0.1974  -0.1799  -0.1735  -0.1606
    -0.1332  -0.1215  -0.1107  -0.1077  -0.0906  -0.0711  -0.0494   0.0032
     0.0238   0.0451   0.0613   0.0907   0.1179   0.1555   0.1854   0.3088
     0.3165   0.3554   0.3646   0.3755   0.4008   0.4211   0.6011   0.7536
     0.8953   1.0203   1.0269   1.0612   1.1153   1.2143   1.3552   1.3620
     1.4138   1.5502   1.6324   1.6883   1.7129   1.7289   1.7798   1.8329
     1.9191   1.9737   2.0784   2.1154   2.1644   2.2210   2.2610   2.3781
     2.8478   2.8539   2.9112   2.9249   2.9545   3.1264   3.1830   3.2236
     3.2597   3.3275   3.3411   3.3617   3.3739   3.3902   3.4018   3.4070
     3.4305   3.4409   3.4599   3.4853   3.4960   3.5027   3.5217   3.5438
     3.5506   3.5589   3.5679   3.6013   3.6161   3.6326   3.6446   3.6906
     3.7208   3.7610   3.7897   3.8152   3.8333   3.8404   3.8513   3.8577
     3.8786   3.9114   3.9230   3.9568   3.9820   4.0101   4.0133   4.0344
     4.0641   4.0710   4.0856   4.0945   4.1122   4.1202   4.1322   4.1417
     4.1432   4.1597   4.1615   4.1730   4.1840   4.2038   4.2104   4.2385
     4.2496   4.2548   4.2747   4.2885   4.3087   4.3154   4.3264   4.3352
     4.3423   4.3568   4.3617   4.3723   4.3840   4.3961   4.4045   4.4274
     4.4332   4.4504   4.4620   4.4845   4.5073   4.5220   4.5400   4.5603
     4.5796   4.6032   4.6258   4.6361   4.6462   4.6635   4.6713   4.6722
     4.6815   4.6878   4.6975   4.7233   4.7286   4.7352   4.7634   4.7680
     4.7781   4.7926   4.8014   4.8040   4.8101   4.8244   4.8344   4.8592
     4.8695   4.8770   4.8849   4.8935   4.9066   4.9080   4.9120   4.9249
     4.9299   4.9403   4.9461   4.9636   4.9906   5.0207   5.0381   5.0440
     5.0482   5.0589   5.0646   5.0719   5.0818   5.0970   5.1042   5.1172
     5.1252   5.1297   5.1321   5.1410   5.1451   5.1561   5.1582   5.1725
     5.1765   5.1822   5.1919   5.2046   5.2086   5.2185   5.2247   5.2327

          k = 0.0000 0.2500 0.0000 (149240 PWs)   bands (ev):

   -55.5245 -55.5049 -55.4973 -55.4866 -55.4767 -55.4684 -55.4615 -55.4604
   -55.4562 -55.4518 -55.4472 -55.4446 -55.4413 -55.4368 -55.4292 -55.4243
   -55.4231 -55.4180 -55.4152 -55.4118 -55.4049 -55.3970 -55.3962 -55.3767
   -55.3656 -55.3629 -55.3521 -55.3408 -55.3396 -55.3305 -55.3175 -55.2880
   -55.2461 -55.2388 -55.2321 -55.2118 -55.1908 -55.1856 -55.1837 -55.1778
   -55.1741 -55.1717 -55.1633 -55.1622 -55.1558 -55.1529 -55.1499 -55.1487
   -55.1468 -55.1450 -55.1432 -55.1406 -55.1274 -55.1218 -55.1181 -55.1169
   -55.1070 -55.1056 -55.1041 -55.0960 -55.0888 -55.0852 -55.0739 -55.0666
   -55.0604 -55.0393 -54.9998 -54.9600 -54.9422 -54.9332 -54.9306 -54.8067
   -42.0300 -41.7994 -31.9716 -31.9501 -31.9455 -31.9346 -31.9094 -31.9064
   -31.8996 -31.8896 -31.8859 -31.8826 -31.8803 -31.8774 -31.8712 -31.8669
   -31.8555 -31.8521 -31.8494 -31.8462 -31.8378 -31.8364 -31.8326 -31.8304
   -31.8234 -31.8179 -31.8131 -31.8111 -31.8075 -31.7976 -31.7937 -31.7908
   -31.7883 -31.7847 -31.7802 -31.7764 -31.7697 -31.7669 -31.7644 -31.7611
   -31.7568 -31.7506 -31.7475 -31.7449 -31.7420 -31.7372 -31.7351 -31.7332
   -31.7257 -31.7221 -31.7186 -31.7101 -31.7064 -31.7016 -31.6973 -31.6911
   -31.6839 -31.6803 -31.6772 -31.6720 -31.6666 -31.6646 -31.6575 -31.6568
   -31.6489 -31.6421 -31.6383 -31.6346 -31.6330 -31.6253 -31.6223 -31.6194
   -31.6154 -31.6129 -31.6108 -31.6067 -31.6053 -31.6020 -31.5985 -31.5965
   -31.5936 -31.5893 -31.5877 -31.5860 -31.5838 -31.5800 -31.5793 -31.5739
   -31.5708 -31.5701 -31.5670 -31.5653 -31.5626 -31.5577 -31.5566 -31.5512
   -31.5491 -31.5465 -31.5437 -31.5400 -31.5366 -31.5344 -31.5319 -31.5280
   -31.5265 -31.5249 -31.5218 -31.5188 -31.5171 -31.5145 -31.5133 -31.5082
   -31.5058 -31.5030 -31.4985 -31.4949 -31.4925 -31.4884 -31.4858 -31.4851
   -31.4826 -31.4802 -31.4778 -31.4760 -31.4730 -31.4703 -31.4686 -31.4640
   -31.4609 -31.4575 -31.4526 -31.4507 -31.4479 -31.4465 -31.4449 -31.4408
   -31.4358 -31.4320 -31.4279 -31.4229 -31.4175 -31.4114 -31.4068 -31.4060
   -31.3991 -31.3962 -31.3918 -31.3879 -31.3831 -31.3810 -31.3773 -31.3739
   -31.3712 -31.3683 -31.3656 -31.3637 -31.3624 -31.3575 -31.3537 -31.3491
   -31.3481 -31.3431 -31.3402 -31.3371 -31.3330 -31.3306 -31.3275 -31.3252
   -31.3236 -31.3215 -31.3179 -31.3159 -31.3147 -31.3110 -31.3065 -31.3039
   -31.3013 -31.2979 -31.2952 -31.2913 -31.2897 -31.2854 -31.2842 -31.2830
   -31.2785 -31.2777 -31.2706 -31.2693 -31.2642 -31.2628 -31.2551 -31.2516
   -31.2494 -31.2442 -31.2430 -31.2396 -31.2357 -31.2339 -31.2313 -31.2267
   -31.2251 -31.2182 -31.2171 -31.2118 -31.2040 -31.1952 -31.1508 -31.1479
   -31.1405 -31.1190 -31.1058 -31.0949 -31.0612 -31.0507 -31.0375 -30.9790
   -30.9631 -30.8688 -13.3850 -13.0740 -12.8127 -12.7827 -12.7585 -12.6065
   -12.5844 -12.5255 -12.5014 -12.3395 -12.1470 -12.1330 -12.1121 -12.1061
   -12.0852 -12.0031 -11.9689 -11.9541 -11.9367 -11.9097 -11.8992 -11.8920
   -11.8679 -11.8410 -11.7958 -11.7880 -11.7729 -11.7571 -11.7281 -11.7120
   -11.6959 -11.6858 -11.6755 -11.6581 -11.6552 -11.6364 -11.6336 -11.6030
   -11.5688 -11.4988 -11.4808 -11.4650 -11.4593 -11.3724 -11.3132 -11.3021
   -11.2964 -11.2701 -11.2603 -11.2108 -11.2028 -11.1810 -11.1676 -11.1600
   -11.1312 -11.1064 -11.0971 -11.0867 -11.0720 -11.0597 -11.0377 -11.0138
   -11.0010 -10.9903 -10.9712 -10.9307 -10.8905 -10.8623 -10.8386 -10.8260
   -10.7886 -10.7438 -10.7175  -9.5468  -8.3382  -8.1770  -7.9432  -6.3063
    -3.7699  -3.7660  -3.7541  -3.7460  -3.6498  -3.6388  -3.6120  -3.6056
    -3.4316  -3.4297  -3.4140  -3.4061  -3.1838  -3.1681  -3.1144  -3.1031
    -3.0887  -3.0617  -3.0583  -3.0335  -3.0282  -2.9846  -2.9792  -2.9671
    -2.9331  -2.9067  -2.8809  -2.8680  -2.8416  -2.8321  -2.8264  -2.8181
    -2.8069  -2.7952  -2.7660  -2.7419  -2.7002  -2.6728  -2.6485  -2.6385
    -2.5962  -2.5930  -2.5498  -2.5376  -2.5289  -2.5214  -2.4870  -2.4810
    -2.4519  -2.3473  -2.3146  -2.2994  -2.2843  -2.2306  -2.2089  -2.1731
    -2.1552  -2.1505  -2.1121  -2.0998  -2.0801  -2.0618  -2.0484  -1.9471
    -1.8467  -1.8166  -1.8002  -1.7948  -1.7857  -1.7745  -1.7655  -1.7623
    -1.7496  -1.7354  -1.7215  -1.7115  -1.7070  -1.6966  -1.6778  -1.6712
    -1.6635  -1.6577  -1.6306  -1.6249  -1.6198  -1.6092  -1.6019  -1.5952
    -1.5831  -1.5762  -1.5689  -1.5631  -1.5521  -1.5422  -1.5366  -1.5303
    -1.5219  -1.5012  -1.4685  -1.4569  -1.4415  -1.4251  -1.4192  -1.4076
    -1.3940  -1.3758  -1.3664  -1.3590  -1.3358  -1.3250  -1.3132  -1.3048
    -1.2974  -1.2922  -1.2848  -1.2763  -1.2726  -1.2609  -1.2544  -1.2461
    -1.2405  -1.2282  -1.2273  -1.2094  -1.2022  -1.1846  -1.1756  -1.1666
    -1.1617  -1.1544  -1.1445  -1.1385  -1.1296  -1.1050  -1.0968  -1.0887
    -1.0770  -1.0518  -1.0467  -1.0360  -1.0169  -0.9968  -0.9935  -0.9826
    -0.9619  -0.9564  -0.9461  -0.9254  -0.9187  -0.9076  -0.8889  -0.8725
    -0.8678  -0.8664  -0.8564  -0.8486  -0.8318  -0.8099  -0.8004  -0.7838
    -0.7549  -0.7509  -0.7485  -0.7419  -0.7273  -0.7105  -0.6901  -0.6782
    -0.6239  -0.6170  -0.6078  -0.5906  -0.5694  -0.5653  -0.5450  -0.5349
    -0.5195  -0.4916  -0.4658  -0.4441  -0.4371  -0.4035  -0.3887  -0.3623
    -0.3352  -0.2876  -0.2761  -0.2705  -0.2646  -0.2382  -0.2226  -0.2134
    -0.1952  -0.1817  -0.1587  -0.1306  -0.1244  -0.1051  -0.0866  -0.0570
    -0.0384   0.0186   0.0471   0.0814   0.1352   0.1388   0.1600   0.1704
     0.2102   0.2291   0.2398   0.2742   0.2884   0.5130   0.6217   0.7464
     0.7894   0.8266   0.9033   1.0539   1.0782   1.1559   1.2535   1.4111
     1.4522   1.5562   1.6593   1.7182   1.7734   1.8217   1.8650   1.9204
     1.9497   2.0165   2.0654   2.1432   2.2554   2.2821   2.3452   2.5562
     2.6436   2.7275   2.8003   2.9249   2.9734   2.9937   3.0088   3.0323
     3.0418   3.0726   3.2303   3.2395   3.2882   3.3357   3.3654   3.3864
     3.3911   3.4500   3.4674   3.4988   3.5263   3.5410   3.5487   3.5604
     3.5766   3.5900   3.6006   3.6300   3.6427   3.6691   3.6865   3.6976
     3.7366   3.7555   3.7711   3.7867   3.8140   3.8338   3.8538   3.8572
     3.8674   3.8772   3.8926   3.9216   3.9383   3.9481   3.9727   3.9871
     4.0034   4.0161   4.0351   4.0469   4.0617   4.0752   4.0905   4.1273
     4.1345   4.1552   4.1866   4.1928   4.2077   4.2202   4.2437   4.2497
     4.2760   4.2901   4.3034   4.3105   4.3269   4.3512   4.3626   4.3675
     4.3913   4.4173   4.4259   4.4366   4.4777   4.4816   4.4890   4.5027
     4.5086   4.5235   4.5356   4.5503   4.5584   4.5636   4.5855   4.5993
     4.6182   4.6407   4.6564   4.6732   4.6835   4.6886   4.6996   4.7073
     4.7256   4.7374   4.7530   4.7678   4.7752   4.7912   4.7979   4.8060
     4.8129   4.8240   4.8317   4.8455   4.8617   4.8663   4.8708   4.8778
     4.8985   4.9042   4.9117   4.9241   4.9332   4.9395   4.9445   4.9490
     4.9545   4.9698   4.9704   4.9874   4.9886   4.9945   5.0025   5.0187
     5.0260   5.0371   5.0466   5.0518   5.0597   5.0636   5.0691   5.0812
     5.0880   5.0981   5.1072   5.1104   5.1196   5.1300   5.1374   5.1403
     5.1478   5.1594   5.1637   5.1703   5.1804   5.1861   5.1972   5.2086

          k = 0.0000-0.5000 0.0000 (149248 PWs)   bands (ev):

   -55.5245 -55.5048 -55.4974 -55.4866 -55.4768 -55.4683 -55.4615 -55.4603
   -55.4562 -55.4520 -55.4472 -55.4446 -55.4413 -55.4366 -55.4290 -55.4245
   -55.4231 -55.4183 -55.4152 -55.4115 -55.4049 -55.3970 -55.3962 -55.3767
   -55.3654 -55.3632 -55.3521 -55.3408 -55.3396 -55.3305 -55.3175 -55.2880
   -55.2461 -55.2388 -55.2321 -55.2119 -55.1907 -55.1853 -55.1833 -55.1789
   -55.1737 -55.1720 -55.1633 -55.1622 -55.1555 -55.1529 -55.1499 -55.1487
   -55.1468 -55.1445 -55.1432 -55.1410 -55.1275 -55.1222 -55.1181 -55.1166
   -55.1067 -55.1057 -55.1044 -55.0960 -55.0888 -55.0852 -55.0739 -55.0666
   -55.0604 -55.0393 -54.9998 -54.9600 -54.9422 -54.9332 -54.9306 -54.8067
   -42.0300 -41.7994 -31.9716 -31.9502 -31.9457 -31.9343 -31.9097 -31.9064
   -31.8999 -31.8892 -31.8856 -31.8833 -31.8804 -31.8771 -31.8716 -31.8679
   -31.8554 -31.8522 -31.8483 -31.8464 -31.8382 -31.8362 -31.8346 -31.8327
   -31.8224 -31.8170 -31.8108 -31.8084 -31.7970 -31.7938 -31.7924 -31.7900
   -31.7883 -31.7832 -31.7807 -31.7797 -31.7751 -31.7679 -31.7659 -31.7620
   -31.7585 -31.7572 -31.7551 -31.7455 -31.7427 -31.7412 -31.7389 -31.7363
   -31.7308 -31.7194 -31.7117 -31.7088 -31.7042 -31.6981 -31.6969 -31.6944
   -31.6789 -31.6746 -31.6725 -31.6690 -31.6650 -31.6535 -31.6499 -31.6467
   -31.6448 -31.6402 -31.6393 -31.6357 -31.6338 -31.6315 -31.6294 -31.6244
   -31.6193 -31.6149 -31.6111 -31.6091 -31.6078 -31.6049 -31.6035 -31.5981
   -31.5958 -31.5940 -31.5933 -31.5872 -31.5854 -31.5835 -31.5793 -31.5779
   -31.5726 -31.5715 -31.5706 -31.5667 -31.5636 -31.5598 -31.5554 -31.5519
   -31.5500 -31.5467 -31.5431 -31.5377 -31.5322 -31.5313 -31.5279 -31.5240
   -31.5222 -31.5208 -31.5185 -31.5168 -31.5139 -31.5112 -31.5087 -31.5070
   -31.5031 -31.4993 -31.4981 -31.4962 -31.4926 -31.4898 -31.4868 -31.4819
   -31.4799 -31.4786 -31.4768 -31.4764 -31.4739 -31.4728 -31.4690 -31.4668
   -31.4654 -31.4631 -31.4586 -31.4526 -31.4493 -31.4460 -31.4423 -31.4378
   -31.4340 -31.4294 -31.4249 -31.4212 -31.4175 -31.4114 -31.4069 -31.4033
   -31.3982 -31.3941 -31.3922 -31.3895 -31.3868 -31.3824 -31.3823 -31.3791
   -31.3729 -31.3705 -31.3672 -31.3638 -31.3618 -31.3594 -31.3533 -31.3501
   -31.3476 -31.3438 -31.3430 -31.3387 -31.3344 -31.3294 -31.3274 -31.3257
   -31.3226 -31.3200 -31.3182 -31.3155 -31.3116 -31.3098 -31.3074 -31.3005
   -31.2993 -31.2957 -31.2923 -31.2909 -31.2899 -31.2867 -31.2853 -31.2827
   -31.2817 -31.2755 -31.2692 -31.2662 -31.2654 -31.2624 -31.2549 -31.2528
   -31.2488 -31.2447 -31.2437 -31.2396 -31.2357 -31.2344 -31.2322 -31.2260
   -31.2241 -31.2206 -31.2170 -31.2110 -31.2032 -31.1963 -31.1505 -31.1480
   -31.1406 -31.1191 -31.1058 -31.0950 -31.0612 -31.0506 -31.0375 -30.9790
   -30.9631 -30.8688 -13.2705 -13.2552 -12.7585 -12.7051 -12.7022 -12.6848
   -12.6576 -12.5060 -12.4878 -12.3771 -12.2967 -12.0546 -12.0458 -12.0342
   -12.0121 -11.9655 -11.9460 -11.9428 -11.9239 -11.9217 -11.9002 -11.8837
   -11.8783 -11.8519 -11.8462 -11.8238 -11.8001 -11.7811 -11.7669 -11.7463
   -11.7324 -11.6928 -11.6820 -11.6745 -11.6380 -11.6181 -11.5994 -11.5958
   -11.5601 -11.5344 -11.4622 -11.4130 -11.4101 -11.4019 -11.3860 -11.2945
   -11.2618 -11.2383 -11.2343 -11.2309 -11.2235 -11.2069 -11.1846 -11.1356
   -11.1312 -11.1238 -11.1175 -11.0626 -11.0519 -11.0453 -11.0339 -11.0282
   -11.0079 -11.0034 -10.9948 -10.9070 -10.8905 -10.8683 -10.8280 -10.8052
   -10.7820 -10.7531 -10.7207  -9.5468  -8.3382  -8.1771  -7.9432  -6.3063
    -3.7955  -3.7825  -3.7638  -3.7547  -3.7517  -3.7490  -3.7393  -3.7170
    -3.2500  -3.2419  -3.2282  -3.2124  -3.1757  -3.1725  -3.1610  -3.1555
    -3.0418  -3.0269  -3.0180  -3.0021  -2.9907  -2.9886  -2.9823  -2.9608
    -2.9561  -2.9454  -2.9174  -2.8844  -2.8430  -2.8290  -2.8072  -2.7895
    -2.7596  -2.7535  -2.7498  -2.7409  -2.7345  -2.7304  -2.7171  -2.6938
    -2.6568  -2.6491  -2.6367  -2.6304  -2.4984  -2.4851  -2.4650  -2.4608
    -2.4375  -2.4239  -2.4085  -2.4008  -2.3705  -2.3585  -2.2176  -2.1733
    -2.1134  -1.9623  -1.9445  -1.9410  -1.9299  -1.9146  -1.9114  -1.9015
    -1.8950  -1.8867  -1.8807  -1.8679  -1.8589  -1.8516  -1.8368  -1.8295
    -1.8157  -1.7795  -1.7597  -1.7423  -1.7398  -1.7352  -1.7252  -1.7207
    -1.7166  -1.7001  -1.6870  -1.6850  -1.6603  -1.6528  -1.6362  -1.6229
    -1.6025  -1.5917  -1.5850  -1.5724  -1.5611  -1.5594  -1.5479  -1.5341
    -1.4877  -1.4774  -1.4723  -1.4405  -1.4313  -1.4187  -1.4126  -1.4092
    -1.4043  -1.3903  -1.3837  -1.3657  -1.3456  -1.3336  -1.3207  -1.3185
    -1.3075  -1.3031  -1.2957  -1.2827  -1.2708  -1.2596  -1.2544  -1.2509
    -1.2419  -1.2235  -1.2177  -1.1996  -1.1866  -1.1792  -1.1721  -1.1598
    -1.1520  -1.1509  -1.0959  -1.0825  -1.0649  -1.0595  -1.0478  -1.0227
    -1.0190  -1.0071  -0.9918  -0.9887  -0.9829  -0.9759  -0.9542  -0.9465
    -0.9379  -0.9194  -0.9070  -0.9011  -0.8913  -0.8854  -0.8732  -0.8730
    -0.8450  -0.8106  -0.7936  -0.7883  -0.7644  -0.7574  -0.7427  -0.7206
    -0.6956  -0.6873  -0.6781  -0.6469  -0.6430  -0.6331  -0.6179  -0.6105
    -0.6014  -0.5828  -0.5676  -0.5654  -0.5577  -0.5364  -0.5158  -0.4990
    -0.4935  -0.4789  -0.4760  -0.4456  -0.4351  -0.4225  -0.4084  -0.3058
    -0.2992  -0.2907  -0.2835  -0.2691  -0.2630  -0.2520  -0.2378  -0.1938
    -0.1912  -0.1823  -0.1739  -0.1626  -0.1483  -0.1294  -0.1204  -0.1013
    -0.0638  -0.0454  -0.0357  -0.0085   0.0173   0.0188   0.0332   0.0526
     0.0704   0.2669   0.2813   0.3144   0.3349   0.4910   0.4986   0.5183
     0.5839   0.7383   0.8714   0.9057   0.9337   1.0647   1.2382   1.4132
     1.5556   1.6668   1.7194   1.7824   1.8149   1.9120   1.9755   1.9970
     2.0463   2.0797   2.1389   2.2704   2.3387   2.4122   2.4656   2.4819
     2.5129   2.5175   2.5682   2.6157   2.6421   2.8897   3.0135   3.0720
     3.0858   3.1682   3.1906   3.2406   3.2805   3.3444   3.3541   3.3791
     3.3895   3.4271   3.4397   3.4614   3.4754   3.4896   3.5126   3.5266
     3.5308   3.5363   3.5485   3.5657   3.5919   3.6005   3.6717   3.6816
     3.6901   3.7302   3.7372   3.7494   3.7524   3.7706   3.7807   3.7997
     3.8389   3.8586   3.8720   3.9078   3.9123   3.9284   3.9381   3.9585
     3.9792   3.9994   4.0425   4.0677   4.0810   4.0866   4.0936   4.1240
     4.1723   4.2025   4.2135   4.2273   4.2442   4.2522   4.2562   4.2716
     4.2884   4.3056   4.3234   4.3416   4.3867   4.4056   4.4188   4.4304
     4.4486   4.4871   4.4937   4.4949   4.5271   4.5374   4.5492   4.5522
     4.5722   4.5875   4.5957   4.6070   4.6366   4.6600   4.6699   4.6969
     4.6984   4.7115   4.7199   4.7239   4.7343   4.7373   4.7534   4.7572
     4.7664   4.7734   4.7834   4.7838   4.7972   4.8041   4.8133   4.8170
     4.8267   4.8329   4.8483   4.8574   4.8649   4.8702   4.8799   4.8842
     4.8991   4.9061   4.9196   4.9240   4.9293   4.9337   4.9404   4.9473
     4.9546   4.9612   4.9709   4.9760   4.9840   4.9913   4.9978   5.0055
     5.0162   5.0210   5.0308   5.0333   5.0393   5.0460   5.0551   5.0687
     5.0823   5.0895   5.1006   5.1187   5.1258   5.1276   5.1377   5.1445
     5.1478   5.1513   5.1621   5.1845   5.1937   5.1959   5.2041   5.2184

          k = 0.2500 0.2500 0.0000 (149265 PWs)   bands (ev):

   -55.5245 -55.5049 -55.4973 -55.4866 -55.4768 -55.4683 -55.4616 -55.4615
   -55.4546 -55.4518 -55.4472 -55.4451 -55.4413 -55.4368 -55.4293 -55.4244
   -55.4231 -55.4180 -55.4147 -55.4121 -55.4049 -55.3970 -55.3961 -55.3767
   -55.3657 -55.3629 -55.3521 -55.3408 -55.3396 -55.3305 -55.3175 -55.2880
   -55.2460 -55.2388 -55.2321 -55.2117 -55.1906 -55.1865 -55.1828 -55.1785
   -55.1743 -55.1710 -55.1640 -55.1606 -55.1557 -55.1533 -55.1507 -55.1487
   -55.1467 -55.1451 -55.1432 -55.1406 -55.1273 -55.1218 -55.1181 -55.1169
   -55.1071 -55.1056 -55.1041 -55.0960 -55.0886 -55.0854 -55.0739 -55.0666
   -55.0605 -55.0393 -54.9998 -54.9600 -54.9422 -54.9332 -54.9306 -54.8067
   -42.0300 -41.7994 -31.9717 -31.9500 -31.9456 -31.9346 -31.9096 -31.9066
   -31.8994 -31.8897 -31.8861 -31.8830 -31.8800 -31.8780 -31.8717 -31.8670
   -31.8559 -31.8528 -31.8517 -31.8490 -31.8381 -31.8361 -31.8317 -31.8259
   -31.8199 -31.8139 -31.8121 -31.8090 -31.8064 -31.8022 -31.7958 -31.7903
   -31.7881 -31.7820 -31.7797 -31.7747 -31.7726 -31.7684 -31.7639 -31.7602
   -31.7563 -31.7533 -31.7494 -31.7439 -31.7397 -31.7355 -31.7339 -31.7325
   -31.7278 -31.7235 -31.7170 -31.7105 -31.7071 -31.7029 -31.7003 -31.6970
   -31.6845 -31.6795 -31.6759 -31.6699 -31.6661 -31.6617 -31.6572 -31.6538
   -31.6509 -31.6439 -31.6404 -31.6370 -31.6326 -31.6286 -31.6253 -31.6228
   -31.6173 -31.6145 -31.6076 -31.6055 -31.6029 -31.6015 -31.5988 -31.5953
   -31.5928 -31.5900 -31.5873 -31.5851 -31.5817 -31.5786 -31.5741 -31.5729
   -31.5705 -31.5670 -31.5646 -31.5635 -31.5605 -31.5586 -31.5570 -31.5537
   -31.5522 -31.5465 -31.5422 -31.5407 -31.5383 -31.5370 -31.5347 -31.5310
   -31.5285 -31.5258 -31.5233 -31.5207 -31.5166 -31.5117 -31.5086 -31.5044
   -31.5031 -31.5001 -31.4989 -31.4948 -31.4926 -31.4909 -31.4874 -31.4851
   -31.4835 -31.4812 -31.4784 -31.4756 -31.4730 -31.4699 -31.4672 -31.4639
   -31.4608 -31.4579 -31.4572 -31.4540 -31.4504 -31.4454 -31.4422 -31.4395
   -31.4357 -31.4295 -31.4262 -31.4214 -31.4188 -31.4112 -31.4073 -31.4057
   -31.3994 -31.3959 -31.3909 -31.3889 -31.3866 -31.3823 -31.3782 -31.3747
   -31.3710 -31.3656 -31.3640 -31.3626 -31.3579 -31.3568 -31.3522 -31.3509
   -31.3479 -31.3438 -31.3404 -31.3384 -31.3356 -31.3326 -31.3296 -31.3258
   -31.3237 -31.3190 -31.3177 -31.3150 -31.3145 -31.3106 -31.3048 -31.3042
   -31.3005 -31.2982 -31.2959 -31.2920 -31.2900 -31.2877 -31.2851 -31.2812
   -31.2792 -31.2758 -31.2726 -31.2688 -31.2650 -31.2607 -31.2564 -31.2512
   -31.2488 -31.2455 -31.2422 -31.2389 -31.2345 -31.2342 -31.2317 -31.2266
   -31.2236 -31.2199 -31.2171 -31.2117 -31.2040 -31.1951 -31.1512 -31.1475
   -31.1411 -31.1188 -31.1056 -31.0948 -31.0611 -31.0509 -31.0374 -30.9790
   -30.9631 -30.8688 -13.3431 -13.0491 -13.0164 -12.7585 -12.7388 -12.5700
   -12.5591 -12.5286 -12.3255 -12.3001 -12.2871 -12.2658 -12.1258 -12.1042
   -12.0636 -11.9678 -11.9422 -11.9285 -11.9236 -11.9105 -11.8884 -11.8778
   -11.8644 -11.8330 -11.8173 -11.7762 -11.7748 -11.7632 -11.7437 -11.7272
   -11.7119 -11.6866 -11.6701 -11.6507 -11.6328 -11.6214 -11.6054 -11.5991
   -11.5893 -11.5718 -11.4971 -11.4621 -11.4238 -11.3931 -11.3505 -11.3438
   -11.2496 -11.2424 -11.2037 -11.1988 -11.1957 -11.1889 -11.1871 -11.1827
   -11.1573 -11.1075 -11.1010 -11.0792 -11.0681 -11.0635 -11.0324 -11.0166
   -11.0026 -10.9547 -10.9503 -10.9351 -10.9174 -10.8684 -10.8437 -10.8198
   -10.7900 -10.7596 -10.6928  -9.5468  -8.3382  -8.1771  -7.9432  -6.3063
    -3.9146  -3.9041  -3.8507  -3.8299  -3.5575  -3.5321  -3.5192  -3.4928
    -3.3910  -3.3761  -3.3222  -3.3106  -3.2307  -3.2162  -3.1685  -3.1560
    -3.1412  -3.0730  -3.0614  -3.0430  -2.9989  -2.9814  -2.9711  -2.9609
    -2.9499  -2.9342  -2.8641  -2.8502  -2.8348  -2.8082  -2.7911  -2.7866
    -2.7743  -2.7566  -2.7473  -2.7326  -2.7268  -2.6867  -2.6752  -2.6664
    -2.5964  -2.5835  -2.5614  -2.5377  -2.5295  -2.5204  -2.5045  -2.4038
    -2.3922  -2.3696  -2.3609  -2.3321  -2.3192  -2.2734  -2.2612  -2.2255
    -2.2174  -2.1897  -2.1760  -2.1635  -2.1125  -2.0996  -2.0547  -1.9172
    -1.8972  -1.8945  -1.8324  -1.8005  -1.7938  -1.7910  -1.7747  -1.7668
    -1.7491  -1.7382  -1.7339  -1.7288  -1.7202  -1.7121  -1.6997  -1.6911
    -1.6817  -1.6619  -1.6576  -1.6454  -1.6336  -1.6143  -1.6092  -1.5918
    -1.5575  -1.5399  -1.5350  -1.5279  -1.5226  -1.5134  -1.5085  -1.4994
    -1.4820  -1.4771  -1.4583  -1.4508  -1.4360  -1.4240  -1.4177  -1.4084
    -1.4008  -1.3853  -1.3791  -1.3692  -1.3677  -1.3492  -1.3383  -1.3322
    -1.3247  -1.3103  -1.3046  -1.3007  -1.2956  -1.2811  -1.2646  -1.2630
    -1.2510  -1.2368  -1.2233  -1.2184  -1.1967  -1.1752  -1.1650  -1.1491
    -1.1129  -1.1102  -1.0937  -1.0833  -1.0724  -1.0580  -1.0304  -1.0155
    -1.0066  -0.9994  -0.9712  -0.9623  -0.9553  -0.9459  -0.9416  -0.9346
    -0.9227  -0.9215  -0.9117  -0.8989  -0.8847  -0.8720  -0.8614  -0.8484
    -0.8368  -0.8319  -0.8119  -0.8058  -0.7874  -0.7769  -0.7616  -0.7541
    -0.7423  -0.7308  -0.7209  -0.6981  -0.6847  -0.6611  -0.6535  -0.6400
    -0.6153  -0.6070  -0.5936  -0.5896  -0.5560  -0.5213  -0.5050  -0.4914
    -0.4892  -0.4767  -0.4646  -0.4600  -0.4328  -0.4262  -0.4034  -0.4019
    -0.3614  -0.3421  -0.3158  -0.3041  -0.2877  -0.2465  -0.2322  -0.2248
    -0.2061  -0.1937  -0.1834  -0.1388  -0.1330  -0.1095  -0.0866  -0.0691
    -0.0511  -0.0185   0.0136   0.0260   0.0382   0.0644   0.0919   0.1270
     0.1367   0.1896   0.2121   0.2378   0.4221   0.4599   0.4747   0.5701
     0.7301   0.7488   0.8360   0.9016   1.0332   1.0712   1.2260   1.4311
     1.5658   1.6386   1.6595   1.7730   1.8200   1.8676   1.8912   1.9265
     2.0196   2.0872   2.1191   2.1758   2.2310   2.3892   2.4343   2.6600
     2.6767   2.7315   2.7669   2.7687   2.8291   2.8573   2.9059   2.9342
     3.0280   3.0627   3.0939   3.1027   3.1452   3.1517   3.1976   3.2549
     3.2755   3.3297   3.3710   3.4208   3.4861   3.5009   3.5212   3.5481
     3.5576   3.5843   3.6002   3.6115   3.6443   3.6512   3.6941   3.7091
     3.7283   3.7439   3.7848   3.7927   3.8258   3.8399   3.8630   3.8996
     3.9101   3.9308   3.9437   3.9534   3.9636   3.9850   3.9911   4.0029
     4.0131   4.0179   4.0280   4.0556   4.0683   4.0902   4.1095   4.1171
     4.1442   4.1754   4.2043   4.2220   4.2304   4.2711   4.2807   4.2904
     4.3131   4.3219   4.3273   4.3440   4.3511   4.3766   4.3979   4.4137
     4.4285   4.4467   4.4702   4.4834   4.4944   4.5146   4.5309   4.5355
     4.5562   4.5644   4.5731   4.6001   4.6091   4.6144   4.6308   4.6488
     4.6756   4.6856   4.6955   4.7074   4.7130   4.7257   4.7320   4.7468
     4.7585   4.7634   4.7756   4.7862   4.7913   4.7990   4.8048   4.8189
     4.8312   4.8374   4.8466   4.8557   4.8614   4.8725   4.8861   4.8933
     4.9031   4.9216   4.9425   4.9460   4.9570   4.9616   4.9669   4.9783
     4.9831   4.9902   4.9968   5.0031   5.0123   5.0173   5.0194   5.0278
     5.0387   5.0436   5.0485   5.0519   5.0636   5.0679   5.0718   5.0784
     5.0888   5.0913   5.0974   5.1045   5.1080   5.1184   5.1261   5.1308
     5.1326   5.1383   5.1456   5.1514   5.1570   5.1694   5.1755   5.1890

          k = 0.2500-0.5000 0.0000 (149272 PWs)   bands (ev):

   -55.5245 -55.5049 -55.4974 -55.4866 -55.4768 -55.4682 -55.4616 -55.4614
   -55.4546 -55.4520 -55.4472 -55.4451 -55.4413 -55.4366 -55.4291 -55.4246
   -55.4231 -55.4179 -55.4154 -55.4116 -55.4049 -55.3970 -55.3962 -55.3767
   -55.3655 -55.3631 -55.3521 -55.3408 -55.3396 -55.3305 -55.3175 -55.2880
   -55.2460 -55.2388 -55.2321 -55.2118 -55.1904 -55.1863 -55.1828 -55.1790
   -55.1744 -55.1711 -55.1640 -55.1604 -55.1555 -55.1533 -55.1507 -55.1487
   -55.1467 -55.1445 -55.1432 -55.1410 -55.1274 -55.1222 -55.1181 -55.1167
   -55.1067 -55.1056 -55.1043 -55.0960 -55.0886 -55.0854 -55.0739 -55.0666
   -55.0605 -55.0393 -54.9998 -54.9600 -54.9422 -54.9332 -54.9306 -54.8067
   -42.0300 -41.7994 -31.9718 -31.9501 -31.9458 -31.9343 -31.9099 -31.9066
   -31.8997 -31.8892 -31.8864 -31.8835 -31.8802 -31.8776 -31.8726 -31.8675
   -31.8599 -31.8538 -31.8512 -31.8464 -31.8378 -31.8364 -31.8334 -31.8243
   -31.8194 -31.8144 -31.8121 -31.8094 -31.8018 -31.7988 -31.7901 -31.7889
   -31.7817 -31.7805 -31.7779 -31.7760 -31.7738 -31.7707 -31.7668 -31.7620
   -31.7604 -31.7557 -31.7517 -31.7487 -31.7414 -31.7369 -31.7338 -31.7288
   -31.7255 -31.7208 -31.7177 -31.7123 -31.7093 -31.7019 -31.6991 -31.6949
   -31.6884 -31.6801 -31.6781 -31.6752 -31.6665 -31.6645 -31.6563 -31.6541
   -31.6511 -31.6409 -31.6366 -31.6349 -31.6295 -31.6262 -31.6215 -31.6192
   -31.6151 -31.6141 -31.6096 -31.6071 -31.6048 -31.6021 -31.5966 -31.5946
   -31.5918 -31.5884 -31.5852 -31.5834 -31.5814 -31.5797 -31.5779 -31.5759
   -31.5713 -31.5704 -31.5678 -31.5669 -31.5645 -31.5612 -31.5562 -31.5553
   -31.5527 -31.5464 -31.5441 -31.5423 -31.5382 -31.5350 -31.5322 -31.5311
   -31.5269 -31.5256 -31.5209 -31.5190 -31.5138 -31.5128 -31.5073 -31.5059
   -31.5024 -31.5003 -31.4966 -31.4943 -31.4913 -31.4903 -31.4883 -31.4849
   -31.4837 -31.4796 -31.4786 -31.4755 -31.4731 -31.4708 -31.4669 -31.4645
   -31.4627 -31.4598 -31.4569 -31.4550 -31.4496 -31.4454 -31.4411 -31.4375
   -31.4334 -31.4296 -31.4260 -31.4209 -31.4185 -31.4132 -31.4078 -31.4021
   -31.3994 -31.3962 -31.3932 -31.3900 -31.3860 -31.3825 -31.3790 -31.3741
   -31.3713 -31.3690 -31.3660 -31.3625 -31.3578 -31.3558 -31.3515 -31.3505
   -31.3472 -31.3443 -31.3410 -31.3376 -31.3370 -31.3326 -31.3289 -31.3275
   -31.3233 -31.3215 -31.3193 -31.3165 -31.3118 -31.3087 -31.3048 -31.3019
   -31.2988 -31.2951 -31.2941 -31.2915 -31.2897 -31.2881 -31.2868 -31.2834
   -31.2777 -31.2769 -31.2712 -31.2671 -31.2664 -31.2616 -31.2568 -31.2528
   -31.2514 -31.2478 -31.2417 -31.2372 -31.2345 -31.2336 -31.2316 -31.2268
   -31.2235 -31.2201 -31.2167 -31.2107 -31.2034 -31.1962 -31.1509 -31.1478
   -31.1408 -31.1189 -31.1057 -31.0948 -31.0612 -31.0509 -31.0374 -30.9790
   -30.9631 -30.8688 -13.2295 -13.2143 -12.9233 -12.9090 -12.7585 -12.4772
   -12.4582 -12.4437 -12.4338 -12.3434 -12.2655 -12.2140 -12.1981 -12.1078
   -12.0598 -12.0381 -12.0088 -11.9004 -11.8875 -11.8833 -11.8485 -11.8423
   -11.8322 -11.8216 -11.8086 -11.7949 -11.7793 -11.7600 -11.7440 -11.7243
   -11.7162 -11.7079 -11.6753 -11.6700 -11.6574 -11.6298 -11.5948 -11.5841
   -11.5562 -11.5410 -11.5363 -11.5252 -11.4644 -11.3543 -11.3379 -11.2904
   -11.2805 -11.2710 -11.2286 -11.2212 -11.2186 -11.1545 -11.1518 -11.1432
   -11.1369 -11.1325 -11.1213 -11.0923 -11.0793 -11.0423 -11.0234 -11.0083
   -10.9825 -10.9761 -10.9402 -10.9271 -10.9119 -10.8836 -10.8574 -10.8346
   -10.7934 -10.7365 -10.6874  -9.5468  -8.3383  -8.1771  -7.9432  -6.3063
    -3.9552  -3.9459  -3.9324  -3.9272  -3.5286  -3.5134  -3.4941  -3.4634
    -3.3221  -3.2995  -3.2652  -3.2550  -3.1952  -3.1700  -3.1419  -3.1224
    -3.0949  -3.0879  -3.0579  -3.0402  -3.0197  -3.0110  -2.9987  -2.9911
    -2.9840  -2.9713  -2.9620  -2.9522  -2.8472  -2.8316  -2.7710  -2.7624
    -2.7559  -2.7517  -2.7382  -2.7171  -2.7011  -2.6872  -2.6209  -2.6025
    -2.5610  -2.5483  -2.5372  -2.5346  -2.5056  -2.4884  -2.4732  -2.4663
    -2.4567  -2.4384  -2.4123  -2.3808  -2.3317  -2.3205  -2.2852  -2.2760
    -2.2356  -2.1937  -2.1759  -2.1593  -2.1211  -2.1178  -2.1068  -2.0915
    -2.0806  -1.7952  -1.7899  -1.7819  -1.7548  -1.7462  -1.7339  -1.7296
    -1.7138  -1.7125  -1.7078  -1.7006  -1.6919  -1.6847  -1.6816  -1.6693
    -1.6652  -1.6564  -1.6467  -1.6404  -1.6309  -1.6269  -1.6208  -1.6128
    -1.6024  -1.5986  -1.5912  -1.5824  -1.5681  -1.5559  -1.5359  -1.5266
    -1.5163  -1.5092  -1.4861  -1.4810  -1.4731  -1.4656  -1.4550  -1.4473
    -1.4365  -1.4310  -1.4180  -1.4080  -1.3936  -1.3784  -1.3699  -1.3663
    -1.3614  -1.3337  -1.3171  -1.3041  -1.2907  -1.2757  -1.2330  -1.2286
    -1.2042  -1.1953  -1.1766  -1.1534  -1.1394  -1.1301  -1.1026  -1.0756
    -1.0620  -1.0463  -1.0307  -0.9982  -0.9920  -0.9862  -0.9751  -0.9733
    -0.9672  -0.9596  -0.9450  -0.9429  -0.9345  -0.9233  -0.9091  -0.8976
    -0.8864  -0.8723  -0.8707  -0.8661  -0.8468  -0.8304  -0.8120  -0.7989
    -0.7879  -0.7777  -0.7657  -0.7593  -0.7467  -0.7368  -0.7299  -0.7186
    -0.7142  -0.7026  -0.6970  -0.6858  -0.6776  -0.6733  -0.6570  -0.6537
    -0.6364  -0.6161  -0.6001  -0.5779  -0.5599  -0.5223  -0.5039  -0.4771
    -0.4515  -0.4412  -0.4308  -0.4277  -0.4079  -0.3933  -0.3608  -0.3476
    -0.3381  -0.3213  -0.3130  -0.3094  -0.2866  -0.2581  -0.2394  -0.2122
    -0.2067  -0.1966  -0.1900  -0.1864  -0.1641  -0.1430  -0.1408  -0.1214
    -0.0982  -0.0889  -0.0656  -0.0089   0.0093   0.0154   0.0570   0.0941
     0.1557   0.1790   0.2073   0.2261   0.2712   0.3758   0.4005   0.4310
     0.4913   0.6947   0.7315   0.7717   0.9003   1.0646   1.2276   1.4308
     1.5655   1.6614   1.7735   1.8257   1.8924   1.9197   2.0502   2.0777
     2.0936   2.1427   2.1600   2.2790   2.3349   2.3996   2.4884   2.5239
     2.5640   2.5996   2.6118   2.6739   2.7388   2.8149   2.8841   2.8917
     2.9179   2.9558   3.0072   3.0760   3.0849   3.1505   3.2095   3.2303
     3.2589   3.2750   3.3066   3.3623   3.3730   3.4210   3.4636   3.4764
     3.5342   3.5493   3.5551   3.5666   3.6027   3.6280   3.6406   3.6661
     3.7006   3.7332   3.7535   3.7735   3.7835   3.8039   3.8230   3.8484
     3.8834   3.9115   3.9195   3.9468   3.9706   3.9831   4.0099   4.0350
     4.0449   4.0483   4.0810   4.0955   4.1035   4.1213   4.1371   4.1505
     4.1595   4.1843   4.2128   4.2445   4.2519   4.2831   4.3202   4.3350
     4.3528   4.3751   4.3843   4.4181   4.4390   4.4510   4.4682   4.4771
     4.4934   4.5012   4.5344   4.5497   4.5647   4.5754   4.5828   4.6020
     4.6077   4.6124   4.6266   4.6403   4.6527   4.6619   4.6892   4.7043
     4.7148   4.7243   4.7330   4.7398   4.7481   4.7569   4.7648   4.7729
     4.7836   4.7881   4.7952   4.8064   4.8126   4.8167   4.8322   4.8435
     4.8494   4.8557   4.8635   4.8681   4.8746   4.8823   4.8920   4.8954
     4.9006   4.9066   4.9128   4.9223   4.9266   4.9342   4.9426   4.9490
     4.9534   4.9645   4.9776   4.9870   4.9957   4.9979   5.0103   5.0177
     5.0264   5.0315   5.0409   5.0464   5.0546   5.0630   5.0689   5.0791
     5.0856   5.0978   5.1046   5.1069   5.1148   5.1192   5.1263   5.1319
     5.1386   5.1442   5.1502   5.1544   5.1715   5.1753   5.1838   5.2041

          k =-0.5000-0.5000 0.0000 (149464 PWs)   bands (ev):

   -55.5245 -55.5049 -55.4973 -55.4866 -55.4768 -55.4681 -55.4624 -55.4615
   -55.4530 -55.4521 -55.4472 -55.4458 -55.4413 -55.4366 -55.4292 -55.4248
   -55.4231 -55.4174 -55.4157 -55.4116 -55.4049 -55.3970 -55.3961 -55.3767
   -55.3656 -55.3630 -55.3521 -55.3408 -55.3396 -55.3305 -55.3175 -55.2880
   -55.2459 -55.2389 -55.2321 -55.2118 -55.1900 -55.1870 -55.1830 -55.1787
   -55.1749 -55.1705 -55.1643 -55.1587 -55.1555 -55.1543 -55.1512 -55.1486
   -55.1467 -55.1445 -55.1432 -55.1411 -55.1273 -55.1222 -55.1180 -55.1168
   -55.1068 -55.1055 -55.1043 -55.0960 -55.0884 -55.0857 -55.0738 -55.0666
   -55.0605 -55.0393 -54.9998 -54.9600 -54.9422 -54.9332 -54.9306 -54.8067
   -42.0300 -41.7994 -31.9720 -31.9500 -31.9458 -31.9343 -31.9101 -31.9068
   -31.8995 -31.8891 -31.8873 -31.8835 -31.8803 -31.8779 -31.8731 -31.8677
   -31.8650 -31.8523 -31.8509 -31.8468 -31.8380 -31.8366 -31.8309 -31.8260
   -31.8194 -31.8171 -31.8115 -31.8040 -31.8021 -31.7951 -31.7888 -31.7840
   -31.7812 -31.7798 -31.7774 -31.7731 -31.7717 -31.7707 -31.7652 -31.7648
   -31.7606 -31.7540 -31.7517 -31.7489 -31.7449 -31.7351 -31.7317 -31.7259
   -31.7246 -31.7228 -31.7123 -31.7097 -31.7051 -31.7022 -31.7006 -31.6991
   -31.6918 -31.6881 -31.6868 -31.6840 -31.6794 -31.6735 -31.6675 -31.6591
   -31.6501 -31.6420 -31.6371 -31.6317 -31.6261 -31.6219 -31.6172 -31.6140
   -31.6075 -31.6069 -31.6038 -31.6005 -31.5990 -31.5948 -31.5938 -31.5912
   -31.5900 -31.5874 -31.5838 -31.5829 -31.5809 -31.5787 -31.5751 -31.5745
   -31.5739 -31.5725 -31.5702 -31.5661 -31.5616 -31.5593 -31.5575 -31.5574
   -31.5528 -31.5506 -31.5467 -31.5425 -31.5422 -31.5401 -31.5348 -31.5298
   -31.5282 -31.5259 -31.5253 -31.5213 -31.5178 -31.5127 -31.5105 -31.5078
   -31.5058 -31.5027 -31.4980 -31.4945 -31.4919 -31.4893 -31.4878 -31.4848
   -31.4838 -31.4807 -31.4774 -31.4745 -31.4724 -31.4685 -31.4659 -31.4642
   -31.4612 -31.4589 -31.4552 -31.4527 -31.4482 -31.4455 -31.4421 -31.4372
   -31.4348 -31.4312 -31.4284 -31.4228 -31.4161 -31.4148 -31.4099 -31.4041
   -31.3988 -31.3953 -31.3901 -31.3874 -31.3854 -31.3822 -31.3783 -31.3738
   -31.3669 -31.3642 -31.3620 -31.3583 -31.3574 -31.3554 -31.3531 -31.3506
   -31.3486 -31.3434 -31.3418 -31.3383 -31.3360 -31.3334 -31.3327 -31.3285
   -31.3264 -31.3224 -31.3186 -31.3148 -31.3133 -31.3084 -31.3042 -31.3006
   -31.2987 -31.2963 -31.2943 -31.2917 -31.2905 -31.2883 -31.2871 -31.2832
   -31.2789 -31.2747 -31.2724 -31.2704 -31.2658 -31.2639 -31.2586 -31.2540
   -31.2513 -31.2465 -31.2416 -31.2374 -31.2335 -31.2319 -31.2313 -31.2277
   -31.2228 -31.2195 -31.2163 -31.2104 -31.2035 -31.1961 -31.1512 -31.1475
   -31.1411 -31.1186 -31.1055 -31.0947 -31.0611 -31.0511 -31.0374 -30.9790
   -30.9630 -30.8688 -13.1234 -13.1142 -13.0894 -13.0793 -12.7585 -12.3895
   -12.3743 -12.3535 -12.3308 -12.2585 -12.2462 -12.2293 -12.2205 -12.2149
   -12.2095 -12.1695 -12.1377 -11.8709 -11.8556 -11.8455 -11.8345 -11.8320
   -11.8082 -11.7972 -11.7836 -11.7612 -11.7520 -11.7331 -11.7255 -11.7029
   -11.6947 -11.6772 -11.6709 -11.6526 -11.6503 -11.6394 -11.6294 -11.6291
   -11.6216 -11.5631 -11.5291 -11.5046 -11.4876 -11.4360 -11.4103 -11.2229
   -11.2140 -11.2069 -11.2034 -11.1953 -11.1944 -11.1870 -11.1840 -11.1816
   -11.1778 -11.1758 -11.1632 -11.0818 -11.0270 -11.0129 -11.0018 -10.9859
   -10.9717 -10.9599 -10.9505 -10.9247 -10.9168 -10.9061 -10.8884 -10.8457
   -10.8188 -10.7166 -10.6697  -9.5468  -8.3383  -8.1772  -7.9432  -6.3063
    -4.0137  -4.0103  -4.0085  -3.9904  -3.3059  -3.2962  -3.2929  -3.2893
    -3.2846  -3.2768  -3.2641  -3.2604  -3.2507  -3.2446  -3.2201  -3.2137
    -3.1847  -3.1811  -3.1767  -3.1679  -3.1609  -3.1547  -3.0611  -3.0580
    -2.8377  -2.8336  -2.8255  -2.8222  -2.8073  -2.8035  -2.7931  -2.7897
    -2.7678  -2.7623  -2.7462  -2.7295  -2.5959  -2.5922  -2.5881  -2.5791
    -2.5691  -2.5612  -2.5586  -2.5473  -2.4551  -2.4231  -2.4175  -2.4066
    -2.4047  -2.4009  -2.3959  -2.3774  -2.3492  -2.3425  -2.3385  -2.3289
    -2.3219  -2.3038  -2.2911  -2.2872  -2.2840  -2.2684  -2.2657  -2.2391
    -2.1122  -1.8152  -1.8052  -1.7996  -1.7785  -1.7265  -1.7046  -1.6899
    -1.6875  -1.6815  -1.6751  -1.6663  -1.6637  -1.6579  -1.6501  -1.6480
    -1.6425  -1.6377  -1.6316  -1.6223  -1.6188  -1.6154  -1.6106  -1.5906
    -1.5852  -1.5705  -1.5652  -1.5554  -1.5514  -1.5449  -1.5374  -1.5300
    -1.5075  -1.5056  -1.4850  -1.4742  -1.4704  -1.4503  -1.4420  -1.4312
    -1.4273  -1.4199  -1.4132  -1.4054  -1.4031  -1.3875  -1.3775  -1.3724
    -1.3594  -1.3342  -1.3323  -1.3064  -1.2936  -1.2786  -1.2760  -1.2667
    -1.2638  -1.2574  -1.2401  -1.2316  -1.2032  -1.1574  -1.0989  -1.0452
    -1.0348  -1.0294  -1.0200  -1.0137  -0.9990  -0.9898  -0.9738  -0.9279
    -0.9174  -0.8896  -0.8807  -0.8771  -0.8638  -0.8536  -0.8508  -0.8356
    -0.8280  -0.8111  -0.7959  -0.7886  -0.7772  -0.7714  -0.7620  -0.7581
    -0.7561  -0.7430  -0.7413  -0.7360  -0.7306  -0.7114  -0.7059  -0.6773
    -0.6603  -0.6452  -0.6217  -0.6207  -0.6160  -0.5965  -0.5881  -0.5861
    -0.5719  -0.5683  -0.5547  -0.5459  -0.5299  -0.5208  -0.5082  -0.5012
    -0.4765  -0.4661  -0.4550  -0.4483  -0.4306  -0.4108  -0.4020  -0.3880
    -0.3811  -0.3708  -0.3615  -0.3546  -0.3365  -0.3219  -0.2822  -0.2621
    -0.2461  -0.2017  -0.1716  -0.1380  -0.1320  -0.1215  -0.1140  -0.1034
    -0.0903  -0.0789  -0.0739  -0.0340   0.0097   0.0237   0.0609   0.0956
     0.1198   0.1294   0.1400   0.1509   0.1911   0.2595   0.2951   0.3287
     0.3522   0.4186   0.5568   0.7228   0.8957   1.0645   1.2231   1.4438
     1.5735   1.6595   1.7757   1.8369   1.9187   2.0594   2.1205   2.2755
     2.2800   2.3015   2.3122   2.3544   2.3577   2.3786   2.4329   2.4476
     2.4608   2.5062   2.5222   2.7329   2.7475   2.7999   2.8185   2.8242
     2.8406   2.8600   2.8707   2.8921   2.8999   2.9535   2.9725   3.0911
     3.2491   3.2667   3.2929   3.3034   3.3356   3.4034   3.4432   3.4842
     3.5112   3.5502   3.5551   3.5657   3.5718   3.5866   3.6263   3.6441
     3.6699   3.6793   3.6892   3.7423   3.7671   3.7841   3.7952   3.8230
     3.8306   3.8421   3.8599   3.9009   3.9207   3.9616   3.9657   3.9958
     4.0046   4.0853   4.1004   4.1390   4.2356   4.2458   4.2634   4.2789
     4.2997   4.3081   4.3117   4.3249   4.3338   4.3599   4.4179   4.4400
     4.4498   4.4673   4.4813   4.5010   4.5235   4.5362   4.5406   4.5517
     4.5570   4.5647   4.5720   4.5867   4.5917   4.6025   4.6029   4.6167
     4.6214   4.6232   4.6317   4.6368   4.6507   4.6630   4.6701   4.6730
     4.6877   4.6963   4.7149   4.7254   4.7363   4.7428   4.7536   4.7622
     4.7666   4.7769   4.7863   4.7876   4.7961   4.8057   4.8090   4.8254
     4.8296   4.8383   4.8464   4.8521   4.8562   4.8628   4.8712   4.8808
     4.8825   4.8986   4.9082   4.9274   4.9357   4.9500   4.9611   4.9632
     4.9791   4.9840   4.9909   4.9991   5.0077   5.0133   5.0191   5.0312
     5.0410   5.0458   5.0540   5.0620   5.0648   5.0748   5.0764   5.0836
     5.0911   5.0943   5.0954   5.1011   5.1046   5.1082   5.1111   5.1183
     5.1328   5.1391   5.1420   5.1526   5.1622   5.1697   5.1840   5.2065

          k = 0.2500 0.0000 0.0000 (149240 PWs)   bands (ev):

   -55.5245 -55.5049 -55.4972 -55.4866 -55.4767 -55.4684 -55.4617 -55.4615
   -55.4546 -55.4516 -55.4472 -55.4451 -55.4413 -55.4370 -55.4295 -55.4242
   -55.4231 -55.4176 -55.4148 -55.4123 -55.4049 -55.3970 -55.3962 -55.3767
   -55.3659 -55.3626 -55.3522 -55.3408 -55.3396 -55.3305 -55.3175 -55.2880
   -55.2460 -55.2388 -55.2321 -55.2116 -55.1906 -55.1872 -55.1830 -55.1769
   -55.1750 -55.1711 -55.1640 -55.1604 -55.1563 -55.1530 -55.1507 -55.1486
   -55.1467 -55.1455 -55.1433 -55.1401 -55.1273 -55.1213 -55.1181 -55.1173
   -55.1073 -55.1056 -55.1040 -55.0960 -55.0886 -55.0854 -55.0739 -55.0666
   -55.0604 -55.0393 -54.9998 -54.9600 -54.9422 -54.9332 -54.9306 -54.8067
   -42.0300 -41.7994 -31.9716 -31.9500 -31.9453 -31.9350 -31.9092 -31.9066
   -31.8993 -31.8899 -31.8863 -31.8830 -31.8794 -31.8780 -31.8712 -31.8659
   -31.8541 -31.8520 -31.8512 -31.8437 -31.8406 -31.8369 -31.8312 -31.8293
   -31.8257 -31.8179 -31.8130 -31.8118 -31.8065 -31.8001 -31.7955 -31.7894
   -31.7873 -31.7806 -31.7779 -31.7735 -31.7725 -31.7703 -31.7665 -31.7626
   -31.7595 -31.7502 -31.7476 -31.7437 -31.7410 -31.7366 -31.7344 -31.7309
   -31.7227 -31.7212 -31.7149 -31.7115 -31.7098 -31.7027 -31.6975 -31.6904
   -31.6834 -31.6803 -31.6771 -31.6722 -31.6679 -31.6664 -31.6604 -31.6554
   -31.6477 -31.6440 -31.6374 -31.6351 -31.6282 -31.6269 -31.6257 -31.6197
   -31.6163 -31.6153 -31.6111 -31.6088 -31.6064 -31.6054 -31.6013 -31.5975
   -31.5928 -31.5898 -31.5873 -31.5846 -31.5821 -31.5774 -31.5740 -31.5721
   -31.5709 -31.5685 -31.5663 -31.5642 -31.5599 -31.5568 -31.5546 -31.5512
   -31.5465 -31.5447 -31.5428 -31.5406 -31.5383 -31.5348 -31.5327 -31.5303
   -31.5258 -31.5234 -31.5224 -31.5214 -31.5159 -31.5143 -31.5097 -31.5076
   -31.5062 -31.5035 -31.5003 -31.4977 -31.4967 -31.4910 -31.4883 -31.4852
   -31.4815 -31.4791 -31.4768 -31.4751 -31.4720 -31.4682 -31.4664 -31.4652
   -31.4619 -31.4584 -31.4561 -31.4533 -31.4506 -31.4458 -31.4424 -31.4398
   -31.4376 -31.4332 -31.4264 -31.4184 -31.4173 -31.4134 -31.4118 -31.4064
   -31.4017 -31.3936 -31.3906 -31.3840 -31.3831 -31.3790 -31.3766 -31.3739
   -31.3711 -31.3689 -31.3638 -31.3623 -31.3598 -31.3574 -31.3536 -31.3516
   -31.3469 -31.3438 -31.3412 -31.3360 -31.3351 -31.3291 -31.3268 -31.3262
   -31.3240 -31.3210 -31.3184 -31.3159 -31.3140 -31.3099 -31.3084 -31.3042
   -31.3026 -31.3013 -31.2969 -31.2943 -31.2898 -31.2866 -31.2818 -31.2797
   -31.2766 -31.2753 -31.2721 -31.2681 -31.2643 -31.2609 -31.2560 -31.2526
   -31.2506 -31.2445 -31.2433 -31.2398 -31.2352 -31.2337 -31.2301 -31.2270
   -31.2250 -31.2179 -31.2173 -31.2128 -31.2046 -31.1945 -31.1509 -31.1479
   -31.1407 -31.1189 -31.1055 -31.0948 -31.0612 -31.0509 -31.0374 -30.9790
   -30.9631 -30.8688 -13.3849 -13.0741 -12.8056 -12.7918 -12.7585 -12.6051
   -12.5798 -12.5216 -12.5102 -12.3394 -12.1488 -12.1247 -12.1183 -12.1046
   -12.0906 -11.9946 -11.9704 -11.9571 -11.9300 -11.9093 -11.8958 -11.8913
   -11.8615 -11.8380 -11.8014 -11.7843 -11.7789 -11.7731 -11.7491 -11.7257
   -11.7089 -11.6838 -11.6632 -11.6519 -11.6403 -11.6297 -11.6129 -11.5908
   -11.5622 -11.5301 -11.4783 -11.4643 -11.4622 -11.3706 -11.3143 -11.3059
   -11.2959 -11.2736 -11.2606 -11.2135 -11.2005 -11.1761 -11.1719 -11.1452
   -11.1344 -11.1037 -11.1005 -11.0875 -11.0675 -11.0655 -11.0342 -11.0143
   -10.9975 -10.9965 -10.9675 -10.9489 -10.8768 -10.8652 -10.8448 -10.8154
   -10.7905 -10.7403 -10.7220  -9.5468  -8.3382  -8.1770  -7.9432  -6.3063
    -3.7680  -3.7645  -3.7581  -3.7497  -3.6504  -3.6348  -3.6090  -3.6062
    -3.4390  -3.4245  -3.4109  -3.4043  -3.1824  -3.1742  -3.1135  -3.1087
    -3.0928  -3.0606  -3.0511  -3.0396  -3.0272  -2.9953  -2.9713  -2.9581
    -2.9302  -2.8915  -2.8835  -2.8653  -2.8536  -2.8382  -2.8306  -2.8138
    -2.8088  -2.7952  -2.7705  -2.7425  -2.6986  -2.6739  -2.6454  -2.6374
    -2.5932  -2.5815  -2.5454  -2.5396  -2.5328  -2.5202  -2.5007  -2.4829
    -2.4516  -2.3466  -2.3096  -2.3048  -2.2893  -2.2381  -2.2025  -2.1666
    -2.1563  -2.1475  -2.1131  -2.0987  -2.0812  -2.0682  -2.0473  -1.9455
    -1.8446  -1.8159  -1.8016  -1.7936  -1.7884  -1.7687  -1.7668  -1.7599
    -1.7535  -1.7388  -1.7170  -1.7144  -1.7049  -1.6963  -1.6799  -1.6727
    -1.6670  -1.6624  -1.6399  -1.6262  -1.6186  -1.6045  -1.6023  -1.5969
    -1.5826  -1.5767  -1.5653  -1.5581  -1.5489  -1.5392  -1.5305  -1.5260
    -1.5106  -1.5061  -1.4836  -1.4586  -1.4432  -1.4258  -1.4247  -1.4044
    -1.3930  -1.3743  -1.3630  -1.3509  -1.3332  -1.3204  -1.3112  -1.3019
    -1.2976  -1.2926  -1.2875  -1.2789  -1.2725  -1.2618  -1.2562  -1.2517
    -1.2439  -1.2318  -1.2239  -1.2083  -1.2002  -1.1893  -1.1832  -1.1651
    -1.1589  -1.1491  -1.1468  -1.1400  -1.1288  -1.1149  -1.0999  -1.0920
    -1.0704  -1.0591  -1.0450  -1.0380  -1.0174  -0.9967  -0.9844  -0.9767
    -0.9601  -0.9456  -0.9389  -0.9284  -0.9155  -0.9059  -0.8912  -0.8871
    -0.8745  -0.8570  -0.8431  -0.8351  -0.8239  -0.8171  -0.7982  -0.7923
    -0.7633  -0.7500  -0.7453  -0.7365  -0.7237  -0.7076  -0.6940  -0.6834
    -0.6442  -0.6258  -0.6141  -0.6001  -0.5768  -0.5655  -0.5513  -0.5254
    -0.5019  -0.4807  -0.4699  -0.4494  -0.4189  -0.3941  -0.3909  -0.3503
    -0.3227  -0.2987  -0.2880  -0.2840  -0.2738  -0.2513  -0.2220  -0.2039
    -0.1902  -0.1726  -0.1471  -0.1410  -0.1338  -0.0938  -0.0870  -0.0477
    -0.0332   0.0125   0.0620   0.0753   0.1219   0.1292   0.1548   0.1767
     0.2085   0.2324   0.2397   0.2607   0.2871   0.5344   0.6270   0.7411
     0.7826   0.8265   0.9002   1.0459   1.0839   1.1539   1.2498   1.4294
     1.4543   1.5667   1.6440   1.7084   1.7782   1.8250   1.8843   1.9040
     1.9368   1.9684   2.1164   2.1660   2.2273   2.2998   2.3313   2.5548
     2.6494   2.7144   2.8079   2.9070   2.9714   3.0030   3.0219   3.0330
     3.0514   3.0949   3.1646   3.2661   3.2895   3.3147   3.3596   3.3906
     3.4149   3.4384   3.4447   3.4786   3.5137   3.5410   3.5472   3.5610
     3.5726   3.6078   3.6301   3.6401   3.6559   3.6672   3.7033   3.7151
     3.7294   3.7570   3.7822   3.7850   3.7992   3.8337   3.8466   3.8609
     3.8718   3.8893   3.9082   3.9209   3.9448   3.9554   3.9751   3.9915
     3.9959   4.0136   4.0241   4.0360   4.0420   4.0567   4.0762   4.1103
     4.1385   4.1460   4.1552   4.1941   4.1974   4.2115   4.2332   4.2564
     4.2733   4.2835   4.3208   4.3289   4.3464   4.3539   4.3709   4.3875
     4.4008   4.4150   4.4455   4.4531   4.4663   4.4809   4.4897   4.4937
     4.5148   4.5257   4.5376   4.5505   4.5635   4.5760   4.5832   4.6032
     4.6123   4.6351   4.6516   4.6669   4.6814   4.6950   4.7034   4.7150
     4.7215   4.7339   4.7455   4.7550   4.7633   4.7838   4.7961   4.8034
     4.8160   4.8192   4.8319   4.8431   4.8518   4.8629   4.8710   4.8836
     4.9002   4.9137   4.9146   4.9252   4.9306   4.9370   4.9428   4.9504
     4.9552   4.9633   4.9703   4.9773   4.9907   5.0021   5.0191   5.0256
     5.0290   5.0390   5.0469   5.0522   5.0577   5.0703   5.0760   5.0828
     5.0901   5.0927   5.1041   5.1102   5.1149   5.1286   5.1316   5.1334
     5.1424   5.1543   5.1606   5.1695   5.1794   5.1827   5.1907   5.2136

          k =-0.5000 0.0000 0.0000 (149248 PWs)   bands (ev):

   -55.5245 -55.5049 -55.4972 -55.4866 -55.4767 -55.4683 -55.4625 -55.4615
   -55.4530 -55.4517 -55.4472 -55.4457 -55.4413 -55.4370 -55.4296 -55.4243
   -55.4231 -55.4176 -55.4142 -55.4127 -55.4049 -55.3970 -55.3962 -55.3767
   -55.3659 -55.3626 -55.3522 -55.3408 -55.3396 -55.3305 -55.3175 -55.2880
   -55.2460 -55.2389 -55.2321 -55.2116 -55.1901 -55.1881 -55.1825 -55.1773
   -55.1752 -55.1708 -55.1643 -55.1586 -55.1566 -55.1536 -55.1514 -55.1486
   -55.1466 -55.1455 -55.1433 -55.1400 -55.1272 -55.1214 -55.1182 -55.1172
   -55.1073 -55.1056 -55.1040 -55.0960 -55.0884 -55.0857 -55.0738 -55.0666
   -55.0605 -55.0393 -54.9998 -54.9600 -54.9422 -54.9332 -54.9306 -54.8067
   -42.0300 -41.7994 -31.9717 -31.9500 -31.9452 -31.9351 -31.9093 -31.9068
   -31.8993 -31.8899 -31.8868 -31.8833 -31.8793 -31.8781 -31.8712 -31.8665
   -31.8527 -31.8518 -31.8507 -31.8451 -31.8419 -31.8365 -31.8320 -31.8300
   -31.8268 -31.8180 -31.8118 -31.8088 -31.7997 -31.7953 -31.7928 -31.7858
   -31.7853 -31.7835 -31.7792 -31.7767 -31.7726 -31.7718 -31.7708 -31.7672
   -31.7607 -31.7502 -31.7495 -31.7468 -31.7457 -31.7403 -31.7363 -31.7331
   -31.7298 -31.7262 -31.7136 -31.7092 -31.7033 -31.6934 -31.6907 -31.6862
   -31.6831 -31.6771 -31.6711 -31.6709 -31.6646 -31.6592 -31.6534 -31.6497
   -31.6431 -31.6415 -31.6406 -31.6367 -31.6356 -31.6334 -31.6285 -31.6271
   -31.6232 -31.6197 -31.6141 -31.6104 -31.6089 -31.6055 -31.6049 -31.5980
   -31.5963 -31.5913 -31.5884 -31.5869 -31.5810 -31.5792 -31.5766 -31.5762
   -31.5705 -31.5685 -31.5670 -31.5631 -31.5611 -31.5606 -31.5546 -31.5502
   -31.5488 -31.5449 -31.5415 -31.5374 -31.5360 -31.5340 -31.5291 -31.5218
   -31.5216 -31.5199 -31.5182 -31.5155 -31.5130 -31.5105 -31.5077 -31.5051
   -31.5049 -31.4994 -31.4989 -31.4985 -31.4930 -31.4917 -31.4909 -31.4873
   -31.4837 -31.4827 -31.4800 -31.4770 -31.4738 -31.4702 -31.4669 -31.4644
   -31.4641 -31.4596 -31.4578 -31.4567 -31.4510 -31.4474 -31.4438 -31.4389
   -31.4366 -31.4263 -31.4231 -31.4209 -31.4175 -31.4154 -31.4121 -31.4051
   -31.3991 -31.3940 -31.3918 -31.3863 -31.3843 -31.3811 -31.3770 -31.3738
   -31.3724 -31.3698 -31.3644 -31.3633 -31.3586 -31.3572 -31.3528 -31.3503
   -31.3494 -31.3461 -31.3425 -31.3371 -31.3342 -31.3326 -31.3274 -31.3263
   -31.3244 -31.3204 -31.3173 -31.3160 -31.3110 -31.3091 -31.3070 -31.3044
   -31.3019 -31.3017 -31.2965 -31.2938 -31.2905 -31.2855 -31.2830 -31.2773
   -31.2750 -31.2747 -31.2698 -31.2668 -31.2624 -31.2609 -31.2553 -31.2549
   -31.2499 -31.2466 -31.2447 -31.2401 -31.2348 -31.2339 -31.2299 -31.2270
   -31.2240 -31.2198 -31.2175 -31.2129 -31.2045 -31.1946 -31.1507 -31.1480
   -31.1409 -31.1189 -31.1054 -31.0949 -31.0612 -31.0511 -31.0374 -30.9790
   -30.9631 -30.8688 -13.2652 -13.2605 -12.7585 -12.7031 -12.7002 -12.6782
   -12.6716 -12.4972 -12.4951 -12.3419 -12.3373 -12.0505 -12.0471 -12.0212
   -12.0181 -11.9598 -11.9452 -11.9306 -11.9185 -11.9091 -11.9070 -11.8807
   -11.8763 -11.8651 -11.8565 -11.8268 -11.8057 -11.7935 -11.7740 -11.7558
   -11.7523 -11.6973 -11.6709 -11.6585 -11.6370 -11.5979 -11.5918 -11.5793
   -11.5478 -11.5339 -11.5019 -11.4103 -11.4087 -11.3997 -11.3923 -11.2875
   -11.2657 -11.2565 -11.2359 -11.2306 -11.2269 -11.1903 -11.1796 -11.1326
   -11.1309 -11.1249 -11.1203 -11.0544 -11.0479 -11.0397 -11.0325 -11.0211
   -11.0131 -11.0086 -11.0024 -10.9414 -10.8766 -10.8542 -10.8351 -10.8035
   -10.7656 -10.7550 -10.7306  -9.5468  -8.3383  -8.1771  -7.9432  -6.3063
    -3.7946  -3.7843  -3.7707  -3.7640  -3.7610  -3.7330  -3.7289  -3.7156
    -3.2537  -3.2372  -3.2262  -3.2162  -3.1764  -3.1695  -3.1515  -3.1494
    -3.0537  -3.0327  -3.0264  -3.0045  -2.9975  -2.9754  -2.9741  -2.9714
    -2.9664  -2.9608  -2.8856  -2.8820  -2.8370  -2.8266  -2.8062  -2.7962
    -2.7666  -2.7581  -2.7434  -2.7386  -2.7325  -2.7303  -2.7183  -2.7002
    -2.6599  -2.6501  -2.6325  -2.6272  -2.4940  -2.4876  -2.4594  -2.4557
    -2.4414  -2.4257  -2.4101  -2.4059  -2.3724  -2.3644  -2.2177  -2.1773
    -2.1135  -1.9658  -1.9474  -1.9394  -1.9287  -1.9173  -1.9105  -1.8949
    -1.8879  -1.8815  -1.8786  -1.8723  -1.8638  -1.8451  -1.8396  -1.8282
    -1.8230  -1.7687  -1.7592  -1.7550  -1.7415  -1.7317  -1.7254  -1.7189
    -1.7105  -1.7016  -1.6990  -1.6860  -1.6772  -1.6428  -1.6410  -1.6216
    -1.6012  -1.5862  -1.5816  -1.5698  -1.5661  -1.5535  -1.5394  -1.5139
    -1.5066  -1.4948  -1.4725  -1.4558  -1.4302  -1.4147  -1.4028  -1.4014
    -1.3859  -1.3844  -1.3788  -1.3714  -1.3651  -1.3537  -1.3374  -1.3094
    -1.3052  -1.2925  -1.2824  -1.2743  -1.2625  -1.2581  -1.2521  -1.2429
    -1.2371  -1.2341  -1.2288  -1.1949  -1.1939  -1.1800  -1.1773  -1.1612
    -1.1579  -1.1451  -1.1180  -1.0756  -1.0642  -1.0518  -1.0402  -1.0246
    -1.0125  -0.9994  -0.9958  -0.9829  -0.9791  -0.9628  -0.9530  -0.9423
    -0.9320  -0.9269  -0.9185  -0.9050  -0.8993  -0.8853  -0.8705  -0.8630
    -0.8389  -0.8057  -0.7984  -0.7879  -0.7701  -0.7562  -0.7360  -0.7145
    -0.7017  -0.6900  -0.6781  -0.6664  -0.6512  -0.6217  -0.6141  -0.6088
    -0.5989  -0.5864  -0.5763  -0.5654  -0.5461  -0.5342  -0.5230  -0.5175
    -0.4952  -0.4827  -0.4738  -0.4411  -0.4340  -0.4258  -0.4118  -0.3259
    -0.2882  -0.2712  -0.2643  -0.2570  -0.2460  -0.2267  -0.2213  -0.2132
    -0.2007  -0.1876  -0.1828  -0.1752  -0.1636  -0.1327  -0.1182  -0.0990
    -0.0860  -0.0624  -0.0541  -0.0203   0.0116   0.0282   0.0549   0.0690
     0.0868   0.2691   0.2758   0.3620   0.3830   0.4450   0.4904   0.5129
     0.5359   0.7396   0.8741   0.9015   0.9342   1.0712   1.2300   1.4457
     1.5761   1.6473   1.7090   1.7784   1.8461   1.8646   1.9369   1.9951
     2.0436   2.1164   2.1689   2.2728   2.3209   2.4180   2.4361   2.4718
     2.5028   2.5647   2.5810   2.6043   2.6399   2.8792   3.0131   3.0548
     3.1008   3.1600   3.1911   3.2426   3.2849   3.3020   3.3422   3.3678
     3.3906   3.3983   3.4455   3.4785   3.4831   3.5034   3.5268   3.5390
     3.5433   3.5522   3.5640   3.5821   3.5955   3.6246   3.6466   3.6851
     3.7084   3.7146   3.7321   3.7487   3.7539   3.7655   3.7903   3.7987
     3.8209   3.8437   3.8547   3.8875   3.9060   3.9228   3.9529   3.9587
     3.9939   4.0127   4.0226   4.0660   4.0711   4.0943   4.1122   4.1248
     4.1585   4.1654   4.1695   4.2243   4.2339   4.2416   4.2680   4.2804
     4.3150   4.3173   4.3518   4.3596   4.3849   4.4060   4.4261   4.4486
     4.4719   4.4838   4.4940   4.5033   4.5248   4.5302   4.5474   4.5519
     4.5734   4.5828   4.5944   4.6037   4.6212   4.6292   4.6728   4.6875
     4.6933   4.7043   4.7233   4.7275   4.7347   4.7416   4.7539   4.7567
     4.7665   4.7804   4.7837   4.7914   4.7982   4.8054   4.8121   4.8154
     4.8254   4.8355   4.8446   4.8544   4.8715   4.8766   4.8789   4.8882
     4.9062   4.9115   4.9204   4.9235   4.9308   4.9406   4.9461   4.9499
     4.9629   4.9672   4.9749   4.9799   4.9857   4.9945   4.9985   4.9992
     5.0080   5.0181   5.0271   5.0362   5.0413   5.0474   5.0555   5.0616
     5.0708   5.0758   5.0891   5.1014   5.1104   5.1214   5.1273   5.1413
     5.1494   5.1543   5.1625   5.1699   5.1826   5.1899   5.2036   5.2163

          k =-0.2500 0.2500 0.0000 (149265 PWs)   bands (ev):

   -55.5245 -55.5049 -55.4973 -55.4866 -55.4768 -55.4683 -55.4616 -55.4615
   -55.4546 -55.4518 -55.4472 -55.4451 -55.4413 -55.4368 -55.4294 -55.4244
   -55.4231 -55.4174 -55.4156 -55.4118 -55.4049 -55.3970 -55.3962 -55.3767
   -55.3657 -55.3628 -55.3521 -55.3408 -55.3396 -55.3305 -55.3175 -55.2880
   -55.2460 -55.2388 -55.2321 -55.2117 -55.1903 -55.1870 -55.1830 -55.1777
   -55.1748 -55.1711 -55.1640 -55.1603 -55.1561 -55.1530 -55.1507 -55.1486
   -55.1467 -55.1450 -55.1433 -55.1405 -55.1273 -55.1218 -55.1181 -55.1170
   -55.1070 -55.1056 -55.1041 -55.0960 -55.0886 -55.0854 -55.0739 -55.0666
   -55.0604 -55.0393 -54.9998 -54.9600 -54.9422 -54.9332 -54.9306 -54.8067
   -42.0300 -41.7994 -31.9717 -31.9501 -31.9455 -31.9346 -31.9096 -31.9065
   -31.8995 -31.8893 -31.8867 -31.8834 -31.8798 -31.8776 -31.8717 -31.8670
   -31.8560 -31.8538 -31.8511 -31.8473 -31.8381 -31.8366 -31.8328 -31.8243
   -31.8220 -31.8160 -31.8142 -31.8106 -31.8031 -31.7983 -31.7934 -31.7916
   -31.7868 -31.7811 -31.7789 -31.7747 -31.7715 -31.7687 -31.7658 -31.7643
   -31.7566 -31.7540 -31.7497 -31.7417 -31.7396 -31.7345 -31.7341 -31.7315
   -31.7256 -31.7231 -31.7208 -31.7126 -31.7072 -31.7042 -31.7020 -31.6960
   -31.6862 -31.6806 -31.6783 -31.6716 -31.6654 -31.6576 -31.6547 -31.6517
   -31.6471 -31.6426 -31.6380 -31.6370 -31.6341 -31.6303 -31.6223 -31.6198
   -31.6167 -31.6145 -31.6083 -31.6073 -31.6055 -31.6020 -31.5987 -31.5971
   -31.5919 -31.5904 -31.5873 -31.5844 -31.5825 -31.5814 -31.5765 -31.5745
   -31.5715 -31.5673 -31.5659 -31.5646 -31.5615 -31.5586 -31.5573 -31.5533
   -31.5495 -31.5470 -31.5445 -31.5409 -31.5382 -31.5345 -31.5309 -31.5292
   -31.5272 -31.5241 -31.5204 -31.5172 -31.5157 -31.5126 -31.5098 -31.5074
   -31.5058 -31.5033 -31.5005 -31.4956 -31.4935 -31.4899 -31.4885 -31.4836
   -31.4818 -31.4801 -31.4783 -31.4756 -31.4718 -31.4708 -31.4688 -31.4636
   -31.4608 -31.4583 -31.4539 -31.4526 -31.4496 -31.4475 -31.4439 -31.4386
   -31.4353 -31.4336 -31.4260 -31.4233 -31.4149 -31.4125 -31.4093 -31.4053
   -31.3996 -31.3961 -31.3923 -31.3867 -31.3837 -31.3805 -31.3782 -31.3748
   -31.3711 -31.3676 -31.3642 -31.3617 -31.3595 -31.3568 -31.3535 -31.3505
   -31.3474 -31.3432 -31.3418 -31.3356 -31.3326 -31.3307 -31.3290 -31.3277
   -31.3243 -31.3217 -31.3190 -31.3181 -31.3133 -31.3096 -31.3072 -31.3038
   -31.2993 -31.2982 -31.2970 -31.2931 -31.2891 -31.2878 -31.2818 -31.2796
   -31.2764 -31.2743 -31.2708 -31.2680 -31.2662 -31.2606 -31.2584 -31.2537
   -31.2520 -31.2474 -31.2420 -31.2386 -31.2352 -31.2331 -31.2306 -31.2275
   -31.2243 -31.2183 -31.2169 -31.2116 -31.2041 -31.1954 -31.1506 -31.1481
   -31.1404 -31.1189 -31.1056 -31.0948 -31.0612 -31.0509 -31.0375 -30.9790
   -30.9631 -30.8688 -13.3432 -13.0487 -13.0169 -12.7585 -12.7392 -12.5730
   -12.5529 -12.5308 -12.3257 -12.3004 -12.2835 -12.2709 -12.1246 -12.1026
   -12.0660 -11.9663 -11.9529 -11.9283 -11.9137 -11.9045 -11.8875 -11.8787
   -11.8572 -11.8453 -11.8170 -11.7778 -11.7678 -11.7583 -11.7539 -11.7393
   -11.6985 -11.6843 -11.6763 -11.6504 -11.6338 -11.6236 -11.6069 -11.5999
   -11.5877 -11.5670 -11.4924 -11.4667 -11.4246 -11.3837 -11.3512 -11.3441
   -11.2561 -11.2499 -11.2073 -11.1963 -11.1945 -11.1886 -11.1856 -11.1843
   -11.1723 -11.1021 -11.0976 -11.0729 -11.0681 -11.0362 -11.0258 -11.0097
   -10.9997 -10.9785 -10.9563 -10.9492 -10.9093 -10.8784 -10.8613 -10.8106
   -10.7716 -10.7487 -10.7050  -9.5468  -8.3382  -8.1771  -7.9432  -6.3063
    -3.9161  -3.9061  -3.8490  -3.8287  -3.5535  -3.5317  -3.5127  -3.4973
    -3.3958  -3.3734  -3.3208  -3.3132  -3.2337  -3.2222  -3.1727  -3.1492
    -3.1428  -3.0723  -3.0552  -3.0486  -2.9918  -2.9798  -2.9773  -2.9565
    -2.9504  -2.9309  -2.8622  -2.8524  -2.8411  -2.8070  -2.7925  -2.7832
    -2.7761  -2.7547  -2.7438  -2.7390  -2.7302  -2.7095  -2.6770  -2.6367
    -2.5949  -2.5832  -2.5615  -2.5386  -2.5300  -2.5191  -2.5100  -2.3998
    -2.3937  -2.3834  -2.3567  -2.3282  -2.3064  -2.2879  -2.2523  -2.2236
    -2.2026  -2.1922  -2.1753  -2.1633  -2.1128  -2.0957  -2.0657  -1.9307
    -1.9040  -1.8861  -1.8307  -1.8047  -1.7951  -1.7860  -1.7718  -1.7566
    -1.7524  -1.7436  -1.7376  -1.7213  -1.7167  -1.7139  -1.6976  -1.6925
    -1.6879  -1.6598  -1.6553  -1.6479  -1.6362  -1.6195  -1.6106  -1.5908
    -1.5634  -1.5424  -1.5355  -1.5285  -1.5205  -1.5180  -1.5018  -1.4954
    -1.4811  -1.4649  -1.4584  -1.4543  -1.4358  -1.4301  -1.4148  -1.4094
    -1.4021  -1.3972  -1.3860  -1.3696  -1.3651  -1.3539  -1.3386  -1.3287
    -1.3216  -1.3101  -1.3045  -1.2978  -1.2949  -1.2781  -1.2687  -1.2568
    -1.2512  -1.2328  -1.2277  -1.2121  -1.1956  -1.1781  -1.1543  -1.1484
    -1.1167  -1.1126  -1.0963  -1.0822  -1.0748  -1.0580  -1.0336  -1.0207
    -1.0103  -1.0039  -0.9694  -0.9605  -0.9537  -0.9485  -0.9436  -0.9334
    -0.9225  -0.9207  -0.9084  -0.8949  -0.8870  -0.8776  -0.8541  -0.8458
    -0.8315  -0.8227  -0.8110  -0.8048  -0.7943  -0.7790  -0.7597  -0.7509
    -0.7420  -0.7324  -0.7233  -0.6955  -0.6829  -0.6617  -0.6439  -0.6334
    -0.6178  -0.6089  -0.5975  -0.5762  -0.5610  -0.5262  -0.5082  -0.4926
    -0.4895  -0.4790  -0.4684  -0.4614  -0.4437  -0.4157  -0.4072  -0.3882
    -0.3659  -0.3475  -0.3298  -0.3123  -0.2666  -0.2437  -0.2313  -0.2221
    -0.2056  -0.1937  -0.1766  -0.1536  -0.1364  -0.1234  -0.1010  -0.0684
    -0.0408  -0.0171   0.0130   0.0266   0.0490   0.0781   0.1064   0.1177
     0.1362   0.1594   0.2133   0.2509   0.4094   0.4597   0.4878   0.5814
     0.7268   0.7450   0.8356   0.9128   1.0259   1.0665   1.2234   1.4293
     1.5638   1.6412   1.6577   1.7709   1.8134   1.8736   1.8949   1.9251
     2.0274   2.0903   2.1322   2.1617   2.2202   2.3964   2.4321   2.6726
     2.6833   2.7243   2.7663   2.7801   2.8179   2.8455   2.9121   2.9464
     3.0332   3.0583   3.0849   3.1028   3.1318   3.1507   3.1910   3.2659
     3.2866   3.3199   3.3902   3.4237   3.4656   3.4884   3.5213   3.5412
     3.5543   3.5804   3.5970   3.6182   3.6420   3.6540   3.6768   3.7124
     3.7279   3.7425   3.7842   3.8052   3.8300   3.8422   3.8677   3.8896
     3.9142   3.9261   3.9382   3.9545   3.9667   3.9817   3.9993   4.0116
     4.0254   4.0326   4.0427   4.0575   4.0778   4.0843   4.1069   4.1318
     4.1508   4.1807   4.1918   4.2108   4.2273   4.2390   4.2697   4.2847
     4.3116   4.3174   4.3365   4.3415   4.3526   4.3706   4.3856   4.4232
     4.4405   4.4581   4.4690   4.4842   4.4943   4.5248   4.5346   4.5428
     4.5497   4.5671   4.5772   4.5943   4.6154   4.6308   4.6363   4.6420
     4.6632   4.6866   4.6913   4.7001   4.7121   4.7165   4.7295   4.7359
     4.7537   4.7596   4.7665   4.7885   4.7924   4.8037   4.8162   4.8246
     4.8288   4.8409   4.8468   4.8521   4.8636   4.8744   4.8844   4.8919
     4.9048   4.9165   4.9317   4.9447   4.9543   4.9568   4.9722   4.9811
     4.9867   4.9941   4.9993   5.0055   5.0107   5.0170   5.0286   5.0296
     5.0383   5.0462   5.0538   5.0590   5.0598   5.0691   5.0734   5.0753
     5.0836   5.0934   5.0976   5.1034   5.1102   5.1141   5.1184   5.1265
     5.1313   5.1413   5.1476   5.1553   5.1616   5.1668   5.1797   5.1813

          k =-0.5000 0.2500 0.0000 (149272 PWs)   bands (ev):

   -55.5245 -55.5049 -55.4973 -55.4866 -55.4768 -55.4682 -55.4624 -55.4615
   -55.4530 -55.4519 -55.4472 -55.4457 -55.4413 -55.4368 -55.4294 -55.4245
   -55.4231 -55.4175 -55.4151 -55.4120 -55.4049 -55.3970 -55.3962 -55.3767
   -55.3658 -55.3628 -55.3522 -55.3408 -55.3396 -55.3305 -55.3175 -55.2880
   -55.2460 -55.2389 -55.2321 -55.2117 -55.1901 -55.1876 -55.1827 -55.1782
   -55.1749 -55.1707 -55.1643 -55.1586 -55.1561 -55.1539 -55.1512 -55.1486
   -55.1467 -55.1450 -55.1433 -55.1404 -55.1272 -55.1218 -55.1181 -55.1170
   -55.1071 -55.1056 -55.1041 -55.0960 -55.0884 -55.0857 -55.0738 -55.0666
   -55.0605 -55.0393 -54.9998 -54.9600 -54.9422 -54.9332 -54.9306 -54.8067
   -42.0300 -41.7994 -31.9718 -31.9500 -31.9455 -31.9347 -31.9097 -31.9068
   -31.8994 -31.8896 -31.8870 -31.8834 -31.8798 -31.8779 -31.8721 -31.8673
   -31.8597 -31.8525 -31.8510 -31.8481 -31.8381 -31.8365 -31.8309 -31.8267
   -31.8204 -31.8150 -31.8114 -31.8093 -31.8018 -31.7983 -31.7921 -31.7873
   -31.7829 -31.7792 -31.7781 -31.7748 -31.7733 -31.7702 -31.7691 -31.7652
   -31.7611 -31.7563 -31.7498 -31.7460 -31.7396 -31.7348 -31.7320 -31.7288
   -31.7248 -31.7206 -31.7183 -31.7169 -31.7104 -31.7035 -31.6989 -31.6903
   -31.6851 -31.6802 -31.6791 -31.6735 -31.6660 -31.6652 -31.6615 -31.6587
   -31.6485 -31.6398 -31.6370 -31.6353 -31.6301 -31.6276 -31.6239 -31.6208
   -31.6170 -31.6126 -31.6108 -31.6068 -31.6037 -31.6021 -31.5976 -31.5965
   -31.5932 -31.5881 -31.5870 -31.5848 -31.5811 -31.5793 -31.5755 -31.5727
   -31.5698 -31.5674 -31.5658 -31.5621 -31.5609 -31.5585 -31.5560 -31.5543
   -31.5513 -31.5490 -31.5451 -31.5429 -31.5405 -31.5371 -31.5348 -31.5306
   -31.5239 -31.5228 -31.5209 -31.5184 -31.5135 -31.5105 -31.5073 -31.5068
   -31.5035 -31.5015 -31.4973 -31.4953 -31.4938 -31.4912 -31.4894 -31.4883
   -31.4841 -31.4799 -31.4785 -31.4751 -31.4735 -31.4704 -31.4685 -31.4634
   -31.4620 -31.4591 -31.4570 -31.4514 -31.4509 -31.4474 -31.4419 -31.4371
   -31.4360 -31.4290 -31.4260 -31.4220 -31.4168 -31.4132 -31.4087 -31.4046
   -31.4017 -31.3973 -31.3931 -31.3902 -31.3835 -31.3792 -31.3768 -31.3737
   -31.3700 -31.3652 -31.3626 -31.3604 -31.3584 -31.3547 -31.3540 -31.3513
   -31.3494 -31.3462 -31.3408 -31.3368 -31.3340 -31.3328 -31.3300 -31.3296
   -31.3242 -31.3215 -31.3179 -31.3154 -31.3125 -31.3092 -31.3066 -31.3048
   -31.3006 -31.2976 -31.2950 -31.2930 -31.2915 -31.2862 -31.2836 -31.2798
   -31.2759 -31.2726 -31.2717 -31.2689 -31.2680 -31.2617 -31.2567 -31.2538
   -31.2510 -31.2475 -31.2419 -31.2383 -31.2342 -31.2332 -31.2308 -31.2274
   -31.2232 -31.2197 -31.2169 -31.2116 -31.2041 -31.1953 -31.1510 -31.1477
   -31.1410 -31.1187 -31.1054 -31.0948 -31.0612 -31.0511 -31.0374 -30.9790
   -30.9630 -30.8688 -13.2244 -13.2196 -12.9186 -12.9136 -12.7585 -12.4738
   -12.4656 -12.4426 -12.4344 -12.3093 -12.3044 -12.2087 -12.2045 -12.0796
   -12.0778 -12.0286 -12.0128 -11.8993 -11.8940 -11.8711 -11.8627 -11.8459
   -11.8364 -11.8163 -11.8106 -11.7863 -11.7740 -11.7581 -11.7432 -11.7341
   -11.7268 -11.7152 -11.6913 -11.6581 -11.6405 -11.6293 -11.6029 -11.5654
   -11.5543 -11.5386 -11.5285 -11.5184 -11.4916 -11.3591 -11.3341 -11.2893
   -11.2849 -11.2583 -11.2432 -11.2222 -11.2157 -11.1548 -11.1499 -11.1440
   -11.1379 -11.1265 -11.1154 -11.1010 -11.0746 -11.0353 -11.0217 -11.0056
   -10.9926 -10.9751 -10.9517 -10.9419 -10.8911 -10.8776 -10.8668 -10.8270
   -10.7973 -10.7333 -10.6898  -9.5468  -8.3383  -8.1771  -7.9432  -6.3063
    -3.9505  -3.9482  -3.9426  -3.9193  -3.5306  -3.5279  -3.4822  -3.4576
    -3.3191  -3.3014  -3.2537  -3.2503  -3.1963  -3.1686  -3.1426  -3.1359
    -3.1116  -3.0956  -3.0624  -3.0450  -3.0199  -3.0037  -2.9974  -2.9877
    -2.9750  -2.9667  -2.9524  -2.9501  -2.8442  -2.8424  -2.7803  -2.7605
    -2.7552  -2.7485  -2.7309  -2.7182  -2.7008  -2.6897  -2.6189  -2.6080
    -2.5633  -2.5481  -2.5315  -2.5278  -2.5031  -2.4894  -2.4760  -2.4650
    -2.4614  -2.4327  -2.4122  -2.3899  -2.3337  -2.3286  -2.2831  -2.2754
    -2.2340  -2.1957  -2.1868  -2.1580  -2.1168  -2.1107  -2.0996  -2.0900
    -2.0867  -1.7941  -1.7894  -1.7735  -1.7676  -1.7492  -1.7374  -1.7249
    -1.7195  -1.7158  -1.7050  -1.7002  -1.6960  -1.6889  -1.6827  -1.6731
    -1.6704  -1.6553  -1.6493  -1.6409  -1.6350  -1.6249  -1.6232  -1.6046
    -1.5984  -1.5901  -1.5839  -1.5737  -1.5680  -1.5529  -1.5331  -1.5250
    -1.5134  -1.4992  -1.4875  -1.4762  -1.4729  -1.4540  -1.4499  -1.4472
    -1.4424  -1.4320  -1.4214  -1.4101  -1.3964  -1.3841  -1.3786  -1.3647
    -1.3597  -1.3464  -1.3257  -1.2997  -1.2925  -1.2873  -1.2419  -1.2277
    -1.1945  -1.1886  -1.1712  -1.1527  -1.1423  -1.1154  -1.1050  -1.0781
    -1.0610  -1.0529  -1.0378  -1.0011  -0.9951  -0.9865  -0.9795  -0.9699
    -0.9686  -0.9599  -0.9522  -0.9420  -0.9338  -0.9202  -0.9077  -0.8928
    -0.8859  -0.8758  -0.8698  -0.8576  -0.8425  -0.8342  -0.8057  -0.7938
    -0.7884  -0.7786  -0.7634  -0.7605  -0.7463  -0.7362  -0.7222  -0.7164
    -0.7045  -0.6973  -0.6917  -0.6824  -0.6745  -0.6724  -0.6603  -0.6550
    -0.6390  -0.6102  -0.6055  -0.5858  -0.5619  -0.5294  -0.5149  -0.4965
    -0.4612  -0.4567  -0.4307  -0.4159  -0.3962  -0.3852  -0.3634  -0.3453
    -0.3314  -0.3112  -0.3044  -0.2996  -0.2797  -0.2600  -0.2495  -0.2295
    -0.2206  -0.2115  -0.1944  -0.1859  -0.1723  -0.1615  -0.1485  -0.1116
    -0.0874  -0.0731  -0.0340  -0.0075   0.0079   0.0248   0.0488   0.0932
     0.1499   0.1813   0.2063   0.2597   0.2797   0.3681   0.3919   0.4254
     0.4635   0.7047   0.7225   0.7713   0.8988   1.0674   1.2246   1.4439
     1.5741   1.6548   1.7728   1.8260   1.8888   1.9169   1.9969   2.0861
     2.1213   2.1406   2.1810   2.2865   2.3206   2.4144   2.4879   2.5169
     2.5438   2.5761   2.6502   2.6730   2.7443   2.8147   2.8758   2.8917
     2.9152   2.9517   3.0153   3.0839   3.0967   3.1313   3.1812   3.2329
     3.2452   3.2804   3.2914   3.3638   3.3713   3.4209   3.4758   3.5272
     3.5411   3.5573   3.5691   3.5898   3.6095   3.6203   3.6486   3.6771
     3.6969   3.7081   3.7309   3.7568   3.7612   3.7749   3.8127   3.8476
     3.8836   3.9061   3.9331   3.9483   3.9766   3.9911   4.0069   4.0222
     4.0456   4.0613   4.0764   4.0952   4.1090   4.1310   4.1502   4.1521
     4.1596   4.1754   4.2147   4.2257   4.2562   4.2768   4.3293   4.3367
     4.3602   4.3821   4.3949   4.4188   4.4340   4.4509   4.4646   4.4725
     4.5003   4.5090   4.5167   4.5456   4.5678   4.5807   4.5871   4.5953
     4.6064   4.6239   4.6412   4.6511   4.6630   4.6728   4.6865   4.6931
     4.6957   4.7129   4.7195   4.7295   4.7439   4.7503   4.7643   4.7701
     4.7745   4.7820   4.7870   4.7985   4.8109   4.8237   4.8261   4.8390
     4.8457   4.8575   4.8610   4.8662   4.8740   4.8820   4.8914   4.9046
     4.9099   4.9177   4.9225   4.9337   4.9345   4.9422   4.9466   4.9580
     4.9655   4.9732   4.9801   4.9875   4.9975   5.0027   5.0076   5.0152
     5.0232   5.0259   5.0391   5.0445   5.0574   5.0603   5.0709   5.0767
     5.0786   5.0855   5.0930   5.1025   5.1110   5.1179   5.1233   5.1305
     5.1416   5.1496   5.1605   5.1683   5.1761   5.1774   5.1865   5.1957

     the Fermi energy is     3.5604 ev

!    total energy              =  -10204.46358918 Ry
     estimated scf accuracy    <       0.00000082 Ry
     smearing contrib. (-TS)   =      -0.08361508 Ry
     internal energy E=F+TS    =  -10204.37997409 Ry

     The total energy is F=E-TS. E is the sum of the following terms:
     one-electron contribution = -124563.27240799 Ry
     hartree contribution      =   62365.05097746 Ry
     xc contribution           =   -1744.79680939 Ry
     ewald contribution        =   53717.40843712 Ry
     DFT-D3 Dispersion         =      -3.51046539 Ry
     Hubbard energy            =      24.74029410 Ry

     convergence has been achieved in  14 iterations

     negative rho (up, down):  7.124E-02 0.000E+00
     force_hub    :    275.91s CPU    278.15s WALL (       1 calls)
     dndtau       :    257.54s CPU    259.53s WALL (    1368 calls)
     dprojdtau    :     35.57s CPU     35.85s WALL (   98496 calls)
     matel_dSdtau :    220.78s CPU    222.39s WALL (    1368 calls)

     Forces acting on atoms (cartesian axes, Ry/au):

     atom    1 type  1   force =     0.00058697    0.00287265    0.06880033
     atom    2 type  1   force =     0.00159025    0.00248508    0.01627556
     atom    3 type  1   force =     0.00035926    0.00108643    0.00593658
     atom    4 type  1   force =     0.00566315    0.00300941    0.03819754
     atom    5 type  2   force =    -0.00062603    0.00097787   -0.04092595
     atom    6 type  2   force =     0.00230502    0.00049679   -0.03433776
     atom    7 type  2   force =     0.00050084   -0.00063836   -0.02253480
     atom    8 type  2   force =     0.00126149    0.00051851   -0.02124949
     atom    9 type  1   force =    -0.00066983    0.00016864   -0.00037664
     atom   10 type  1   force =    -0.00041751    0.00055373   -0.00016302
     atom   11 type  1   force =     0.00039548    0.00042800   -0.00034328
     atom   12 type  1   force =     0.00024917    0.00068075   -0.00100676
     atom   13 type  2   force =     0.00007693    0.00060623   -0.00058465
     atom   14 type  2   force =     0.00023205    0.00019216   -0.00008253
     atom   15 type  2   force =    -0.00000634    0.00059586    0.00041075
     atom   16 type  2   force =     0.00091480   -0.00038846   -0.00003131
     atom   17 type  1   force =    -0.00004275   -0.00744533    0.06451069
     atom   18 type  1   force =    -0.00322157    0.00126150    0.01845613
     atom   19 type  1   force =    -0.00081625    0.00013960    0.01012144
     atom   20 type  1   force =     0.00506122    0.00121521    0.05770147
     atom   21 type  2   force =    -0.00054119    0.00140187   -0.03904636
     atom   22 type  2   force =     0.00019252   -0.00269712   -0.03359949
     atom   23 type  2   force =    -0.00013122   -0.00008257   -0.02974877
     atom   24 type  2   force =     0.00098728   -0.00134500   -0.02590407
     atom   25 type  1   force =    -0.00029467    0.00012332    0.00009691
     atom   26 type  1   force =     0.00017102    0.00015230    0.00045495
     atom   27 type  1   force =     0.00058830   -0.00006229   -0.00002243
     atom   28 type  1   force =     0.00008498    0.00000423   -0.00020676
     atom   29 type  2   force =    -0.00017258   -0.00001790    0.00004138
     atom   30 type  2   force =     0.00007374   -0.00033415   -0.00032244
     atom   31 type  2   force =    -0.00018472    0.00004791   -0.00009440
     atom   32 type  2   force =     0.00010846    0.00027769   -0.00015538
     atom   33 type  1   force =     0.00215563    0.00486700    0.05711479
     atom   34 type  1   force =     0.00106368   -0.00354163    0.01504215
     atom   35 type  1   force =     0.00136581   -0.00124829    0.01292924
     atom   36 type  1   force =     0.00261093   -0.00479078    0.03819284
     atom   37 type  2   force =     0.00082113   -0.00231149   -0.03886388
     atom   38 type  2   force =    -0.00011893    0.00261124   -0.03522016
     atom   39 type  2   force =     0.00050166    0.00061222   -0.03289964
     atom   40 type  2   force =    -0.00058443    0.00053826   -0.02335963
     atom   41 type  1   force =     0.00016743   -0.00014559   -0.00078815
     atom   42 type  1   force =     0.00020482    0.00008882   -0.00007821
     atom   43 type  1   force =     0.00037503    0.00022794    0.00068790
     atom   44 type  1   force =    -0.00012070   -0.00008222   -0.00013396
     atom   45 type  2   force =     0.00018369   -0.00047479    0.00061101
     atom   46 type  2   force =    -0.00017499    0.00037620   -0.00014047
     atom   47 type  2   force =     0.00009709    0.00012553   -0.00029447
     atom   48 type  2   force =    -0.00023243    0.00053369    0.00008444
     atom   49 type  1   force =    -0.00702196    0.00174289    0.06494367
     atom   50 type  1   force =    -0.00073310   -0.00475762    0.02904738
     atom   51 type  1   force =     0.00212172   -0.00237797   -0.01609386
     atom   52 type  1   force =    -0.00318833    0.00736966    0.05653566
     atom   53 type  2   force =    -0.00230632    0.00193039   -0.04627396
     atom   54 type  2   force =    -0.00043919   -0.00204112   -0.03349116
     atom   55 type  2   force =    -0.00027918    0.00101313   -0.02132536
     atom   56 type  2   force =    -0.00040023    0.00244077   -0.02616646
     atom   57 type  1   force =    -0.00016074   -0.00014867   -0.00033654
     atom   58 type  1   force =    -0.00011351   -0.00023077   -0.00055659
     atom   59 type  1   force =    -0.00080909   -0.00011678   -0.00068769
     atom   60 type  1   force =    -0.00003695   -0.00007962   -0.00013791
     atom   61 type  2   force =    -0.00007834   -0.00010827   -0.00009359
     atom   62 type  2   force =    -0.00025732    0.00061674   -0.00034660
     atom   63 type  2   force =    -0.00037574   -0.00001968   -0.00035738
     atom   64 type  2   force =    -0.00083529   -0.00054346    0.00003013
     atom   65 type  1   force =     0.00026964   -0.00406532    0.06130227
     atom   66 type  1   force =     0.00044834    0.00101210    0.00608285
     atom   67 type  1   force =     0.00090575   -0.00005368   -0.01668550
     atom   68 type  1   force =     0.00059305   -0.00510660    0.05609856
     atom   69 type  2   force =    -0.00077544    0.00059616   -0.04663737
     atom   70 type  2   force =    -0.00090995   -0.00063512   -0.03837891
     atom   71 type  2   force =     0.00148907   -0.00023674   -0.02278272
     atom   72 type  2   force =    -0.00020196   -0.00249589   -0.01916196
     atom   73 type  1   force =    -0.00027388    0.00032620   -0.00045799
     atom   74 type  1   force =     0.00042240   -0.00026702   -0.00062180
     atom   75 type  1   force =    -0.00043354    0.00109629   -0.00005752
     atom   76 type  1   force =    -0.00010726    0.00034694    0.00014666
     atom   77 type  2   force =    -0.00031514    0.00035554    0.00006147
     atom   78 type  2   force =    -0.00015621   -0.00036026   -0.00029614
     atom   79 type  2   force =    -0.00060233    0.00069927   -0.00004453
     atom   80 type  2   force =     0.00040799   -0.00038445    0.00083079
     atom   81 type  1   force =    -0.00374919    0.00192733    0.06093942
     atom   82 type  1   force =    -0.00042955    0.00150670    0.03286474
     atom   83 type  1   force =     0.00068974    0.00307129   -0.00185280
     atom   84 type  1   force =     0.00054122   -0.00187113    0.04651915
     atom   85 type  2   force =    -0.00180297   -0.00221073   -0.04105609
     atom   86 type  2   force =     0.00096097    0.00213675   -0.03300057
     atom   87 type  2   force =    -0.00062036   -0.00032939   -0.02409166
     atom   88 type  2   force =    -0.00011489   -0.00148732   -0.02722566
     atom   89 type  1   force =     0.00026300    0.00028713   -0.00068741
     atom   90 type  1   force =    -0.00028217    0.00043042   -0.00031003
     atom   91 type  1   force =    -0.00040153    0.00009594    0.00020712
     atom   92 type  1   force =     0.00033149   -0.00012941   -0.00061148
     atom   93 type  2   force =     0.00010235   -0.00013722    0.00026008
     atom   94 type  2   force =     0.00043569    0.00033063    0.00000521
     atom   95 type  2   force =     0.00016020    0.00065338    0.00016934
     atom   96 type  2   force =     0.00032671    0.00023928    0.00012379
     atom   97 type  1   force =     0.00659406    0.00041329    0.06326730
     atom   98 type  1   force =     0.00049438    0.00036429    0.01542900
     atom   99 type  1   force =     0.00066995   -0.00310234    0.00297348
     atom  100 type  1   force =    -0.00336585    0.00163990    0.03594504
     atom  101 type  2   force =     0.00352780    0.00093888   -0.04070306
     atom  102 type  2   force =    -0.00182296    0.00073811   -0.03518234
     atom  103 type  2   force =     0.00088015   -0.00068615   -0.03174183
     atom  104 type  2   force =     0.00003576    0.00016270   -0.02610085
     atom  105 type  1   force =     0.00016817   -0.00009573    0.00001827
     atom  106 type  1   force =     0.00019450   -0.00048877    0.00054385
     atom  107 type  1   force =    -0.00011650   -0.00076481   -0.00030716
     atom  108 type  1   force =     0.00016811   -0.00055303    0.00014124
     atom  109 type  2   force =    -0.00028543   -0.00018741   -0.00021430
     atom  110 type  2   force =    -0.00041281    0.00032067    0.00005964
     atom  111 type  2   force =     0.00027454   -0.00036060   -0.00004346
     atom  112 type  2   force =     0.00003160    0.00066041    0.00000100
     atom  113 type  1   force =     0.00081111    0.00087747    0.06245127
     atom  114 type  1   force =     0.00139995    0.00302173    0.02182926
     atom  115 type  1   force =    -0.00156134   -0.00170129   -0.01723967
     atom  116 type  1   force =    -0.00363486    0.00076994    0.05288234
     atom  117 type  2   force =     0.00050642   -0.00016547   -0.04751371
     atom  118 type  2   force =    -0.00024334   -0.00201416   -0.03391039
     atom  119 type  2   force =    -0.00251874    0.00008691   -0.02188346
     atom  120 type  2   force =    -0.00280342    0.00001358   -0.02519838
     atom  121 type  1   force =    -0.00017728    0.00004133    0.00084992
     atom  122 type  1   force =    -0.00063087   -0.00010106    0.00032389
     atom  123 type  1   force =    -0.00001973   -0.00036339   -0.00018011
     atom  124 type  1   force =     0.00040206   -0.00020617    0.00003614
     atom  125 type  2   force =     0.00032014    0.00000947   -0.00001725
     atom  126 type  2   force =     0.00043103   -0.00056291    0.00045318
     atom  127 type  2   force =    -0.00099761    0.00051978    0.00016816
     atom  128 type  2   force =     0.00018744   -0.00060834    0.00020652
     atom  129 type  1   force =     0.00196652   -0.00054262    0.05912567
     atom  130 type  1   force =    -0.00105537   -0.00351615    0.02465482
     atom  131 type  1   force =    -0.00177463    0.00249949   -0.00025304
     atom  132 type  1   force =    -0.00321435   -0.00270594    0.04278270
     atom  133 type  2   force =     0.00152077   -0.00059053   -0.04197773
     atom  134 type  2   force =    -0.00162733    0.00122332   -0.03258810
     atom  135 type  2   force =    -0.00043632   -0.00026286   -0.02783646
     atom  136 type  2   force =     0.00076702   -0.00098147   -0.02270460
     atom  137 type  1   force =    -0.00019053   -0.00036167   -0.00000932
     atom  138 type  1   force =     0.00005055   -0.00039856   -0.00024197
     atom  139 type  1   force =     0.00028320   -0.00012514    0.00038281
     atom  140 type  1   force =     0.00006744    0.00062782    0.00000854
     atom  141 type  2   force =     0.00003273    0.00026905    0.00066384
     atom  142 type  2   force =     0.00008072   -0.00009388    0.00040068
     atom  143 type  2   force =    -0.00041505    0.00022408   -0.00076479
     atom  144 type  2   force =     0.00076703   -0.00003460    0.00097712
     atom  145 type  3   force =    -0.00001259    0.00075609   -0.00034395
     atom  146 type  3   force =     0.00024523    0.00000371    0.00014531
     atom  147 type  3   force =    -0.00163548   -0.00076625   -0.00082377
     atom  148 type  3   force =    -0.00062540    0.00113081    0.00130926
     atom  149 type  3   force =    -0.00026740    0.00019138    0.00006799
     atom  150 type  3   force =     0.00148547    0.00077033    0.00002294
     atom  151 type  4   force =    -0.00113425   -0.00016200   -0.00003365
     atom  152 type  4   force =     0.00176426    0.00052740    0.00019988

     Total force =     0.006879     Total SCF correction =     0.001989
     SCF correction compared to forces is large: reduce conv_thr to get better values
     Energy error            =      9.5E-05 Ry
     Gradient error          =      1.8E-03 Ry/Bohr

     bfgs converged in 219 scf cycles and 217 bfgs steps
     (criteria: energy <  1.0E-04 Ry, force <  1.9E-03 Ry/Bohr)

     End of BFGS Geometry Optimization

     Final energy             =  -10204.4635891773 Ry

     File ./tmp/TiN_Li2S6_combi_u.bfgs deleted, as requested
Begin final coordinates

ATOMIC_POSITIONS (angstrom)
Ti               0.0000000000        0.0000000000       10.0000000000    0   0   0
Ti               2.1362846800        0.0000000000       12.1362846799    0   0   0
Ti               0.0000000000        2.1362846800       12.1362846799    0   0   0
Ti               2.1362846800        2.1362846800       10.0000000000    0   0   0
N                0.0000000000        2.1362846800       10.0000000000    0   0   0
N                2.1362846800        0.0000000000       10.0000000000    0   0   0
N                0.0000000000        0.0000000000       12.1362846799    0   0   0
N                2.1362846800        2.1362846800       12.1362846799    0   0   0
Ti               0.0103470820        0.0037351742       14.2139265811
Ti               2.1736042473        0.0638493018       16.3571700606
Ti              -0.0531790447        2.1463580353       16.3633005566
Ti               2.1338255400        2.0937349152       14.4079669655
N                0.0254297499        2.1437195180       14.2705588768
N                2.1478050449       -0.0074037345       14.2709346466
N                0.0048548920       -0.0010920418       16.4165528412
N                2.1599388677        2.1808919524       16.5680634276
Ti               0.0000000000        4.2725693600       10.0000000000    0   0   0
Ti               2.1362846800        4.2725693600       12.1362846799    0   0   0
Ti               0.0000000000        6.4088540400       12.1362846799    0   0   0
Ti               2.1362846800        6.4088540400       10.0000000000    0   0   0
N                0.0000000000        6.4088540400       10.0000000000    0   0   0
N                2.1362846800        4.2725693600       10.0000000000    0   0   0
N                0.0000000000        4.2725693600       12.1362846799    0   0   0
N                2.1362846800        6.4088540400       12.1362846799    0   0   0
Ti              -0.0022570364        4.2772458347       14.2180161183
Ti               2.1396404930        4.2592947089       16.3340271858
Ti              -0.0038863148        6.4271952773       16.3236905689
Ti               2.1738013113        6.4115882020       14.2507218353
N               -0.0062691004        6.4047316025       14.3072555530
N                2.1363024611        4.2660920797       14.3096038158
N               -0.0110594764        4.2849089061       16.4350419151
N                2.0993256996        6.4070520822       16.3710978109
Ti               0.0000000000        8.5451387300       10.0000000000    0   0   0
Ti               2.1362846800        8.5451387300       12.1362846799    0   0   0
Ti               0.0000000000       10.6814234000       12.1362846799    0   0   0
Ti               2.1362846800       10.6814234000       10.0000000000    0   0   0
N                0.0000000000       10.6814234000       10.0000000000    0   0   0
N                2.1362846800        8.5451387300       10.0000000000    0   0   0
N                0.0000000000        8.5451387300       12.1362846799    0   0   0
N                2.1362846800       10.6814234000       12.1362846799    0   0   0
Ti              -0.0071854780        8.5351919972       14.2392276208
Ti               2.1361667745        8.5210542977       16.3572262125
Ti               0.0290180587       10.6535878000       16.3334729589
Ti               2.1431485175       10.7171496379       14.3797094118
N                0.0024659022       10.6773486696       14.2817022576
N                2.1333933045        8.5586385746       14.3161111932
N               -0.0027300498        8.5349672896       16.4642207485
N                2.1454282673       10.6686679811       16.5520071101
Ti               4.2725693600        0.0000000000       10.0000000000    0   0   0
Ti               6.4088540400        0.0000000000       12.1362846799    0   0   0
Ti               4.2725693600        2.1362846800       12.1362846799    0   0   0
Ti               6.4088540400        2.1362846800       10.0000000000    0   0   0
N                4.2725693600        2.1362846800       10.0000000000    0   0   0
N                6.4088540400        0.0000000000       10.0000000000    0   0   0
N                4.2725693600        0.0000000000       12.1362846799    0   0   0
N                6.4088540400        2.1362846800       12.1362846799    0   0   0
Ti               4.2823348961        0.0419356424       14.2366061110
Ti               6.4111256118       -0.0293999216       16.3024164127
Ti               4.3709976434        2.2198628874       16.6462434931
Ti               6.3849788301        2.1534415671       14.2479542887
N                4.2679640081        2.1516663981       14.3427354460
N                6.4149533384        0.0000624503       14.2769006034
N                4.2963919885       -0.0008146676       16.4364970356
N                6.4889707349        2.0589190238       16.2703793950
Ti               4.2725693600        4.2725693600       10.0000000000    0   0   0
Ti               6.4088540400        4.2725693600       12.1362846799    0   0   0
Ti               4.2725693600        6.4088540400       12.1362846799    0   0   0
Ti               6.4088540400        6.4088540400       10.0000000000    0   0   0
N                4.2725693600        6.4088540400       10.0000000000    0   0   0
N                6.4088540400        4.2725693600       10.0000000000    0   0   0
N                4.2725693600        4.2725693600       12.1362846799    0   0   0
N                6.4088540400        6.4088540400       12.1362846799    0   0   0
Ti               4.2960183493        4.2897332985       14.2604297517
Ti               6.3397740626        4.1714665773       16.6156765032
Ti               4.2637798719        6.4156035948       16.6979913089
Ti               6.4005725579        6.3806091119       14.3132222755
N                4.2694423508        6.4046766018       14.3028678022
N                6.4032590790        4.2603924164       14.3514554166
N                4.2154474622        4.3320062799       16.3182671956
N                6.3808566514        6.3980758395       16.4197704302
Ti               4.2725693600        8.5451387300       10.0000000000    0   0   0
Ti               6.4088540400        8.5451387300       12.1362846799    0   0   0
Ti               4.2725693600       10.6814234000       12.1362846799    0   0   0
Ti               6.4088540400       10.6814234000       10.0000000000    0   0   0
N                4.2725693600       10.6814234000       10.0000000000    0   0   0
N                6.4088540400        8.5451387300       10.0000000000    0   0   0
N                4.2725693600        8.5451387300       12.1362846799    0   0   0
N                6.4088540400       10.6814234000       12.1362846799    0   0   0
Ti               4.2787067179        8.4931377514       14.2411942295
Ti               6.4183191869        8.5692417325       16.3297027333
Ti               4.2459881277       10.6697838577       16.3467380077
Ti               6.3926423397       10.6633688812       14.3118220946
N                4.2762789866       10.6800820338       14.2904553242
N                6.4039304730        8.5262651165       14.2917053361
N                4.2730837579        8.5594773289       16.3656876344
N                6.4132810817       10.6715409406       16.5222816516
Ti               8.5451387300        0.0000000000       10.0000000000    0   0   0
Ti              10.6814234000        0.0000000000       12.1362846799    0   0   0
Ti               8.5451387300        2.1362846800       12.1362846799    0   0   0
Ti              10.6814234000        2.1362846800       10.0000000000    0   0   0
N                8.5451387300        2.1362846800       10.0000000000    0   0   0
N               10.6814234000        0.0000000000       10.0000000000    0   0   0
N                8.5451387300        0.0000000000       12.1362846799    0   0   0
N               10.6814234000        2.1362846800       12.1362846799    0   0   0
Ti               8.5428063973        0.0035600396       14.2163952046
Ti              10.6707863040       -0.0180754032       16.3355671737
Ti               8.5658294922        2.1381232068       16.3346882596
Ti              10.7395982304        2.1193965628       14.3996658084
N                8.5576255458        2.1430277688       14.3093544966
N               10.6820127179        0.0026533335       14.2704539172
N                8.5522562572       -0.0152473311       16.4354386500
N               10.6523862702        2.1413504670       16.5814084338
Ti               8.5451387300        4.2725693600       10.0000000000    0   0   0
Ti              10.6814234000        4.2725693600       12.1362846799    0   0   0
Ti               8.5451387300        6.4088540400       12.1362846799    0   0   0
Ti              10.6814234000        6.4088540400       10.0000000000    0   0   0
N                8.5451387300        6.4088540400       10.0000000000    0   0   0
N               10.6814234000        4.2725693600       10.0000000000    0   0   0
N                8.5451387300        4.2725693600       12.1362846799    0   0   0
N               10.6814234000        6.4088540400       12.1362846799    0   0   0
Ti               8.5049780593        4.3133961981       14.2562671937
Ti              10.6662369446        4.2902430189       16.3425566726
Ti               8.5092641602        6.3877329456       16.7711717173
Ti              10.6318763623        6.3868624004       14.2794053245
N                8.5310897036        6.4010527575       14.3088778265
N               10.6679795197        4.2577648479       14.2956816631
N                8.5431091336        4.2416611238       16.4108659353
N               10.6827681799        6.4083354549       16.4248249336
Ti               8.5451387300        8.5451387300       10.0000000000    0   0   0
Ti              10.6814234000        8.5451387300       12.1362846799    0   0   0
Ti               8.5451387300       10.6814234000       12.1362846799    0   0   0
Ti              10.6814234000       10.6814234000       10.0000000000    0   0   0
N                8.5451387300       10.6814234000       10.0000000000    0   0   0
N               10.6814234000        8.5451387300       10.0000000000    0   0   0
N                8.5451387300        8.5451387300       12.1362846799    0   0   0
N               10.6814234000       10.6814234000       12.1362846799    0   0   0
Ti               8.5388414647        8.4835239502       14.2518991514
Ti              10.6579168296        8.5300877881       16.3247853867
Ti               8.5504464560       10.6753886822       16.3386430801
Ti              10.6945514356       10.7113744438       14.3321753440
N                8.5437667155       10.6647344056       14.3048961564
N               10.6802974946        8.5498071369       14.2904463777
N                8.5371010546        8.5529070823       16.3884229605
N               10.6735702694       10.6630050593       16.5098729330
S                5.4646799060        3.0201438748       18.6751366140
S                3.9884618355        6.6079816736       18.9650432634
S                3.5916800854        3.8785057751       22.2564357165
S                5.5317277823        3.9003574026       22.7346775417
S                6.7294189929        4.8075859534       21.4114500186
S                8.4966201278        6.5153123445       19.0014692247
Li               4.3097131991        4.5188586121       20.0701695285
Li               6.2516627139        6.2714371230       19.4843643847
End final coordinates



     Writing all to output data dir ./tmp/TiN_Li2S6_combi_u.save/ :
     XML data file, charge density, pseudopotentials, collected wavefunctions

     init_run     :     92.27s CPU     95.05s WALL (       1 calls)
     electrons    :   2649.88s CPU   2706.90s WALL (       1 calls)
     forces       :    312.93s CPU    315.85s WALL (       1 calls)
     force_dftd3  :      0.27s CPU      0.28s WALL (       1 calls)

     Called by init_run:
     wfcinit      :     86.53s CPU     88.44s WALL (       1 calls)
     potinit      :      1.23s CPU      1.86s WALL (       1 calls)
     hinit0       :      1.78s CPU      1.85s WALL (       1 calls)

     Called by electrons:
     c_bands      :   2440.82s CPU   2486.29s WALL (      14 calls)
     sum_band     :    182.38s CPU    190.49s WALL (      14 calls)
     v_of_rho     :      8.28s CPU      9.04s WALL (      15 calls)
     newd         :     11.02s CPU     12.80s WALL (      15 calls)
     mix_rho      :      6.79s CPU      7.48s WALL (      14 calls)
     energy_dftd3 :      0.10s CPU      0.10s WALL (       1 calls)

     Called by c_bands:
     init_us_2    :      8.45s CPU      8.59s WALL (      96 calls)
     cegterg      :   2309.80s CPU   2354.23s WALL (      46 calls)

     Called by *egterg:
     cdiaghg      :     96.91s CPU    100.16s WALL (     424 calls)
     h_psi        :   1120.78s CPU   1150.94s WALL (     431 calls)
     s_psi        :    286.69s CPU    288.89s WALL (     437 calls)
     g_psi        :      1.03s CPU      1.04s WALL (     382 calls)

     Called by h_psi:
     h_psi:calbec :    286.74s CPU    289.86s WALL (     431 calls)
     vloc_psi     :    204.96s CPU    225.65s WALL (     431 calls)
                                        0.00s GPU  (     431 calls)
     add_vuspsi   :    275.52s CPU    277.65s WALL (     431 calls)
     vhpsi        :    352.12s CPU    354.54s WALL (     431 calls)

     General routines
     calbec       :    741.62s CPU    748.77s WALL (    6439 calls)
     fft          :      8.94s CPU      9.60s WALL (     204 calls)
     ffts         :      3.64s CPU      4.25s WALL (    1628 calls)
     fftw         :    232.90s CPU    257.79s WALL (  211638 calls)
     interpolate  :      1.29s CPU      1.33s WALL (      15 calls)

     Parallel routines

     Hubbard U routines
     new_ns       :     22.70s CPU     22.93s WALL (      14 calls)
     vhpsi        :    352.12s CPU    354.54s WALL (     431 calls)
     force_hub    :    275.91s CPU    278.15s WALL (       1 calls)

     PWSCF        :   3060.13s CPU   3158.87s WALL


   This run was terminated on:  16: 8:31  19Apr2026            

=------------------------------------------------------------------------------=
   JOB DONE.
=------------------------------------------------------------------------------=
