 ANIMSTEPS   5
 CRYSTAL 
 PRIMVEC 
 13.1757906903  0.0000000000  0.0000000000
  0.0000000000 13.1757906903  0.0000000000
  0.0000000000  0.0000000000 26.5878891866
 PRIMCOORD   1
  145  1
Nb    0.0000000000    0.0000000000   10.0000000000   -0.0000000000   -0.0000000000    0.0000000000
Nb    2.1959650900    0.0000000000   12.1959650900    0.0000000000    0.0000000000   -0.0000000000
Nb    0.0000000000    2.1959650900   12.1959650900    0.0000000000    0.0000000000   -0.0000000000
Nb    2.1959650900    2.1959650900   10.0000000000   -0.0000000000   -0.0000000000    0.0000000000
Nb    0.0024400430    0.0024423930   14.4746236790   -0.0000163470   -0.0000163470   -0.0000494378
Nb    2.1950693050    0.0102495060   16.4819780120    0.0007779721    0.0002413755    0.0000143297
Nb    0.0102478160    2.1950682550   16.4819780820    0.0002413755    0.0007779721    0.0000143297
Nb    2.2133430770    2.2133406070   14.4869269740    0.0000145075    0.0000145075   -0.0003004113
Nb    0.0000000000    4.3919302000   10.0000000000    0.0000000000    0.0000000000    0.0000000000
Nb    2.1959650900    4.3919302000   12.1959650900    0.0000000000    0.0000000000   -0.0000000000
Nb    0.0000000000    6.5878952900   12.1959650900    0.0000000000   -0.0000000000   -0.0000000000
Nb    2.1959650900    6.5878952900   10.0000000000   -0.0000000000    0.0000000000    0.0000000000
Nb   -0.0032035410    4.3919332600   14.4848025310   -0.0000366943    0.0000000000    0.0000699356
Nb    2.0834911790    4.3919365100   16.4964673700   -0.0005628465    0.0000000000    0.0007526578
Nb    0.0102482860    6.5888033250   16.4819979120    0.0002413755   -0.0007779721    0.0000143297
Nb    2.2133404870    6.5705158730   14.4869378540    0.0000145075   -0.0000145075   -0.0003004113
Nb    0.0000000000    8.7838604000   10.0000000000   -0.0000000000    0.0000000000    0.0000000000
Nb    2.1959650900    8.7838604000   12.1959650900    0.0000000000   -0.0000000000   -0.0000000000
Nb    0.0000000000   10.9798254900   12.1959650900   -0.0000000000    0.0000000000   -0.0000000000
Nb    2.1959650900   10.9798254900   10.0000000000   -0.0000000000   -0.0000000000    0.0000000000
Nb    0.0024410830    8.7814221270   14.4746366990   -0.0000163470    0.0000163470   -0.0000494378
Nb    2.1950612250    8.7736039240   16.4819889220    0.0007779721   -0.0002413755    0.0000143297
Nb   -0.0279062620   10.9798157800   16.4800436450   -0.0002469085    0.0000000000    0.0001077197
Nb    2.1886383760   10.9798220700   14.4704669670   -0.0001752815    0.0000000000    0.0000585099
Nb    4.3919302000    0.0000000000   10.0000000000   -0.0000000000    0.0000000000    0.0000000000
Nb    6.5878952900    0.0000000000   12.1959650900   -0.0000000000    0.0000000000   -0.0000000000
Nb    4.3919302000    2.1959650900   12.1959650900   -0.0000000000    0.0000000000   -0.0000000000
Nb    6.5878952900    2.1959650900   10.0000000000    0.0000000000   -0.0000000000    0.0000000000
Nb    4.3919264000   -0.0032022410   14.4848009610    0.0000000000   -0.0000366943    0.0000699356
Nb    6.5888031050    0.0102495660   16.4820005520   -0.0007779721    0.0002413755    0.0000143297
Nb    4.3919386300    2.0834886690   16.4964704010    0.0000000000   -0.0005628465    0.0007526578
Nb    6.5705209130    2.2133390470   14.4869369640   -0.0000145075    0.0000145075   -0.0003004113
Nb    4.3919302000    4.3919302000   10.0000000000    0.0000000000    0.0000000000    0.0000000000
Nb    6.5878952900    4.3919302000   12.1959650900   -0.0000000000   -0.0000000000   -0.0000000000
Nb    4.3919302000    6.5878952900   12.1959650900    0.0000000000   -0.0000000000   -0.0000000000
Nb    6.5878952900    6.5878952900   10.0000000000    0.0000000000    0.0000000000    0.0000000000
Nb    4.3919295600    4.3919352200   14.5056645580    0.0000000000    0.0000000000    0.0004258105
Nb    6.7003740310    4.3919309100   16.4964646200    0.0005628465   -0.0000000000    0.0007526578
Nb    4.3919328700    6.7003752210   16.4964648800    0.0000000000    0.0005628465    0.0007526578
Nb    6.5705200830    6.5705157630   14.4869239640   -0.0000145075   -0.0000145075   -0.0003004113
Nb    4.3919302000    8.7838604000   10.0000000000    0.0000000000   -0.0000000000    0.0000000000
Nb    6.5878952900    8.7838604000   12.1959650900   -0.0000000000   -0.0000000000   -0.0000000000
Nb    4.3919302000   10.9798254900   12.1959650900    0.0000000000    0.0000000000   -0.0000000000
Nb    6.5878952900   10.9798254900   10.0000000000    0.0000000000    0.0000000000    0.0000000000
Nb    4.3919295700    8.7870642210   14.4847949910    0.0000000000    0.0000366943    0.0000699356
Nb    6.5888031050    8.7736093140   16.4819850720   -0.0007779721   -0.0002413755    0.0000143297
Nb    4.3919385800   10.9798224000   16.4868724080    0.0000000000    0.0000000000   -0.0000660932
Nb    6.5952239540   10.9798243300   14.4704772070    0.0001752815    0.0000000000    0.0000585099
Nb    8.7838604000    0.0000000000   10.0000000000    0.0000000000   -0.0000000000    0.0000000000
Nb   10.9798254900    0.0000000000   12.1959650900    0.0000000000   -0.0000000000   -0.0000000000
Nb    8.7838604000    2.1959650900   12.1959650900   -0.0000000000    0.0000000000   -0.0000000000
Nb   10.9798254900    2.1959650900   10.0000000000    0.0000000000   -0.0000000000    0.0000000000
Nb    8.7814169270    0.0024422830   14.4746362290    0.0000163470   -0.0000163470   -0.0000494378
Nb   10.9798127600   -0.0279056020   16.4800465150    0.0000000000   -0.0002469085    0.0001077197
Nb    8.7736042840    2.1950593450   16.4819914320   -0.0002413755    0.0007779721    0.0000143297
Nb   10.9798289200    2.1886369160   14.4704651170    0.0000000000   -0.0001752815    0.0000585099
Nb    8.7838604000    4.3919302000   10.0000000000   -0.0000000000   -0.0000000000    0.0000000000
Nb   10.9798254900    4.3919302000   12.1959650900    0.0000000000    0.0000000000   -0.0000000000
Nb    8.7838604000    6.5878952900   12.1959650900   -0.0000000000   -0.0000000000   -0.0000000000
Nb   10.9798254900    6.5878952900   10.0000000000    0.0000000000    0.0000000000    0.0000000000
Nb    8.7870602510    4.3919353700   14.4847966710    0.0000366943    0.0000000000    0.0000699356
Nb   10.9798199300    4.3919356900   16.4868722180    0.0000000000    0.0000000000   -0.0000660932
Nb    8.7736097540    6.5888047650   16.4819859320   -0.0002413755   -0.0007779721    0.0000143297
Nb   10.9798300800    6.5952197840   14.4704759770    0.0000000000    0.0001752815    0.0000585099
Nb    8.7838604000    8.7838604000   10.0000000000    0.0000000000    0.0000000000    0.0000000000
Nb   10.9798254900    8.7838604000   12.1959650900    0.0000000000    0.0000000000   -0.0000000000
Nb    8.7838604000   10.9798254900   12.1959650900    0.0000000000    0.0000000000   -0.0000000000
Nb   10.9798254900   10.9798254900   10.0000000000    0.0000000000    0.0000000000    0.0000000000
Nb    8.7814152270    8.7814193870   14.4746298290    0.0000163470    0.0000163470   -0.0000494378
Nb   10.9798210200    8.8117581920   16.4800574850    0.0000000000    0.0002469085    0.0001077197
Nb    8.8117589620   10.9798226700   16.4800568750    0.0002469085    0.0000000000    0.0001077197
Nb   10.9798280200   10.9798222700   14.4876622430    0.0000000000    0.0000000000    0.0001300454
 N    0.0000000000    2.1959650900   10.0000000000   -0.0000000000   -0.0000000000   -0.0000000000
 N    2.1959650900    0.0000000000   10.0000000000   -0.0000000000   -0.0000000000   -0.0000000000
 N    0.0000000000    0.0000000000   12.1959650900    0.0000000000    0.0000000000   -0.0000000000
 N    2.1959650900    2.1959650900   12.1959650900   -0.0000000000   -0.0000000000   -0.0000000000
 N    0.0084533510    2.1966836490   14.4136468490   -0.0003084745    0.0000667956   -0.0001758067
 N    2.1966784990    0.0084482120   14.4136467390    0.0000667956   -0.0003084745   -0.0001758067
 N    0.0025167580    0.0025172980   16.7900503570    0.0000721653    0.0000721653   -0.0002306681
 N    2.2028389110    2.2028386510   16.8021481140   -0.0003593031   -0.0003593031   -0.0003295678
 N    0.0000000000    6.5878952900   10.0000000000   -0.0000000000    0.0000000000   -0.0000000000
 N    2.1959650900    4.3919302000   10.0000000000    0.0000000000   -0.0000000000   -0.0000000000
 N    0.0000000000    4.3919302000   12.1959650900    0.0000000000    0.0000000000   -0.0000000000
 N    2.1959650900    6.5878952900   12.1959650900   -0.0000000000    0.0000000000   -0.0000000000
 N    0.0084523520    6.5871825610   14.4136587290   -0.0003084745   -0.0000667956   -0.0001758067
 N    2.2002321680    4.3919316200   14.4202004860    0.0000659594    0.0000000000   -0.0007540462
 N   -0.0467405320    4.3919317800   16.8351679770    0.0012216312   -0.0000000000   -0.0002335770
 N    2.2028397810    6.5810223890   16.8021856540   -0.0003593031    0.0003593031   -0.0003295678
 N    0.0000000000   10.9798254900   10.0000000000    0.0000000000    0.0000000000   -0.0000000000
 N    2.1959650900    8.7838604000   10.0000000000   -0.0000000000    0.0000000000   -0.0000000000
 N    0.0000000000    8.7838604000   12.1959650900    0.0000000000   -0.0000000000   -0.0000000000
 N    2.1959650900   10.9798254900   12.1959650900    0.0000000000    0.0000000000   -0.0000000000
 N   -0.0052219410   10.9798248400   14.4121756960   -0.0000536980    0.0000000000   -0.0000568373
 N    2.1966831290    8.7754054190   14.4136510290    0.0000667956    0.0003084745   -0.0001758067
 N    0.0025165080    8.7813422020   16.7900980770    0.0000721653   -0.0000721653   -0.0002306681
 N    2.1793279460   10.9798237700   16.7721803830   -0.0001235025    0.0000000000    0.0002922471
 N    4.3919302000    2.1959650900   10.0000000000    0.0000000000    0.0000000000   -0.0000000000
 N    6.5878952900    0.0000000000   10.0000000000    0.0000000000   -0.0000000000   -0.0000000000
 N    4.3919302000    0.0000000000   12.1959650900    0.0000000000    0.0000000000   -0.0000000000
 N    6.5878952900    2.1959650900   12.1959650900    0.0000000000   -0.0000000000   -0.0000000000
 N    4.3919334000    2.2002361080   14.4202070360    0.0000000000    0.0000659594   -0.0007540462
 N    6.5871774910    0.0084483910   14.4136649790   -0.0000667956   -0.0003084745   -0.0001758067
 N    4.3919325200   -0.0467407120   16.8351652570    0.0000000000    0.0012216312   -0.0002335770
 N    6.5810242490    2.2028395310   16.8021843240    0.0003593031   -0.0003593031   -0.0003295678
 N    4.3919302000    6.5878952900   10.0000000000    0.0000000000   -0.0000000000   -0.0000000000
 N    6.5878952900    4.3919302000   10.0000000000   -0.0000000000    0.0000000000   -0.0000000000
 N    4.3919302000    4.3919302000   12.1959650900    0.0000000000    0.0000000000   -0.0000000000
 N    6.5878952900    6.5878952900   12.1959650900    0.0000000000    0.0000000000   -0.0000000000
 N    4.3919337900    6.5836337320   14.4201946860    0.0000000000   -0.0000659594   -0.0007540462
 N    6.5836297020    4.3919328700   14.4201944660   -0.0000659594   -0.0000000000   -0.0007540462
 N    4.3919323000    4.3919324800   16.6855642920    0.0000000000    0.0000000000    0.0000996236
 N    6.5810240890    6.5810222890   16.8021831040    0.0003593031    0.0003593031   -0.0003295678
 N    4.3919302000   10.9798254900   10.0000000000    0.0000000000    0.0000000000   -0.0000000000
 N    6.5878952900    8.7838604000   10.0000000000    0.0000000000    0.0000000000   -0.0000000000
 N    4.3919302000    8.7838604000   12.1959650900   -0.0000000000   -0.0000000000   -0.0000000000
 N    6.5878952900   10.9798254900   12.1959650900   -0.0000000000    0.0000000000   -0.0000000000
 N    4.3919324800   10.9798208700   14.4190071480    0.0000000000    0.0000000000   -0.0004326729
 N    6.5871780910    8.7754041090   14.4136448790   -0.0000667956    0.0003084745   -0.0001758067
 N    4.3919323600    8.8306000720   16.8351700670   -0.0000000000   -0.0012216312   -0.0002335770
 N    6.6045352640   10.9798228000   16.7722161830    0.0001235025    0.0000000000    0.0002922471
 N    8.7838604000    2.1959650900   10.0000000000    0.0000000000   -0.0000000000   -0.0000000000
 N   10.9798254900    0.0000000000   10.0000000000    0.0000000000    0.0000000000   -0.0000000000
 N    8.7838604000    0.0000000000   12.1959650900   -0.0000000000    0.0000000000   -0.0000000000
 N   10.9798254900    2.1959650900   12.1959650900    0.0000000000    0.0000000000   -0.0000000000
 N    8.7754103790    2.1966879090   14.4136571290    0.0003084745    0.0000667956   -0.0001758067
 N   10.9798233100   -0.0052263010   14.4121820260    0.0000000000   -0.0000536980   -0.0000568373
 N    8.7813402820    0.0025161180   16.7900963170   -0.0000721653    0.0000721653   -0.0002306681
 N   10.9798235200    2.1793277260   16.7721772530    0.0000000000   -0.0001235025    0.0002922471
 N    8.7838604000    6.5878952900   10.0000000000    0.0000000000    0.0000000000   -0.0000000000
 N   10.9798254900    4.3919302000   10.0000000000    0.0000000000    0.0000000000   -0.0000000000
 N    8.7838604000    4.3919302000   12.1959650900   -0.0000000000   -0.0000000000   -0.0000000000
 N   10.9798254900    6.5878952900   12.1959650900    0.0000000000   -0.0000000000   -0.0000000000
 N    8.7754083980    6.5871824010   14.4136449590    0.0003084745   -0.0000667956   -0.0001758067
 N   10.9798200500    4.3919317600   14.4190068480    0.0000000000    0.0000000000   -0.0004326729
 N    8.8305977320    4.3919323600   16.8351697470   -0.0012216312    0.0000000000   -0.0002335770
 N   10.9798220900    6.6045335740   16.7722154630   -0.0000000000    0.0001235025    0.0002922471
 N    8.7838604000   10.9798254900   10.0000000000   -0.0000000000   -0.0000000000   -0.0000000000
 N   10.9798254900    8.7838604000   10.0000000000    0.0000000000   -0.0000000000   -0.0000000000
 N    8.7838604000    8.7838604000   12.1959650900   -0.0000000000   -0.0000000000   -0.0000000000
 N   10.9798254900   10.9798254900   12.1959650900    0.0000000000    0.0000000000    0.0000000000
 N    8.7890842310   10.9798210800   14.4121860560    0.0000536980    0.0000000000   -0.0000568373
 N   10.9798203800    8.7890798010   14.4121862260    0.0000000000    0.0000536980   -0.0000568373
 N    8.7813412320    8.7813434020   16.7901011270   -0.0000721653   -0.0000721653   -0.0002306681
 N   10.9798234800   10.9798239200   16.8298991670    0.0000000000    0.0000000000    0.0007733928
Li    4.3919323000    4.3919324800   18.5556845000    0.0000000000    0.0000000000   -0.0001465297
 PRIMCOORD   2
  145  1
Nb    0.0000000000    0.0000000000   10.0000000000   -0.0000000000   -0.0000000000    0.0000000000
Nb    2.1959650900    0.0000000000   12.1959650900    0.0000000000    0.0000000000   -0.0000000000
Nb    0.0000000000    2.1959650900   12.1959650900    0.0000000000    0.0000000000   -0.0000000000
Nb    2.1959650900    2.1959650900   10.0000000000   -0.0000000000   -0.0000000000    0.0000000000
Nb    0.0030296948    0.0030320448   14.4800786518    0.0000432997    0.0000432997   -0.0000037031
Nb    2.1937459213    0.0196172304   16.4830297261    0.0002666378    0.0004412370    0.0001196208
Nb    0.0196155404    2.1937448713   16.4830297961    0.0004412370    0.0002666378    0.0001196208
Nb    2.2119478764    2.2119454064   14.4859371757    0.0003210342    0.0003210342    0.0004695803
Nb    0.0000000000    4.3919302000   10.0000000000    0.0000000000   -0.0000000000    0.0000000000
Nb    2.1959650900    4.3919302000   12.1959650900    0.0000000000    0.0000000000   -0.0000000000
Nb    0.0000000000    6.5878952900   12.1959650900    0.0000000000   -0.0000000000   -0.0000000000
Nb    2.1959650900    6.5878952900   10.0000000000   -0.0000000000    0.0000000000    0.0000000000
Nb    0.0003028322    4.3908201637   14.4842406959    0.0002699377    0.0000536014   -0.0000784518
Nb    2.1408276823    4.3874321692   16.4951116253   -0.0007659992   -0.0000911535    0.0000296897
Nb    0.0178075975    6.5862425504   16.4819760431    0.0002398275    0.0003440103   -0.0001927728
Nb    2.2052340976    6.5764769149   14.4775322283    0.0003843713    0.0004020103    0.0002791359
Nb    0.0000000000    8.7838604000   10.0000000000   -0.0000000000    0.0000000000    0.0000000000
Nb    2.1959650900    8.7838604000   12.1959650900    0.0000000000   -0.0000000000   -0.0000000000
Nb    0.0000000000   10.9798254900   12.1959650900   -0.0000000000    0.0000000000   -0.0000000000
Nb    2.1959650900   10.9798254900   10.0000000000   -0.0000000000    0.0000000000    0.0000000000
Nb   -0.0014605226    8.7831557862   14.4726402951   -0.0000082051   -0.0001828033    0.0000037699
Nb    2.1936531503    8.7866285611   16.4783161478    0.0000192972    0.0002971860    0.0000170745
Nb   -0.0273869412   10.9904705609   16.4797643456   -0.0002142846   -0.0000986681    0.0000139277
Nb    2.1908838874   10.9860592568   14.4714310407    0.0001186999    0.0003053570   -0.0001133537
Nb    4.3919302000    0.0000000000   10.0000000000   -0.0000000000    0.0000000000    0.0000000000
Nb    6.5878952900    0.0000000000   12.1959650900   -0.0000000000    0.0000000000   -0.0000000000
Nb    4.3919302000    2.1959650900   12.1959650900    0.0000000000    0.0000000000   -0.0000000000
Nb    6.5878952900    2.1959650900   10.0000000000    0.0000000000   -0.0000000000    0.0000000000
Nb    4.3908133037    0.0003041322   14.4842391259    0.0000536014    0.0002699377   -0.0000784518
Nb    6.5862423304    0.0178088775   16.4819786831    0.0003440103    0.0002398275   -0.0001927728
Nb    4.3874342892    2.1408251723   16.4951146563   -0.0000911535   -0.0007659992    0.0000296897
Nb    6.5764819549    2.2052326576   14.4775313383    0.0004020103    0.0003843713    0.0002791359
Nb    4.3919302000    4.3919302000   10.0000000000    0.0000000000    0.0000000000    0.0000000000
Nb    6.5878952900    4.3919302000   12.1959650900   -0.0000000000    0.0000000000   -0.0000000000
Nb    4.3919302000    6.5878952900   12.1959650900    0.0000000000   -0.0000000000   -0.0000000000
Nb    6.5878952900    6.5878952900   10.0000000000    0.0000000000    0.0000000000    0.0000000000
Nb    4.4021899828    4.4021956428   14.5202846588    0.0002064677    0.0002064677   -0.0006938908
Nb    6.7226576187    4.3465549294   16.4800677104    0.0001353196    0.0008840110    0.0002924104
Nb    4.3465568894    6.7226588087   16.4800679704    0.0008840110    0.0001353196    0.0002924104
Nb    6.5680962931    6.5680919731   14.4892777873    0.0000160093    0.0000160093    0.0000898629
Nb    4.3919302000    8.7838604000   10.0000000000   -0.0000000000   -0.0000000000    0.0000000000
Nb    6.5878952900    8.7838604000   12.1959650900   -0.0000000000   -0.0000000000   -0.0000000000
Nb    4.3919302000   10.9798254900   12.1959650900    0.0000000000    0.0000000000   -0.0000000000
Nb    6.5878952900   10.9798254900   10.0000000000    0.0000000000   -0.0000000000    0.0000000000
Nb    4.3957246790    8.7916060419   14.4742502420   -0.0003073866   -0.0000865949    0.0003813207
Nb    6.5883903275    8.7788415176   16.4831406171   -0.0001215626   -0.0002313233    0.0001173272
Nb    4.3973182709   10.9726902193   16.4846665329    0.0000419447    0.0001638952   -0.0002213514
Nb    6.5956527107   10.9842169621   14.4744844783    0.0000624586   -0.0000614880   -0.0002756869
Nb    8.7838604000    0.0000000000   10.0000000000    0.0000000000   -0.0000000000    0.0000000000
Nb   10.9798254900    0.0000000000   12.1959650900    0.0000000000   -0.0000000000   -0.0000000000
Nb    8.7838604000    2.1959650900   12.1959650900   -0.0000000000    0.0000000000   -0.0000000000
Nb   10.9798254900    2.1959650900   10.0000000000    0.0000000000   -0.0000000000    0.0000000000
Nb    8.7831505862   -0.0014593226   14.4726398251   -0.0001828033   -0.0000082051    0.0000037699
Nb   10.9904675409   -0.0273862812   16.4797672156   -0.0000986681   -0.0002142846    0.0000139277
Nb    8.7866289211    2.1936512703   16.4783186581    0.0002971860    0.0000192972    0.0000170745
Nb   10.9860661068    2.1908824274   14.4714291907    0.0003053570    0.0001186999   -0.0001133537
Nb    8.7838604000    4.3919302000   10.0000000000   -0.0000000000   -0.0000000000    0.0000000000
Nb   10.9798254900    4.3919302000   12.1959650900    0.0000000000    0.0000000000   -0.0000000000
Nb    8.7838604000    6.5878952900   12.1959650900   -0.0000000000   -0.0000000000   -0.0000000000
Nb   10.9798254900    6.5878952900   10.0000000000   -0.0000000000    0.0000000000    0.0000000000
Nb    8.7916020719    4.3957304790   14.4742519220   -0.0000865949   -0.0003073866    0.0003813207
Nb   10.9726877493    4.3973153809   16.4846663426    0.0001638952    0.0000419447   -0.0002213514
Nb    8.7788419576    6.5883919875   16.4831414771   -0.0002313233   -0.0001215626    0.0001173272
Nb   10.9842227121    6.5956485407   14.4744832483   -0.0000614880    0.0000624586   -0.0002756869
Nb    8.7838604000    8.7838604000   10.0000000000    0.0000000000    0.0000000000    0.0000000000
Nb   10.9798254900    8.7838604000   12.1959650900    0.0000000000    0.0000000000   -0.0000000000
Nb    8.7838604000   10.9798254900   12.1959650900    0.0000000000    0.0000000000   -0.0000000000
Nb   10.9798254900   10.9798254900   10.0000000000    0.0000000000    0.0000000000    0.0000000000
Nb    8.7789070880    8.7789112480   14.4770278041   -0.0000479332   -0.0000479332    0.0001705205
Nb   10.9736495527    8.8033198704   16.4822580696    0.0000761955    0.0001524295    0.0000854216
Nb    8.8033206404   10.9736512027   16.4822574599    0.0001524295    0.0000761955    0.0000854216
Nb   10.9772878093   10.9772820593   14.4871283728    0.0000815112    0.0000815112    0.0001592986
 N    0.0000000000    2.1959650900   10.0000000000   -0.0000000000   -0.0000000000   -0.0000000000
 N    2.1959650900    0.0000000000   10.0000000000   -0.0000000000   -0.0000000000   -0.0000000000
 N    0.0000000000    0.0000000000   12.1959650900    0.0000000000    0.0000000000   -0.0000000000
 N    2.1959650900    2.1959650900   12.1959650900   -0.0000000000   -0.0000000000   -0.0000000000
 N    0.0108886105    2.1965113818   14.4141535473    0.0003062555    0.0000214986    0.0000731702
 N    2.1965062318    0.0108834712   14.4141534373    0.0000214986    0.0003062555    0.0000731702
 N    0.0045216089    0.0045221489   16.8015963597    0.0001418250    0.0001418250   -0.0002368842
 N    2.2077990542    2.2077987942   16.8166492580    0.0001581721    0.0001581721    0.0006303175
 N    0.0000000000    6.5878952900   10.0000000000   -0.0000000000    0.0000000000   -0.0000000000
 N    2.1959650900    4.3919302000   10.0000000000    0.0000000000    0.0000000000   -0.0000000000
 N    0.0000000000    4.3919302000   12.1959650900   -0.0000000000    0.0000000000   -0.0000000000
 N    2.1959650900    6.5878952900   12.1959650900   -0.0000000000    0.0000000000   -0.0000000000
 N    0.0073779266    6.5866491459   14.4152778132    0.0001046455   -0.0000027791   -0.0002056052
 N    2.2037105801    4.3938648887   14.4211611204    0.0002655079    0.0003474766   -0.0000572309
 N   -0.0231168248    4.3903360598   16.8117182536   -0.0002843058    0.0003416556    0.0002983501
 N    2.1865552322    6.5886540258   16.8072650960    0.0005391154    0.0001555752   -0.0003165400
 N    0.0000000000   10.9798254900   10.0000000000    0.0000000000   -0.0000000000   -0.0000000000
 N    2.1959650900    8.7838604000   10.0000000000   -0.0000000000    0.0000000000   -0.0000000000
 N    0.0000000000    8.7838604000   12.1959650900    0.0000000000   -0.0000000000   -0.0000000000
 N    2.1959650900   10.9798254900   12.1959650900    0.0000000000   -0.0000000000   -0.0000000000
 N   -0.0050189240   10.9811511887   14.4115555123    0.0000456149   -0.0000849810    0.0000016345
 N    2.1955679300    8.7829127618   14.4101785778   -0.0001287267    0.0003168998    0.0000213735
 N   -0.0015442126    8.7865718515   16.7826415865    0.0000901293    0.0000665577    0.0000727695
 N    2.1828939007   10.9894817917   16.7731052846   -0.0000373724    0.0003109810   -0.0002042922
 N    4.3919302000    2.1959650900   10.0000000000    0.0000000000    0.0000000000   -0.0000000000
 N    6.5878952900    0.0000000000   10.0000000000    0.0000000000   -0.0000000000   -0.0000000000
 N    4.3919302000    0.0000000000   12.1959650900    0.0000000000   -0.0000000000   -0.0000000000
 N    6.5878952900    2.1959650900   12.1959650900    0.0000000000   -0.0000000000   -0.0000000000
 N    4.3938666687    2.2037145201   14.4211676704    0.0003474766    0.0002655079   -0.0000572309
 N    6.5866440759    0.0073739659   14.4152840632   -0.0000027791    0.0001046455   -0.0002056052
 N    4.3903367998   -0.0231170048   16.8117155336    0.0003416556   -0.0002843058    0.0002983501
 N    6.5886558858    2.1865549822   16.8072637660    0.0001555752    0.0005391154   -0.0003165400
 N    4.3919302000    6.5878952900   10.0000000000    0.0000000000   -0.0000000000   -0.0000000000
 N    6.5878952900    4.3919302000   10.0000000000   -0.0000000000    0.0000000000   -0.0000000000
 N    4.3919302000    4.3919302000   12.1959650900   -0.0000000000   -0.0000000000   -0.0000000000
 N    6.5878952900    6.5878952900   12.1959650900    0.0000000000    0.0000000000   -0.0000000000
 N    4.3893228986    6.5860430868   14.4076003572    0.0001182875    0.0001750842    0.0003776022
 N    6.5860390568    4.3893219786   14.4076001372    0.0001750842    0.0001182875    0.0003776022
 N    4.4195920759    4.4195922559   16.7695739194   -0.0007119111   -0.0007119111   -0.0012496799
 N    6.5625502505    6.5625484505   16.8039960639    0.0007538387    0.0007538387    0.0000420377
 N    4.3919302000   10.9798254900   10.0000000000   -0.0000000000    0.0000000000   -0.0000000000
 N    6.5878952900    8.7838604000   10.0000000000    0.0000000000    0.0000000000   -0.0000000000
 N    4.3919302000    8.7838604000   12.1959650900   -0.0000000000   -0.0000000000   -0.0000000000
 N    6.5878952900   10.9798254900   12.1959650900   -0.0000000000   -0.0000000000   -0.0000000000
 N    4.3933164535   10.9816080708   14.4172357925    0.0000482842    0.0001137784   -0.0001421728
 N    6.5878111840    8.7772049353   14.4138319597   -0.0001866245   -0.0000790946    0.0000279865
 N    4.3898277519    8.8335457944   16.8337789503   -0.0001162799    0.0002429695    0.0000326497
 N    6.6013767473   10.9857139034   16.7816497011   -0.0000178544    0.0000644283   -0.0003974578
 N    8.7838604000    2.1959650900   10.0000000000    0.0000000000   -0.0000000000   -0.0000000000
 N   10.9798254900    0.0000000000   10.0000000000   -0.0000000000    0.0000000000   -0.0000000000
 N    8.7838604000    0.0000000000   12.1959650900   -0.0000000000    0.0000000000   -0.0000000000
 N   10.9798254900    2.1959650900   12.1959650900   -0.0000000000    0.0000000000   -0.0000000000
 N    8.7829177218    2.1955727100   14.4101846778    0.0003168998   -0.0001287267    0.0000213735
 N   10.9811496587   -0.0050232840   14.4115618423   -0.0000849810    0.0000456149    0.0000016345
 N    8.7865699315   -0.0015446026   16.7826398265    0.0000665577    0.0000901293    0.0000727695
 N   10.9894815417    2.1828936807   16.7731021546    0.0003109810   -0.0000373724   -0.0002042922
 N    8.7838604000    6.5878952900   10.0000000000    0.0000000000    0.0000000000   -0.0000000000
 N   10.9798254900    4.3919302000   10.0000000000    0.0000000000   -0.0000000000   -0.0000000000
 N    8.7838604000    4.3919302000   12.1959650900   -0.0000000000   -0.0000000000   -0.0000000000
 N   10.9798254900    6.5878952900   12.1959650900   -0.0000000000   -0.0000000000   -0.0000000000
 N    8.7772092246    6.5878154940   14.4138320397   -0.0000790946   -0.0001866245    0.0000279865
 N   10.9816072508    4.3933157335   14.4172354925    0.0001137784    0.0000482842   -0.0001421728
 N    8.8335434544    4.3898277519   16.8337786303    0.0002429695   -0.0001162799    0.0000326497
 N   10.9857131934    6.6013750573   16.7816489811    0.0000644283   -0.0000178544   -0.0003974578
 N    8.7838604000   10.9798254900   10.0000000000   -0.0000000000    0.0000000000   -0.0000000000
 N   10.9798254900    8.7838604000   10.0000000000    0.0000000000   -0.0000000000   -0.0000000000
 N    8.7838604000    8.7838604000   12.1959650900    0.0000000000    0.0000000000   -0.0000000000
 N   10.9798254900   10.9798254900   12.1959650900   -0.0000000000   -0.0000000000   -0.0000000000
 N    8.7874280185   10.9762436142   14.4138051058    0.0000656584   -0.0000453728    0.0000012619
 N   10.9762429142    8.7874235885   14.4138052758   -0.0000453728    0.0000656584    0.0000012619
 N    8.7745465353    8.7745487053   16.7985552686    0.0000399272    0.0000399272   -0.0001416549
 N   10.9762989245   10.9762993645   16.8265918256   -0.0000473073   -0.0000473073    0.0003048065
Li    4.9437796891    4.9437792612   18.5590502730   -0.0067414970   -0.0067414970    0.0007352104
 PRIMCOORD   3
  145  1
Nb    0.0000000000    0.0000000000   10.0000000000   -0.0000000000   -0.0000000000    0.0000000000
Nb    2.1959650900    0.0000000000   12.1959650900    0.0000000000   -0.0000000000   -0.0000000000
Nb    0.0000000000    2.1959650900   12.1959650900   -0.0000000000    0.0000000000   -0.0000000000
Nb    2.1959650900    2.1959650900   10.0000000000   -0.0000000000   -0.0000000000    0.0000000000
Nb    0.0033754364    0.0033777864   14.4846423966   -0.0001115716   -0.0001115716    0.0002447042
Nb    2.1876018422    0.0167830898   16.4837347392    0.0001827121    0.0003516767    0.0001268541
Nb    0.0167813998    2.1876007922   16.4837348092    0.0003516767    0.0001827121    0.0001268541
Nb    2.2076310063    2.2076285363   14.4831366601    0.0004451144    0.0004451144    0.0006381908
Nb    0.0000000000    4.3919302000   10.0000000000    0.0000000000   -0.0000000000    0.0000000000
Nb    2.1959650900    4.3919302000   12.1959650900    0.0000000000    0.0000000000   -0.0000000000
Nb    0.0000000000    6.5878952900   12.1959650900   -0.0000000000   -0.0000000000   -0.0000000000
Nb    2.1959650900    6.5878952900   10.0000000000    0.0000000000    0.0000000000    0.0000000000
Nb   -0.0040539904    4.3880847700   14.4792988592    0.0000499706   -0.0001783189   -0.0003001131
Nb    2.1960914572    4.3851234787   16.4913378732    0.0001344821   -0.0001898775    0.0002315072
Nb    0.0167753183    6.5843430975   16.4823273629    0.0001124804    0.0003445288   -0.0003434278
Nb    2.1920858567    6.5814229691   14.4693896567    0.0006044014    0.0007709528    0.0002361324
Nb    0.0000000000    8.7838604000   10.0000000000   -0.0000000000    0.0000000000    0.0000000000
Nb    2.1959650900    8.7838604000   12.1959650900    0.0000000000   -0.0000000000   -0.0000000000
Nb    0.0000000000   10.9798254900   12.1959650900   -0.0000000000    0.0000000000   -0.0000000000
Nb    2.1959650900   10.9798254900   10.0000000000   -0.0000000000    0.0000000000    0.0000000000
Nb   -0.0086740875    8.7844292614   14.4719344080   -0.0006354301   -0.0003668371    0.0000023668
Nb    2.1846919553    8.7951224032   16.4755672786   -0.0004293227    0.0004293227    0.0000545565
Nb   -0.0206898385   11.0005252499   16.4792131966   -0.0001130583    0.0001130583    0.0000043224
Nb    2.1954004583   10.9884966227   14.4719267454    0.0003668371    0.0006354301    0.0000023668
Nb    4.3919302000    0.0000000000   10.0000000000   -0.0000000000    0.0000000000    0.0000000000
Nb    6.5878952900    0.0000000000   12.1959650900   -0.0000000000   -0.0000000000   -0.0000000000
Nb    4.3919302000    2.1959650900   12.1959650900    0.0000000000    0.0000000000   -0.0000000000
Nb    6.5878952900    2.1959650900   10.0000000000    0.0000000000    0.0000000000    0.0000000000
Nb    4.3880779100   -0.0040526904   14.4792972892   -0.0001783189    0.0000499706   -0.0003001131
Nb    6.5843428775    0.0167765983   16.4823300029    0.0003445288    0.0001124804   -0.0003434278
Nb    4.3851255987    2.1960889472   16.4913409042   -0.0001898775    0.0001344821    0.0002315072
Nb    6.5814280091    2.1920844167   14.4693887667    0.0007709528    0.0006044014    0.0002361324
Nb    4.3919302000    4.3919302000   10.0000000000   -0.0000000000   -0.0000000000    0.0000000000
Nb    6.5878952900    4.3919302000   12.1959650900   -0.0000000000    0.0000000000   -0.0000000000
Nb    4.3919302000    6.5878952900   12.1959650900    0.0000000000   -0.0000000000   -0.0000000000
Nb    6.5878952900    6.5878952900   10.0000000000    0.0000000000    0.0000000000    0.0000000000
Nb    4.4104673686    4.4104730286   14.5147297405   -0.0000608485   -0.0000608485    0.0000186618
Nb    6.7001723097    4.2796380189   16.4676641693    0.0002438926   -0.0002438926   -0.0008727206
Nb    4.2796399789    6.7001734997   16.4676644293   -0.0002438926    0.0002438926   -0.0008727206
Nb    6.5693568984    6.5693525784   14.5147227697    0.0000608485    0.0000608485    0.0000186618
Nb    4.3919302000    8.7838604000   10.0000000000   -0.0000000000   -0.0000000000    0.0000000000
Nb    6.5878952900    8.7838604000   12.1959650900   -0.0000000000   -0.0000000000   -0.0000000000
Nb    4.3919302000   10.9798254900   12.1959650900    0.0000000000    0.0000000000   -0.0000000000
Nb    6.5878952900   10.9798254900   10.0000000000    0.0000000000   -0.0000000000    0.0000000000
Nb    4.3983971156    8.7877343716   14.4693752013   -0.0007709528   -0.0006044014    0.0002361324
Nb    6.5947123703    8.7837492738   16.4913349397    0.0001898775   -0.0001344821    0.0002315072
Nb    4.3954950617   10.9630499239   16.4823197032   -0.0003445288   -0.0001124804   -0.0003434278
Nb    6.5917438604   10.9838846752   14.4793010404    0.0001783189   -0.0000499706   -0.0003001131
Nb    8.7838604000    0.0000000000   10.0000000000    0.0000000000   -0.0000000000    0.0000000000
Nb   10.9798254900    0.0000000000   12.1959650900    0.0000000000   -0.0000000000   -0.0000000000
Nb    8.7838604000    2.1959650900   12.1959650900   -0.0000000000    0.0000000000   -0.0000000000
Nb   10.9798254900    2.1959650900   10.0000000000    0.0000000000   -0.0000000000    0.0000000000
Nb    8.7844240614   -0.0086728875   14.4719339380   -0.0003668371   -0.0006354301    0.0000023668
Nb   11.0005222299   -0.0206891785   16.4792160666    0.0001130583   -0.0001130583    0.0000043224
Nb    8.7951227632    2.1846900753   16.4755697891    0.0004293227   -0.0004293227    0.0000545565
Nb   10.9885034727    2.1953989983   14.4719248954    0.0006354301    0.0003668371    0.0000023668
Nb    8.7838604000    4.3919302000   10.0000000000   -0.0000000000   -0.0000000000    0.0000000000
Nb   10.9798254900    4.3919302000   12.1959650900    0.0000000000    0.0000000000   -0.0000000000
Nb    8.7838604000    6.5878952900   12.1959650900   -0.0000000000   -0.0000000000   -0.0000000000
Nb   10.9798254900    6.5878952900   10.0000000000   -0.0000000000    0.0000000000    0.0000000000
Nb    8.7877304016    4.3984029156   14.4693768813   -0.0006044014   -0.0007709528    0.0002361324
Nb   10.9630474539    4.3954921717   16.4823195127   -0.0001124804   -0.0003445288   -0.0003434278
Nb    8.7837497138    6.5947140303   16.4913357997   -0.0001344821    0.0001898775    0.0002315072
Nb   10.9838904252    6.5917396904   14.4792998104   -0.0000499706    0.0001783189   -0.0003001131
Nb    8.7838604000    8.7838604000   10.0000000000    0.0000000000    0.0000000000    0.0000000000
Nb   10.9798254900    8.7838604000   12.1959650900    0.0000000000   -0.0000000000   -0.0000000000
Nb    8.7838604000   10.9798254900   12.1959650900   -0.0000000000    0.0000000000   -0.0000000000
Nb   10.9798254900   10.9798254900   10.0000000000    0.0000000000    0.0000000000    0.0000000000
Nb    8.7721932963    8.7721974563   14.4831333939   -0.0004451144   -0.0004451144    0.0006381908
Nb   10.9630420192    8.7922035150   16.4837375538   -0.0003516767   -0.0001827121    0.0001268541
Nb    8.7922042850   10.9630436692   16.4837369443   -0.0001827121   -0.0003516767    0.0001268541
Nb   10.9764519974   10.9764462474   14.4846378012    0.0001115716    0.0001115716    0.0002447042
 N    0.0000000000    2.1959650900   10.0000000000   -0.0000000000   -0.0000000000   -0.0000000000
 N    2.1959650900    0.0000000000   10.0000000000   -0.0000000000   -0.0000000000   -0.0000000000
 N    0.0000000000    0.0000000000   12.1959650900    0.0000000000    0.0000000000   -0.0000000000
 N    2.1959650900    2.1959650900   12.1959650900   -0.0000000000   -0.0000000000   -0.0000000000
 N    0.0107837744    2.1954351380   14.4147682685    0.0004464107   -0.0000685718    0.0000542360
 N    2.1954299880    0.0107786349   14.4147681585   -0.0000685718    0.0004464107    0.0000542360
 N    0.0050417497    0.0050422897   16.8151703491    0.0001772056    0.0001772056    0.0000071559
 N    2.2093523492    2.2093520892   16.8162356523    0.0001411861    0.0001411861    0.0005510135
 N    0.0000000000    6.5878952900   10.0000000000   -0.0000000000    0.0000000000   -0.0000000000
 N    2.1959650900    4.3919302000   10.0000000000    0.0000000000   -0.0000000000   -0.0000000000
 N    0.0000000000    4.3919302000   12.1959650900   -0.0000000000    0.0000000000   -0.0000000000
 N    2.1959650900    6.5878952900   12.1959650900   -0.0000000000   -0.0000000000   -0.0000000000
 N    0.0030461867    6.5858596483   14.4162997298    0.0001665438   -0.0001518815   -0.0003378688
 N    2.2035292343    4.3940150980   14.4184564589   -0.0000401791    0.0006053758    0.0000460591
 N   -0.0061665151    4.3859534266   16.7884521314   -0.0000434888    0.0004115622   -0.0004130760
 N    2.1596695816    6.5931071163   16.8191599796   -0.0000916915    0.0002778870   -0.0002085078
 N    0.0000000000   10.9798254900   10.0000000000    0.0000000000   -0.0000000000   -0.0000000000
 N    2.1959650900    8.7838604000   10.0000000000   -0.0000000000    0.0000000000   -0.0000000000
 N    0.0000000000    8.7838604000   12.1959650900    0.0000000000   -0.0000000000   -0.0000000000
 N    2.1959650900   10.9798254900   12.1959650900    0.0000000000   -0.0000000000   -0.0000000000
 N   -0.0026009082   10.9824320882   14.4110275237    0.0002476159   -0.0002476159   -0.0000068288
 N    2.1924620309    8.7873631195   14.4080880456   -0.0006897676    0.0006897676   -0.0000076140
 N   -0.0116523789    8.7921826624   16.7783408583   -0.0002082275    0.0000350807    0.0000121270
 N    2.1876531365   10.9914759676   16.7783358857   -0.0000350807    0.0002082275    0.0000121270
 N    4.3919302000    2.1959650900   10.0000000000   -0.0000000000    0.0000000000   -0.0000000000
 N    6.5878952900    0.0000000000   10.0000000000    0.0000000000   -0.0000000000   -0.0000000000
 N    4.3919302000    0.0000000000   12.1959650900    0.0000000000   -0.0000000000   -0.0000000000
 N    6.5878952900    2.1959650900   12.1959650900   -0.0000000000   -0.0000000000   -0.0000000000
 N    4.3940168780    2.2035331743   14.4184630089    0.0006053758   -0.0000401791    0.0000460591
 N    6.5858545783    0.0030422262   14.4163059798   -0.0001518815    0.0001665438   -0.0003378688
 N    4.3859541666   -0.0061666951   16.7884494114    0.0004115622   -0.0000434888   -0.0004130760
 N    6.5931089763    2.1596693316   16.8191586496    0.0002778870   -0.0000916915   -0.0002085078
 N    4.3919302000    6.5878952900   10.0000000000    0.0000000000   -0.0000000000   -0.0000000000
 N    6.5878952900    4.3919302000   10.0000000000   -0.0000000000    0.0000000000   -0.0000000000
 N    4.3919302000    4.3919302000   12.1959650900   -0.0000000000   -0.0000000000    0.0000000000
 N    6.5878952900    6.5878952900   12.1959650900    0.0000000000    0.0000000000    0.0000000000
 N    4.3900767021    6.5897570884   14.4030375115    0.0001727548   -0.0001727548    0.0003819289
 N    6.5897530584    4.3900757821   14.4030372915   -0.0001727548    0.0001727548    0.0003819289
 N    4.4487622056    4.4487623856   16.8565167927   -0.0006280766   -0.0006280766    0.0000983093
 N    6.5310724985    6.5310706985   16.8564238791    0.0006280766    0.0006280766    0.0000983093
 N    4.3919302000   10.9798254900   10.0000000000   -0.0000000000    0.0000000000   -0.0000000000
 N    6.5878952900    8.7838604000   10.0000000000    0.0000000000   -0.0000000000   -0.0000000000
 N    4.3919302000    8.7838604000   12.1959650900    0.0000000000    0.0000000000   -0.0000000000
 N    6.5878952900   10.9798254900   12.1959650900   -0.0000000000    0.0000000000   -0.0000000000
 N    4.3939697944   10.9767760556   14.4162972190    0.0001518815   -0.0001665438   -0.0003378688
 N    6.5858090210    8.7762917571   14.4184483093   -0.0006053758    0.0000401791    0.0000460591
 N    4.3867259115    8.8201487043   16.8191398694   -0.0002778870    0.0000916915   -0.0002085078
 N    6.5938646789   10.9859921592   16.7884754408   -0.0004115622    0.0000434888   -0.0004130760
 N    8.7838604000    2.1959650900   10.0000000000    0.0000000000   -0.0000000000   -0.0000000000
 N   10.9798254900    0.0000000000   10.0000000000   -0.0000000000    0.0000000000   -0.0000000000
 N    8.7838604000    0.0000000000   12.1959650900   -0.0000000000    0.0000000000   -0.0000000000
 N   10.9798254900    2.1959650900   12.1959650900   -0.0000000000    0.0000000000   -0.0000000000
 N    8.7873680795    2.1924668109   14.4080941456    0.0006897676   -0.0006897676   -0.0000076140
 N   10.9824305582   -0.0026052682   14.4110338537   -0.0002476159    0.0002476159   -0.0000068288
 N    8.7921807424   -0.0116527689   16.7783390983    0.0000350807   -0.0002082275    0.0000121270
 N   10.9914757176    2.1876529165   16.7783327557    0.0002082275   -0.0000350807    0.0000121270
 N    8.7838604000    6.5878952900   10.0000000000   -0.0000000000    0.0000000000   -0.0000000000
 N   10.9798254900    4.3919302000   10.0000000000    0.0000000000   -0.0000000000   -0.0000000000
 N    8.7838604000    4.3919302000   12.1959650900    0.0000000000    0.0000000000   -0.0000000000
 N   10.9798254900    6.5878952900   12.1959650900    0.0000000000   -0.0000000000   -0.0000000000
 N    8.7762960466    6.5858133310   14.4184483893    0.0000401791   -0.0006053758    0.0000460591
 N   10.9767752356    4.3939690744   14.4162969190   -0.0001665438    0.0001518815   -0.0003378688
 N    8.8201463643    4.3867259115   16.8191395494    0.0000916915   -0.0002778870   -0.0002085078
 N   10.9859914492    6.5938629889   16.7884747208    0.0000434888   -0.0004115622   -0.0004130760
 N    8.7838604000   10.9798254900   10.0000000000    0.0000000000    0.0000000000   -0.0000000000
 N   10.9798254900    8.7838604000   10.0000000000    0.0000000000    0.0000000000   -0.0000000000
 N    8.7838604000    8.7838604000   12.1959650900    0.0000000000    0.0000000000   -0.0000000000
 N   10.9798254900   10.9798254900   12.1959650900   -0.0000000000   -0.0000000000   -0.0000000000
 N    8.7843900595   10.9690396641   14.4147665784    0.0000685718   -0.0004464107    0.0000542360
 N   10.9690389641    8.7843856295   14.4147667484   -0.0004464107    0.0000685718    0.0000542360
 N    8.7704662231    8.7704683931   16.8162464403   -0.0001411861   -0.0001411861    0.0005510135
 N   10.9747817793   10.9747822193   16.8151602749   -0.0001772056   -0.0001772056    0.0000071559
Li    5.4899152961    5.4899144861   18.4789899160    0.0000000000    0.0000000000   -0.0017344044
 PRIMCOORD   4
  145  1
Nb    0.0000000000    0.0000000000   10.0000000000   -0.0000000000   -0.0000000000    0.0000000000
Nb    2.1959650900    0.0000000000   12.1959650900   -0.0000000000   -0.0000000000   -0.0000000000
Nb    0.0000000000    2.1959650900   12.1959650900   -0.0000000000   -0.0000000000   -0.0000000000
Nb    2.1959650900    2.1959650900   10.0000000000   -0.0000000000   -0.0000000000    0.0000000000
Nb    0.0025394022    0.0025417522   14.4871349709   -0.0000823583   -0.0000823583    0.0001630333
Nb    2.1764831041    0.0061760247   16.4822727812   -0.0001480912   -0.0000792423    0.0000726941
Nb    0.0061743347    2.1764820541   16.4822728512   -0.0000792423   -0.0001480912    0.0000726941
Nb    2.2009147027    2.2009122327   14.4770347408    0.0000505534    0.0000505534    0.0001755271
Nb    0.0000000000    4.3919302000   10.0000000000    0.0000000000   -0.0000000000    0.0000000000
Nb    2.1959650900    4.3919302000   12.1959650900    0.0000000000    0.0000000000   -0.0000000000
Nb    0.0000000000    6.5878952900   12.1959650900   -0.0000000000   -0.0000000000   -0.0000000000
Nb    2.1959650900    6.5878952900   10.0000000000    0.0000000000    0.0000000000    0.0000000000
Nb   -0.0044187759    4.3841808391   14.4744579069    0.0000741619   -0.0000663145   -0.0002614685
Nb    2.2010484459    4.3914548130   16.4831803045    0.0002128001    0.0001176208    0.0000888803
Nb    0.0071355787    6.5825098328   16.4846683619   -0.0001637281   -0.0000424219   -0.0002207904
Nb    2.1882229256    6.5841086830   14.4742783943    0.0000852110    0.0003007823    0.0003797322
Nb    0.0000000000    8.7838604000   10.0000000000   -0.0000000000    0.0000000000    0.0000000000
Nb    2.1959650900    8.7838604000   12.1959650900    0.0000000000   -0.0000000000   -0.0000000000
Nb    0.0000000000   10.9798254900   12.1959650900   -0.0000000000    0.0000000000   -0.0000000000
Nb    2.1959650900   10.9798254900   10.0000000000   -0.0000000000    0.0000000000    0.0000000000
Nb   -0.0062555730    8.7889444345   14.4714112523   -0.0002987277   -0.0001137768   -0.0001009343
Nb    2.1932148137    8.7861528806   16.4783237129   -0.0003085518   -0.0000136149    0.0000122173
Nb   -0.0106384833   11.0072387115   16.4797771056    0.0000989422    0.0002093536   -0.0000003239
Nb    2.1966847569   10.9812743898   14.4726311280    0.0001751050    0.0000126601    0.0000110523
Nb    4.3919302000    0.0000000000   10.0000000000   -0.0000000000    0.0000000000    0.0000000000
Nb    6.5878952900    0.0000000000   12.1959650900   -0.0000000000   -0.0000000000   -0.0000000000
Nb    4.3919302000    2.1959650900   12.1959650900    0.0000000000    0.0000000000   -0.0000000000
Nb    6.5878952900    2.1959650900   10.0000000000    0.0000000000    0.0000000000    0.0000000000
Nb    4.3841739791   -0.0044174759   14.4744563369   -0.0000663145    0.0000741619   -0.0002614685
Nb    6.5825096128    0.0071368587   16.4846710019   -0.0000424219   -0.0001637281   -0.0002207904
Nb    4.3914569330    2.2010459359   16.4831833355    0.0001176208    0.0002128001    0.0000888803
Nb    6.5841137230    2.1882214856   14.4742775043    0.0003007823    0.0000852110    0.0003797322
Nb    4.3919302000    4.3919302000   10.0000000000   -0.0000000000   -0.0000000000    0.0000000000
Nb    6.5878952900    4.3919302000   12.1959650900   -0.0000000000    0.0000000000   -0.0000000000
Nb    4.3919302000    6.5878952900   12.1959650900    0.0000000000   -0.0000000000   -0.0000000000
Nb    6.5878952900    6.5878952900   10.0000000000   -0.0000000000   -0.0000000000    0.0000000000
Nb    4.4117369872    4.4117426472   14.4893267617   -0.0000249325   -0.0000249325    0.0000829586
Nb    6.6332514105    4.2571613686   16.4801169475   -0.0008775031   -0.0001383071    0.0002648820
Nb    4.2571633286    6.6332526005   16.4801172075   -0.0001383071   -0.0008775031    0.0002648820
Nb    6.5776526310    6.5776483110   14.5203098216   -0.0002156774   -0.0002156774   -0.0007006802
Nb    4.3919302000    8.7838604000   10.0000000000   -0.0000000000    0.0000000000    0.0000000000
Nb    6.5878952900    8.7838604000   12.1959650900   -0.0000000000   -0.0000000000   -0.0000000000
Nb    4.3919302000   10.9798254900   12.1959650900    0.0000000000   -0.0000000000   -0.0000000000
Nb    6.5878952900   10.9798254900   10.0000000000    0.0000000000   -0.0000000000    0.0000000000
Nb    4.4033603733    8.7745935470   14.4775376483   -0.0004160077   -0.0003886217    0.0002801214
Nb    6.5924224042    8.8389922045   16.4951217244    0.0000815740    0.0007700477    0.0000340831
Nb    4.3935994406   10.9619744649   16.4819663695   -0.0003486066   -0.0002260142   -0.0001799371
Nb    6.5890166174   10.9794926599   14.4842380364   -0.0000565366   -0.0002505018   -0.0000738214
Nb    8.7838604000    0.0000000000   10.0000000000    0.0000000000   -0.0000000000    0.0000000000
Nb   10.9798254900    0.0000000000   12.1959650900    0.0000000000   -0.0000000000   -0.0000000000
Nb    8.7838604000    2.1959650900   12.1959650900   -0.0000000000    0.0000000000   -0.0000000000
Nb   10.9798254900    2.1959650900   10.0000000000    0.0000000000   -0.0000000000    0.0000000000
Nb    8.7889392345   -0.0062543730   14.4714107823   -0.0001137768   -0.0002987277   -0.0001009343
Nb   11.0072356915   -0.0106378233   16.4797799756    0.0002093536    0.0000989422   -0.0000003239
Nb    8.7861532406    2.1932129337   16.4783262235   -0.0000136149   -0.0003085518    0.0000122173
Nb   10.9812812398    2.1966832969   14.4726292780    0.0000126601    0.0001751050    0.0000110523
Nb    8.7838604000    4.3919302000   10.0000000000    0.0000000000   -0.0000000000    0.0000000000
Nb   10.9798254900    4.3919302000   12.1959650900   -0.0000000000    0.0000000000   -0.0000000000
Nb    8.7838604000    6.5878952900   12.1959650900   -0.0000000000   -0.0000000000   -0.0000000000
Nb   10.9798254900    6.5878952900   10.0000000000   -0.0000000000    0.0000000000    0.0000000000
Nb    8.7745895770    4.4033661733   14.4775393283   -0.0003886217   -0.0004160077    0.0002801214
Nb   10.9619719949    4.3935965506   16.4819661788   -0.0002260142   -0.0003486066   -0.0001799371
Nb    8.8389926445    6.5924240642   16.4951225844    0.0007700477    0.0000815740    0.0000340831
Nb   10.9794984099    6.5890124474   14.4842368064   -0.0002505018   -0.0000565366   -0.0000738214
Nb    8.7838604000    8.7838604000   10.0000000000    0.0000000000    0.0000000000    0.0000000000
Nb   10.9798254900    8.7838604000   12.1959650900   -0.0000000000   -0.0000000000   -0.0000000000
Nb    8.7838604000   10.9798254900   12.1959650900   -0.0000000000   -0.0000000000   -0.0000000000
Nb   10.9798254900   10.9798254900   10.0000000000    0.0000000000    0.0000000000    0.0000000000
Nb    8.7678735309    8.7678776909   14.4859676755   -0.0003149517   -0.0003149517    0.0004591085
Nb   10.9601431838    8.7860487270   16.4830407183   -0.0004163770   -0.0002590091    0.0001167792
Nb    8.7860494970   10.9601448338   16.4830401090   -0.0002590091   -0.0004163770    0.0001167792
Nb   10.9767795453   10.9767737953   14.4800802360   -0.0000329679   -0.0000329679    0.0000020871
 N    0.0000000000    2.1959650900   10.0000000000   -0.0000000000    0.0000000000   -0.0000000000
 N    2.1959650900    0.0000000000   10.0000000000    0.0000000000   -0.0000000000   -0.0000000000
 N    0.0000000000    0.0000000000   12.1959650900    0.0000000000    0.0000000000   -0.0000000000
 N    2.1959650900    2.1959650900   12.1959650900   -0.0000000000   -0.0000000000   -0.0000000000
 N    0.0035973674    2.1924065827   14.4138054023    0.0000378011   -0.0000664382    0.0000059117
 N    2.1924014327    0.0035922277   14.4138052923   -0.0000664382    0.0000378011    0.0000059117
 N    0.0035316812    0.0035322212   16.8265886136    0.0000454307    0.0000454307    0.0003204403
 N    2.2052851139    2.2052848539   16.7985304050   -0.0000386195   -0.0000386195   -0.0001362064
 N    0.0000000000    6.5878952900   10.0000000000   -0.0000000000    0.0000000000   -0.0000000000
 N    2.1959650900    4.3919302000   10.0000000000   -0.0000000000   -0.0000000000   -0.0000000000
 N    0.0000000000    4.3919302000   12.1959650900    0.0000000000    0.0000000000   -0.0000000000
 N    2.1959650900    6.5878952900   12.1959650900    0.0000000000    0.0000000000   -0.0000000000
 N   -0.0017698137    6.5865060459   14.4172394242   -0.0001237808   -0.0000457580   -0.0001458661
 N    2.2026151527    4.3920027725   14.4138278502    0.0000781496    0.0001952716    0.0000451771
 N   -0.0058816686    4.3784432161   16.7816223521   -0.0000652265    0.0000185943   -0.0004031548
 N    2.1462766508    6.5899926426   16.8337849396   -0.0002436505    0.0001189630    0.0000376897
 N    0.0000000000   10.9798254900   10.0000000000    0.0000000000   -0.0000000000   -0.0000000000
 N    2.1959650900    8.7838604000   10.0000000000   -0.0000000000    0.0000000000   -0.0000000000
 N    0.0000000000    8.7838604000   12.1959650900    0.0000000000   -0.0000000000   -0.0000000000
 N    2.1959650900   10.9798254900   12.1959650900    0.0000000000   -0.0000000000   -0.0000000000
 N   -0.0013161551   10.9848547436   14.4115543049    0.0000808420   -0.0000490524    0.0000057996
 N    2.1969019843    8.7842502186   14.4101794929   -0.0003121502    0.0001287929    0.0000226874
 N   -0.0096532500    8.7969357348   16.7730868543   -0.0003179653    0.0000382475   -0.0002065509
 N    2.1932642484   10.9813687403   16.7826251179   -0.0000636075   -0.0000948950    0.0000753266
 N    4.3919302000    2.1959650900   10.0000000000   -0.0000000000   -0.0000000000   -0.0000000000
 N    6.5878952900    0.0000000000   10.0000000000    0.0000000000   -0.0000000000   -0.0000000000
 N    4.3919302000    0.0000000000   12.1959650900    0.0000000000    0.0000000000   -0.0000000000
 N    6.5878952900    2.1959650900   12.1959650900    0.0000000000    0.0000000000   -0.0000000000
 N    4.3920045525    2.2026190927   14.4138344002    0.0001952716    0.0000781496    0.0000451771
 N    6.5865009758   -0.0017737740   14.4172456742   -0.0000457580   -0.0001237808   -0.0001458661
 N    4.3784439561   -0.0058818486   16.7816196321    0.0000185943   -0.0000652265   -0.0004031548
 N    6.5899945026    2.1462764008   16.8337836096    0.0001189630   -0.0002436505    0.0000376897
 N    4.3919302000    6.5878952900   10.0000000000    0.0000000000   -0.0000000000   -0.0000000000
 N    6.5878952900    4.3919302000   10.0000000000   -0.0000000000    0.0000000000   -0.0000000000
 N    4.3919302000    4.3919302000   12.1959650900   -0.0000000000   -0.0000000000   -0.0000000000
 N    6.5878952900    6.5878952900   12.1959650900    0.0000000000    0.0000000000   -0.0000000000
 N    4.3937798734    6.5904895253   14.4075941441   -0.0001662871   -0.0001092734    0.0003985140
 N    6.5904854953    4.3937789534   14.4075939241   -0.0001092734   -0.0001662871    0.0003985140
 N    4.4172760009    4.4172761809   16.8040168978   -0.0007470364   -0.0007470364    0.0000527759
 N    6.5602319039    6.5602301039   16.7695604912    0.0007138318    0.0007138318   -0.0012507212
 N    4.3919302000   10.9798254900   10.0000000000   -0.0000000000    0.0000000000   -0.0000000000
 N    6.5878952900    8.7838604000   10.0000000000   -0.0000000000   -0.0000000000   -0.0000000000
 N    4.3919302000    8.7838604000   12.1959650900   -0.0000000000    0.0000000000   -0.0000000000
 N    6.5878952900   10.9798254900   12.1959650900   -0.0000000000    0.0000000000   -0.0000000000
 N    4.3931748112   10.9724551563   14.4152850811    0.0000107076   -0.0001144196   -0.0002138251
 N    6.5859497186    8.7761127437   14.4211588113   -0.0003391746   -0.0002695510   -0.0000549593
 N    4.3911708543    8.7932634473   16.8072630728   -0.0001468945   -0.0005453022   -0.0003170730
 N    6.5894837848   11.0029482881   16.8117336372   -0.0003424679    0.0002799199    0.0002959971
 N    8.7838604000    2.1959650900   10.0000000000    0.0000000000   -0.0000000000   -0.0000000000
 N   10.9798254900    0.0000000000   10.0000000000   -0.0000000000    0.0000000000   -0.0000000000
 N    8.7838604000    0.0000000000   12.1959650900   -0.0000000000    0.0000000000   -0.0000000000
 N   10.9798254900    2.1959650900   12.1959650900   -0.0000000000    0.0000000000   -0.0000000000
 N    8.7842551786    2.1969067643   14.4101855929    0.0001287929   -0.0003121502    0.0000226874
 N   10.9848532136   -0.0013205151   14.4115606349   -0.0000490524    0.0000808420    0.0000057996
 N    8.7969338148   -0.0096536400   16.7730850943    0.0000382475   -0.0003179653   -0.0002065509
 N   10.9813684903    2.1932640284   16.7826219879   -0.0000948950   -0.0000636075    0.0000753266
 N    8.7838604000    6.5878952900   10.0000000000   -0.0000000000   -0.0000000000   -0.0000000000
 N   10.9798254900    4.3919302000   10.0000000000    0.0000000000   -0.0000000000   -0.0000000000
 N    8.7838604000    4.3919302000   12.1959650900    0.0000000000   -0.0000000000   -0.0000000000
 N   10.9798254900    6.5878952900   12.1959650900    0.0000000000   -0.0000000000   -0.0000000000
 N    8.7761170334    6.5859540286   14.4211588913   -0.0002695510   -0.0003391746   -0.0000549593
 N   10.9724543363    4.3931740912   14.4152847811   -0.0001144196    0.0000107076   -0.0002138251
 N    8.7932611073    4.3911708543   16.8072627528   -0.0005453022   -0.0001468945   -0.0003170730
 N   11.0029475781    6.5894820948   16.8117329172    0.0002799199   -0.0003424679    0.0002959971
 N    8.7838604000   10.9798254900   10.0000000000    0.0000000000    0.0000000000   -0.0000000000
 N   10.9798254900    8.7838604000   10.0000000000    0.0000000000    0.0000000000   -0.0000000000
 N    8.7838604000    8.7838604000   12.1959650900    0.0000000000    0.0000000000   -0.0000000000
 N   10.9798254900   10.9798254900   12.1959650900   -0.0000000000   -0.0000000000   -0.0000000000
 N    8.7833153955   10.9689490438   14.4141527827   -0.0000252731   -0.0003188824    0.0000743067
 N   10.9689483438    8.7833109655   14.4141529527   -0.0003188824   -0.0000252731    0.0000743067
 N    8.7720246098    8.7720267798   16.8166738675   -0.0001632761   -0.0001632761    0.0006415597
 N   10.9753037049   10.9753041449   16.8015771992   -0.0001482978   -0.0001482978   -0.0002318312
Li    6.0360598442    6.0360586522   18.5590215042    0.0067436679    0.0067436679    0.0007450040
 PRIMCOORD   5
  145  1
Nb    0.0000000000    0.0000000000   10.0000000000    0.0000000000    0.0000000000    0.0000000000
Nb    2.1959650900    0.0000000000   12.1959650900   -0.0000000000    0.0000000000   -0.0000000000
Nb    0.0000000000    2.1959650900   12.1959650900    0.0000000000   -0.0000000000   -0.0000000000
Nb    2.1959650900    2.1959650900   10.0000000000   -0.0000000000   -0.0000000000    0.0000000000
Nb   -0.0000022300    0.0000001200   14.4876714080    0.0000000000    0.0000000000    0.0001195936
Nb    2.1680323380    0.0000015700   16.4800558370   -0.0002403750   -0.0000000000    0.0001083975
Nb   -0.0000001200    2.1680312880   16.4800559070    0.0000000000   -0.0002403750    0.0001083975
Nb    2.1984053300    2.1984028600   14.4746218270   -0.0000136164   -0.0000136164   -0.0000499125
Nb    0.0000000000    4.3919302000   10.0000000000    0.0000000000   -0.0000000000    0.0000000000
Nb    2.1959650900    4.3919302000   12.1959650900    0.0000000000    0.0000000000   -0.0000000000
Nb    0.0000000000    6.5878952900   12.1959650900    0.0000000000    0.0000000000   -0.0000000000
Nb    2.1959650900    6.5878952900   10.0000000000    0.0000000000    0.0000000000    0.0000000000
Nb   -0.0000012600    4.3846032880   14.4704699920    0.0000000000   -0.0001770511    0.0000559932
Nb    2.2062129940    4.3910371600   16.4819813300    0.0002495715    0.0007780818    0.0000146558
Nb    0.0000003500    6.5878951700   16.4868712610    0.0000000000    0.0000000000   -0.0000649286
Nb    2.1927463200    6.5878925900   14.4847984190   -0.0000252070    0.0000000000    0.0000754327
Nb    0.0000000000    8.7838604000   10.0000000000    0.0000000000    0.0000000000    0.0000000000
Nb    2.1959650900    8.7838604000   12.1959650900    0.0000000000   -0.0000000000   -0.0000000000
Nb    0.0000000000   10.9798254900   12.1959650900    0.0000000000    0.0000000000   -0.0000000000
Nb    2.1959650900   10.9798254900   10.0000000000   -0.0000000000    0.0000000000    0.0000000000
Nb   -0.0000011900    8.7911943720   14.4704693320   -0.0000000000    0.0001770511    0.0000559932
Nb    2.2062123040    8.7847512100   16.4819820300    0.0002495715   -0.0007780818    0.0000146558
Nb    0.0000003500   11.0077609020   16.4800528570    0.0000000000    0.0002403750    0.0001083975
Nb    2.1984045500   10.9773831000   14.4746237170   -0.0000136164    0.0000136164   -0.0000499125
Nb    4.3919302000    0.0000000000   10.0000000000   -0.0000000000    0.0000000000    0.0000000000
Nb    6.5878952900    0.0000000000   12.1959650900    0.0000000000    0.0000000000   -0.0000000000
Nb    4.3919302000    2.1959650900   12.1959650900    0.0000000000    0.0000000000   -0.0000000000
Nb    6.5878952900    2.1959650900   10.0000000000    0.0000000000    0.0000000000    0.0000000000
Nb    4.3845964280    0.0000000400   14.4704684220   -0.0001770511    0.0000000000    0.0000559932
Nb    6.5878949500    0.0000016300   16.4868739010    0.0000000000    0.0000000000   -0.0000649286
Nb    4.3910392800    2.2062104840   16.4819843610    0.0007780818    0.0002495715    0.0000146558
Nb    6.5878976300    2.1927448800   14.4847975290   -0.0000000000   -0.0000252070    0.0000754327
Nb    4.3919302000    4.3919302000   10.0000000000   -0.0000000000   -0.0000000000    0.0000000000
Nb    6.5878952900    4.3919302000   12.1959650900    0.0000000000    0.0000000000   -0.0000000000
Nb    4.3919302000    6.5878952900   12.1959650900    0.0000000000    0.0000000000   -0.0000000000
Nb    6.5878952900    6.5878952900   10.0000000000    0.0000000000    0.0000000000    0.0000000000
Nb    4.4093020720    4.4093077320   14.4869137530    0.0000185634    0.0000185634   -0.0002889999
Nb    6.5878951400    4.2794205130   16.4964581640    0.0000000000   -0.0005622600    0.0007488285
Nb    4.2794224730    6.5878963300   16.4964584240   -0.0005622600    0.0000000000    0.0007488285
Nb    6.5878968000    6.5878924800   14.5056406100    0.0000000000    0.0000000000    0.0004164246
Nb    4.3919302000    8.7838604000   10.0000000000   -0.0000000000    0.0000000000    0.0000000000
Nb    6.5878952900    8.7838604000   12.1959650900    0.0000000000   -0.0000000000   -0.0000000000
Nb    4.3919302000   10.9798254900   12.1959650900    0.0000000000   -0.0000000000   -0.0000000000
Nb    6.5878952900   10.9798254900   10.0000000000    0.0000000000   -0.0000000000    0.0000000000
Nb    4.4093020820    8.7664894280   14.4869124030    0.0000185634   -0.0000185634   -0.0002889999
Nb    6.5878949500    8.8963676470   16.4964577640    0.0000000000    0.0005622600    0.0007488285
Nb    4.3910392300   10.9695794760   16.4819814510    0.0007780818   -0.0002495715    0.0000146558
Nb    6.5878967500   10.9830417800   14.4847996690    0.0000000000    0.0000252070    0.0000754327
Nb    8.7838604000    0.0000000000   10.0000000000    0.0000000000    0.0000000000    0.0000000000
Nb   10.9798254900    0.0000000000   12.1959650900    0.0000000000    0.0000000000   -0.0000000000
Nb    8.7838604000    2.1959650900   12.1959650900   -0.0000000000    0.0000000000   -0.0000000000
Nb   10.9798254900    2.1959650900   10.0000000000    0.0000000000   -0.0000000000    0.0000000000
Nb    8.7911891720    0.0000000100   14.4704688620    0.0001770511    0.0000000000    0.0000559932
Nb   11.0077578820    0.0000010100   16.4800557270    0.0002403750    0.0000000000    0.0001083975
Nb    8.7847515700    2.2062104240   16.4819845410   -0.0007780818    0.0002495715    0.0000146558
Nb   10.9773899500    2.1984030900   14.4746218670    0.0000136164   -0.0000136164   -0.0000499125
Nb    8.7838604000    4.3919302000   10.0000000000    0.0000000000   -0.0000000000    0.0000000000
Nb   10.9798254900    4.3919302000   12.1959650900   -0.0000000000    0.0000000000   -0.0000000000
Nb    8.7838604000    6.5878952900   12.1959650900   -0.0000000000    0.0000000000   -0.0000000000
Nb   10.9798254900    6.5878952900   10.0000000000   -0.0000000000    0.0000000000    0.0000000000
Nb    8.7664854580    4.4093078820   14.4869140830   -0.0000185634    0.0000185634   -0.0002889999
Nb   10.9695770060    4.3910363400   16.4819812600   -0.0002495715    0.0007780818    0.0000146558
Nb    8.8963680870    6.5878966100   16.4964586240    0.0005622600    0.0000000000    0.0007488285
Nb   10.9830475300    6.5878925800   14.4847984390    0.0000252070   -0.0000000000    0.0000754327
Nb    8.7838604000    8.7838604000   10.0000000000    0.0000000000    0.0000000000    0.0000000000
Nb   10.9798254900    8.7838604000   12.1959650900   -0.0000000000   -0.0000000000   -0.0000000000
Nb    8.7838604000   10.9798254900   12.1959650900   -0.0000000000   -0.0000000000   -0.0000000000
Nb   10.9798254900   10.9798254900   10.0000000000    0.0000000000    0.0000000000    0.0000000000
Nb    8.7664849880    8.7664891480   14.4869124130   -0.0000185634   -0.0000185634   -0.0002889999
Nb   10.9695780960    8.7847509300   16.4819819800   -0.0002495715   -0.0007780818    0.0000146558
Nb    8.7847517000   10.9695797460   16.4819813710   -0.0007780818   -0.0002495715    0.0000146558
Nb   10.9773890500   10.9773833000   14.4746236870    0.0000136164    0.0000136164   -0.0000499125
 N    0.0000000000    2.1959650900   10.0000000000    0.0000000000    0.0000000000   -0.0000000000
 N    2.1959650900    0.0000000000   10.0000000000    0.0000000000    0.0000000000   -0.0000000000
 N    0.0000000000    0.0000000000   12.1959650900    0.0000000000    0.0000000000    0.0000000000
 N    2.1959650900    2.1959650900   12.1959650900    0.0000000000    0.0000000000   -0.0000000000
 N    0.0000022500    2.1907348750   14.4121863660    0.0000000000   -0.0000508919   -0.0000516682
 N    2.1907297250   -0.0000028900   14.4121862560   -0.0000508919    0.0000000000   -0.0000516682
 N   -0.0000000700    0.0000004700   16.8299629460    0.0000000000    0.0000000000    0.0007599139
 N    2.1984842330    2.1984839730   16.7900910070    0.0000732327    0.0000732327   -0.0002414232
 N    0.0000000000    6.5878952900   10.0000000000    0.0000000000    0.0000000000   -0.0000000000
 N    2.1959650900    4.3919302000   10.0000000000   -0.0000000000   -0.0000000000   -0.0000000000
 N    0.0000000000    4.3919302000   12.1959650900    0.0000000000    0.0000000000   -0.0000000000
 N    2.1959650900    6.5878952900   12.1959650900    0.0000000000    0.0000000000   -0.0000000000
 N    0.0000012500    6.5878981600   14.4189972240    0.0000000000    0.0000000000   -0.0004297504
 N    2.2044189060    4.3926448200   14.4136436130   -0.0003128874    0.0000664983   -0.0001735164
 N   -0.0000004100    4.3752736260   16.7721872620    0.0000000000   -0.0001222540    0.0002895815
 N    2.1492220380    6.5878936500   16.8351842100    0.0012150074    0.0000000000   -0.0002314112
 N    0.0000000000   10.9798254900   10.0000000000    0.0000000000   -0.0000000000   -0.0000000000
 N    2.1959650900    8.7838604000   10.0000000000   -0.0000000000    0.0000000000   -0.0000000000
 N    0.0000000000    8.7838604000   12.1959650900   -0.0000000000   -0.0000000000   -0.0000000000
 N    2.1959650900   10.9798254900   12.1959650900    0.0000000000   -0.0000000000   -0.0000000000
 N    0.0000014400   10.9850580150   14.4121799160    0.0000000000    0.0000508919   -0.0000516682
 N    2.2044183960    8.7831433200   14.4136440330   -0.0003128874   -0.0000664983   -0.0001735164
 N   -0.0000003200    8.8005171840   16.7721863320    0.0000000000    0.0001222540    0.0002895815
 N    2.1984842230   10.9773071870   16.7900940170    0.0000732327   -0.0000732327   -0.0002414232
 N    4.3919302000    2.1959650900   10.0000000000   -0.0000000000   -0.0000000000   -0.0000000000
 N    6.5878952900    0.0000000000   10.0000000000    0.0000000000    0.0000000000   -0.0000000000
 N    4.3919302000    0.0000000000   12.1959650900    0.0000000000   -0.0000000000   -0.0000000000
 N    6.5878952900    2.1959650900   12.1959650900    0.0000000000    0.0000000000   -0.0000000000
 N    4.3926466000    2.2044228460   14.4136501630    0.0000664983   -0.0003128874   -0.0001735164
 N    6.5878930900   -0.0000027100   14.4190034740    0.0000000000    0.0000000000   -0.0004297504
 N    4.3752743660   -0.0000005900   16.7721845420   -0.0001222540    0.0000000000    0.0002895815
 N    6.5878955100    2.1492217880   16.8351828800    0.0000000000    0.0012150074   -0.0002314112
 N    4.3919302000    6.5878952900   10.0000000000    0.0000000000   -0.0000000000   -0.0000000000
 N    6.5878952900    4.3919302000   10.0000000000    0.0000000000    0.0000000000   -0.0000000000
 N    4.3919302000    4.3919302000   12.1959650900   -0.0000000000   -0.0000000000   -0.0000000000
 N    6.5878952900    6.5878952900   12.1959650900    0.0000000000    0.0000000000   -0.0000000000
 N    4.3962022300    6.5878978600   14.4201828700    0.0000593042    0.0000000000   -0.0007533623
 N    6.5878938300    4.3962013100   14.4201826500    0.0000000000    0.0000593042   -0.0007533623
 N    4.3988175750    4.3988177550   16.8021600080   -0.0003649685   -0.0003649685   -0.0003295213
 N    6.5878953500    6.5878935500   16.6853560720    0.0000000000    0.0000000000    0.0001601219
 N    4.3919302000   10.9798254900   10.0000000000   -0.0000000000    0.0000000000   -0.0000000000
 N    6.5878952900    8.7838604000   10.0000000000   -0.0000000000   -0.0000000000   -0.0000000000
 N    4.3919302000    8.7838604000   12.1959650900   -0.0000000000    0.0000000000   -0.0000000000
 N    6.5878952900   10.9798254900   12.1959650900    0.0000000000   -0.0000000000   -0.0000000000
 N    4.3926456800   10.9713700040   14.4136438030    0.0000664983    0.0003128874   -0.0001735164
 N    6.5878936900    8.7795867700   14.4201829400    0.0000000000   -0.0000593042   -0.0007533623
 N    4.3988176350    8.7769746750   16.8021595680   -0.0003649685    0.0003649685   -0.0003295213
 N    6.5878955700   11.0265692820   16.8351854800    0.0000000000   -0.0012150074   -0.0002314112
 N    8.7838604000    2.1959650900   10.0000000000    0.0000000000   -0.0000000000   -0.0000000000
 N   10.9798254900    0.0000000000   10.0000000000   -0.0000000000    0.0000000000   -0.0000000000
 N    8.7838604000    0.0000000000   12.1959650900   -0.0000000000    0.0000000000   -0.0000000000
 N   10.9798254900    2.1959650900   12.1959650900   -0.0000000000    0.0000000000   -0.0000000000
 N    8.7831482800    2.2044231760   14.4136501330   -0.0000664983   -0.0003128874   -0.0001735164
 N   10.9850564850   -0.0000029200   14.4121862460    0.0000508919    0.0000000000   -0.0000516682
 N    8.8005152640   -0.0000007100   16.7721845720    0.0001222540    0.0000000000    0.0002895815
 N   10.9773069370    2.1984840030   16.7900908870   -0.0000732327    0.0000732327   -0.0002414232
 N    8.7838604000    6.5878952900   10.0000000000   -0.0000000000    0.0000000000   -0.0000000000
 N   10.9798254900    4.3919302000   10.0000000000    0.0000000000   -0.0000000000   -0.0000000000
 N    8.7838604000    4.3919302000   12.1959650900    0.0000000000   -0.0000000000   -0.0000000000
 N   10.9798254900    6.5878952900   12.1959650900   -0.0000000000    0.0000000000   -0.0000000000
 N    8.7795910600    6.5878980000   14.4201830200   -0.0000593042    0.0000000000   -0.0007533623
 N   10.9713691840    4.3926449600   14.4136435030    0.0003128874    0.0000664983   -0.0001735164
 N    8.7769723350    4.3988176350   16.8021592480    0.0003649685   -0.0003649685   -0.0003295213
 N   11.0265685720    6.5878938800   16.8351847600   -0.0012150074    0.0000000000   -0.0002314112
 N    8.7838604000   10.9798254900   10.0000000000    0.0000000000    0.0000000000   -0.0000000000
 N   10.9798254900    8.7838604000   10.0000000000    0.0000000000    0.0000000000   -0.0000000000
 N    8.7838604000    8.7838604000   12.1959650900    0.0000000000    0.0000000000   -0.0000000000
 N   10.9798254900   10.9798254900   12.1959650900   -0.0000000000   -0.0000000000   -0.0000000000
 N    8.7831476500   10.9713702140   14.4136437630   -0.0000664983    0.0003128874   -0.0001735164
 N   10.9713695140    8.7831432200   14.4136439330    0.0003128874   -0.0000664983   -0.0001735164
 N    8.7769727850    8.7769749550   16.8021595980    0.0003649685    0.0003649685   -0.0003295213
 N   10.9773068970   10.9773073370   16.7900940670   -0.0000732327   -0.0000732327   -0.0002414232
Li    6.5878953500    6.5878935500   18.5556006910    0.0000000000    0.0000000000   -0.0001704348
