  145

Nb    0.0000000000    0.0000000000   10.0000000000
Nb    2.1959650900    0.0000000000   12.1959650900
Nb    0.0000000000    2.1959650900   12.1959650900
Nb    2.1959650900    2.1959650900   10.0000000000
Nb    0.0024400430    0.0024423930   14.4746236790
Nb    2.1950693050    0.0102495060   16.4819780120
Nb    0.0102478160    2.1950682550   16.4819780820
Nb    2.2133430770    2.2133406070   14.4869269740
Nb    0.0000000000    4.3919302000   10.0000000000
Nb    2.1959650900    4.3919302000   12.1959650900
Nb    0.0000000000    6.5878952900   12.1959650900
Nb    2.1959650900    6.5878952900   10.0000000000
Nb   -0.0032035410    4.3919332600   14.4848025310
Nb    2.0834911790    4.3919365100   16.4964673700
Nb    0.0102482860    6.5888033250   16.4819979120
Nb    2.2133404870    6.5705158730   14.4869378540
Nb    0.0000000000    8.7838604000   10.0000000000
Nb    2.1959650900    8.7838604000   12.1959650900
Nb    0.0000000000   10.9798254900   12.1959650900
Nb    2.1959650900   10.9798254900   10.0000000000
Nb    0.0024410830    8.7814221270   14.4746366990
Nb    2.1950612250    8.7736039240   16.4819889220
Nb   -0.0279062620   10.9798157800   16.4800436450
Nb    2.1886383760   10.9798220700   14.4704669670
Nb    4.3919302000    0.0000000000   10.0000000000
Nb    6.5878952900    0.0000000000   12.1959650900
Nb    4.3919302000    2.1959650900   12.1959650900
Nb    6.5878952900    2.1959650900   10.0000000000
Nb    4.3919264000   -0.0032022410   14.4848009610
Nb    6.5888031050    0.0102495660   16.4820005520
Nb    4.3919386300    2.0834886690   16.4964704010
Nb    6.5705209130    2.2133390470   14.4869369640
Nb    4.3919302000    4.3919302000   10.0000000000
Nb    6.5878952900    4.3919302000   12.1959650900
Nb    4.3919302000    6.5878952900   12.1959650900
Nb    6.5878952900    6.5878952900   10.0000000000
Nb    4.3919295600    4.3919352200   14.5056645580
Nb    6.7003740310    4.3919309100   16.4964646200
Nb    4.3919328700    6.7003752210   16.4964648800
Nb    6.5705200830    6.5705157630   14.4869239640
Nb    4.3919302000    8.7838604000   10.0000000000
Nb    6.5878952900    8.7838604000   12.1959650900
Nb    4.3919302000   10.9798254900   12.1959650900
Nb    6.5878952900   10.9798254900   10.0000000000
Nb    4.3919295700    8.7870642210   14.4847949910
Nb    6.5888031050    8.7736093140   16.4819850720
Nb    4.3919385800   10.9798224000   16.4868724080
Nb    6.5952239540   10.9798243300   14.4704772070
Nb    8.7838604000    0.0000000000   10.0000000000
Nb   10.9798254900    0.0000000000   12.1959650900
Nb    8.7838604000    2.1959650900   12.1959650900
Nb   10.9798254900    2.1959650900   10.0000000000
Nb    8.7814169270    0.0024422830   14.4746362290
Nb   10.9798127600   -0.0279056020   16.4800465150
Nb    8.7736042840    2.1950593450   16.4819914320
Nb   10.9798289200    2.1886369160   14.4704651170
Nb    8.7838604000    4.3919302000   10.0000000000
Nb   10.9798254900    4.3919302000   12.1959650900
Nb    8.7838604000    6.5878952900   12.1959650900
Nb   10.9798254900    6.5878952900   10.0000000000
Nb    8.7870602510    4.3919353700   14.4847966710
Nb   10.9798199300    4.3919356900   16.4868722180
Nb    8.7736097540    6.5888047650   16.4819859320
Nb   10.9798300800    6.5952197840   14.4704759770
Nb    8.7838604000    8.7838604000   10.0000000000
Nb   10.9798254900    8.7838604000   12.1959650900
Nb    8.7838604000   10.9798254900   12.1959650900
Nb   10.9798254900   10.9798254900   10.0000000000
Nb    8.7814152270    8.7814193870   14.4746298290
Nb   10.9798210200    8.8117581920   16.4800574850
Nb    8.8117589620   10.9798226700   16.4800568750
Nb   10.9798280200   10.9798222700   14.4876622430
 N    0.0000000000    2.1959650900   10.0000000000
 N    2.1959650900    0.0000000000   10.0000000000
 N    0.0000000000    0.0000000000   12.1959650900
 N    2.1959650900    2.1959650900   12.1959650900
 N    0.0084533510    2.1966836490   14.4136468490
 N    2.1966784990    0.0084482120   14.4136467390
 N    0.0025167580    0.0025172980   16.7900503570
 N    2.2028389110    2.2028386510   16.8021481140
 N    0.0000000000    6.5878952900   10.0000000000
 N    2.1959650900    4.3919302000   10.0000000000
 N    0.0000000000    4.3919302000   12.1959650900
 N    2.1959650900    6.5878952900   12.1959650900
 N    0.0084523520    6.5871825610   14.4136587290
 N    2.2002321680    4.3919316200   14.4202004860
 N   -0.0467405320    4.3919317800   16.8351679770
 N    2.2028397810    6.5810223890   16.8021856540
 N    0.0000000000   10.9798254900   10.0000000000
 N    2.1959650900    8.7838604000   10.0000000000
 N    0.0000000000    8.7838604000   12.1959650900
 N    2.1959650900   10.9798254900   12.1959650900
 N   -0.0052219410   10.9798248400   14.4121756960
 N    2.1966831290    8.7754054190   14.4136510290
 N    0.0025165080    8.7813422020   16.7900980770
 N    2.1793279460   10.9798237700   16.7721803830
 N    4.3919302000    2.1959650900   10.0000000000
 N    6.5878952900    0.0000000000   10.0000000000
 N    4.3919302000    0.0000000000   12.1959650900
 N    6.5878952900    2.1959650900   12.1959650900
 N    4.3919334000    2.2002361080   14.4202070360
 N    6.5871774910    0.0084483910   14.4136649790
 N    4.3919325200   -0.0467407120   16.8351652570
 N    6.5810242490    2.2028395310   16.8021843240
 N    4.3919302000    6.5878952900   10.0000000000
 N    6.5878952900    4.3919302000   10.0000000000
 N    4.3919302000    4.3919302000   12.1959650900
 N    6.5878952900    6.5878952900   12.1959650900
 N    4.3919337900    6.5836337320   14.4201946860
 N    6.5836297020    4.3919328700   14.4201944660
 N    4.3919323000    4.3919324800   16.6855642920
 N    6.5810240890    6.5810222890   16.8021831040
 N    4.3919302000   10.9798254900   10.0000000000
 N    6.5878952900    8.7838604000   10.0000000000
 N    4.3919302000    8.7838604000   12.1959650900
 N    6.5878952900   10.9798254900   12.1959650900
 N    4.3919324800   10.9798208700   14.4190071480
 N    6.5871780910    8.7754041090   14.4136448790
 N    4.3919323600    8.8306000720   16.8351700670
 N    6.6045352640   10.9798228000   16.7722161830
 N    8.7838604000    2.1959650900   10.0000000000
 N   10.9798254900    0.0000000000   10.0000000000
 N    8.7838604000    0.0000000000   12.1959650900
 N   10.9798254900    2.1959650900   12.1959650900
 N    8.7754103790    2.1966879090   14.4136571290
 N   10.9798233100   -0.0052263010   14.4121820260
 N    8.7813402820    0.0025161180   16.7900963170
 N   10.9798235200    2.1793277260   16.7721772530
 N    8.7838604000    6.5878952900   10.0000000000
 N   10.9798254900    4.3919302000   10.0000000000
 N    8.7838604000    4.3919302000   12.1959650900
 N   10.9798254900    6.5878952900   12.1959650900
 N    8.7754083980    6.5871824010   14.4136449590
 N   10.9798200500    4.3919317600   14.4190068480
 N    8.8305977320    4.3919323600   16.8351697470
 N   10.9798220900    6.6045335740   16.7722154630
 N    8.7838604000   10.9798254900   10.0000000000
 N   10.9798254900    8.7838604000   10.0000000000
 N    8.7838604000    8.7838604000   12.1959650900
 N   10.9798254900   10.9798254900   12.1959650900
 N    8.7890842310   10.9798210800   14.4121860560
 N   10.9798203800    8.7890798010   14.4121862260
 N    8.7813412320    8.7813434020   16.7901011270
 N   10.9798234800   10.9798239200   16.8298991670
Li    4.3919323000    4.3919324800   18.5556845000
  145

Nb    0.0000000000    0.0000000000   10.0000000000
Nb    2.1959650900    0.0000000000   12.1959650900
Nb    0.0000000000    2.1959650900   12.1959650900
Nb    2.1959650900    2.1959650900   10.0000000000
Nb    0.0030296948    0.0030320448   14.4800786518
Nb    2.1937459213    0.0196172304   16.4830297261
Nb    0.0196155404    2.1937448713   16.4830297961
Nb    2.2119478764    2.2119454064   14.4859371757
Nb    0.0000000000    4.3919302000   10.0000000000
Nb    2.1959650900    4.3919302000   12.1959650900
Nb    0.0000000000    6.5878952900   12.1959650900
Nb    2.1959650900    6.5878952900   10.0000000000
Nb    0.0003028322    4.3908201637   14.4842406959
Nb    2.1408276823    4.3874321692   16.4951116253
Nb    0.0178075975    6.5862425504   16.4819760431
Nb    2.2052340976    6.5764769149   14.4775322283
Nb    0.0000000000    8.7838604000   10.0000000000
Nb    2.1959650900    8.7838604000   12.1959650900
Nb    0.0000000000   10.9798254900   12.1959650900
Nb    2.1959650900   10.9798254900   10.0000000000
Nb   -0.0014605226    8.7831557862   14.4726402951
Nb    2.1936531503    8.7866285611   16.4783161478
Nb   -0.0273869412   10.9904705609   16.4797643456
Nb    2.1908838874   10.9860592568   14.4714310407
Nb    4.3919302000    0.0000000000   10.0000000000
Nb    6.5878952900    0.0000000000   12.1959650900
Nb    4.3919302000    2.1959650900   12.1959650900
Nb    6.5878952900    2.1959650900   10.0000000000
Nb    4.3908133037    0.0003041322   14.4842391259
Nb    6.5862423304    0.0178088775   16.4819786831
Nb    4.3874342892    2.1408251723   16.4951146563
Nb    6.5764819549    2.2052326576   14.4775313383
Nb    4.3919302000    4.3919302000   10.0000000000
Nb    6.5878952900    4.3919302000   12.1959650900
Nb    4.3919302000    6.5878952900   12.1959650900
Nb    6.5878952900    6.5878952900   10.0000000000
Nb    4.4021899828    4.4021956428   14.5202846588
Nb    6.7226576187    4.3465549294   16.4800677104
Nb    4.3465568894    6.7226588087   16.4800679704
Nb    6.5680962931    6.5680919731   14.4892777873
Nb    4.3919302000    8.7838604000   10.0000000000
Nb    6.5878952900    8.7838604000   12.1959650900
Nb    4.3919302000   10.9798254900   12.1959650900
Nb    6.5878952900   10.9798254900   10.0000000000
Nb    4.3957246790    8.7916060419   14.4742502420
Nb    6.5883903275    8.7788415176   16.4831406171
Nb    4.3973182709   10.9726902193   16.4846665329
Nb    6.5956527107   10.9842169621   14.4744844783
Nb    8.7838604000    0.0000000000   10.0000000000
Nb   10.9798254900    0.0000000000   12.1959650900
Nb    8.7838604000    2.1959650900   12.1959650900
Nb   10.9798254900    2.1959650900   10.0000000000
Nb    8.7831505862   -0.0014593226   14.4726398251
Nb   10.9904675409   -0.0273862812   16.4797672156
Nb    8.7866289211    2.1936512703   16.4783186581
Nb   10.9860661068    2.1908824274   14.4714291907
Nb    8.7838604000    4.3919302000   10.0000000000
Nb   10.9798254900    4.3919302000   12.1959650900
Nb    8.7838604000    6.5878952900   12.1959650900
Nb   10.9798254900    6.5878952900   10.0000000000
Nb    8.7916020719    4.3957304790   14.4742519220
Nb   10.9726877493    4.3973153809   16.4846663426
Nb    8.7788419576    6.5883919875   16.4831414771
Nb   10.9842227121    6.5956485407   14.4744832483
Nb    8.7838604000    8.7838604000   10.0000000000
Nb   10.9798254900    8.7838604000   12.1959650900
Nb    8.7838604000   10.9798254900   12.1959650900
Nb   10.9798254900   10.9798254900   10.0000000000
Nb    8.7789070880    8.7789112480   14.4770278041
Nb   10.9736495527    8.8033198704   16.4822580696
Nb    8.8033206404   10.9736512027   16.4822574599
Nb   10.9772878093   10.9772820593   14.4871283728
 N    0.0000000000    2.1959650900   10.0000000000
 N    2.1959650900    0.0000000000   10.0000000000
 N    0.0000000000    0.0000000000   12.1959650900
 N    2.1959650900    2.1959650900   12.1959650900
 N    0.0108886105    2.1965113818   14.4141535473
 N    2.1965062318    0.0108834712   14.4141534373
 N    0.0045216089    0.0045221489   16.8015963597
 N    2.2077990542    2.2077987942   16.8166492580
 N    0.0000000000    6.5878952900   10.0000000000
 N    2.1959650900    4.3919302000   10.0000000000
 N    0.0000000000    4.3919302000   12.1959650900
 N    2.1959650900    6.5878952900   12.1959650900
 N    0.0073779266    6.5866491459   14.4152778132
 N    2.2037105801    4.3938648887   14.4211611204
 N   -0.0231168248    4.3903360598   16.8117182536
 N    2.1865552322    6.5886540258   16.8072650960
 N    0.0000000000   10.9798254900   10.0000000000
 N    2.1959650900    8.7838604000   10.0000000000
 N    0.0000000000    8.7838604000   12.1959650900
 N    2.1959650900   10.9798254900   12.1959650900
 N   -0.0050189240   10.9811511887   14.4115555123
 N    2.1955679300    8.7829127618   14.4101785778
 N   -0.0015442126    8.7865718515   16.7826415865
 N    2.1828939007   10.9894817917   16.7731052846
 N    4.3919302000    2.1959650900   10.0000000000
 N    6.5878952900    0.0000000000   10.0000000000
 N    4.3919302000    0.0000000000   12.1959650900
 N    6.5878952900    2.1959650900   12.1959650900
 N    4.3938666687    2.2037145201   14.4211676704
 N    6.5866440759    0.0073739659   14.4152840632
 N    4.3903367998   -0.0231170048   16.8117155336
 N    6.5886558858    2.1865549822   16.8072637660
 N    4.3919302000    6.5878952900   10.0000000000
 N    6.5878952900    4.3919302000   10.0000000000
 N    4.3919302000    4.3919302000   12.1959650900
 N    6.5878952900    6.5878952900   12.1959650900
 N    4.3893228986    6.5860430868   14.4076003572
 N    6.5860390568    4.3893219786   14.4076001372
 N    4.4195920759    4.4195922559   16.7695739194
 N    6.5625502505    6.5625484505   16.8039960639
 N    4.3919302000   10.9798254900   10.0000000000
 N    6.5878952900    8.7838604000   10.0000000000
 N    4.3919302000    8.7838604000   12.1959650900
 N    6.5878952900   10.9798254900   12.1959650900
 N    4.3933164535   10.9816080708   14.4172357925
 N    6.5878111840    8.7772049353   14.4138319597
 N    4.3898277519    8.8335457944   16.8337789503
 N    6.6013767473   10.9857139034   16.7816497011
 N    8.7838604000    2.1959650900   10.0000000000
 N   10.9798254900    0.0000000000   10.0000000000
 N    8.7838604000    0.0000000000   12.1959650900
 N   10.9798254900    2.1959650900   12.1959650900
 N    8.7829177218    2.1955727100   14.4101846778
 N   10.9811496587   -0.0050232840   14.4115618423
 N    8.7865699315   -0.0015446026   16.7826398265
 N   10.9894815417    2.1828936807   16.7731021546
 N    8.7838604000    6.5878952900   10.0000000000
 N   10.9798254900    4.3919302000   10.0000000000
 N    8.7838604000    4.3919302000   12.1959650900
 N   10.9798254900    6.5878952900   12.1959650900
 N    8.7772092246    6.5878154940   14.4138320397
 N   10.9816072508    4.3933157335   14.4172354925
 N    8.8335434544    4.3898277519   16.8337786303
 N   10.9857131934    6.6013750573   16.7816489811
 N    8.7838604000   10.9798254900   10.0000000000
 N   10.9798254900    8.7838604000   10.0000000000
 N    8.7838604000    8.7838604000   12.1959650900
 N   10.9798254900   10.9798254900   12.1959650900
 N    8.7874280185   10.9762436142   14.4138051058
 N   10.9762429142    8.7874235885   14.4138052758
 N    8.7745465353    8.7745487053   16.7985552686
 N   10.9762989245   10.9762993645   16.8265918256
Li    4.9437796891    4.9437792612   18.5590502730
  145

Nb    0.0000000000    0.0000000000   10.0000000000
Nb    2.1959650900    0.0000000000   12.1959650900
Nb    0.0000000000    2.1959650900   12.1959650900
Nb    2.1959650900    2.1959650900   10.0000000000
Nb    0.0033754364    0.0033777864   14.4846423966
Nb    2.1876018422    0.0167830898   16.4837347392
Nb    0.0167813998    2.1876007922   16.4837348092
Nb    2.2076310063    2.2076285363   14.4831366601
Nb    0.0000000000    4.3919302000   10.0000000000
Nb    2.1959650900    4.3919302000   12.1959650900
Nb    0.0000000000    6.5878952900   12.1959650900
Nb    2.1959650900    6.5878952900   10.0000000000
Nb   -0.0040539904    4.3880847700   14.4792988592
Nb    2.1960914572    4.3851234787   16.4913378732
Nb    0.0167753183    6.5843430975   16.4823273629
Nb    2.1920858567    6.5814229691   14.4693896567
Nb    0.0000000000    8.7838604000   10.0000000000
Nb    2.1959650900    8.7838604000   12.1959650900
Nb    0.0000000000   10.9798254900   12.1959650900
Nb    2.1959650900   10.9798254900   10.0000000000
Nb   -0.0086740875    8.7844292614   14.4719344080
Nb    2.1846919553    8.7951224032   16.4755672786
Nb   -0.0206898385   11.0005252499   16.4792131966
Nb    2.1954004583   10.9884966227   14.4719267454
Nb    4.3919302000    0.0000000000   10.0000000000
Nb    6.5878952900    0.0000000000   12.1959650900
Nb    4.3919302000    2.1959650900   12.1959650900
Nb    6.5878952900    2.1959650900   10.0000000000
Nb    4.3880779100   -0.0040526904   14.4792972892
Nb    6.5843428775    0.0167765983   16.4823300029
Nb    4.3851255987    2.1960889472   16.4913409042
Nb    6.5814280091    2.1920844167   14.4693887667
Nb    4.3919302000    4.3919302000   10.0000000000
Nb    6.5878952900    4.3919302000   12.1959650900
Nb    4.3919302000    6.5878952900   12.1959650900
Nb    6.5878952900    6.5878952900   10.0000000000
Nb    4.4104673686    4.4104730286   14.5147297405
Nb    6.7001723097    4.2796380189   16.4676641693
Nb    4.2796399789    6.7001734997   16.4676644293
Nb    6.5693568984    6.5693525784   14.5147227697
Nb    4.3919302000    8.7838604000   10.0000000000
Nb    6.5878952900    8.7838604000   12.1959650900
Nb    4.3919302000   10.9798254900   12.1959650900
Nb    6.5878952900   10.9798254900   10.0000000000
Nb    4.3983971156    8.7877343716   14.4693752013
Nb    6.5947123703    8.7837492738   16.4913349397
Nb    4.3954950617   10.9630499239   16.4823197032
Nb    6.5917438604   10.9838846752   14.4793010404
Nb    8.7838604000    0.0000000000   10.0000000000
Nb   10.9798254900    0.0000000000   12.1959650900
Nb    8.7838604000    2.1959650900   12.1959650900
Nb   10.9798254900    2.1959650900   10.0000000000
Nb    8.7844240614   -0.0086728875   14.4719339380
Nb   11.0005222299   -0.0206891785   16.4792160666
Nb    8.7951227632    2.1846900753   16.4755697891
Nb   10.9885034727    2.1953989983   14.4719248954
Nb    8.7838604000    4.3919302000   10.0000000000
Nb   10.9798254900    4.3919302000   12.1959650900
Nb    8.7838604000    6.5878952900   12.1959650900
Nb   10.9798254900    6.5878952900   10.0000000000
Nb    8.7877304016    4.3984029156   14.4693768813
Nb   10.9630474539    4.3954921717   16.4823195127
Nb    8.7837497138    6.5947140303   16.4913357997
Nb   10.9838904252    6.5917396904   14.4792998104
Nb    8.7838604000    8.7838604000   10.0000000000
Nb   10.9798254900    8.7838604000   12.1959650900
Nb    8.7838604000   10.9798254900   12.1959650900
Nb   10.9798254900   10.9798254900   10.0000000000
Nb    8.7721932963    8.7721974563   14.4831333939
Nb   10.9630420192    8.7922035150   16.4837375538
Nb    8.7922042850   10.9630436692   16.4837369443
Nb   10.9764519974   10.9764462474   14.4846378012
 N    0.0000000000    2.1959650900   10.0000000000
 N    2.1959650900    0.0000000000   10.0000000000
 N    0.0000000000    0.0000000000   12.1959650900
 N    2.1959650900    2.1959650900   12.1959650900
 N    0.0107837744    2.1954351380   14.4147682685
 N    2.1954299880    0.0107786349   14.4147681585
 N    0.0050417497    0.0050422897   16.8151703491
 N    2.2093523492    2.2093520892   16.8162356523
 N    0.0000000000    6.5878952900   10.0000000000
 N    2.1959650900    4.3919302000   10.0000000000
 N    0.0000000000    4.3919302000   12.1959650900
 N    2.1959650900    6.5878952900   12.1959650900
 N    0.0030461867    6.5858596483   14.4162997298
 N    2.2035292343    4.3940150980   14.4184564589
 N   -0.0061665151    4.3859534266   16.7884521314
 N    2.1596695816    6.5931071163   16.8191599796
 N    0.0000000000   10.9798254900   10.0000000000
 N    2.1959650900    8.7838604000   10.0000000000
 N    0.0000000000    8.7838604000   12.1959650900
 N    2.1959650900   10.9798254900   12.1959650900
 N   -0.0026009082   10.9824320882   14.4110275237
 N    2.1924620309    8.7873631195   14.4080880456
 N   -0.0116523789    8.7921826624   16.7783408583
 N    2.1876531365   10.9914759676   16.7783358857
 N    4.3919302000    2.1959650900   10.0000000000
 N    6.5878952900    0.0000000000   10.0000000000
 N    4.3919302000    0.0000000000   12.1959650900
 N    6.5878952900    2.1959650900   12.1959650900
 N    4.3940168780    2.2035331743   14.4184630089
 N    6.5858545783    0.0030422262   14.4163059798
 N    4.3859541666   -0.0061666951   16.7884494114
 N    6.5931089763    2.1596693316   16.8191586496
 N    4.3919302000    6.5878952900   10.0000000000
 N    6.5878952900    4.3919302000   10.0000000000
 N    4.3919302000    4.3919302000   12.1959650900
 N    6.5878952900    6.5878952900   12.1959650900
 N    4.3900767021    6.5897570884   14.4030375115
 N    6.5897530584    4.3900757821   14.4030372915
 N    4.4487622056    4.4487623856   16.8565167927
 N    6.5310724985    6.5310706985   16.8564238791
 N    4.3919302000   10.9798254900   10.0000000000
 N    6.5878952900    8.7838604000   10.0000000000
 N    4.3919302000    8.7838604000   12.1959650900
 N    6.5878952900   10.9798254900   12.1959650900
 N    4.3939697944   10.9767760556   14.4162972190
 N    6.5858090210    8.7762917571   14.4184483093
 N    4.3867259115    8.8201487043   16.8191398694
 N    6.5938646789   10.9859921592   16.7884754408
 N    8.7838604000    2.1959650900   10.0000000000
 N   10.9798254900    0.0000000000   10.0000000000
 N    8.7838604000    0.0000000000   12.1959650900
 N   10.9798254900    2.1959650900   12.1959650900
 N    8.7873680795    2.1924668109   14.4080941456
 N   10.9824305582   -0.0026052682   14.4110338537
 N    8.7921807424   -0.0116527689   16.7783390983
 N   10.9914757176    2.1876529165   16.7783327557
 N    8.7838604000    6.5878952900   10.0000000000
 N   10.9798254900    4.3919302000   10.0000000000
 N    8.7838604000    4.3919302000   12.1959650900
 N   10.9798254900    6.5878952900   12.1959650900
 N    8.7762960466    6.5858133310   14.4184483893
 N   10.9767752356    4.3939690744   14.4162969190
 N    8.8201463643    4.3867259115   16.8191395494
 N   10.9859914492    6.5938629889   16.7884747208
 N    8.7838604000   10.9798254900   10.0000000000
 N   10.9798254900    8.7838604000   10.0000000000
 N    8.7838604000    8.7838604000   12.1959650900
 N   10.9798254900   10.9798254900   12.1959650900
 N    8.7843900595   10.9690396641   14.4147665784
 N   10.9690389641    8.7843856295   14.4147667484
 N    8.7704662231    8.7704683931   16.8162464403
 N   10.9747817793   10.9747822193   16.8151602749
Li    5.4899152961    5.4899144861   18.4789899160
  145

Nb    0.0000000000    0.0000000000   10.0000000000
Nb    2.1959650900    0.0000000000   12.1959650900
Nb    0.0000000000    2.1959650900   12.1959650900
Nb    2.1959650900    2.1959650900   10.0000000000
Nb    0.0025394022    0.0025417522   14.4871349709
Nb    2.1764831041    0.0061760247   16.4822727812
Nb    0.0061743347    2.1764820541   16.4822728512
Nb    2.2009147027    2.2009122327   14.4770347408
Nb    0.0000000000    4.3919302000   10.0000000000
Nb    2.1959650900    4.3919302000   12.1959650900
Nb    0.0000000000    6.5878952900   12.1959650900
Nb    2.1959650900    6.5878952900   10.0000000000
Nb   -0.0044187759    4.3841808391   14.4744579069
Nb    2.2010484459    4.3914548130   16.4831803045
Nb    0.0071355787    6.5825098328   16.4846683619
Nb    2.1882229256    6.5841086830   14.4742783943
Nb    0.0000000000    8.7838604000   10.0000000000
Nb    2.1959650900    8.7838604000   12.1959650900
Nb    0.0000000000   10.9798254900   12.1959650900
Nb    2.1959650900   10.9798254900   10.0000000000
Nb   -0.0062555730    8.7889444345   14.4714112523
Nb    2.1932148137    8.7861528806   16.4783237129
Nb   -0.0106384833   11.0072387115   16.4797771056
Nb    2.1966847569   10.9812743898   14.4726311280
Nb    4.3919302000    0.0000000000   10.0000000000
Nb    6.5878952900    0.0000000000   12.1959650900
Nb    4.3919302000    2.1959650900   12.1959650900
Nb    6.5878952900    2.1959650900   10.0000000000
Nb    4.3841739791   -0.0044174759   14.4744563369
Nb    6.5825096128    0.0071368587   16.4846710019
Nb    4.3914569330    2.2010459359   16.4831833355
Nb    6.5841137230    2.1882214856   14.4742775043
Nb    4.3919302000    4.3919302000   10.0000000000
Nb    6.5878952900    4.3919302000   12.1959650900
Nb    4.3919302000    6.5878952900   12.1959650900
Nb    6.5878952900    6.5878952900   10.0000000000
Nb    4.4117369872    4.4117426472   14.4893267617
Nb    6.6332514105    4.2571613686   16.4801169475
Nb    4.2571633286    6.6332526005   16.4801172075
Nb    6.5776526310    6.5776483110   14.5203098216
Nb    4.3919302000    8.7838604000   10.0000000000
Nb    6.5878952900    8.7838604000   12.1959650900
Nb    4.3919302000   10.9798254900   12.1959650900
Nb    6.5878952900   10.9798254900   10.0000000000
Nb    4.4033603733    8.7745935470   14.4775376483
Nb    6.5924224042    8.8389922045   16.4951217244
Nb    4.3935994406   10.9619744649   16.4819663695
Nb    6.5890166174   10.9794926599   14.4842380364
Nb    8.7838604000    0.0000000000   10.0000000000
Nb   10.9798254900    0.0000000000   12.1959650900
Nb    8.7838604000    2.1959650900   12.1959650900
Nb   10.9798254900    2.1959650900   10.0000000000
Nb    8.7889392345   -0.0062543730   14.4714107823
Nb   11.0072356915   -0.0106378233   16.4797799756
Nb    8.7861532406    2.1932129337   16.4783262235
Nb   10.9812812398    2.1966832969   14.4726292780
Nb    8.7838604000    4.3919302000   10.0000000000
Nb   10.9798254900    4.3919302000   12.1959650900
Nb    8.7838604000    6.5878952900   12.1959650900
Nb   10.9798254900    6.5878952900   10.0000000000
Nb    8.7745895770    4.4033661733   14.4775393283
Nb   10.9619719949    4.3935965506   16.4819661788
Nb    8.8389926445    6.5924240642   16.4951225844
Nb   10.9794984099    6.5890124474   14.4842368064
Nb    8.7838604000    8.7838604000   10.0000000000
Nb   10.9798254900    8.7838604000   12.1959650900
Nb    8.7838604000   10.9798254900   12.1959650900
Nb   10.9798254900   10.9798254900   10.0000000000
Nb    8.7678735309    8.7678776909   14.4859676755
Nb   10.9601431838    8.7860487270   16.4830407183
Nb    8.7860494970   10.9601448338   16.4830401090
Nb   10.9767795453   10.9767737953   14.4800802360
 N    0.0000000000    2.1959650900   10.0000000000
 N    2.1959650900    0.0000000000   10.0000000000
 N    0.0000000000    0.0000000000   12.1959650900
 N    2.1959650900    2.1959650900   12.1959650900
 N    0.0035973674    2.1924065827   14.4138054023
 N    2.1924014327    0.0035922277   14.4138052923
 N    0.0035316812    0.0035322212   16.8265886136
 N    2.2052851139    2.2052848539   16.7985304050
 N    0.0000000000    6.5878952900   10.0000000000
 N    2.1959650900    4.3919302000   10.0000000000
 N    0.0000000000    4.3919302000   12.1959650900
 N    2.1959650900    6.5878952900   12.1959650900
 N   -0.0017698137    6.5865060459   14.4172394242
 N    2.2026151527    4.3920027725   14.4138278502
 N   -0.0058816686    4.3784432161   16.7816223521
 N    2.1462766508    6.5899926426   16.8337849396
 N    0.0000000000   10.9798254900   10.0000000000
 N    2.1959650900    8.7838604000   10.0000000000
 N    0.0000000000    8.7838604000   12.1959650900
 N    2.1959650900   10.9798254900   12.1959650900
 N   -0.0013161551   10.9848547436   14.4115543049
 N    2.1969019843    8.7842502186   14.4101794929
 N   -0.0096532500    8.7969357348   16.7730868543
 N    2.1932642484   10.9813687403   16.7826251179
 N    4.3919302000    2.1959650900   10.0000000000
 N    6.5878952900    0.0000000000   10.0000000000
 N    4.3919302000    0.0000000000   12.1959650900
 N    6.5878952900    2.1959650900   12.1959650900
 N    4.3920045525    2.2026190927   14.4138344002
 N    6.5865009758   -0.0017737740   14.4172456742
 N    4.3784439561   -0.0058818486   16.7816196321
 N    6.5899945026    2.1462764008   16.8337836096
 N    4.3919302000    6.5878952900   10.0000000000
 N    6.5878952900    4.3919302000   10.0000000000
 N    4.3919302000    4.3919302000   12.1959650900
 N    6.5878952900    6.5878952900   12.1959650900
 N    4.3937798734    6.5904895253   14.4075941441
 N    6.5904854953    4.3937789534   14.4075939241
 N    4.4172760009    4.4172761809   16.8040168978
 N    6.5602319039    6.5602301039   16.7695604912
 N    4.3919302000   10.9798254900   10.0000000000
 N    6.5878952900    8.7838604000   10.0000000000
 N    4.3919302000    8.7838604000   12.1959650900
 N    6.5878952900   10.9798254900   12.1959650900
 N    4.3931748112   10.9724551563   14.4152850811
 N    6.5859497186    8.7761127437   14.4211588113
 N    4.3911708543    8.7932634473   16.8072630728
 N    6.5894837848   11.0029482881   16.8117336372
 N    8.7838604000    2.1959650900   10.0000000000
 N   10.9798254900    0.0000000000   10.0000000000
 N    8.7838604000    0.0000000000   12.1959650900
 N   10.9798254900    2.1959650900   12.1959650900
 N    8.7842551786    2.1969067643   14.4101855929
 N   10.9848532136   -0.0013205151   14.4115606349
 N    8.7969338148   -0.0096536400   16.7730850943
 N   10.9813684903    2.1932640284   16.7826219879
 N    8.7838604000    6.5878952900   10.0000000000
 N   10.9798254900    4.3919302000   10.0000000000
 N    8.7838604000    4.3919302000   12.1959650900
 N   10.9798254900    6.5878952900   12.1959650900
 N    8.7761170334    6.5859540286   14.4211588913
 N   10.9724543363    4.3931740912   14.4152847811
 N    8.7932611073    4.3911708543   16.8072627528
 N   11.0029475781    6.5894820948   16.8117329172
 N    8.7838604000   10.9798254900   10.0000000000
 N   10.9798254900    8.7838604000   10.0000000000
 N    8.7838604000    8.7838604000   12.1959650900
 N   10.9798254900   10.9798254900   12.1959650900
 N    8.7833153955   10.9689490438   14.4141527827
 N   10.9689483438    8.7833109655   14.4141529527
 N    8.7720246098    8.7720267798   16.8166738675
 N   10.9753037049   10.9753041449   16.8015771992
Li    6.0360598442    6.0360586522   18.5590215042
  145

Nb    0.0000000000    0.0000000000   10.0000000000
Nb    2.1959650900    0.0000000000   12.1959650900
Nb    0.0000000000    2.1959650900   12.1959650900
Nb    2.1959650900    2.1959650900   10.0000000000
Nb   -0.0000022300    0.0000001200   14.4876714080
Nb    2.1680323380    0.0000015700   16.4800558370
Nb   -0.0000001200    2.1680312880   16.4800559070
Nb    2.1984053300    2.1984028600   14.4746218270
Nb    0.0000000000    4.3919302000   10.0000000000
Nb    2.1959650900    4.3919302000   12.1959650900
Nb    0.0000000000    6.5878952900   12.1959650900
Nb    2.1959650900    6.5878952900   10.0000000000
Nb   -0.0000012600    4.3846032880   14.4704699920
Nb    2.2062129940    4.3910371600   16.4819813300
Nb    0.0000003500    6.5878951700   16.4868712610
Nb    2.1927463200    6.5878925900   14.4847984190
Nb    0.0000000000    8.7838604000   10.0000000000
Nb    2.1959650900    8.7838604000   12.1959650900
Nb    0.0000000000   10.9798254900   12.1959650900
Nb    2.1959650900   10.9798254900   10.0000000000
Nb   -0.0000011900    8.7911943720   14.4704693320
Nb    2.2062123040    8.7847512100   16.4819820300
Nb    0.0000003500   11.0077609020   16.4800528570
Nb    2.1984045500   10.9773831000   14.4746237170
Nb    4.3919302000    0.0000000000   10.0000000000
Nb    6.5878952900    0.0000000000   12.1959650900
Nb    4.3919302000    2.1959650900   12.1959650900
Nb    6.5878952900    2.1959650900   10.0000000000
Nb    4.3845964280    0.0000000400   14.4704684220
Nb    6.5878949500    0.0000016300   16.4868739010
Nb    4.3910392800    2.2062104840   16.4819843610
Nb    6.5878976300    2.1927448800   14.4847975290
Nb    4.3919302000    4.3919302000   10.0000000000
Nb    6.5878952900    4.3919302000   12.1959650900
Nb    4.3919302000    6.5878952900   12.1959650900
Nb    6.5878952900    6.5878952900   10.0000000000
Nb    4.4093020720    4.4093077320   14.4869137530
Nb    6.5878951400    4.2794205130   16.4964581640
Nb    4.2794224730    6.5878963300   16.4964584240
Nb    6.5878968000    6.5878924800   14.5056406100
Nb    4.3919302000    8.7838604000   10.0000000000
Nb    6.5878952900    8.7838604000   12.1959650900
Nb    4.3919302000   10.9798254900   12.1959650900
Nb    6.5878952900   10.9798254900   10.0000000000
Nb    4.4093020820    8.7664894280   14.4869124030
Nb    6.5878949500    8.8963676470   16.4964577640
Nb    4.3910392300   10.9695794760   16.4819814510
Nb    6.5878967500   10.9830417800   14.4847996690
Nb    8.7838604000    0.0000000000   10.0000000000
Nb   10.9798254900    0.0000000000   12.1959650900
Nb    8.7838604000    2.1959650900   12.1959650900
Nb   10.9798254900    2.1959650900   10.0000000000
Nb    8.7911891720    0.0000000100   14.4704688620
Nb   11.0077578820    0.0000010100   16.4800557270
Nb    8.7847515700    2.2062104240   16.4819845410
Nb   10.9773899500    2.1984030900   14.4746218670
Nb    8.7838604000    4.3919302000   10.0000000000
Nb   10.9798254900    4.3919302000   12.1959650900
Nb    8.7838604000    6.5878952900   12.1959650900
Nb   10.9798254900    6.5878952900   10.0000000000
Nb    8.7664854580    4.4093078820   14.4869140830
Nb   10.9695770060    4.3910363400   16.4819812600
Nb    8.8963680870    6.5878966100   16.4964586240
Nb   10.9830475300    6.5878925800   14.4847984390
Nb    8.7838604000    8.7838604000   10.0000000000
Nb   10.9798254900    8.7838604000   12.1959650900
Nb    8.7838604000   10.9798254900   12.1959650900
Nb   10.9798254900   10.9798254900   10.0000000000
Nb    8.7664849880    8.7664891480   14.4869124130
Nb   10.9695780960    8.7847509300   16.4819819800
Nb    8.7847517000   10.9695797460   16.4819813710
Nb   10.9773890500   10.9773833000   14.4746236870
 N    0.0000000000    2.1959650900   10.0000000000
 N    2.1959650900    0.0000000000   10.0000000000
 N    0.0000000000    0.0000000000   12.1959650900
 N    2.1959650900    2.1959650900   12.1959650900
 N    0.0000022500    2.1907348750   14.4121863660
 N    2.1907297250   -0.0000028900   14.4121862560
 N   -0.0000000700    0.0000004700   16.8299629460
 N    2.1984842330    2.1984839730   16.7900910070
 N    0.0000000000    6.5878952900   10.0000000000
 N    2.1959650900    4.3919302000   10.0000000000
 N    0.0000000000    4.3919302000   12.1959650900
 N    2.1959650900    6.5878952900   12.1959650900
 N    0.0000012500    6.5878981600   14.4189972240
 N    2.2044189060    4.3926448200   14.4136436130
 N   -0.0000004100    4.3752736260   16.7721872620
 N    2.1492220380    6.5878936500   16.8351842100
 N    0.0000000000   10.9798254900   10.0000000000
 N    2.1959650900    8.7838604000   10.0000000000
 N    0.0000000000    8.7838604000   12.1959650900
 N    2.1959650900   10.9798254900   12.1959650900
 N    0.0000014400   10.9850580150   14.4121799160
 N    2.2044183960    8.7831433200   14.4136440330
 N   -0.0000003200    8.8005171840   16.7721863320
 N    2.1984842230   10.9773071870   16.7900940170
 N    4.3919302000    2.1959650900   10.0000000000
 N    6.5878952900    0.0000000000   10.0000000000
 N    4.3919302000    0.0000000000   12.1959650900
 N    6.5878952900    2.1959650900   12.1959650900
 N    4.3926466000    2.2044228460   14.4136501630
 N    6.5878930900   -0.0000027100   14.4190034740
 N    4.3752743660   -0.0000005900   16.7721845420
 N    6.5878955100    2.1492217880   16.8351828800
 N    4.3919302000    6.5878952900   10.0000000000
 N    6.5878952900    4.3919302000   10.0000000000
 N    4.3919302000    4.3919302000   12.1959650900
 N    6.5878952900    6.5878952900   12.1959650900
 N    4.3962022300    6.5878978600   14.4201828700
 N    6.5878938300    4.3962013100   14.4201826500
 N    4.3988175750    4.3988177550   16.8021600080
 N    6.5878953500    6.5878935500   16.6853560720
 N    4.3919302000   10.9798254900   10.0000000000
 N    6.5878952900    8.7838604000   10.0000000000
 N    4.3919302000    8.7838604000   12.1959650900
 N    6.5878952900   10.9798254900   12.1959650900
 N    4.3926456800   10.9713700040   14.4136438030
 N    6.5878936900    8.7795867700   14.4201829400
 N    4.3988176350    8.7769746750   16.8021595680
 N    6.5878955700   11.0265692820   16.8351854800
 N    8.7838604000    2.1959650900   10.0000000000
 N   10.9798254900    0.0000000000   10.0000000000
 N    8.7838604000    0.0000000000   12.1959650900
 N   10.9798254900    2.1959650900   12.1959650900
 N    8.7831482800    2.2044231760   14.4136501330
 N   10.9850564850   -0.0000029200   14.4121862460
 N    8.8005152640   -0.0000007100   16.7721845720
 N   10.9773069370    2.1984840030   16.7900908870
 N    8.7838604000    6.5878952900   10.0000000000
 N   10.9798254900    4.3919302000   10.0000000000
 N    8.7838604000    4.3919302000   12.1959650900
 N   10.9798254900    6.5878952900   12.1959650900
 N    8.7795910600    6.5878980000   14.4201830200
 N   10.9713691840    4.3926449600   14.4136435030
 N    8.7769723350    4.3988176350   16.8021592480
 N   11.0265685720    6.5878938800   16.8351847600
 N    8.7838604000   10.9798254900   10.0000000000
 N   10.9798254900    8.7838604000   10.0000000000
 N    8.7838604000    8.7838604000   12.1959650900
 N   10.9798254900   10.9798254900   12.1959650900
 N    8.7831476500   10.9713702140   14.4136437630
 N   10.9713695140    8.7831432200   14.4136439330
 N    8.7769727850    8.7769749550   16.8021595980
 N   10.9773068970   10.9773073370   16.7900940670
Li    6.5878953500    6.5878935500   18.5556006910
