8
Lattice="4.102372164522521 0.0 0.0 0.0 4.102372164522521 0.0 0.0 0.0 4.102372164522521" Properties=species:S:1:pos:R:3:forces:R:3 energy=-8853.1514991993 free_energy=-8853.1514991993 stress="0.013550170085113507 -0.0 -0.0 -0.0 0.013550170085113507 -0.0 -0.0 -0.0 0.013550170085113507" pbc="T T T"
V        0.00000000       0.00000000       0.00000000       0.00000000       0.00000000       0.00000000
V        2.05118608       2.05118608       0.00000000       0.00000000       0.00000000       0.00000000
V        2.05118608       0.00000000       2.05118608       0.00000000       0.00000000       0.00000000
V        0.00000000       2.05118608       2.05118608       0.00000000       0.00000000       0.00000000
N        0.00000000       0.00000000       2.05118608       0.00000000       0.00000000       0.00000000
N        0.00000000       2.05118608       0.00000000       0.00000000       0.00000000       0.00000000
N        2.05118608       0.00000000       0.00000000       0.00000000       0.00000000       0.00000000
N        2.05118608       2.05118608       2.05118608       0.00000000       0.00000000       0.00000000
