8
Lattice="4.558452697385101 0.0 0.0 0.0 4.558452697385101 0.0 0.0 0.0 4.558452697385101" Properties=species:S:1:pos:R:3:forces:R:3 energy=-6283.365600774379 free_energy=-6283.365600774379 stress="0.009969355385835646 -0.0 -0.0 -0.0 0.009969355385835646 -0.0 -0.0 -0.0 0.009969355385835646" pbc="T T T"
Zr       0.00000000       0.00000000       0.00000000       0.00000000       0.00000000       0.00000000
Zr       2.27922635       2.27922635       0.00000000       0.00000000       0.00000000       0.00000000
Zr       2.27922635       0.00000000       2.27922635       0.00000000       0.00000000       0.00000000
Zr       0.00000000       2.27922635       2.27922635       0.00000000       0.00000000       0.00000000
N        0.00000000       0.00000000       2.27922635       0.00000000       0.00000000       0.00000000
N        0.00000000       2.27922635       0.00000000       0.00000000       0.00000000       0.00000000
N        2.27922635       0.00000000       0.00000000       0.00000000       0.00000000       0.00000000
N        2.27922635       2.27922635       2.27922635       0.00000000       0.00000000       0.00000000
