4
Lattice="16.0 0.0 0.0 0.0 19.892998 0.0 0.0 0.0 28.200662" Properties=species:S:1:pos:R:3:spacegroup_kinds:I:1:forces:R:3 spacegroup="P 1" unit_cell=conventional occupancy="_JSON {\"0\": {\"S\": 1.0}, \"1\": {\"S\": 1.0}, \"2\": {\"Li\": 1.0}, \"3\": {\"Li\": 1.0}}" energy=-1050.515462932428 free_energy=-1050.515462932428 pbc="T T T"
S        8.07148016       9.92659964      10.16189298        0       0.00127038       0.00022677      -0.01029315
S        8.20022096       9.96238953       8.00475162        1      -0.00001903      -0.00008587       0.01035717
Li       8.19603664      11.89028561       9.11926551        2      -0.00027665       0.00187048       0.00011030
Li       8.07070384       7.99873021       9.04707623        3      -0.00097471      -0.00201137      -0.00017458
