144
Lattice="13.175790596999999 0.0 0.0 0.0 13.175790596999999 0.0 0.0 0.0 26.587895289000002" Properties=species:S:1:pos:R:3:move_mask:L:1:tags:I:1:forces:R:3 charge=0 spin=0 energy=-1429.5895134105788 free_energy=-1429.5895134105788 stress="0.015314769931137562 -3.6069935926974495e-09 5.495968125046602e-10 -3.6069935926974495e-09 0.015314830467104912 -9.446592397210907e-10 5.495968125046602e-10 -9.446592397210907e-10 0.0039223842322826385" pbc="T T T"
Nb       0.00000000       0.00000000      10.00000000  F        2      -0.00000313      -0.00005810       1.60748446
Nb       2.19596509       0.00000000      12.19596509  F        2       0.00000055       0.00000032      -1.24786317
Nb       0.00000000       2.19596509      12.19596509  F        2      -0.00000364       0.00000101      -1.24786174
Nb       2.19596509       2.19596509      10.00000000  F        2      -0.00000015      -0.00001047       1.60748255
Nb      -0.00000223       0.00000012      14.69769657  T        1       0.00000118       0.00000117       0.00159512
Nb       2.19596493       0.00000157      16.64737971  T        1      -0.00000066      -0.00001817       0.00236717
Nb      -0.00000012       2.19596388      16.64737978  T        1       0.00000019       0.00001128       0.00237485
Nb       2.19596730       2.19596483      14.69769661  T        1       0.00000552      -0.00000862       0.00159384
Nb       0.00000000       4.39193020      10.00000000  F        2      -0.00000254       0.00003646       1.60748398
Nb       2.19596509       4.39193020      12.19596509  F        2      -0.00000011      -0.00000057      -1.24788702
Nb       0.00000000       6.58789529      12.19596509  F        2      -0.00000302       0.00000615      -1.24788737
Nb       2.19596509       6.58789529      10.00000000  F        2      -0.00000003      -0.00000305       1.60748136
Nb      -0.00000126       4.39193440      14.69769823  T        1      -0.00000304      -0.00000185       0.00158576
Nb       2.19596518       4.39192810      16.64737664  T        1      -0.00000678       0.00001127       0.00239690
Nb       0.00000035       6.58789517      16.64737721  T        1      -0.00000109       0.00000015       0.00239469
Nb       2.19596641       6.58789259      14.69769747  T        1       0.00000200       0.00000317       0.00159822
Nb       0.00000000       8.78386040      10.00000000  F        2      -0.00000349      -0.00004372       1.60748160
Nb       2.19596509       8.78386040      12.19596509  F        2       0.00000044       0.00000453      -1.24788690
Nb       0.00000000      10.97982549      12.19596509  F        2      -0.00000379       0.00000766      -1.24788702
Nb       2.19596509      10.97982549      10.00000000  F        2       0.00000000       0.00001364       1.60748291
Nb      -0.00000119       8.78386326      14.69769757  T        1      -0.00001129      -0.00000248       0.00159869
Nb       2.19596449       8.78386027      16.64737734  T        1      -0.00000259      -0.00000646       0.00239444
Nb       0.00000035      10.97982831      16.64737673  T        1       0.00000034      -0.00001082       0.00239270
Nb       2.19596652      10.97982113      14.69769850  T        1       0.00000529       0.00000608       0.00158847
Nb       4.39193020       0.00000000      10.00000000  F        2       0.00000014      -0.00004814       1.60748494
Nb       6.58789529       0.00000000      12.19596509  F        2      -0.00000254      -0.00000421      -1.24786091
Nb       4.39193020       2.19596509      12.19596509  F        2       0.00000102       0.00000103      -1.24786139
Nb       6.58789529       2.19596509      10.00000000  F        2      -0.00000253      -0.00000967       1.60748255
Nb       4.39192754       0.00000004      14.69769666  T        1      -0.00000329       0.00000659       0.00159444
Nb       6.58789495       0.00000163      16.64737985  T        1      -0.00000114      -0.00002169       0.00237582
Nb       4.39193022       2.19596267      16.64737967  T        1       0.00000269       0.00001851       0.00237357
Nb       6.58789763       2.19596497      14.69769658  T        1       0.00000383      -0.00000354       0.00159477
Nb       4.39193020       4.39193020      10.00000000  F        2       0.00000134       0.00000366       1.60748374
Nb       6.58789529       4.39193020      12.19596509  F        2      -0.00000262      -0.00000532      -1.24788642
Nb       4.39193020       6.58789529      12.19596509  F        2       0.00000161      -0.00001079      -1.24788582
Nb       6.58789529       6.58789529      10.00000000  F        2      -0.00000249       0.00000851       1.60748136
Nb       4.39192839       4.39193405      14.69769853  T        1       0.00000198      -0.00000032       0.00159125
Nb       6.58789514       4.39192798      16.64737698  T        1       0.00000239       0.00001126       0.00239579
Nb       4.39192994       6.58789633      16.64737724  T        1       0.00000444      -0.00000147       0.00238871
Nb       6.58789680       6.58789248      14.69769746  T        1       0.00000479       0.00000120       0.00159915
Nb       4.39193020       8.78386040      10.00000000  F        2       0.00000061      -0.00001083       1.60748160
Nb       6.58789529       8.78386040      12.19596509  F        2      -0.00000310       0.00000854      -1.24788475
Nb       4.39193020      10.97982549      12.19596509  F        2       0.00000120       0.00001914      -1.24788797
Nb       6.58789529      10.97982549      10.00000000  F        2      -0.00000288      -0.00004137       1.60748410
Nb       4.39192840       8.78386311      14.69769718  T        1       0.00000240      -0.00000976       0.00159548
Nb       6.58789495       8.78386018      16.64737658  T        1       0.00000473      -0.00000541       0.00238969
Nb       4.39193017      10.97982729      16.64737676  T        1       0.00000131      -0.00000685       0.00239423
Nb       6.58789675      10.97982169      14.69769872  T        1       0.00000570      -0.00000692       0.00158841
Nb       8.78386040       0.00000000      10.00000000  F        2       0.00000033      -0.00000439       1.60748363
Nb      10.97982549       0.00000000      12.19596509  F        2       0.00000568       0.00000585      -1.24786556
Nb       8.78386040       2.19596509      12.19596509  F        2      -0.00000089       0.00000051      -1.24786019
Nb      10.97982549       2.19596509      10.00000000  F        2       0.00000520       0.00000031       1.60748291
Nb       8.78385806       0.00000001      14.69769710  T        1      -0.00000431       0.00000658       0.00159399
Nb      10.97982529       0.00000101      16.64737960  T        1       0.00000391      -0.00000965       0.00237056
Nb       8.78386063       2.19596261      16.64737985  T        1       0.00000354       0.00001794       0.00237319
Nb      10.97982798       2.19596506      14.69769665  T        1       0.00000419      -0.00000572       0.00159657
Nb       8.78386040       4.39193020      10.00000000  F        2       0.00000033       0.00000362       1.60748291
Nb      10.97982549       4.39193020      12.19596509  F        2       0.00000478      -0.00000025      -1.24788749
Nb       8.78386040       6.58789529      12.19596509  F        2      -0.00000047      -0.00000468      -1.24788296
Nb      10.97982549       6.58789529      10.00000000  F        2       0.00000542      -0.00003567       1.60748172
Nb       8.78385914       4.39193420      14.69769886  T        1      -0.00000769      -0.00000237       0.00159280
Nb      10.97982482       4.39192728      16.64737657  T        1      -0.00000224       0.00002298       0.00239766
Nb       8.78386062       6.58789661      16.64737744  T        1       0.00000546      -0.00000394       0.00239113
Nb      10.97982744       6.58789258      14.69769749  T        1      -0.00000689       0.00000582       0.00160140
Nb       8.78386040       8.78386040      10.00000000  F        2      -0.00000016       0.00001127       1.60747921
Nb      10.97982549       8.78386040      12.19596509  F        2       0.00000564      -0.00000312      -1.24788439
Nb       8.78386040      10.97982549      12.19596509  F        2      -0.00000049       0.00001328      -1.24788678
Nb      10.97982549      10.97982549      10.00000000  F        2       0.00000533       0.00000279       1.60748374
Nb       8.78385867       8.78386283      14.69769719  T        1       0.00000028      -0.00001086       0.00159714
Nb      10.97982591       8.78385999      16.64737729  T        1      -0.00000891      -0.00000321       0.00238659
Nb       8.78386076      10.97982756      16.64737668  T        1      -0.00000604      -0.00001343       0.00239334
Nb      10.97982708      10.97982133      14.69769847  T        1       0.00000960       0.00000300       0.00158566
N        0.00000000       2.19596509      10.00000000  F        2      -0.00000425       0.00001063      -1.15044582
N        2.19596509       0.00000000      10.00000000  F        2      -0.00000081      -0.00000469      -1.15044808
N        0.00000000       0.00000000      12.19596509  F        2      -0.00000426      -0.00000458       0.79268283
N        2.19596509       2.19596509      12.19596509  F        2      -0.00000107      -0.00000078       0.79268444
N        0.00000225       2.19596792      14.45765649  T        1       0.00000147      -0.00000908      -0.00438056
N        2.19596277      -0.00000289      14.45765638  T        1      -0.00000220       0.00000883      -0.00436912
N       -0.00000007       0.00000047      16.93440603  T        1      -0.00000607      -0.00000115      -0.00145259
N        2.19596521       2.19596495      16.93440573  T        1       0.00000313       0.00000010      -0.00145057
N        0.00000000       6.58789529      10.00000000  F        2      -0.00000417       0.00004061      -1.15045631
N        2.19596509       4.39193020      10.00000000  F        2      -0.00000159       0.00000096      -1.15045691
N        0.00000000       4.39193020      12.19596509  F        2      -0.00000465      -0.00001142       0.79268456
N        2.19596509       6.58789529      12.19596509  F        2      -0.00000106      -0.00000502       0.79268366
N        0.00000125       6.58789816      14.45765022  T        1       0.00000776       0.00000314      -0.00432847
N        2.19596389       4.39193050      14.45765007  T        1      -0.00000758      -0.00002234      -0.00432706
N       -0.00000041       4.39192910      16.93440866  T        1       0.00001199       0.00000712      -0.00147860
N        2.19596502       6.58789365      16.93440752  T        1       0.00000337       0.00001051      -0.00148556
N        0.00000000      10.97982549      10.00000000  F        2      -0.00000422       0.00001803      -1.15045536
N        2.19596509       8.78386040      10.00000000  F        2      -0.00000132      -0.00000053      -1.15045834
N        0.00000000       8.78386040      12.19596509  F        2      -0.00000468       0.00000159       0.79268450
N        2.19596509      10.97982549      12.19596509  F        2      -0.00000016       0.00000410       0.79268587
N        0.00000144      10.97982497      14.45765004  T        1      -0.00000589       0.00002081      -0.00432636
N        2.19596338       8.78385764      14.45765049  T        1      -0.00000011      -0.00000290      -0.00432837
N       -0.00000032       8.78386171      16.93440773  T        1       0.00001036      -0.00000959      -0.00148514
N        2.19596520      10.97982621      16.93440874  T        1      -0.00000122       0.00000154      -0.00147638
N        4.39193020       2.19596509      10.00000000  F        2       0.00000182       0.00004293      -1.15044689
N        6.58789529       0.00000000      10.00000000  F        2      -0.00000344       0.00000638      -1.15044641
N        4.39193020       0.00000000      12.19596509  F        2       0.00000202      -0.00001559       0.79268324
N        6.58789529       2.19596509      12.19596509  F        2      -0.00000435      -0.00000719       0.79268533
N        4.39193228       2.19596783      14.45765662  T        1       0.00000032      -0.00001295      -0.00438115
N        6.58789309      -0.00000271      14.45765647  T        1       0.00000133       0.00001103      -0.00438009
N        4.39192984      -0.00000059      16.93440594  T        1       0.00000246       0.00000625      -0.00145155
N        6.58789551       2.19596477      16.93440619  T        1      -0.00000110       0.00000222      -0.00145211
N        4.39193020       6.58789529      10.00000000  F        2       0.00000178      -0.00000245      -1.15045750
N        6.58789529       4.39193020      10.00000000  F        2      -0.00000406      -0.00000990      -1.15045691
N        4.39193020       4.39193020      12.19596509  F        2       0.00000159       0.00000471       0.79268533
N        6.58789529       6.58789529      12.19596509  F        2      -0.00000405       0.00000617       0.79268414
N        4.39193139       6.58789786      14.45765043  T        1       0.00000195       0.00000805      -0.00432554
N        6.58789383       4.39193047      14.45765021  T        1      -0.00000173      -0.00002056      -0.00432595
N        4.39192983       4.39193001      16.93440869  T        1       0.00000363      -0.00000284      -0.00147931
N        6.58789535       6.58789355      16.93440810  T        1      -0.00000211       0.00001120      -0.00148573
N        4.39193020      10.97982549      10.00000000  F        2       0.00000226       0.00001794      -1.15045643
N        6.58789529       8.78386040      10.00000000  F        2      -0.00000391       0.00004337      -1.15045869
N        4.39193020       8.78386040      12.19596509  F        2       0.00000160       0.00000198       0.79268444
N        6.58789529      10.97982549      12.19596509  F        2      -0.00000363       0.00000367       0.79268587
N        4.39193136      10.97982502      14.45765026  T        1       0.00000108       0.00002035      -0.00432672
N        6.58789369       8.78385761      14.45765050  T        1      -0.00000333       0.00000118      -0.00432702
N        4.39192989       8.78386242      16.93440825  T        1      -0.00000675      -0.00000773      -0.00148160
N        6.58789557      10.97982630      16.93440879  T        1       0.00000044       0.00000147      -0.00148029
N        8.78386040       2.19596509      10.00000000  F        2       0.00000093      -0.00000014      -1.15044820
N       10.97982549       0.00000000      10.00000000  F        2       0.00000617      -0.00000470      -1.15044773
N        8.78386040       0.00000000      12.19596509  F        2       0.00000043      -0.00001522       0.79268527
N       10.97982549       2.19596509      12.19596509  F        2       0.00000685      -0.00001226       0.79268432
N        8.78386260       2.19596816      14.45765659  T        1      -0.00000462      -0.00001416      -0.00438199
N       10.97982344      -0.00000292      14.45765637  T        1       0.00000183       0.00000911      -0.00437099
N        8.78385979      -0.00000071      16.93440597  T        1      -0.00000378       0.00001082      -0.00145123
N       10.97982596       2.19596498      16.93440561  T        1      -0.00000556      -0.00000616      -0.00145377
N        8.78386040       6.58789529      10.00000000  F        2       0.00000099      -0.00001467      -1.15045881
N       10.97982549       4.39193020      10.00000000  F        2       0.00000586       0.00003379      -1.15045595
N        8.78386040       4.39193020      12.19596509  F        2       0.00000002       0.00000524       0.79268527
N       10.97982549       6.58789529      12.19596509  F        2       0.00000659       0.00000023       0.79268295
N        8.78386190       6.58789800      14.45765058  T        1       0.00000096       0.00001184      -0.00432504
N       10.97982420       4.39193064      14.45764996  T        1       0.00000140      -0.00002013      -0.00432864
N        8.78386008       4.39192989      16.93440793  T        1      -0.00000544       0.00000000      -0.00148264
N       10.97982559       6.58789388      16.93440807  T        1      -0.00000553       0.00000090      -0.00148770
N        8.78386040      10.97982549      10.00000000  F        2       0.00000116       0.00000790      -1.15045810
N       10.97982549       8.78386040      10.00000000  F        2       0.00000680      -0.00000007      -1.15045810
N        8.78386040       8.78386040      12.19596509  F        2       0.00000078       0.00000123       0.79268551
N       10.97982549      10.97982549      12.19596509  F        2       0.00000756       0.00000982       0.79268622
N        8.78386197      10.97982523      14.45765022  T        1      -0.00000293       0.00002044      -0.00432690
N       10.97982453       8.78385754      14.45765039  T        1       0.00000088      -0.00000225      -0.00432485
N        8.78386053       8.78386270      16.93440828  T        1       0.00000099      -0.00001331      -0.00148264
N       10.97982592      10.97982636      16.93440879  T        1       0.00000040      -0.00000090      -0.00147518
