144
Lattice="13.429296531000002 0.0 0.0 0.0 13.429296531000002 0.0 0.0 0.0 26.714648267" Properties=species:S:1:pos:R:3:move_mask:L:1:tags:I:1:forces:R:3 charge=0 spin=0 energy=-1299.839177065086 free_energy=-1299.839177065086 stress="0.005423651542514563 1.8566397308461546e-09 2.1329040755801998e-09 1.8566397308461546e-09 0.005423637107014656 -5.054357643530238e-07 2.1329040755801998e-09 -5.054357643530238e-07 0.0019144471734762192" pbc="T T T"
Sc       0.00000000       0.00000000      10.00000000  F        2       0.00001220      -0.00002993       0.32272401
Sc       2.23821609       0.00000000      12.23821609  F        2       0.00012467      -0.00009475      -0.05571085
Sc       0.00000000       2.23821609      12.23821609  F        2       0.00016311       0.00004413      -0.05606192
Sc       2.23821609       2.23821609      10.00000000  F        2       0.00002050      -0.00003794       0.32276967
Sc      -0.00000283      -0.00009523      14.51373947  T        1       0.00006321       0.00007925      -0.00227008
Sc       2.23820489       0.00002222      16.72598504  T        1      -0.00008394       0.00005800      -0.00145699
Sc      -0.00000721       2.23822749      16.72536131  T        1       0.00002771      -0.00007536       0.00434924
Sc       2.23829270       2.23821885      14.51375709  T        1      -0.00009919       0.00014208      -0.00228616
Sc       0.00000000       4.47643218      10.00000000  F        2       0.00002949      -0.00000667       0.32269186
Sc       2.23821609       4.47643218      12.23821609  F        2       0.00006695       0.00010939      -0.05573264
Sc       0.00000000       6.71464827      12.23821609  F        2      -0.00002321       0.00021724      -0.05589022
Sc       2.23821609       6.71464827      10.00000000  F        2       0.00003373       0.00004983       0.32284135
Sc       0.00000252       4.47653534      14.51381587  T        1      -0.00007087      -0.00018932      -0.00204207
Sc       2.23819049       4.47641233      16.72610682  T        1      -0.00001117      -0.00001582      -0.00212339
Sc      -0.00000399       6.71462343      16.72610854  T        1      -0.00002027       0.00007116      -0.00073614
Sc       2.23820506       6.71465236      14.51382004  T        1       0.00026210      -0.00006370      -0.00197848
Sc       0.00000000       8.95286435      10.00000000  F        2       0.00000898       0.00003857       0.32278711
Sc       2.23821609       8.95286435      12.23821609  F        2      -0.00000122      -0.00004770      -0.05563542
Sc       0.00000000      11.19108044      12.23821609  F        2       0.00000098      -0.00025604      -0.05587959
Sc       2.23821609      11.19108044      10.00000000  F        2       0.00001878      -0.00000586       0.32281935
Sc       0.00000208       8.95285604      14.51381040  T        1       0.00006396       0.00011750      -0.00206860
Sc       2.23821812       8.95286350      16.72604601  T        1       0.00001171       0.00002571      -0.00224982
Sc      -0.00000094      11.19108945      16.72603385  T        1      -0.00004606       0.00002097      -0.00204377
Sc       2.23821649      11.19107325      14.51379426  T        1       0.00015631      -0.00009682      -0.00202818
Sc       4.47643218       0.00000000      10.00000000  F        2       0.00000141      -0.00003083       0.32282087
Sc       6.71464827       0.00000000      12.23821609  F        2      -0.00011196      -0.00010234      -0.05571721
Sc       4.47643218       2.23821609      12.23821609  F        2      -0.00000110      -0.00000982      -0.05595976
Sc       6.71464827       2.23821609      10.00000000  F        2      -0.00001420      -0.00003919       0.32276931
Sc       4.47643489      -0.00001311      14.51379247  T        1      -0.00001458      -0.00014085      -0.00210513
Sc       6.71465855       0.00002253      16.72600194  T        1       0.00007507       0.00003584      -0.00171790
Sc       4.47643231       2.23821776      16.72601216  T        1      -0.00000543      -0.00007573      -0.00251829
Sc       6.71457002       2.23821472      14.51375700  T        1       0.00011890       0.00017776      -0.00229717
Sc       4.47643218       4.47643218      10.00000000  F        2       0.00000084       0.00001033       0.32276469
Sc       6.71464827       4.47643218      12.23821609  F        2      -0.00007038       0.00010918      -0.05572730
Sc       4.47643218       6.71464827      12.23821609  F        2      -0.00000136       0.00005352      -0.05561138
Sc       6.71464827       6.71464827      10.00000000  F        2      -0.00003445       0.00004644       0.32283923
Sc       4.47643010       4.47644706      14.51380422  T        1       0.00000681       0.00014785      -0.00196285
Sc       6.71467606       4.47641131      16.72608306  T        1       0.00000806      -0.00002002      -0.00169634
Sc       4.47643114       6.71464244      16.72602105  T        1       0.00000277       0.00000418      -0.00324664
Sc       6.71466007       6.71465518      14.51381700  T        1      -0.00022223      -0.00006130      -0.00197104
Sc       4.47643218       8.95286435      10.00000000  F        2       0.00000235       0.00001243       0.32281289
Sc       6.71464827       8.95286435      12.23821609  F        2       0.00001212      -0.00003194      -0.05563184
Sc       4.47643218      11.19108044      12.23821609  F        2       0.00000845      -0.00000863      -0.05572255
Sc       6.71464827      11.19108044      10.00000000  F        2      -0.00001422      -0.00003480       0.32282287
Sc       4.47643244       8.95286326      14.51379518  T        1       0.00000237      -0.00001394      -0.00198616
Sc       6.71464472       8.95286254      16.72604651  T        1       0.00000012      -0.00000150      -0.00223618
Sc       4.47643271      11.19108666      16.72602448  T        1       0.00000615       0.00002471      -0.00294526
Sc       6.71464892      11.19107544      14.51379667  T        1      -0.00008933      -0.00010489      -0.00198642
Sc       8.95286435       0.00000000      10.00000000  F        2      -0.00001815      -0.00003632       0.32272878
Sc      11.19108044       0.00000000      12.23821609  F        2      -0.00000596      -0.00016162      -0.05573026
Sc       8.95286435       2.23821609      12.23821609  F        2      -0.00017553       0.00003555      -0.05605080
Sc      11.19108044       2.23821609      10.00000000  F        2       0.00000565      -0.00003052       0.32273093
Sc       8.95286393      -0.00009745      14.51374053  T        1      -0.00005301       0.00002163      -0.00224422
Sc      11.19108138       0.00003626      16.72600429  T        1      -0.00000951       0.00001578      -0.00296345
Sc       8.95287215       2.23822642      16.72535687  T        1      -0.00002251      -0.00004622       0.00427922
Sc      11.19108056       2.23822008      14.51371460  T        1      -0.00001330       0.00030673      -0.00249677
Sc       8.95286435       4.47643218      10.00000000  F        2      -0.00003616      -0.00000529       0.32269219
Sc      11.19108044       4.47643218      12.23821609  F        2       0.00000583       0.00021176      -0.05575528
Sc       8.95286435       6.71464827      12.23821609  F        2       0.00003012       0.00022802      -0.05586404
Sc      11.19108044       6.71464827      10.00000000  F        2      -0.00000270       0.00006968       0.32285243
Sc       8.95286515       4.47653636      14.51381392  T        1       0.00005636      -0.00017316      -0.00203170
Sc      11.19108184       4.47639670      16.72620161  T        1      -0.00001156      -0.00006378      -0.00156130
Sc       8.95286789       6.71462175      16.72612259  T        1       0.00004601       0.00006805      -0.00151697
Sc      11.19108086       6.71464696      14.51384281  T        1      -0.00003497      -0.00022509      -0.00193724
Sc       8.95286435       8.95286435      10.00000000  F        2      -0.00001516       0.00003284       0.32279250
Sc      11.19108044       8.95286435      12.23821609  F        2      -0.00000355      -0.00006355      -0.05560775
Sc       8.95286435      11.19108044      12.23821609  F        2      -0.00001162      -0.00026084      -0.05584038
Sc      11.19108044      11.19108044      10.00000000  F        2       0.00000158      -0.00001984       0.32282344
Sc       8.95286204       8.95285706      14.51381045  T        1      -0.00006640       0.00014109      -0.00204100
Sc      11.19108064       8.95286041      16.72599636  T        1      -0.00001232       0.00001091      -0.00281285
Sc       8.95286626      11.19108839      16.72606569  T        1       0.00003065       0.00003992      -0.00303737
Sc      11.19107969      11.19107752      14.51379839  T        1      -0.00007035      -0.00006923      -0.00203352
N        0.00000000       2.23821609      10.00000000  F        2      -0.00002841       0.00006474      -0.09277761
N        2.23821609       0.00000000      10.00000000  F        2      -0.00003269       0.00003663      -0.09285416
N        0.00000000       0.00000000      12.23821609  F        2       0.00001262       0.00004913      -0.17445186
N        2.23821609       2.23821609      12.23821609  F        2       0.00003141       0.00004447      -0.17453560
N        0.00000377       2.23828214      14.51818305  T        1       0.00009063       0.00005841       0.00110171
N        2.23822693       0.00000188      14.51823109  T        1      -0.00007944      -0.00012394       0.00123311
N        0.00000041      -0.00002371      16.73219220  T        1       0.00001528       0.00002642       0.00324719
N        2.23824445       2.23819855      16.73220791  T        1       0.00008474      -0.00001342       0.00225165
N        0.00000000       6.71464827      10.00000000  F        2      -0.00001430      -0.00009121      -0.09270895
N        2.23821609       4.47643218      10.00000000  F        2      -0.00006157      -0.00002788      -0.09274088
N        0.00000000       4.47643218      12.23821609  F        2      -0.00009933       0.00009354      -0.17349108
N        2.23821609       6.71464827      12.23821609  F        2      -0.00007862      -0.00005048      -0.17445803
N       -0.00000210       6.71459187      14.51829389  T        1      -0.00004590      -0.00009499       0.00147966
N        2.23816828       4.47643344      14.51827377  T        1      -0.00011570       0.00014409       0.00155704
N        0.00000379       4.47645790      16.73308029  T        1      -0.00003354      -0.00007781      -0.00396780
N        2.23822679       6.71466679      16.73229109  T        1       0.00004429       0.00001408       0.00337281
N        0.00000000      11.19108044      10.00000000  F        2      -0.00000940       0.00002366      -0.09278554
N        2.23821609       8.95286435      10.00000000  F        2      -0.00002239      -0.00001607      -0.09283876
N        0.00000000       8.95286435      12.23821609  F        2      -0.00000322      -0.00015961      -0.17434165
N        2.23821609      11.19108044      12.23821609  F        2      -0.00002758      -0.00001415      -0.17446803
N       -0.00000168      11.19107228      14.51824865  T        1      -0.00003259       0.00002908       0.00131659
N        2.23821563       8.95286153      14.51825620  T        1      -0.00004317      -0.00003305       0.00136835
N        0.00000256       8.95286852      16.73226270  T        1       0.00003442       0.00004143       0.00258583
N        2.23821365      11.19107777      16.73227861  T        1       0.00000600       0.00000052       0.00247005
N        4.47643218       2.23821609      10.00000000  F        2      -0.00000344       0.00003669      -0.09279843
N        6.71464827       0.00000000      10.00000000  F        2       0.00002930       0.00004543      -0.09285208
N        4.47643218       0.00000000      12.23821609  F        2      -0.00000321       0.00002842      -0.17447196
N        6.71464827       2.23821609      12.23821609  F        2      -0.00003235       0.00002228      -0.17453071
N        4.47643244       2.23822387      14.51824180  T        1      -0.00000389       0.00004583       0.00118420
N        6.71463911      -0.00000002      14.51823461  T        1       0.00005111      -0.00012797       0.00123293
N        4.47643197      -0.00000700      16.73228891  T        1       0.00000599       0.00002578       0.00319584
N        6.71461910       2.23819743      16.73220655  T        1      -0.00008492       0.00000054       0.00223740
N        4.47643218       6.71464827      10.00000000  F        2      -0.00000029      -0.00003700      -0.09283545
N        6.71464827       4.47643218      10.00000000  F        2       0.00006234      -0.00004941      -0.09274351
N        4.47643218       4.47643218      12.23821609  F        2       0.00000144      -0.00000391      -0.17429899
N        6.71464827       6.71464827      12.23821609  F        2       0.00006759      -0.00005142      -0.17447583
N        4.47643103       6.71464212      14.51825331  T        1      -0.00000750      -0.00000750       0.00137883
N        6.71469532       4.47643148      14.51827219  T        1       0.00010646       0.00014440       0.00152690
N        4.47643161       4.47643701      16.73225721  T        1      -0.00000277      -0.00006668       0.00426004
N        6.71463856       6.71466733      16.73227127  T        1      -0.00005373       0.00004109       0.00268621
N        4.47643218      11.19108044      10.00000000  F        2      -0.00000471       0.00000901      -0.09282222
N        6.71464827       8.95286435      10.00000000  F        2       0.00001729       0.00002816      -0.09284186
N        4.47643218       8.95286435      12.23821609  F        2      -0.00000676      -0.00001022      -0.17437565
N        6.71464827      11.19108044      12.23821609  F        2       0.00001970      -0.00000868      -0.17445301
N        4.47643307      11.19107916      14.51825623  T        1       0.00000693      -0.00003553       0.00138776
N        6.71464839       8.95286392      14.51825613  T        1       0.00001235      -0.00000859       0.00136451
N        4.47643299       8.95286777      16.73233678  T        1      -0.00001000       0.00002006       0.00398909
N        6.71465061      11.19107916      16.73230403  T        1       0.00000052       0.00001844       0.00301963
N        8.95286435       2.23821609      10.00000000  F        2       0.00002606       0.00006642      -0.09278058
N       11.19108044       0.00000000      10.00000000  F        2       0.00000611       0.00005361      -0.09286743
N        8.95286435       0.00000000      12.23821609  F        2      -0.00001045       0.00005690      -0.17447439
N       11.19108044       2.23821609      12.23821609  F        2       0.00000762       0.00006613      -0.17470242
N        8.95286127       2.23828119      14.51818370  T        1      -0.00008825       0.00007052       0.00107552
N       11.19108092      -0.00000712      14.51821409  T        1       0.00003571      -0.00026679       0.00114547
N        8.95286287      -0.00002432      16.73217860  T        1      -0.00000903       0.00001004       0.00354418
N       11.19107941       2.23818386      16.73204520  T        1       0.00001506       0.00000335       0.00332077
N        8.95286435       6.71464827      10.00000000  F        2       0.00001742      -0.00008902      -0.09271611
N       11.19108044       4.47643218      10.00000000  F        2       0.00000560      -0.00005116      -0.09269661
N        8.95286435       4.47643218      12.23821609  F        2       0.00009474       0.00008988      -0.17350106
N       11.19108044       6.71464827      12.23821609  F        2       0.00000913      -0.00004630      -0.17441402
N        8.95286708       6.71459164      14.51829423  T        1       0.00005020      -0.00012112       0.00146390
N       11.19107892       4.47644182      14.51829478  T        1       0.00001655       0.00031483       0.00172607
N        8.95286047       4.47645897      16.73307983  T        1       0.00002989      -0.00007592      -0.00388057
N       11.19108034       6.71467971      16.73232613  T        1       0.00000737       0.00004898       0.00323337
N        8.95286435      11.19108044      10.00000000  F        2       0.00000697       0.00003085      -0.09279203
N       11.19108044       8.95286435      10.00000000  F        2       0.00000789      -0.00002158      -0.09284843
N        8.95286435       8.95286435      12.23821609  F        2       0.00000016      -0.00016221      -0.17438246
N       11.19108044      11.19108044      12.23821609  F        2       0.00000680      -0.00002955      -0.17445558
N        8.95286523      11.19107324      14.51824999  T        1       0.00003277       0.00002529       0.00134202
N       11.19108097       8.95286116      14.51825370  T        1       0.00002990      -0.00002963       0.00133568
N        8.95286217       8.95286768      16.73223432  T        1      -0.00003331       0.00003770       0.00395983
N       11.19107969      11.19108140      16.73232460  T        1      -0.00001163       0.00001006       0.00288566
