144
Lattice="12.641749416 0.0 0.0 0.0 12.641749416 0.0 0.0 0.0 26.320874702" Properties=species:S:1:pos:R:3:move_mask:L:1:tags:I:1:forces:R:3 charge=0 spin=0 energy=-1384.983083416281 free_energy=-1384.983083416281 stress="0.011804499663412571 -2.4452953550913037e-10 8.753828772967154e-09 -2.4452953550913037e-10 0.011804443784058094 -2.2301385182998956e-09 8.753828772967154e-09 -2.2301385182998956e-09 0.004252823069691658" pbc="T T T"
Ti       0.00000000       0.00000000      10.00000000  F        2      -0.00000144       0.00002024       1.20627213
Ti       2.10695823       0.00000000      12.10695823  F        2      -0.00000036      -0.00000026       0.32694086
Ti       0.00000000       2.10695823      12.10695823  F        2       0.00000017      -0.00000034       0.32694232
Ti       2.10695823       2.10695823      10.00000000  F        2      -0.00000011       0.00002101       1.20627117
Ti      -0.00000028      -0.00000023      14.22624439  T        1       0.00000139       0.00000017      -0.00295654
Ti       2.10695823       0.00000014      16.27210575  T        1      -0.00000037      -0.00000100       0.00535630
Ti      -0.00000004       2.10695836      16.27210641  T        1      -0.00000163      -0.00000443       0.00535656
Ti       2.10695820       2.10695821      14.22624490  T        1      -0.00000070       0.00000060      -0.00295695
Ti       0.00000000       4.21391647      10.00000000  F        2      -0.00000097       0.00000579       1.20627213
Ti       2.10695823       4.21391647      12.10695823  F        2      -0.00000091       0.00000110       0.32693905
Ti       0.00000000       6.32087470      12.10695823  F        2      -0.00000170      -0.00000590       0.32694015
Ti       2.10695823       6.32087470      10.00000000  F        2      -0.00000015      -0.00000749       1.20627010
Ti      -0.00000014       4.21391658      14.22624475  T        1       0.00000076      -0.00000503      -0.00296694
Ti       2.10695819       4.21391654      16.27210571  T        1      -0.00000184      -0.00000032       0.00535512
Ti      -0.00000027       6.32087463      16.27210695  T        1      -0.00000234      -0.00000196       0.00535240
Ti       2.10695815       6.32087450      14.22624462  T        1      -0.00000373      -0.00000149      -0.00296950
Ti       0.00000000       8.42783294      10.00000000  F        2      -0.00000072      -0.00001336       1.20627213
Ti       2.10695823       8.42783294      12.10695823  F        2      -0.00000080       0.00000377       0.32693994
Ti       0.00000000      10.53479117      12.10695823  F        2      -0.00000054       0.00000110       0.32693803
Ti       2.10695823      10.53479117      10.00000000  F        2      -0.00000015       0.00002693       1.20627129
Ti      -0.00000020       8.42783300      14.22624418  T        1       0.00000029       0.00000076      -0.00295946
Ti       2.10695818       8.42783242      16.27210621  T        1      -0.00000159       0.00000221       0.00534833
Ti       0.00000012      10.53479114      16.27210595  T        1      -0.00000298       0.00000150       0.00534316
Ti       2.10695834      10.53479091      14.22624473  T        1      -0.00000297       0.00000016      -0.00297045
Ti       4.21391647       0.00000000      10.00000000  F        2       0.00000048       0.00002092       1.20627272
Ti       6.32087470       0.00000000      12.10695823  F        2      -0.00000222      -0.00000023       0.32694075
Ti       4.21391647       2.10695823      12.10695823  F        2       0.00000174      -0.00000008       0.32694003
Ti       6.32087470       2.10695823      10.00000000  F        2      -0.00000168      -0.00002277       1.20627010
Ti       4.21391642      -0.00000029      14.22624443  T        1       0.00000092       0.00000024      -0.00295547
Ti       6.32087450      -0.00000001      16.27210592  T        1      -0.00000250      -0.00000137       0.00535859
Ti       4.21391660       2.10695825      16.27210667  T        1      -0.00000396      -0.00000206       0.00535529
Ti       6.32087463       2.10695829      14.22624470  T        1       0.00000140      -0.00000470      -0.00296689
Ti       4.21391647       4.21391647      10.00000000  F        2      -0.00000015      -0.00002233       1.20627272
Ti       6.32087470       4.21391647      12.10695823  F        2      -0.00000282      -0.00000043       0.32693931
Ti       4.21391647       6.32087470      12.10695823  F        2       0.00000033      -0.00000523       0.32693943
Ti       6.32087470       6.32087470      10.00000000  F        2      -0.00000151      -0.00000106       1.20626962
Ti       4.21391652       4.21391640      14.22624477  T        1      -0.00000001      -0.00000087      -0.00295655
Ti       6.32087477       4.21391649      16.27210618  T        1      -0.00000090       0.00000138       0.00535978
Ti       4.21391646       6.32087482      16.27210652  T        1       0.00000027      -0.00000166       0.00535257
Ti       6.32087464       6.32087451      14.22624460  T        1      -0.00000059      -0.00000320      -0.00296903
Ti       4.21391647       8.42783294      10.00000000  F        2      -0.00000033       0.00000335       1.20627153
Ti       6.32087470       8.42783294      12.10695823  F        2      -0.00000352       0.00000315       0.32693973
Ti       4.21391647      10.53479117      12.10695823  F        2       0.00000064       0.00000119       0.32694015
Ti       6.32087470      10.53479117      10.00000000  F        2      -0.00000222      -0.00002166       1.20627081
Ti       4.21391647       8.42783306      14.22624429  T        1      -0.00000088       0.00000428      -0.00295369
Ti       6.32087491       8.42783251      16.27210603  T        1      -0.00000501       0.00000399       0.00535003
Ti       4.21391655      10.53479102      16.27210587  T        1      -0.00000530       0.00000009       0.00535486
Ti       6.32087453      10.53479096      14.22624483  T        1       0.00000014       0.00000044      -0.00296490
Ti       8.42783294       0.00000000      10.00000000  F        2       0.00000302      -0.00000032       1.20627093
Ti      10.53479117       0.00000000      12.10695823  F        2       0.00000023      -0.00000268       0.32694101
Ti       8.42783294       2.10695823      12.10695823  F        2       0.00000292      -0.00000051       0.32693967
Ti      10.53479117       2.10695823      10.00000000  F        2       0.00000036      -0.00000585       1.20627236
Ti       8.42783282      -0.00000004      14.22624460  T        1       0.00000490      -0.00000131      -0.00296596
Ti      10.53479119      -0.00000001      16.27210634  T        1       0.00000358      -0.00000091       0.00535580
Ti       8.42783259       2.10695812      16.27210639  T        1       0.00000625       0.00000079       0.00535546
Ti      10.53479092       2.10695817      14.22624434  T        1       0.00000424      -0.00000031      -0.00295540
Ti       8.42783294       4.21391647      10.00000000  F        2       0.00000326      -0.00001629       1.20627177
Ti      10.53479117       4.21391647      12.10695823  F        2       0.00000101       0.00000177       0.32694042
Ti       8.42783294       6.32087470      12.10695823  F        2       0.00000253      -0.00000379       0.32693964
Ti      10.53479117       6.32087470      10.00000000  F        2       0.00000046      -0.00000235       1.20627093
Ti       8.42783274       4.21391636      14.22624457  T        1       0.00000524       0.00000104      -0.00295620
Ti      10.53479145       4.21391642      16.27210681  T        1       0.00000199       0.00000221       0.00535800
Ti       8.42783290       6.32087453      16.27210688  T        1       0.00000473      -0.00000169       0.00535071
Ti      10.53479131       6.32087474      14.22624455  T        1      -0.00000271      -0.00000081      -0.00296467
Ti       8.42783294       8.42783294      10.00000000  F        2       0.00000261      -0.00001389       1.20627010
Ti      10.53479117       8.42783294      12.10695823  F        2       0.00000031       0.00000316       0.32693717
Ti       8.42783294      10.53479117      12.10695823  F        2       0.00000331       0.00000095       0.32693797
Ti      10.53479117      10.53479117      10.00000000  F        2       0.00000093      -0.00002110       1.20627177
Ti       8.42783244       8.42783297      14.22624420  T        1       0.00000304       0.00000480      -0.00295802
Ti      10.53479134       8.42783243      16.27210544  T        1       0.00000186       0.00000255       0.00534384
Ti       8.42783241      10.53479120      16.27210613  T        1       0.00000592       0.00000117       0.00534689
Ti      10.53479114      10.53479099      14.22624423  T        1       0.00000455      -0.00000001      -0.00295945
N        0.00000000       2.10695823      10.00000000  F        2      -0.00000180      -0.00000505      -0.73084933
N        2.10695823       0.00000000      10.00000000  F        2      -0.00000026      -0.00002974      -0.73084921
N        0.00000000       0.00000000      12.10695823  F        2      -0.00000238      -0.00000018      -0.80216372
N        2.10695823       2.10695823      12.10695823  F        2       0.00000012      -0.00000065      -0.80215663
N       -0.00000048       2.10695830      14.26429847  T        1       0.00000042      -0.00000102      -0.00139633
N        2.10695816      -0.00000014      14.26429805  T        1      -0.00000000       0.00000066      -0.00139844
N        0.00000012       0.00000004      16.41720526  T        1      -0.00000272      -0.00000242      -0.00120336
N        2.10695813       2.10695822      16.41720508  T        1       0.00000052       0.00000064      -0.00120137
N        0.00000000       6.32087470      10.00000000  F        2      -0.00000272      -0.00000870      -0.73084903
N        2.10695823       4.21391647      10.00000000  F        2       0.00000099       0.00000670      -0.73084921
N        0.00000000       4.21391647      12.10695823  F        2      -0.00000303       0.00000340      -0.80215931
N        2.10695823       6.32087470      12.10695823  F        2      -0.00000013      -0.00000277      -0.80215961
N       -0.00000053       6.32087443      14.26429832  T        1       0.00001576       0.00000729      -0.00139733
N        2.10695812       4.21391636      14.26429828  T        1       0.00000006       0.00000006      -0.00140449
N        0.00000007       4.21391638      16.41720489  T        1      -0.00000104       0.00000073      -0.00120056
N        2.10695816       6.32087458      16.41720485  T        1      -0.00000261      -0.00000328      -0.00118565
N        0.00000000      10.53479117      10.00000000  F        2      -0.00000203       0.00000095      -0.73084956
N        2.10695823       8.42783294      10.00000000  F        2      -0.00000007      -0.00001855      -0.73084992
N        0.00000000       8.42783294      12.10695823  F        2      -0.00000210       0.00000268      -0.80216444
N        2.10695823      10.53479117      12.10695823  F        2       0.00000082      -0.00000085      -0.80215997
N       -0.00000014      10.53479107      14.26429786  T        1       0.00000037       0.00000012      -0.00138250
N        2.10695819       8.42783243      14.26429840  T        1       0.00000137       0.00000351      -0.00139911
N       -0.00000037       8.42783270      16.41720455  T        1       0.00000020       0.00000436      -0.00118752
N        2.10695817      10.53479115      16.41720485  T        1       0.00000316       0.00000060      -0.00118943
N        4.21391647       2.10695823      10.00000000  F        2       0.00000091       0.00000114      -0.73084855
N        6.32087470       0.00000000      10.00000000  F        2      -0.00000308       0.00001887      -0.73084956
N        4.21391647       0.00000000      12.10695823  F        2       0.00000145      -0.00000336      -0.80216217
N        6.32087470       2.10695823      12.10695823  F        2      -0.00000214      -0.00000055      -0.80215812
N        4.21391662       2.10695819      14.26429821  T        1      -0.00000675       0.00000058      -0.00140462
N        6.32087469      -0.00000039      14.26429825  T        1      -0.00000285      -0.00000130      -0.00139852
N        4.21391631      -0.00000037      16.41720522  T        1       0.00000168      -0.00000033      -0.00120378
N        6.32087454       2.10695818      16.41720531  T        1      -0.00000029       0.00000078      -0.00120094
N        4.21391647       6.32087470      10.00000000  F        2       0.00000151       0.00001750      -0.73084897
N        6.32087470       4.21391647      10.00000000  F        2      -0.00000376       0.00002318      -0.73084921
N        4.21391647       4.21391647      12.10695823  F        2       0.00000199       0.00000148      -0.80215740
N        6.32087470       6.32087470      12.10695823  F        2      -0.00000329      -0.00000390      -0.80215997
N        4.21391656       6.32087453      14.26429818  T        1      -0.00000805      -0.00000334      -0.00139800
N        6.32087455       4.21391633      14.26429823  T        1      -0.00000331       0.00000229      -0.00139662
N        4.21391642       4.21391651      16.41720504  T        1       0.00000213       0.00000144      -0.00119955
N        6.32087439       6.32087474      16.41720482  T        1       0.00000716      -0.00000342      -0.00118386
N        4.21391647      10.53479117      10.00000000  F        2       0.00000124      -0.00002030      -0.73084861
N        6.32087470       8.42783294      10.00000000  F        2      -0.00000293       0.00000349      -0.73084974
N        4.21391647       8.42783294      12.10695823  F        2       0.00000090       0.00000380      -0.80216199
N        6.32087470      10.53479117      12.10695823  F        2      -0.00000367       0.00000087      -0.80215937
N        4.21391651      10.53479125      14.26429801  T        1       0.00000395       0.00000140      -0.00139753
N        6.32087444       8.42783291      14.26429824  T        1       0.00000563       0.00000470      -0.00139861
N        4.21391653       8.42783297      16.41720493  T        1       0.00000072       0.00000170      -0.00120117
N        6.32087443      10.53479120      16.41720490  T        1       0.00000714       0.00000103      -0.00120002
N        8.42783294       2.10695823      10.00000000  F        2       0.00000221       0.00000044      -0.73084992
N       10.53479117       0.00000000      10.00000000  F        2       0.00000090       0.00002503      -0.73084885
N        8.42783294       0.00000000      12.10695823  F        2       0.00000396      -0.00000219      -0.80215955
N       10.53479117       2.10695823      12.10695823  F        2       0.00000068       0.00000013      -0.80216223
N        8.42783308       2.10695816      14.26429807  T        1      -0.00001328       0.00000069      -0.00140517
N       10.53479137      -0.00000011      14.26429854  T        1       0.00000079      -0.00000049      -0.00139787
N        8.42783304       0.00000001      16.41720536  T        1       0.00000398      -0.00000435      -0.00120051
N       10.53479101       2.10695828      16.41720531  T        1       0.00000174      -0.00000329      -0.00120360
N        8.42783294       6.32087470      10.00000000  F        2       0.00000303       0.00001294      -0.73084956
N       10.53479117       4.21391647      10.00000000  F        2       0.00000146       0.00000107      -0.73084873
N        8.42783294       4.21391647      12.10695823  F        2       0.00000406       0.00000110      -0.80215734
N       10.53479117       6.32087470      12.10695823  F        2       0.00000069      -0.00000393      -0.80215979
N        8.42783292       6.32087463      14.26429822  T        1       0.00000427      -0.00000380      -0.00139777
N       10.53479107       4.21391660      14.26429823  T        1       0.00000080      -0.00000822      -0.00139717
N        8.42783313       4.21391644      16.41720504  T        1      -0.00001067       0.00000205      -0.00119915
N       10.53479114       6.32087448      16.41720498  T        1       0.00000012       0.00000011      -0.00119907
N        8.42783294      10.53479117      10.00000000  F        2       0.00000299       0.00001782      -0.73084992
N       10.53479117       8.42783294      10.00000000  F        2       0.00000083       0.00000292      -0.73084944
N        8.42783294       8.42783294      12.10695823  F        2       0.00000283       0.00000295      -0.80216342
N       10.53479117      10.53479117      12.10695823  F        2       0.00000084       0.00000272      -0.80216515
N        8.42783309      10.53479121      14.26429777  T        1      -0.00001421       0.00000019      -0.00138246
N       10.53479110       8.42783298      14.26429779  T        1       0.00000067       0.00000314      -0.00138410
N        8.42783281       8.42783270      16.41720440  T        1       0.00000301       0.00000467      -0.00118609
N       10.53479147      10.53479138      16.41720463  T        1      -0.00001468      -0.00000007      -0.00119127
