144
Lattice="12.259575224999999 0.0 0.0 0.0 12.259575224999999 0.0 0.0 0.0 26.129787614999998" Properties=species:S:1:pos:R:3:move_mask:L:1:tags:I:1:forces:R:3 charge=0 spin=0 energy=-1368.7596105336156 free_energy=-1368.7596105336156 stress="0.018392255529761314 2.383828134888688e-10 4.791573804396876e-09 2.383828134888688e-10 0.018392246216535568 2.731657788856978e-09 4.791573804396876e-09 2.731657788856978e-09 0.006478946190327406" pbc="T T T"
V        0.00000000       0.00000000      10.00000000  F        2       0.00000019      -0.00000008       1.87257028
V        2.04326254       0.00000000      12.04326254  F        2       0.00000055       0.00000036      -0.73587883
V        0.00000000       2.04326254      12.04326254  F        2      -0.00000068      -0.00000008      -0.73587704
V        2.04326254       2.04326254      10.00000000  F        2       0.00000053      -0.00000038       1.87257087
V        0.00000014       0.00000017      14.27245995  T        1      -0.00000110      -0.00000228       0.00035620
V        2.04326258       0.00000006      16.10782502  T        1       0.00000075      -0.00000049       0.00173676
V       -0.00000009       2.04326250      16.10782483  T        1      -0.00000049       0.00000035       0.00174359
V        2.04326250       2.04326241      14.27246014  T        1       0.00000263      -0.00000014       0.00035625
V        0.00000000       4.08652507      10.00000000  F        2       0.00000034       0.00000039       1.87257063
V        2.04326254       4.08652507      12.04326254  F        2      -0.00000046      -0.00000031      -0.73587865
V        0.00000000       6.12978761      12.04326254  F        2       0.00000036       0.00000051      -0.73587847
V        2.04326254       6.12978761      10.00000000  F        2      -0.00000009       0.00000010       1.87257075
V        0.00000012       4.08652517      14.27246016  T        1       0.00000339       0.00000419       0.00035696
V        2.04326250       4.08652511      16.10782507  T        1       0.00000032       0.00000082       0.00173634
V       -0.00000015       6.12978750      16.10782501  T        1       0.00000045      -0.00000020       0.00173570
V        2.04326250       6.12978739      14.27246006  T        1      -0.00000338       0.00000046       0.00035636
V        0.00000000       8.17305015      10.00000000  F        2       0.00000032      -0.00000036       1.87257087
V        2.04326254       8.17305015      12.04326254  F        2      -0.00000073       0.00000013      -0.73587912
V        0.00000000      10.21631269      12.04326254  F        2      -0.00000028      -0.00000005      -0.73587871
V        2.04326254      10.21631269      10.00000000  F        2      -0.00000019      -0.00000009       1.87257111
V       -0.00000021       8.17304980      14.27246014  T        1       0.00000019      -0.00000032       0.00035629
V        2.04326258       8.17305031      16.10782489  T        1      -0.00000050      -0.00000022       0.00173558
V       -0.00000001      10.21631262      16.10782510  T        1       0.00000012      -0.00000015       0.00173553
V        2.04326243      10.21631257      14.27245993  T        1      -0.00000313      -0.00000050       0.00035578
V        4.08652507       0.00000000      10.00000000  F        2       0.00000023       0.00000013       1.87257087
V        6.12978761       0.00000000      12.04326254  F        2       0.00000039      -0.00000020      -0.73588002
V        4.08652507       2.04326254      12.04326254  F        2       0.00000045      -0.00000006      -0.73587781
V        6.12978761       2.04326254      10.00000000  F        2       0.00000091      -0.00000039       1.87257075
V        4.08652519       0.00000017      14.27246007  T        1       0.00000311       0.00000248       0.00035937
V        6.12978762       0.00000005      16.10782559  T        1      -0.00000031       0.00000000       0.00170186
V        4.08652492       2.04326258      16.10782518  T        1       0.00000098       0.00000065       0.00173541
V        6.12978737       2.04326258      14.27246006  T        1       0.00000293      -0.00000323       0.00036134
V        4.08652507       4.08652507      10.00000000  F        2      -0.00000008      -0.00000019       1.87257075
V        6.12978761       4.08652507      12.04326254  F        2       0.00000036      -0.00000030      -0.73587871
V        4.08652507       6.12978761      12.04326254  F        2      -0.00000016       0.00000001      -0.73587692
V        6.12978761       6.12978761      10.00000000  F        2       0.00000057      -0.00000032       1.87257063
V        4.08652520       4.08652501      14.27246003  T        1       0.00000142      -0.00000120       0.00035730
V        6.12978755       4.08652506      16.10782507  T        1       0.00000008      -0.00000043       0.00173596
V        4.08652501       6.12978755      16.10782483  T        1      -0.00000087      -0.00000025       0.00174266
V        6.12978740       6.12978750      14.27245980  T        1       0.00000179      -0.00000295       0.00035691
V        4.08652507       8.17305015      10.00000000  F        2      -0.00000018       0.00000002       1.87257087
V        6.12978761       8.17305015      12.04326254  F        2      -0.00000002       0.00000063      -0.73587728
V        4.08652507      10.21631269      12.04326254  F        2      -0.00000007      -0.00000028      -0.73587710
V        6.12978761      10.21631269      10.00000000  F        2       0.00000016       0.00000073       1.87257075
V        4.08652522       8.17305033      14.27246004  T        1      -0.00000472       0.00000008       0.00035773
V        6.12978758       8.17305008      16.10782479  T        1       0.00000007       0.00000036       0.00174393
V        4.08652494      10.21631257      16.10782465  T        1      -0.00000145      -0.00000038       0.00174334
V        6.12978754      10.21631242      14.27246013  T        1      -0.00000013       0.00000521       0.00035890
V        8.17305015       0.00000000      10.00000000  F        2      -0.00000020       0.00000053       1.87257147
V       10.21631269       0.00000000      12.04326254  F        2      -0.00000079       0.00000078      -0.73587811
V        8.17305015       2.04326254      12.04326254  F        2       0.00000043      -0.00000049      -0.73587972
V       10.21631269       2.04326254      10.00000000  F        2      -0.00000084      -0.00000031       1.87257147
V        8.17305000       0.00000005      14.27246005  T        1      -0.00000209       0.00000543       0.00036207
V       10.21631270       0.00000010      16.10782496  T        1      -0.00000119       0.00000011       0.00173579
V        8.17305026       2.04326258      16.10782542  T        1       0.00000048      -0.00000020       0.00170089
V       10.21631278       2.04326243      14.27245980  T        1      -0.00000608      -0.00000317       0.00035871
V        8.17305015       4.08652507      10.00000000  F        2       0.00000005       0.00000010       1.87257159
V       10.21631269       4.08652507      12.04326254  F        2      -0.00000053      -0.00000012      -0.73587728
V        8.17305015       6.12978761      12.04326254  F        2       0.00000007      -0.00000207      -0.73587835
V       10.21631269       6.12978761      10.00000000  F        2      -0.00000028       0.00000056       1.87257087
V        8.17304985       4.08652520      14.27245995  T        1      -0.00000288      -0.00000606       0.00035825
V       10.21631263       4.08652514      16.10782487  T        1      -0.00000011       0.00000014       0.00174321
V        8.17305025       6.12978765      16.10782506  T        1       0.00000036      -0.00000079       0.00173681
V       10.21631280       6.12978759      14.27246018  T        1       0.00000052       0.00000218       0.00035705
V        8.17305015       8.17305015      10.00000000  F        2       0.00000075      -0.00000039       1.87257040
V       10.21631269       8.17305015      12.04326254  F        2       0.00000015      -0.00000010      -0.73587871
V        8.17305015      10.21631269      12.04326254  F        2       0.00000005       0.00000078      -0.73587704
V       10.21631269      10.21631269      10.00000000  F        2       0.00000042      -0.00000029       1.87257123
V        8.17305020       8.17305008      14.27246015  T        1       0.00000241      -0.00000227       0.00035683
V       10.21631263       8.17305011      16.10782506  T        1       0.00000039      -0.00000013       0.00173570
V        8.17305013      10.21631267      16.10782467  T        1       0.00000068       0.00000042       0.00174308
V       10.21631266      10.21631253      14.27245991  T        1       0.00000270       0.00000052       0.00035598
N        0.00000000       2.04326254      10.00000000  F        2       0.00000020       0.00000030      -1.17853355
N        2.04326254       0.00000000      10.00000000  F        2      -0.00000006       0.00000009      -1.17853498
N        0.00000000       0.00000000      12.04326254  F        2      -0.00000013       0.00000069       0.04064819
N        2.04326254       2.04326254      12.04326254  F        2      -0.00000087       0.00000018       0.04064799
N        0.00000011       2.04326274      14.14717732  T        1       0.00000060      -0.00000231      -0.00025766
N        2.04326251       0.00000010      14.14717702  T        1       0.00000091       0.00000018      -0.00024337
N       -0.00000003      -0.00000004      16.34410198  T        1       0.00000004       0.00000002      -0.00065259
N        2.04326261       2.04326253      16.34410229  T        1      -0.00000165      -0.00000011      -0.00065203
N        0.00000000       6.12978761      10.00000000  F        2       0.00000018       0.00000013      -1.17853546
N        2.04326254       4.08652507      10.00000000  F        2       0.00000011      -0.00000004      -1.17853546
N        0.00000000       4.08652507      12.04326254  F        2      -0.00000066      -0.00000046       0.04064815
N        2.04326254       6.12978761      12.04326254  F        2       0.00000084      -0.00000015       0.04064798
N       -0.00000004       6.12978763      14.14717682  T        1      -0.00000075       0.00000106      -0.00024358
N        2.04326263       4.08652515      14.14717705  T        1      -0.00000188       0.00000000      -0.00024356
N       -0.00000015       4.08652506      16.34410203  T        1       0.00000031       0.00000011      -0.00065272
N        2.04326247       6.12978746      16.34410209  T        1      -0.00000020       0.00000007      -0.00065291
N        0.00000000      10.21631269      10.00000000  F        2       0.00000001      -0.00000015      -1.17853558
N        2.04326254       8.17305015      10.00000000  F        2      -0.00000017       0.00000011      -1.17853534
N        0.00000000       8.17305015      12.04326254  F        2       0.00000030       0.00000012       0.04064722
N        2.04326254      10.21631269      12.04326254  F        2       0.00000082      -0.00000029       0.04064796
N        0.00000002      10.21631249      14.14717684  T        1       0.00000009      -0.00000087      -0.00024338
N        2.04326262       8.17305023      14.14717719  T        1       0.00000006       0.00000010      -0.00024300
N        0.00000008       8.17305027      16.34410200  T        1       0.00000030       0.00000012      -0.00065266
N        2.04326254      10.21631271      16.34410220  T        1       0.00000015       0.00000007      -0.00065296
N        4.08652507       2.04326254      10.00000000  F        2      -0.00000010       0.00000011      -1.17853546
N        6.12978761       0.00000000      10.00000000  F        2       0.00000010       0.00000026      -1.17853558
N        4.08652507       0.00000000      12.04326254  F        2      -0.00000021      -0.00000041       0.04064848
N        6.12978761       2.04326254      12.04326254  F        2      -0.00000024       0.00000011       0.04064786
N        4.08652496       2.04326269      14.14717688  T        1       0.00000030      -0.00000243      -0.00024417
N        6.12978755       0.00000009      14.14717665  T        1      -0.00000002       0.00000101      -0.00023000
N        4.08652501      -0.00000003      16.34410252  T        1      -0.00000172       0.00000006      -0.00065056
N        6.12978766       2.04326258      16.34410251  T        1      -0.00000164       0.00000192      -0.00064848
N        4.08652507       6.12978761      10.00000000  F        2      -0.00000024      -0.00000010      -1.17853379
N        6.12978761       4.08652507      10.00000000  F        2       0.00000009       0.00000007      -1.17853522
N        4.08652507       4.08652507      12.04326254  F        2       0.00000048       0.00000078       0.04064770
N        6.12978761       6.12978761      12.04326254  F        2      -0.00000075       0.00000059       0.04064833
N        4.08652494       6.12978749      14.14717726  T        1       0.00000021      -0.00000055      -0.00025772
N        6.12978765       4.08652487      14.14717693  T        1       0.00000010      -0.00000055      -0.00024322
N        4.08652515       4.08652503      16.34410244  T        1       0.00000013       0.00000026      -0.00065263
N        6.12978763       6.12978751      16.34410225  T        1      -0.00000006      -0.00000000      -0.00065271
N        4.08652507      10.21631269      10.00000000  F        2       0.00000020       0.00000003      -1.17853367
N        6.12978761       8.17305015      10.00000000  F        2       0.00000010       0.00000019      -1.17853343
N        4.08652507       8.17305015      12.04326254  F        2       0.00000110      -0.00000006       0.04064838
N        6.12978761      10.21631269      12.04326254  F        2      -0.00000047      -0.00000083       0.04064915
N        4.08652493      10.21631236      14.14717731  T        1      -0.00000026       0.00000072      -0.00025748
N        6.12978756       8.17305036      14.14717726  T        1       0.00000250      -0.00000040      -0.00025815
N        4.08652513       8.17305032      16.34410198  T        1       0.00000008       0.00000030      -0.00065220
N        6.12978764      10.21631278      16.34410226  T        1      -0.00000012      -0.00000191      -0.00065063
N        8.17305015       2.04326254      10.00000000  F        2       0.00000004       0.00000022      -1.17853594
N       10.21631269       0.00000000      10.00000000  F        2      -0.00000018       0.00000006      -1.17853534
N        8.17305015       0.00000000      12.04326254  F        2      -0.00000027      -0.00000096       0.04064827
N       10.21631269       2.04326254      12.04326254  F        2       0.00000097       0.00000058       0.04064833
N        8.17305015       2.04326257      14.14717674  T        1      -0.00000051       0.00000331      -0.00022896
N       10.21631278      -0.00000012      14.14717712  T        1      -0.00000044      -0.00000107      -0.00024326
N        8.17305010       0.00000001      16.34410223  T        1       0.00000205      -0.00000146      -0.00064866
N       10.21631274       2.04326254      16.34410221  T        1       0.00000190       0.00000001      -0.00065048
N        8.17305015       6.12978761      10.00000000  F        2       0.00000010      -0.00000004      -1.17853522
N       10.21631269       4.08652507      10.00000000  F        2      -0.00000010      -0.00000023      -1.17853367
N        8.17305015       4.08652507      12.04326254  F        2       0.00000076       0.00000024       0.04064778
N       10.21631269       6.12978761      12.04326254  F        2      -0.00000034      -0.00000093       0.04064808
N        8.17305014       6.12978734      14.14717683  T        1       0.00000030       0.00000130      -0.00024423
N       10.21631265       4.08652513      14.14717733  T        1      -0.00000030       0.00000027      -0.00025685
N        8.17305025       4.08652502      16.34410215  T        1      -0.00000007       0.00000219      -0.00065072
N       10.21631276       6.12978767      16.34410204  T        1       0.00000016       0.00000028      -0.00065273
N        8.17305015      10.21631269      10.00000000  F        2      -0.00000010      -0.00000015      -1.17853332
N       10.21631269       8.17305015      10.00000000  F        2      -0.00000016       0.00000034      -1.17853534
N        8.17305015       8.17305015      12.04326254  F        2      -0.00000076       0.00000188       0.04064812
N       10.21631269      10.21631269      12.04326254  F        2      -0.00000061       0.00000009       0.04064789
N        8.17305008      10.21631267      14.14717728  T        1       0.00000019      -0.00000067      -0.00025724
N       10.21631264       8.17305003      14.14717670  T        1       0.00000004       0.00000058      -0.00024380
N        8.17305016       8.17305022      16.34410214  T        1       0.00000027      -0.00000017      -0.00065282
N       10.21631273      10.21631263      16.34410223  T        1       0.00000010      -0.00000041      -0.00065268
