144
Lattice="13.691787953999999 0.0 0.0 0.0 13.691787953999999 0.0 0.0 0.0 26.845893978" Properties=species:S:1:pos:R:3:move_mask:L:1:tags:I:1:forces:R:3 charge=0 spin=0 energy=-1435.6307987964394 free_energy=-1435.6307987964394 stress="0.011965113691985607 6.257061535563935e-10 -1.1631192897709752e-08 6.257061535563935e-10 0.011965121142566204 5.176135520201797e-09 -1.1631192897709752e-08 5.176135520201797e-09 0.005261819344013929" pbc="T T T"
Zr       0.00000000       0.00000000      10.00000000  F        2      -0.00000156      -0.00000197       0.81952792
Zr       2.28196466       0.00000000      12.28196466  F        2      -0.00001115      -0.00001626       0.26512277
Zr       0.00000000       2.28196466      12.28196466  F        2      -0.00000843      -0.00001479       0.26512867
Zr       2.28196466       2.28196466      10.00000000  F        2       0.00000368       0.00000299       0.81954068
Zr       0.00000021      -0.00000305      14.57323738  T        1      -0.00000787      -0.00000014      -0.00124407
Zr       2.28196623      -0.00000491      16.80381021  T        1      -0.00001276       0.00001909       0.00356225
Zr      -0.00000662       2.28196421      16.80380353  T        1       0.00002713      -0.00000859       0.00362425
Zr       2.28196664       2.28196493      14.57322612  T        1      -0.00000320      -0.00001465      -0.00122578
Zr       0.00000000       4.56392932      10.00000000  F        2       0.00000113       0.00000039       0.81952387
Zr       2.28196466       4.56392932      12.28196466  F        2       0.00002531       0.00000910       0.26516545
Zr       0.00000000       6.84589398      12.28196466  F        2       0.00000660       0.00000994       0.26511496
Zr       2.28196466       6.84589398      10.00000000  F        2       0.00000148      -0.00001181       0.81953537
Zr       0.00000656       4.56392949      14.57323066  T        1      -0.00011601      -0.00000822      -0.00116059
Zr       2.28196149       4.56392919      16.80382502  T        1       0.00002509       0.00002308       0.00352382
Zr      -0.00000868       6.84588689      16.80380700  T        1       0.00005129       0.00007192       0.00352026
Zr       2.28196789       6.84589071      14.57323731  T        1      -0.00005099       0.00004833      -0.00129752
Zr       0.00000000       9.12785864      10.00000000  F        2       0.00000599      -0.00000029       0.81954390
Zr       2.28196466       9.12785864      12.28196466  F        2       0.00001395      -0.00000363       0.26517349
Zr       0.00000000      11.40982330      12.28196466  F        2       0.00000678       0.00000460       0.26515663
Zr       2.28196466      11.40982330      10.00000000  F        2      -0.00000268       0.00000127       0.81952101
Zr       0.00000288       9.12786278      14.57322662  T        1      -0.00007328      -0.00005791      -0.00118738
Zr       2.28196315       9.12786036      16.80380736  T        1       0.00001744       0.00001034       0.00373689
Zr      -0.00000347      11.40982797      16.80383630  T        1       0.00002910      -0.00002643       0.00345198
Zr       2.28195982      11.40982222      14.57324454  T        1       0.00004810       0.00004203      -0.00127604
Zr       4.56392932       0.00000000      10.00000000  F        2      -0.00000019      -0.00000068       0.81951767
Zr       6.84589398       0.00000000      12.28196466  F        2       0.00000324      -0.00000575       0.26511258
Zr       4.56392932       2.28196466      12.28196466  F        2       0.00000129       0.00002101       0.26511806
Zr       6.84589398       2.28196466      10.00000000  F        2       0.00000227       0.00002242       0.81954819
Zr       4.56393010      -0.00000191      14.57323080  T        1      -0.00004170       0.00003445      -0.00118461
Zr       6.84588914      -0.00000925      16.80380545  T        1       0.00004394       0.00005332       0.00357726
Zr       4.56393107       2.28196127      16.80382181  T        1       0.00000683       0.00000733       0.00333477
Zr       6.84589827       2.28196440      14.57322689  T        1      -0.00007375       0.00000023      -0.00116113
Zr       4.56392932       4.56392932      10.00000000  F        2      -0.00000232       0.00000919       0.81952971
Zr       6.84589398       4.56392932      12.28196466  F        2      -0.00000327       0.00001329       0.26517591
Zr       4.56392932       6.84589398      12.28196466  F        2       0.00000424      -0.00000117       0.26517862
Zr       6.84589398       6.84589398      10.00000000  F        2       0.00000577       0.00000414       0.81954938
Zr       4.56393223       4.56393196      14.57324479  T        1      -0.00005126      -0.00006441      -0.00128277
Zr       6.84588937       4.56392957      16.80382426  T        1       0.00000173      -0.00002708       0.00354070
Zr       4.56392943       6.84589348      16.80381406  T        1      -0.00000750      -0.00001554       0.00369270
Zr       6.84589394       6.84588976      14.57323736  T        1       0.00003458       0.00005875      -0.00128360
Zr       4.56392932       9.12785864      10.00000000  F        2      -0.00000407      -0.00001196       0.81954551
Zr       6.84589398       9.12785864      12.28196466  F        2       0.00000191      -0.00002683       0.26517057
Zr       4.56392932      11.40982330      12.28196466  F        2      -0.00001547      -0.00002015       0.26512557
Zr       6.84589398      11.40982330      10.00000000  F        2       0.00000436      -0.00000156       0.81951368
Zr       4.56393324       9.12785715      14.57323470  T        1      -0.00004950       0.00001968      -0.00129141
Zr       6.84590069       9.12786730      16.80381373  T        1      -0.00005509      -0.00004037       0.00367980
Zr       4.56393006      11.40983532      16.80380808  T        1      -0.00002738      -0.00010904       0.00364503
Zr       6.84589390      11.40982048      14.57323841  T        1       0.00000617       0.00002400      -0.00128501
Zr       9.12785864       0.00000000      10.00000000  F        2      -0.00000277       0.00000313       0.81954080
Zr      11.40982330       0.00000000      12.28196466  F        2       0.00001652      -0.00000672       0.26511720
Zr       9.12785864       2.28196466      12.28196466  F        2       0.00000133       0.00002201       0.26515374
Zr      11.40982330       2.28196466      10.00000000  F        2      -0.00000082       0.00000043       0.81952596
Zr       9.12786333       0.00000369      14.57322111  T        1      -0.00006177      -0.00008068      -0.00113040
Zr      11.40982452      -0.00000165      16.80381437  T        1      -0.00000685       0.00000787       0.00356827
Zr       9.12786608       2.28196234      16.80382499  T        1      -0.00006967       0.00000529       0.00346657
Zr      11.40981753       2.28196098      14.57323789  T        1       0.00006769       0.00006492      -0.00126394
Zr       9.12785864       4.56392932      10.00000000  F        2      -0.00000144      -0.00000283       0.81954908
Zr      11.40982330       4.56392932      12.28196466  F        2      -0.00001441      -0.00000613       0.26511997
Zr       9.12785864       6.84589398      12.28196466  F        2      -0.00002175       0.00000044       0.26516405
Zr      11.40982330       6.84589398      10.00000000  F        2      -0.00000463       0.00000500       0.81951320
Zr       9.12785688       4.56392947      14.57323274  T        1      -0.00000028       0.00000641      -0.00124440
Zr      11.40983357       4.56393034      16.80381766  T        1      -0.00006509      -0.00000044       0.00343604
Zr       9.12786389       6.84590057      16.80383170  T        1      -0.00001105      -0.00005106       0.00344342
Zr      11.40981532       6.84589219      14.57323866  T        1       0.00009023       0.00002681      -0.00124094
Zr       9.12785864       9.12785864      10.00000000  F        2      -0.00000409      -0.00002667       0.81951880
Zr      11.40982330       9.12785864      12.28196466  F        2      -0.00000807      -0.00000418       0.26511404
Zr       9.12785864      11.40982330      12.28196466  F        2       0.00000232      -0.00002237       0.26511323
Zr      11.40982330      11.40982330      10.00000000  F        2       0.00000228      -0.00000297       0.81952012
Zr       9.12785714       9.12785657      14.57324416  T        1       0.00001902      -0.00001492      -0.00131789
Zr      11.40981587       9.12785624      16.80381492  T        1       0.00006911       0.00001841       0.00345376
Zr       9.12786122      11.40982103      16.80380164  T        1      -0.00001861       0.00003594       0.00363824
Zr      11.40982711      11.40982390      14.57323927  T        1      -0.00002529      -0.00003958      -0.00127428
N        0.00000000       2.28196466      10.00000000  F        2      -0.00000076       0.00000240      -0.16913860
N        2.28196466       0.00000000      10.00000000  F        2      -0.00000062      -0.00000677      -0.16913728
N        0.00000000       0.00000000      12.28196466  F        2       0.00000406       0.00000397      -0.91861588
N        2.28196466       2.28196466      12.28196466  F        2       0.00000074      -0.00000041      -0.91868889
N       -0.00000197       2.28195963      14.63401222  T        1       0.00003237       0.00005393       0.00172381
N        2.28196271      -0.00000022      14.63400991  T        1       0.00002264       0.00002136       0.00177814
N        0.00000055      -0.00000013      16.90502394  T        1      -0.00000852       0.00001566      -0.00098740
N        2.28196350       2.28196424      16.90496100  T        1       0.00000944      -0.00001053      -0.00061035
N        0.00000000       6.84589398      10.00000000  F        2       0.00000049      -0.00000271      -0.16914588
N        2.28196466       4.56392932      10.00000000  F        2       0.00000233       0.00000335      -0.16911870
N        0.00000000       4.56392932      12.28196466  F        2       0.00000362       0.00000195      -0.91863292
N        2.28196466       6.84589398      12.28196466  F        2       0.00000618       0.00000196      -0.91864151
N       -0.00000012       6.84589554      14.63399896  T        1      -0.00000974      -0.00000779       0.00189587
N        2.28196753       4.56392949      14.63404230  T        1      -0.00001112      -0.00002958       0.00150654
N        0.00000235       4.56392984      16.90502950  T        1      -0.00000016      -0.00002733      -0.00102968
N        2.28196427       6.84589846      16.90499841  T        1      -0.00001615      -0.00003148      -0.00084701
N        0.00000000      11.40982330      10.00000000  F        2       0.00000435       0.00000362      -0.16911764
N        2.28196466       9.12785864      10.00000000  F        2       0.00000125       0.00001172      -0.16912538
N        0.00000000       9.12785864      12.28196466  F        2      -0.00000180      -0.00000806      -0.91866821
N        2.28196466      11.40982330      12.28196466  F        2       0.00000010      -0.00000078      -0.91858220
N        0.00000155      11.40982287      14.63404572  T        1      -0.00002985       0.00000085       0.00154490
N        2.28196803       9.12786065      14.63403788  T        1      -0.00003129      -0.00004825       0.00147832
N        0.00000128       9.12786201      16.90498080  T        1      -0.00002919      -0.00004479      -0.00076276
N        2.28196286      11.40982060      16.90504484  T        1       0.00000729       0.00001450      -0.00110373
N        4.56392932       2.28196466      10.00000000  F        2       0.00000049      -0.00000766      -0.16913752
N        6.84589398       0.00000000      10.00000000  F        2      -0.00000088      -0.00000009      -0.16913980
N        4.56392932       0.00000000      12.28196466  F        2      -0.00000072      -0.00000164      -0.91863918
N        6.84589398       2.28196466      12.28196466  F        2       0.00000380      -0.00000249      -0.91868186
N        4.56393071       2.28196661      14.63401344  T        1       0.00000336      -0.00003306       0.00183923
N        6.84589294      -0.00000337      14.63401196  T        1       0.00004008       0.00003762       0.00173217
N        4.56392614      -0.00000146      16.90502543  T        1       0.00003226       0.00003570      -0.00101136
N        6.84589808       2.28196617      16.90498491  T        1      -0.00001270      -0.00003467      -0.00074571
N        4.56392932       6.84589398      10.00000000  F        2      -0.00000457      -0.00000229      -0.16911767
N        6.84589398       4.56392932      10.00000000  F        2      -0.00000114      -0.00002256      -0.16911794
N        4.56392932       4.56392932      12.28196466  F        2       0.00000051      -0.00000345      -0.91859490
N        6.84589398       6.84589398      12.28196466  F        2       0.00000262       0.00000190      -0.91864252
N        4.56393109       6.84589342      14.63403655  T        1      -0.00000023       0.00002298       0.00152943
N        6.84589112       4.56392969      14.63404249  T        1       0.00006083      -0.00002486       0.00152842
N        4.56393103       4.56392782      16.90503632  T        1      -0.00002804      -0.00000520      -0.00101383
N        6.84589493       6.84589500      16.90498798  T        1      -0.00000001       0.00000388      -0.00074730
N        4.56392932      11.40982330      10.00000000  F        2      -0.00000031       0.00001259      -0.16913538
N        6.84589398       9.12785864      10.00000000  F        2       0.00000976       0.00000022      -0.16912131
N        4.56392932       9.12785864      12.28196466  F        2       0.00000170      -0.00000324      -0.91864914
N        6.84589398      11.40982330      12.28196466  F        2       0.00000393      -0.00000419      -0.91861427
N        4.56392638      11.40981979      14.63400784  T        1       0.00002969       0.00002793       0.00179437
N        6.84589023       9.12785632      14.63403496  T        1       0.00005699      -0.00000148       0.00152444
N        4.56392803       9.12785508      16.90498739  T        1       0.00002197       0.00004409      -0.00081692
N        6.84589632      11.40982388      16.90502902  T        1      -0.00002328       0.00001419      -0.00104616
N        9.12785864       2.28196466      10.00000000  F        2      -0.00000106       0.00000023      -0.16912343
N       11.40982330       0.00000000      10.00000000  F        2       0.00000308       0.00000404      -0.16913387
N        9.12785864       0.00000000      12.28196466  F        2      -0.00000223      -0.00000640      -0.91869551
N       11.40982330       2.28196466      12.28196466  F        2       0.00000141      -0.00000191      -0.91862494
N        9.12785814       2.28196588      14.63404616  T        1      -0.00000007      -0.00000672       0.00148399
N       11.40982277      -0.00000080      14.63401658  T        1       0.00001472       0.00000147       0.00173079
N        9.12785910       0.00000253      16.90498537  T        1      -0.00000504      -0.00002683      -0.00080053
N       11.40981947       2.28196145      16.90502019  T        1       0.00002187       0.00003160      -0.00094288
N        9.12785864       6.84589398      10.00000000  F        2      -0.00000037       0.00003153      -0.16911863
N       11.40982330       4.56392932      10.00000000  F        2       0.00000259      -0.00000220      -0.16913784
N        9.12785864       4.56392932      12.28196466  F        2      -0.00000251      -0.00000126      -0.91866559
N       11.40982330       6.84589398      12.28196466  F        2      -0.00000454      -0.00000049      -0.91860348
N        9.12785605       6.84588848      14.63403969  T        1      -0.00000011       0.00004586       0.00158341
N       11.40981994       4.56392678      14.63400875  T        1       0.00005046       0.00001297       0.00185527
N        9.12785347       4.56393060      16.90497439  T        1       0.00005965      -0.00001390      -0.00065345
N       11.40982334       6.84589481      16.90503053  T        1      -0.00000409      -0.00001505      -0.00100076
N        9.12785864      11.40982330      10.00000000  F        2      -0.00000671      -0.00000544      -0.16914214
N       11.40982330       9.12785864      10.00000000  F        2      -0.00000747      -0.00000336      -0.16914190
N        9.12785864       9.12785864      12.28196466  F        2      -0.00000257      -0.00000380      -0.91858482
N       11.40982330      11.40982330      12.28196466  F        2       0.00000119      -0.00000112      -0.91860592
N        9.12786145      11.40982003      14.63400208  T        1      -0.00000931       0.00005584       0.00181961
N       11.40982362       9.12785919      14.63400378  T        1       0.00000923      -0.00000952       0.00189375
N        9.12785804       9.12785898      16.90503503  T        1       0.00000605       0.00000748      -0.00101863
N       11.40982214      11.40982522      16.90502016  T        1       0.00001185      -0.00002396      -0.00095394
