144
Lattice="13.691787953999999 0.0 0.0 0.0 13.691787953999999 0.0 0.0 0.0 26.845893978" Properties=species:S:1:pos:R:3:tags:I:1 pbc="T T F"
Zr       0.00000000       0.00000000      10.00000000        2
Zr       2.28196466       0.00000000      12.28196466        2
Zr       0.00000000       2.28196466      12.28196466        2
Zr       2.28196466       2.28196466      10.00000000        2
Zr       0.00000000       0.00000000      14.56392932        1
Zr       2.28196466       0.00000000      16.84589398        1
Zr       0.00000000       2.28196466      16.84589398        1
Zr       2.28196466       2.28196466      14.56392932        1
Zr       0.00000000       4.56392932      10.00000000        2
Zr       2.28196466       4.56392932      12.28196466        2
Zr       0.00000000       6.84589398      12.28196466        2
Zr       2.28196466       6.84589398      10.00000000        2
Zr       0.00000000       4.56392932      14.56392932        1
Zr       2.28196466       4.56392932      16.84589398        1
Zr       0.00000000       6.84589398      16.84589398        1
Zr       2.28196466       6.84589398      14.56392932        1
Zr       0.00000000       9.12785864      10.00000000        2
Zr       2.28196466       9.12785864      12.28196466        2
Zr       0.00000000      11.40982330      12.28196466        2
Zr       2.28196466      11.40982330      10.00000000        2
Zr       0.00000000       9.12785864      14.56392932        1
Zr       2.28196466       9.12785864      16.84589398        1
Zr       0.00000000      11.40982330      16.84589398        1
Zr       2.28196466      11.40982330      14.56392932        1
Zr       4.56392932       0.00000000      10.00000000        2
Zr       6.84589398       0.00000000      12.28196466        2
Zr       4.56392932       2.28196466      12.28196466        2
Zr       6.84589398       2.28196466      10.00000000        2
Zr       4.56392932       0.00000000      14.56392932        1
Zr       6.84589398       0.00000000      16.84589398        1
Zr       4.56392932       2.28196466      16.84589398        1
Zr       6.84589398       2.28196466      14.56392932        1
Zr       4.56392932       4.56392932      10.00000000        2
Zr       6.84589398       4.56392932      12.28196466        2
Zr       4.56392932       6.84589398      12.28196466        2
Zr       6.84589398       6.84589398      10.00000000        2
Zr       4.56392932       4.56392932      14.56392932        1
Zr       6.84589398       4.56392932      16.84589398        1
Zr       4.56392932       6.84589398      16.84589398        1
Zr       6.84589398       6.84589398      14.56392932        1
Zr       4.56392932       9.12785864      10.00000000        2
Zr       6.84589398       9.12785864      12.28196466        2
Zr       4.56392932      11.40982330      12.28196466        2
Zr       6.84589398      11.40982330      10.00000000        2
Zr       4.56392932       9.12785864      14.56392932        1
Zr       6.84589398       9.12785864      16.84589398        1
Zr       4.56392932      11.40982330      16.84589398        1
Zr       6.84589398      11.40982330      14.56392932        1
Zr       9.12785864       0.00000000      10.00000000        2
Zr      11.40982330       0.00000000      12.28196466        2
Zr       9.12785864       2.28196466      12.28196466        2
Zr      11.40982330       2.28196466      10.00000000        2
Zr       9.12785864       0.00000000      14.56392932        1
Zr      11.40982330       0.00000000      16.84589398        1
Zr       9.12785864       2.28196466      16.84589398        1
Zr      11.40982330       2.28196466      14.56392932        1
Zr       9.12785864       4.56392932      10.00000000        2
Zr      11.40982330       4.56392932      12.28196466        2
Zr       9.12785864       6.84589398      12.28196466        2
Zr      11.40982330       6.84589398      10.00000000        2
Zr       9.12785864       4.56392932      14.56392932        1
Zr      11.40982330       4.56392932      16.84589398        1
Zr       9.12785864       6.84589398      16.84589398        1
Zr      11.40982330       6.84589398      14.56392932        1
Zr       9.12785864       9.12785864      10.00000000        2
Zr      11.40982330       9.12785864      12.28196466        2
Zr       9.12785864      11.40982330      12.28196466        2
Zr      11.40982330      11.40982330      10.00000000        2
Zr       9.12785864       9.12785864      14.56392932        1
Zr      11.40982330       9.12785864      16.84589398        1
Zr       9.12785864      11.40982330      16.84589398        1
Zr      11.40982330      11.40982330      14.56392932        1
N        0.00000000       2.28196466      10.00000000        2
N        2.28196466       0.00000000      10.00000000        2
N        0.00000000       0.00000000      12.28196466        2
N        2.28196466       2.28196466      12.28196466        2
N        0.00000000       2.28196466      14.56392932        1
N        2.28196466       0.00000000      14.56392932        1
N        0.00000000       0.00000000      16.84589398        1
N        2.28196466       2.28196466      16.84589398        1
N        0.00000000       6.84589398      10.00000000        2
N        2.28196466       4.56392932      10.00000000        2
N        0.00000000       4.56392932      12.28196466        2
N        2.28196466       6.84589398      12.28196466        2
N        0.00000000       6.84589398      14.56392932        1
N        2.28196466       4.56392932      14.56392932        1
N        0.00000000       4.56392932      16.84589398        1
N        2.28196466       6.84589398      16.84589398        1
N        0.00000000      11.40982330      10.00000000        2
N        2.28196466       9.12785864      10.00000000        2
N        0.00000000       9.12785864      12.28196466        2
N        2.28196466      11.40982330      12.28196466        2
N        0.00000000      11.40982330      14.56392932        1
N        2.28196466       9.12785864      14.56392932        1
N        0.00000000       9.12785864      16.84589398        1
N        2.28196466      11.40982330      16.84589398        1
N        4.56392932       2.28196466      10.00000000        2
N        6.84589398       0.00000000      10.00000000        2
N        4.56392932       0.00000000      12.28196466        2
N        6.84589398       2.28196466      12.28196466        2
N        4.56392932       2.28196466      14.56392932        1
N        6.84589398       0.00000000      14.56392932        1
N        4.56392932       0.00000000      16.84589398        1
N        6.84589398       2.28196466      16.84589398        1
N        4.56392932       6.84589398      10.00000000        2
N        6.84589398       4.56392932      10.00000000        2
N        4.56392932       4.56392932      12.28196466        2
N        6.84589398       6.84589398      12.28196466        2
N        4.56392932       6.84589398      14.56392932        1
N        6.84589398       4.56392932      14.56392932        1
N        4.56392932       4.56392932      16.84589398        1
N        6.84589398       6.84589398      16.84589398        1
N        4.56392932      11.40982330      10.00000000        2
N        6.84589398       9.12785864      10.00000000        2
N        4.56392932       9.12785864      12.28196466        2
N        6.84589398      11.40982330      12.28196466        2
N        4.56392932      11.40982330      14.56392932        1
N        6.84589398       9.12785864      14.56392932        1
N        4.56392932       9.12785864      16.84589398        1
N        6.84589398      11.40982330      16.84589398        1
N        9.12785864       2.28196466      10.00000000        2
N       11.40982330       0.00000000      10.00000000        2
N        9.12785864       0.00000000      12.28196466        2
N       11.40982330       2.28196466      12.28196466        2
N        9.12785864       2.28196466      14.56392932        1
N       11.40982330       0.00000000      14.56392932        1
N        9.12785864       0.00000000      16.84589398        1
N       11.40982330       2.28196466      16.84589398        1
N        9.12785864       6.84589398      10.00000000        2
N       11.40982330       4.56392932      10.00000000        2
N        9.12785864       4.56392932      12.28196466        2
N       11.40982330       6.84589398      12.28196466        2
N        9.12785864       6.84589398      14.56392932        1
N       11.40982330       4.56392932      14.56392932        1
N        9.12785864       4.56392932      16.84589398        1
N       11.40982330       6.84589398      16.84589398        1
N        9.12785864      11.40982330      10.00000000        2
N       11.40982330       9.12785864      10.00000000        2
N        9.12785864       9.12785864      12.28196466        2
N       11.40982330      11.40982330      12.28196466        2
N        9.12785864      11.40982330      14.56392932        1
N       11.40982330       9.12785864      14.56392932        1
N        9.12785864       9.12785864      16.84589398        1
N       11.40982330      11.40982330      16.84589398        1
