148
Lattice="12.81773039427736 0.0 0.0 0.0 12.81773039427736 0.0 0.0 0.0 26.40889545827581" Properties=species:S:1:pos:R:3 bfgs_step=35 force_counter=35 energy_ry=-10107.90354081 energy_ev=-137525.03254084496 energy=-137525.03254084496 energy_eV=-137525.03254084496 source_out=TiN_Li2S2_combi_u1.out u_value=1 pbc="T T T"
Ti       0.00000000       0.00000000      10.00000000
Ti       2.13628468       0.00000000      12.13628468
Ti       0.00000000       2.13628468      12.13628468
Ti       2.13628468       2.13628468      10.00000000
N        0.00000000       2.13628468      10.00000000
N        2.13628468       0.00000000      10.00000000
N        0.00000000       0.00000000      12.13628468
N        2.13628468       2.13628468      12.13628468
Ti      -0.00416246      -0.00646862      14.35138882
Ti       2.12193301      -0.00301523      16.34026999
Ti      -0.00281083       2.12437242      16.34044084
Ti       2.15044638       2.15013935      14.21240923
N        0.00017100       2.13541240      14.29984140
N        2.13829863      -0.00065252      14.29826598
N        0.00017128       0.00135516      16.53371753
N        2.13183545       2.13132382      16.44210565
Ti       0.00000000       4.27256936      10.00000000
Ti       2.13628468       4.27256936      12.13628468
Ti       0.00000000       6.40885404      12.13628468
Ti       2.13628468       6.40885404      10.00000000
N        0.00000000       6.40885404      10.00000000
N        2.13628468       4.27256936      10.00000000
N        0.00000000       4.27256936      12.13628468
N        2.13628468       6.40885404      12.13628468
Ti       0.00305761       4.27583788      14.35132318
Ti       2.08562883       4.28292938      16.32406370
Ti       0.01531175       6.45503916      16.34171364
Ti       2.17176684       6.40180327      14.21663001
N        0.01045292       6.41020957      14.28917213
N        2.15170596       4.27732943      14.29455315
N        0.00537730       4.27312780      16.55992349
N        2.10386021       6.39723002      16.35927304
Ti       0.00000000       8.54513873      10.00000000
Ti       2.13628468       8.54513873      12.13628468
Ti       0.00000000      10.68142340      12.13628468
Ti       2.13628468      10.68142340      10.00000000
N        0.00000000      10.68142340      10.00000000
N        2.13628468       8.54513873      10.00000000
N        0.00000000       8.54513873      12.13628468
N        2.13628468      10.68142340      12.13628468
Ti      -0.03373471       8.55437821      14.38784726
Ti       2.16508685       8.54182620      16.37293617
Ti       0.02269312      10.65264788      16.33587078
Ti       2.13583802      10.67913095      14.19716435
N        0.00678602      10.68536063      14.28065153
N        2.12672314       8.54704936      14.32283308
N        0.00493743       8.54856082      16.57565645
N        2.14077568      10.70178592      16.43009153
Ti       4.27256936       0.00000000      10.00000000
Ti       6.40885404       0.00000000      12.13628468
Ti       4.27256936       2.13628468      12.13628468
Ti       6.40885404       2.13628468      10.00000000
N        4.27256936       2.13628468      10.00000000
N        6.40885404       0.00000000      10.00000000
N        4.27256936       0.00000000      12.13628468
N        6.40885404       2.13628468      12.13628468
Ti       4.27934834       0.00304549      14.36079499
Ti       6.45694961       0.01330359      16.34245400
Ti       4.28351473       2.08182617      16.32647330
Ti       6.40060102       2.17265573      14.21649569
N        4.27657314       2.15030314      14.29262515
N        6.40971670       0.00998783      14.28672891
N        4.27351872       0.00403771      16.56652001
N        6.39815089       2.10381239      16.35686971
Ti       4.27256936       4.27256936      10.00000000
Ti       6.40885404       4.27256936      12.13628468
Ti       4.27256936       6.40885404      12.13628468
Ti       6.40885404       6.40885404      10.00000000
N        4.27256936       6.40885404      10.00000000
N        6.40885404       4.27256936      10.00000000
N        4.27256936       4.27256936      12.13628468
N        6.40885404       6.40885404      12.13628468
Ti       4.29634929       4.29503013      14.34062471
Ti       6.47886207       4.20455015      16.63132743
Ti       4.20248028       6.48054598      16.63574704
Ti       6.36841919       6.37020539      14.26573546
N        4.27404052       6.41826021      14.33210968
N        6.41812791       4.27516777      14.33119211
N        4.25534207       4.25700767      16.50744567
N        6.42830593       6.42673593      16.46612496
Ti       4.27256936       8.54513873      10.00000000
Ti       6.40885404       8.54513873      12.13628468
Ti       4.27256936      10.68142340      12.13628468
Ti       6.40885404      10.68142340      10.00000000
N        4.27256936      10.68142340      10.00000000
N        6.40885404       8.54513873      10.00000000
N        4.27256936       8.54513873      12.13628468
N        6.40885404      10.68142340      12.13628468
Ti       4.28916199       8.53525285      14.28012184
Ti       6.39737249       8.56070126      16.33246440
Ti       4.25613471      10.72205836      16.31832265
Ti       6.41526073      10.68413137      14.19550686
N        4.27412211      10.67261289      14.28636276
N        6.42549353       8.53492723      14.30831131
N        4.29263239       8.59755526      16.39675525
N        6.41331095      10.68204066      16.40980102
Ti       8.54513873       0.00000000      10.00000000
Ti      10.68142340       0.00000000      12.13628468
Ti       8.54513873       2.13628468      12.13628468
Ti      10.68142340       2.13628468      10.00000000
N        8.54513873       2.13628468      10.00000000
N       10.68142340       0.00000000      10.00000000
N        8.54513873       0.00000000      12.13628468
N       10.68142340       2.13628468      12.13628468
Ti       8.54903691      -0.03395099      14.38803003
Ti      10.65597063       0.02318551      16.33514978
Ti       8.54283132       2.16751689      16.37275017
Ti      10.68023115       2.13576127      14.19821283
N        8.54751815       2.12522443      14.32193029
N       10.68373769       0.00647505      14.28314051
N        8.55249478       0.00552556      16.57303071
N       10.70193077       2.14045961      16.43082054
Ti       8.54513873       4.27256936      10.00000000
Ti      10.68142340       4.27256936      12.13628468
Ti       8.54513873       6.40885404      12.13628468
Ti      10.68142340       6.40885404      10.00000000
N        8.54513873       6.40885404      10.00000000
N       10.68142340       4.27256936      10.00000000
N        8.54513873       4.27256936      12.13628468
N       10.68142340       6.40885404      12.13628468
Ti       8.53383648       4.28535394      14.27775816
Ti      10.72117424       4.25611131      16.31602441
Ti       8.56261020       6.39593280      16.33214862
Ti      10.68757945       6.41460857      14.19545807
N        8.53682661       6.42476904      14.30995533
N       10.67164560       4.27408522      14.28575241
N        8.59682255       4.29341899      16.39659840
N       10.68250067       6.41142123      16.40984348
Ti       8.54513873       8.54513873      10.00000000
Ti      10.68142340       8.54513873      12.13628468
Ti       8.54513873      10.68142340      12.13628468
Ti      10.68142340      10.68142340      10.00000000
N        8.54513873      10.68142340      10.00000000
N       10.68142340       8.54513873      10.00000000
N        8.54513873       8.54513873      12.13628468
N       10.68142340      10.68142340      12.13628468
Ti       8.57809566       8.58098717      14.42570051
Ti      10.66830072       8.54471335      16.35933671
Ti       8.54785722      10.66583308      16.35964480
Ti      10.68243599      10.68154001      14.19754964
N        8.54422842      10.68752653      14.26950979
N       10.68649667       8.54307306      14.27029020
N        8.52831089       8.52503784      16.61643885
N       10.68585407      10.68512386      16.40926583
S        6.70234616       4.04135217      18.95579369
S        4.04825289       6.70756729      18.95822881
Li       6.30968428       6.30533829      18.65455327
Li       4.43982132       4.44117748      18.67878936
