154
Lattice="12.81773039427736 0.0 0.0 0.0 12.81773039427736 0.0 0.0 0.0 26.40889545827581" Properties=species:S:1:pos:R:3 bfgs_step=173 force_counter=173 energy_ry=-10252.73053288 energy_ev=-139495.50413436626 energy=-139495.50413436626 energy_eV=-139495.50413436626 source_out=TiN_Li2S8_combi_u4.out u_value=4 pbc="T T T"
Ti       0.00000000       0.00000000      10.00000000
Ti       2.13628468       0.00000000      12.13628468
Ti       0.00000000       2.13628468      12.13628468
Ti       2.13628468       2.13628468      10.00000000
N        0.00000000       2.13628468      10.00000000
N        2.13628468       0.00000000      10.00000000
N        0.00000000       0.00000000      12.13628468
N        2.13628468       2.13628468      12.13628468
Ti      -0.04101872       0.01498888      14.40046502
Ti       2.17209382       0.01386125      16.34113451
Ti       0.01165783       2.12226847      16.36488803
Ti       2.17114900       2.14930969      14.21956442
N        0.01035780       2.14594100      14.28865227
N        2.12138893       0.00576285      14.30215150
N        0.03408154      -0.00612745      16.56428226
N        2.12294568       2.14051513      16.37723861
Ti       0.00000000       4.27256936      10.00000000
Ti       2.13628468       4.27256936      12.13628468
Ti       0.00000000       6.40885404      12.13628468
Ti       2.13628468       6.40885404      10.00000000
N        0.00000000       6.40885404      10.00000000
N        2.13628468       4.27256936      10.00000000
N        0.00000000       4.27256936      12.13628468
N        2.13628468       6.40885404      12.13628468
Ti      -0.00826329       4.27395724      14.40076525
Ti       2.09149990       4.27212864      16.34039323
Ti       0.01387317       6.44017013      16.36029013
Ti       2.18569481       6.40032193      14.22341707
N        0.00953590       6.40395163      14.29078427
N        2.14674643       4.27482095      14.29951695
N        0.01541497       4.28054669      16.60250097
N        2.12063460       6.41674660      16.34935095
Ti       0.00000000       8.54513873      10.00000000
Ti       2.13628468       8.54513873      12.13628468
Ti       0.00000000      10.68142340      12.13628468
Ti       2.13628468      10.68142340      10.00000000
N        0.00000000      10.68142340      10.00000000
N        2.13628468       8.54513873      10.00000000
N        0.00000000       8.54513873      12.13628468
N        2.13628468      10.68142340      12.13628468
Ti      -0.04097883       8.53816517      14.38887100
Ti       2.14245726       8.54971097      16.34146946
Ti       0.02763985      10.67648020      16.34710061
Ti       2.13086460      10.68617242      14.20653195
N        0.00434898      10.68637069      14.29439670
N        2.12152382       8.54765112      14.30458973
N        0.02161226       8.55540884      16.57292088
N        2.14980748      10.68476156      16.43158541
Ti       4.27256936       0.00000000      10.00000000
Ti       6.40885404       0.00000000      12.13628468
Ti       4.27256936       2.13628468      12.13628468
Ti       6.40885404       2.13628468      10.00000000
N        4.27256936       2.13628468      10.00000000
N        6.40885404       0.00000000      10.00000000
N        4.27256936       0.00000000      12.13628468
N        6.40885404       2.13628468      12.13628468
Ti       4.27705811       0.02229681      14.27296023
Ti       6.37742088       0.00784282      16.32772763
Ti       4.27923229       2.11798463      16.55381338
Ti       6.38410547       2.17176237      14.22827509
N        4.27351896       2.14150794      14.34615623
N        6.42812795       0.00489348      14.29504748
N        4.28125605      -0.02074801      16.46523094
N        6.41239577       2.08981969      16.30249386
Ti       4.27256936       4.27256936      10.00000000
Ti       6.40885404       4.27256936      12.13628468
Ti       4.27256936       6.40885404      12.13628468
Ti       6.40885404       6.40885404      10.00000000
N        4.27256936       6.40885404      10.00000000
N        6.40885404       4.27256936      10.00000000
N        4.27256936       4.27256936      12.13628468
N        6.40885404       6.40885404      12.13628468
Ti       4.30046427       4.29697695      14.30192800
Ti       6.42562997       4.21977465      16.56384531
Ti       4.23085907       6.45450618      16.66540147
Ti       6.39152596       6.37656098      14.27492728
N        4.28155282       6.41437445      14.31814166
N        6.42440874       4.27090537      14.31085858
N        4.26832702       4.29667562      16.43216520
N        6.42811382       6.42520266      16.46678401
Ti       4.27256936       8.54513873      10.00000000
Ti       6.40885404       8.54513873      12.13628468
Ti       4.27256936      10.68142340      12.13628468
Ti       6.40885404      10.68142340      10.00000000
N        4.27256936      10.68142340      10.00000000
N        6.40885404       8.54513873      10.00000000
N        4.27256936       8.54513873      12.13628468
N        6.40885404      10.68142340      12.13628468
Ti       4.28047727       8.50903892      14.25439314
Ti       6.42118008       8.56785836      16.32027718
Ti       4.26733868      10.68504251      16.31545239
Ti       6.41949510      10.67598931      14.20347849
N        4.27555386      10.68219938      14.30675044
N        6.42666165       8.53921363      14.30387467
N        4.28054670       8.58316148      16.37412398
N        6.40602420      10.67984433      16.42511072
Ti       8.54513873       0.00000000      10.00000000
Ti      10.68142340       0.00000000      12.13628468
Ti       8.54513873       2.13628468      12.13628468
Ti      10.68142340       2.13628468      10.00000000
N        8.54513873       2.13628468      10.00000000
N       10.68142340       0.00000000      10.00000000
N        8.54513873       0.00000000      12.13628468
N       10.68142340       2.13628468      12.13628468
Ti       8.59235415      -0.01010452      14.41304636
Ti      10.69319682       0.00665377      16.36217968
Ti       8.53491011       2.11008425      16.36658969
Ti      10.67828294       2.14318769      14.20060255
N        8.54088445       2.14195057      14.30366384
N       10.68457788       0.00903655      14.26524710
N        8.52160969       0.01565585      16.60336348
N       10.68638029       2.14258634      16.42043608
Ti       8.54513873       4.27256936      10.00000000
Ti      10.68142340       4.27256936      12.13628468
Ti       8.54513873       6.40885404      12.13628468
Ti      10.68142340       6.40885404      10.00000000
N        8.54513873       6.40885404      10.00000000
N       10.68142340       4.27256936      10.00000000
N        8.54513873       4.27256936      12.13628468
N       10.68142340       6.40885404      12.13628468
Ti       8.53929832       4.29462352      14.29787931
Ti      10.74721309       4.27922617      16.33473444
Ti       8.56652264       6.39317389      16.52931157
Ti      10.65887216       6.40822675      14.21358134
N        8.53806196       6.41637923      14.34452037
N       10.67039898       4.27516846      14.28184363
N        8.58608905       4.28020475      16.33626052
N       10.69385445       6.41114552      16.39419362
Ti       8.54513873       8.54513873      10.00000000
Ti      10.68142340       8.54513873      12.13628468
Ti       8.54513873      10.68142340      12.13628468
Ti      10.68142340      10.68142340      10.00000000
N        8.54513873      10.68142340      10.00000000
N       10.68142340       8.54513873      10.00000000
N        8.54513873       8.54513873      12.13628468
N       10.68142340      10.68142340      12.13628468
Ti       8.58847608       8.54071605      14.36142436
Ti      10.67395104       8.54544894      16.35596751
Ti       8.53438589      10.74272516      16.34586925
Ti      10.68361055      10.68369329      14.20157035
N        8.54518262      10.67233169      14.28054173
N       10.68666112       8.54337868      14.26367036
N        8.51911995       8.55620372      16.49080057
N       10.68398234      10.68841918      16.41504408
S        4.08984356       6.68594363      18.92291713
S        6.73665938       3.81953592      18.72754125
S        9.13198885       6.26632957      19.04946274
S        7.72984873       6.53188906      20.58438182
S        7.05506027       4.80946993      21.63615616
S        5.02888123       4.09912887      21.51122672
S        4.68649773       2.19630318      20.72281170
S        3.43299412       2.22361580      19.02592381
Li       4.42005639       4.37425896      18.84619914
Li       6.39599436       6.20919506      18.66449757
