150
Lattice="12.81773039427736 0.0 0.0 0.0 12.81773039427736 0.0 0.0 0.0 26.40889545827581" Properties=species:S:1:pos:R:3 bfgs_step=128 force_counter=128 energy_ry=-10156.15483081 energy_ev=-138181.52477987317 energy=-138181.52477987317 energy_eV=-138181.52477987317 source_out=TiN_Li2S4_combi_u3.out u_value=3 pbc="T T T"
Ti       0.00000000       0.00000000      10.00000000
Ti       2.13628468       0.00000000      12.13628468
Ti       0.00000000       2.13628468      12.13628468
Ti       2.13628468       2.13628468      10.00000000
N        0.00000000       2.13628468      10.00000000
N        2.13628468       0.00000000      10.00000000
N        0.00000000       0.00000000      12.13628468
N        2.13628468       2.13628468      12.13628468
Ti       0.01016964       0.00536915      14.21047140
Ti       2.14392667      -0.02188194      16.32208117
Ti      -0.00380815       2.13714297      16.32682178
Ti       2.13556949       2.13887296      14.27644290
N       -0.00243160       2.14138694      14.29140299
N        2.14504716       0.00768903      14.28004014
N        0.01320547       0.00298362      16.42844013
N        2.14599383       2.13797657      16.45987129
Ti       0.00000000       4.27256936      10.00000000
Ti       2.13628468       4.27256936      12.13628468
Ti       0.00000000       6.40885404      12.13628468
Ti       2.13628468       6.40885404      10.00000000
N        0.00000000       6.40885404      10.00000000
N        2.13628468       4.27256936      10.00000000
N        0.00000000       4.27256936      12.13628468
N        2.13628468       6.40885404      12.13628468
Ti       0.03678886       4.27757935      14.25589523
Ti       2.08015884       4.29508028      16.43587848
Ti      -0.02922111       6.42133635      16.31193048
Ti       2.15713841       6.39815986      14.24311329
N       -0.00090136       6.40697038      14.28323308
N        2.16172332       4.26991404      14.32057270
N       -0.00410704       4.27394657      16.46642198
N        2.10991099       6.41693982      16.31410862
Ti       0.00000000       8.54513873      10.00000000
Ti       2.13628468       8.54513873      12.13628468
Ti       0.00000000      10.68142340      12.13628468
Ti       2.13628468      10.68142340      10.00000000
N        0.00000000      10.68142340      10.00000000
N        2.13628468       8.54513873      10.00000000
N        0.00000000       8.54513873      12.13628468
N        2.13628468      10.68142340      12.13628468
Ti       0.01567902       8.53497687      14.21839218
Ti       2.15208204       8.56226955      16.34417337
Ti       0.01163850      10.67275768      16.33897693
Ti       2.14172018      10.69546460      14.33986238
N        0.00039331      10.67933788      14.29137837
N        2.14305659       8.54597305      14.30245320
N        0.01012567       8.54364702      16.44157872
N        2.14408962      10.68051970      16.55104436
Ti       4.27256936       0.00000000      10.00000000
Ti       6.40885404       0.00000000      12.13628468
Ti       4.27256936       2.13628468      12.13628468
Ti       6.40885404       2.13628468      10.00000000
N        4.27256936       2.13628468      10.00000000
N        6.40885404       0.00000000      10.00000000
N        4.27256936       0.00000000      12.13628468
N        6.40885404       2.13628468      12.13628468
Ti       4.28201990       0.01289951      14.21665515
Ti       6.41780568      -0.06507711      16.32435820
Ti       4.29812880       2.12643547      16.29275633
Ti       6.44252787       2.17780920      14.29832378
N        4.28508998       2.13462443      14.27815459
N        6.41451333       0.01901462      14.28980738
N        4.27966716       0.00636688      16.43011339
N        6.41678431       2.11979513      16.41749212
Ti       4.27256936       4.27256936      10.00000000
Ti       6.40885404       4.27256936      12.13628468
Ti       4.27256936       6.40885404      12.13628468
Ti       6.40885404       6.40885404      10.00000000
N        4.27256936       6.40885404      10.00000000
N        6.40885404       4.27256936      10.00000000
N        4.27256936       4.27256936      12.13628468
N        6.40885404       6.40885404      12.13628468
Ti       4.29378948       4.28147036      14.35544491
Ti       6.48627016       4.29445364      16.73309129
Ti       4.28929202       6.40565382      16.43412957
Ti       6.42557115       6.37440239      14.30882401
N        4.28482940       6.41500910      14.30682336
N        6.40430390       4.27432233      14.32883881
N        4.29561807       4.26538813      16.51670263
N        6.41246276       6.42099165      16.41681763
Ti       4.27256936       8.54513873      10.00000000
Ti       6.40885404       8.54513873      12.13628468
Ti       4.27256936      10.68142340      12.13628468
Ti       6.40885404      10.68142340      10.00000000
N        4.27256936      10.68142340      10.00000000
N        6.40885404       8.54513873      10.00000000
N        4.27256936       8.54513873      12.13628468
N        6.40885404      10.68142340      12.13628468
Ti       4.27609639       8.51461272      14.23345790
Ti       6.41226469       8.61651302      16.32359286
Ti       4.26187941      10.68003282      16.34812192
Ti       6.42532878      10.67634396      14.39363200
N        4.28375117      10.67812207      14.29458719
N        6.40961499       8.52594151      14.28638210
N        4.28598001       8.56630797      16.39040908
N        6.41324469      10.68643990      16.60285241
Ti       8.54513873       0.00000000      10.00000000
Ti      10.68142340       0.00000000      12.13628468
Ti       8.54513873       2.13628468      12.13628468
Ti      10.68142340       2.13628468      10.00000000
N        8.54513873       2.13628468      10.00000000
N       10.68142340       0.00000000      10.00000000
N        8.54513873       0.00000000      12.13628468
N       10.68142340       2.13628468      12.13628468
Ti       8.54633324       0.00303766      14.20003180
Ti      10.69517935      -0.00470413      16.33924846
Ti       8.55918035       2.13859067      16.32525815
Ti      10.67098985       2.13555610      14.33339341
N        8.55710648       2.13553864      14.27718201
N       10.68713779      -0.00044228      14.28883198
N        8.55421594       0.00375226      16.42580245
N       10.69397632       2.13650272      16.53278510
Ti       8.54513873       4.27256936      10.00000000
Ti      10.68142340       4.27256936      12.13628468
Ti       8.54513873       6.40885404      12.13628468
Ti      10.68142340       6.40885404      10.00000000
N        8.54513873       6.40885404      10.00000000
N       10.68142340       4.27256936      10.00000000
N        8.54513873       4.27256936      12.13628468
N       10.68142340       6.40885404      12.13628468
Ti       8.50975042       4.27522401      14.23429473
Ti      10.71574637       4.26919805      16.34032507
Ti       8.58125627       6.41129296      16.32528609
Ti      10.64920365       6.41120467      14.33284249
N        8.53999876       6.41321954      14.26943707
N       10.68354779       4.27481084      14.29722536
N        8.57297293       4.27426387      16.37740916
N       10.69245583       6.41097991      16.53903604
Ti       8.54513873       8.54513873      10.00000000
Ti      10.68142340       8.54513873      12.13628468
Ti       8.54513873      10.68142340      12.13628468
Ti      10.68142340      10.68142340      10.00000000
N        8.54513873      10.68142340      10.00000000
N       10.68142340       8.54513873      10.00000000
N        8.54513873       8.54513873      12.13628468
N       10.68142340      10.68142340      12.13628468
Ti       8.54195484       8.54267563      14.19880765
Ti      10.69470406       8.55937107      16.34095636
Ti       8.57367678      10.68425913      16.35197566
Ti      10.67342933      10.68098156      14.38391180
N        8.54780013      10.68137234      14.28038582
N       10.68772236       8.54438288      14.28620240
N        8.55402527       8.54599187      16.42476939
N       10.70235280      10.68457559      16.57094112
S        3.56843850       6.74930603      18.89649041
S        6.61473095       4.30086903      19.04278965
S        2.97355240       3.79840960      20.33525486
S        2.13124706       5.17078813      19.02151022
Li       4.36654831       3.95153755      18.49386793
Li       4.94850017       5.36612508      20.33620043
