152
Lattice="12.81773039427736 0.0 0.0 0.0 12.81773039427736 0.0 0.0 0.0 26.40889545827581" Properties=species:S:1:pos:R:3 bfgs_step=192 force_counter=192 energy_ry=-10223.78644897 energy_ev=-139101.69981426006 energy=-139101.69981426006 energy_eV=-139101.69981426006 source_out=TiN_S8_combi_u3.out u_value=3 pbc="T T T"
Ti       0.00000000       0.00000000      10.00000000
Ti       2.13628468       0.00000000      12.13628468
Ti       0.00000000       2.13628468      12.13628468
Ti       2.13628468       2.13628468      10.00000000
N        0.00000000       2.13628468      10.00000000
N        2.13628468       0.00000000      10.00000000
N        0.00000000       0.00000000      12.13628468
N        2.13628468       2.13628468      12.13628468
Ti       0.01623465       0.02248306      14.23144051
Ti       2.15630104      -0.03917172      16.44236056
Ti       0.03654093       2.15192776      16.41487268
Ti       2.11567888       2.15115711      14.26159916
N       -0.00597273       2.13856429      14.30379006
N        2.13911392       0.00441488      14.29883474
N        0.00172668       0.00260677      16.41786188
N        2.12865162       2.18152415      16.27103608
Ti       0.00000000       4.27256936      10.00000000
Ti       2.13628468       4.27256936      12.13628468
Ti       0.00000000       6.40885404      12.13628468
Ti       2.13628468       6.40885404      10.00000000
N        0.00000000       6.40885404      10.00000000
N        2.13628468       4.27256936      10.00000000
N        0.00000000       4.27256936      12.13628468
N        2.13628468       6.40885404      12.13628468
Ti       0.00037619       4.26049663      14.24560083
Ti       2.13857649       4.29360262      16.51834743
Ti       0.01863760       6.40170785      16.32194172
Ti       2.12808062       6.40686955      14.31122474
N       -0.00987111       6.41196726      14.28554990
N        2.13545790       4.28758076      14.30996158
N       -0.02198129       4.28536683      16.38007400
N        2.13832832       6.42124512      16.46674769
Ti       0.00000000       8.54513873      10.00000000
Ti       2.13628468       8.54513873      12.13628468
Ti       0.00000000      10.68142340      12.13628468
Ti       2.13628468      10.68142340      10.00000000
N        0.00000000      10.68142340      10.00000000
N        2.13628468       8.54513873      10.00000000
N        0.00000000       8.54513873      12.13628468
N        2.13628468      10.68142340      12.13628468
Ti      -0.00085965       8.54386518      14.20375317
Ti       2.14248663       8.58565215      16.34637159
Ti       0.00774210      10.68910819      16.36743874
Ti       2.12320034      10.67815302      14.40013598
N        0.00040393      10.68339160      14.28600419
N        2.14513187       8.53965797      14.28810411
N        0.00011918       8.54470105      16.41803254
N        2.15623770      10.67830867      16.60155311
Ti       4.27256936       0.00000000      10.00000000
Ti       6.40885404       0.00000000      12.13628468
Ti       4.27256936       2.13628468      12.13628468
Ti       6.40885404       2.13628468      10.00000000
N        4.27256936       2.13628468      10.00000000
N        6.40885404       0.00000000      10.00000000
N        4.27256936       0.00000000      12.13628468
N        6.40885404       2.13628468      12.13628468
Ti       4.25979415       0.00860648      14.22130851
Ti       6.41723326       0.06241385      16.31062643
Ti       4.19346599       2.12297349      16.45387566
Ti       6.41841626       2.13599495      14.30985798
N        4.27524783       2.14253635      14.35966676
N        6.40909644      -0.01749639      14.28787582
N        4.30735911      -0.02318329      16.35762908
N        6.39007378       2.13527070      16.49200951
Ti       4.27256936       4.27256936      10.00000000
Ti       6.40885404       4.27256936      12.13628468
Ti       4.27256936       6.40885404      12.13628468
Ti       6.40885404       6.40885404      10.00000000
N        4.27256936       6.40885404      10.00000000
N        6.40885404       4.27256936      10.00000000
N        4.27256936       4.27256936      12.13628468
N        6.40885404       6.40885404      12.13628468
Ti       4.25616985       4.29639918      14.25047094
Ti       6.40646129       4.23027716      16.34966042
Ti       4.26847100       6.41482040      16.55736925
Ti       6.41258246       6.43220596      14.28079166
N        4.27038148       6.40497148      14.31804127
N        6.40088155       4.28351957      14.30523300
N        4.27350310       4.26536711      16.38983806
N        6.41590108       6.39432697      16.34133566
Ti       4.27256936       8.54513873      10.00000000
Ti       6.40885404       8.54513873      12.13628468
Ti       4.27256936      10.68142340      12.13628468
Ti       6.40885404      10.68142340      10.00000000
N        4.27256936      10.68142340      10.00000000
N        6.40885404       8.54513873      10.00000000
N        4.27256936       8.54513873      12.13628468
N        6.40885404      10.68142340      12.13628468
Ti       4.30895912       8.50988895      14.23562229
Ti       6.41080967       8.50064447      16.56528376
Ti       4.30297988      10.67674071      16.34540597
Ti       6.41686233      10.65790638      14.31966632
N        4.26701482      10.68113936      14.29154337
N        6.41200589       8.55138645      14.32834792
N        4.27031850       8.55848819      16.33185416
N        6.41730849      10.69003923      16.47657023
Ti       8.54513873       0.00000000      10.00000000
Ti      10.68142340       0.00000000      12.13628468
Ti       8.54513873       2.13628468      12.13628468
Ti      10.68142340       2.13628468      10.00000000
N        8.54513873       2.13628468      10.00000000
N       10.68142340       0.00000000      10.00000000
N        8.54513873       0.00000000      12.13628468
N       10.68142340       2.13628468      12.13628468
Ti       8.55059396       0.02974089      14.22743634
Ti      10.67716386      -0.01802281      16.33714690
Ti       8.57461002       2.16264018      16.56084633
Ti      10.69031097       2.14127717      14.29285645
N        8.54607330       2.14125367      14.32844214
N       10.68771962       0.00562198      14.28751447
N        8.54527599      -0.00066758      16.42137486
N       10.71192191       2.13263090      16.40863596
Ti       8.54513873       4.27256936      10.00000000
Ti      10.68142340       4.27256936      12.13628468
Ti       8.54513873       6.40885404      12.13628468
Ti      10.68142340       6.40885404      10.00000000
N        8.54513873       6.40885404      10.00000000
N       10.68142340       4.27256936      10.00000000
N        8.54513873       4.27256936      12.13628468
N       10.68142340       6.40885404      12.13628468
Ti       8.54684661       4.27896991      14.24017261
Ti      10.65982819       4.27985066      16.43372503
Ti       8.54955033       6.37920592      16.57079076
Ti      10.68099536       6.41125169      14.30546341
N        8.55299386       6.40147432      14.32557272
N       10.67911584       4.27501703      14.31370772
N        8.52613094       4.26371025      16.30032379
N       10.69426081       6.41637041      16.43279142
Ti       8.54513873       8.54513873      10.00000000
Ti      10.68142340       8.54513873      12.13628468
Ti       8.54513873      10.68142340      12.13628468
Ti      10.68142340      10.68142340      10.00000000
N        8.54513873      10.68142340      10.00000000
N       10.68142340       8.54513873      10.00000000
N        8.54513873       8.54513873      12.13628468
N       10.68142340      10.68142340      12.13628468
Ti       8.51290409       8.51090753      14.23996134
Ti      10.67683119       8.56513767      16.33868203
Ti       8.53011287      10.67975210      16.34769320
Ti      10.69322058      10.67968858      14.39434475
N        8.55623370      10.68332624      14.30311805
N       10.67323213       8.54330122      14.28871050
N        8.55148442       8.54755978      16.41097736
N       10.66834841      10.68382397      16.58428992
S        9.92141931       4.25044798      18.97305897
S        8.58104611       5.87235260      18.98463644
S        6.14008713       8.14441316      18.93654163
S        4.64882131       6.70258986      18.93007403
S        1.94456985       4.09933372      18.97693539
S        1.07432237       2.22416585      18.97851321
S        2.68044312       0.88717454      18.77432339
S        8.79776593       2.49235084      18.99986860
