147
Lattice="12.81773039427736 0.0 0.0 0.0 12.81773039427736 0.0 0.0 0.0 26.40889545827581" Properties=species:S:1:pos:R:3 bfgs_step=31 force_counter=31 energy_ry=-10083.59464472 energy_ev=-137194.29316325675 energy=-137194.29316325675 energy_eV=-137194.29316325675 source_out=TiN_Li2S_combi_u1.out u_value=1 pbc="T T T"
Ti       0.00000000       0.00000000      10.00000000
Ti       2.13628468       0.00000000      12.13628468
Ti       0.00000000       2.13628468      12.13628468
Ti       2.13628468       2.13628468      10.00000000
N        0.00000000       2.13628468      10.00000000
N        2.13628468       0.00000000      10.00000000
N        0.00000000       0.00000000      12.13628468
N        2.13628468       2.13628468      12.13628468
Ti      -0.00912437       0.00441269      14.31207326
Ti       2.11625243      -0.00975605      16.31935376
Ti       0.01024843       2.13971855      16.33483641
Ti       2.14584876       2.13561542      14.21339592
N        0.00524191       2.14725639      14.29828954
N        2.13392566      -0.00091098      14.28551786
N        0.00840842       0.00112160      16.52218250
N        2.13938095       2.12756350      16.43736359
Ti       0.00000000       4.27256936      10.00000000
Ti       2.13628468       4.27256936      12.13628468
Ti       0.00000000       6.40885404      12.13628468
Ti       2.13628468       6.40885404      10.00000000
N        0.00000000       6.40885404      10.00000000
N        2.13628468       4.27256936      10.00000000
N        0.00000000       4.27256936      12.13628468
N        2.13628468       6.40885404      12.13628468
Ti      -0.01313225       4.30944870      14.37686112
Ti       2.13683549       4.27491814      16.32851886
Ti       0.00433817       6.40429841      16.34745294
Ti       2.18311416       6.42215389      14.23042320
N        0.01358294       6.41021737      14.26951622
N        2.12404887       4.27332424      14.28760361
N        0.01598796       4.25451247      16.55710647
N        2.12475863       6.41396434      16.39284317
Ti       0.00000000       8.54513873      10.00000000
Ti       2.13628468       8.54513873      12.13628468
Ti       0.00000000      10.68142340      12.13628468
Ti       2.13628468      10.68142340      10.00000000
N        0.00000000      10.68142340      10.00000000
N        2.13628468       8.54513873      10.00000000
N        0.00000000       8.54513873      12.13628468
N        2.13628468      10.68142340      12.13628468
Ti      -0.01257238       8.50786470      14.35688429
Ti       2.12967302       8.55643298      16.33032473
Ti       0.01688260      10.68167903      16.34472282
Ti       2.15833252      10.67564648      14.24423580
N        0.00754060      10.67221144      14.30922276
N        2.12554372       8.55057750      14.28683061
N        0.00841281       8.56141660      16.54885944
N        2.14006420      10.68426750      16.46700665
Ti       4.27256936       0.00000000      10.00000000
Ti       6.40885404       0.00000000      12.13628468
Ti       4.27256936       2.13628468      12.13628468
Ti       6.40885404       2.13628468      10.00000000
N        4.27256936       2.13628468      10.00000000
N        6.40885404       0.00000000      10.00000000
N        4.27256936       0.00000000      12.13628468
N        6.40885404       2.13628468      12.13628468
Ti       4.26997156       0.00643926      14.25673830
Ti       6.43233474      -0.00710702      16.32408309
Ti       4.28345703       2.07248471      16.35078274
Ti       6.40662906       2.12952274      14.21891907
N        4.27659790       2.15024644      14.32797383
N        6.41507648      -0.00354393      14.28885945
N        4.27748783      -0.00022881      16.47928405
N        6.42328587       2.12665736      16.43797143
Ti       4.27256936       4.27256936      10.00000000
Ti       6.40885404       4.27256936      12.13628468
Ti       4.27256936       6.40885404      12.13628468
Ti       6.40885404       6.40885404      10.00000000
N        4.27256936       6.40885404      10.00000000
N        6.40885404       4.27256936      10.00000000
N        4.27256936       4.27256936      12.13628468
N        6.40885404       6.40885404      12.13628468
Ti       4.25300509       4.29658605      14.35012998
Ti       6.42927607       4.25943883      16.32548691
Ti       4.24351293       6.46216731      16.65649137
Ti       6.38309848       6.42940203      14.30128037
N        4.28570274       6.40085111      14.34156143
N        6.42030061       4.27015250      14.30658248
N        4.28473823       4.25701057      16.52522420
N        6.42880343       6.41256777      16.48189799
Ti       4.27256936       8.54513873      10.00000000
Ti       6.40885404       8.54513873      12.13628468
Ti       4.27256936      10.68142340      12.13628468
Ti       6.40885404      10.68142340      10.00000000
N        4.27256936      10.68142340      10.00000000
N        6.40885404       8.54513873      10.00000000
N        4.27256936       8.54513873      12.13628468
N        6.40885404      10.68142340      12.13628468
Ti       4.25585952       8.50849663      14.25471261
Ti       6.40947673       8.56543289      16.31191889
Ti       4.28184578      10.70313846      16.31351515
Ti       6.39241463      10.67540254      14.27113568
N        4.27242622      10.67126202      14.27966514
N        6.41886034       8.55416085      14.28027719
N        4.27774408       8.57425376      16.40098916
N        6.41783561      10.68053659      16.48719847
Ti       8.54513873       0.00000000      10.00000000
Ti      10.68142340       0.00000000      12.13628468
Ti       8.54513873       2.13628468      12.13628468
Ti      10.68142340       2.13628468      10.00000000
N        8.54513873       2.13628468      10.00000000
N       10.68142340       0.00000000      10.00000000
N        8.54513873       0.00000000      12.13628468
N       10.68142340       2.13628468      12.13628468
Ti       8.56703763       0.00678679      14.30910495
Ti      10.69802294      -0.00482642      16.31642755
Ti       8.54819502       2.11642874      16.31676130
Ti      10.68776459       2.13284223      14.21080321
N        8.54901239       2.14134373      14.28347346
N       10.68779523      -0.00217054      14.27113916
N        8.55187617      -0.00323720      16.51742282
N       10.68796918       2.13525123      16.43767172
Ti       8.54513873       4.27256936      10.00000000
Ti      10.68142340       4.27256936      12.13628468
Ti       8.54513873       6.40885404      12.13628468
Ti      10.68142340       6.40885404      10.00000000
N        8.54513873       6.40885404      10.00000000
N       10.68142340       4.27256936      10.00000000
N        8.54513873       4.27256936      12.13628468
N       10.68142340       6.40885404      12.13628468
Ti       8.58717157       4.27486850      14.29162653
Ti      10.68551789       4.25622340      16.32913672
Ti       8.58327398       6.40966617      16.38588656
Ti      10.67813134       6.41191930      14.20798539
N        8.53859813       6.40718568      14.35367532
N       10.69558101       4.27098868      14.27419302
N        8.54961170       4.26435502      16.48699322
N       10.68557143       6.40794807      16.43058604
Ti       8.54513873       8.54513873      10.00000000
Ti      10.68142340       8.54513873      12.13628468
Ti       8.54513873      10.68142340      12.13628468
Ti      10.68142340      10.68142340      10.00000000
N        8.54513873      10.68142340      10.00000000
N       10.68142340       8.54513873      10.00000000
N        8.54513873       8.54513873      12.13628468
N       10.68142340      10.68142340      12.13628468
Ti       8.58055287       8.53514726      14.27080431
Ti      10.70297830       8.56490597      16.32158069
Ti       8.53818606      10.69447992      16.32042786
Ti      10.68477333      10.68254344      14.21380500
N        8.54781146      10.67950877      14.29104520
N       10.68898910       8.54975694      14.27181396
N        8.55261881       8.55375981      16.47707054
N       10.68688541      10.68219168      16.43870322
S        4.29837686       6.45517499      19.05102238
Li       6.46935655       6.40841907      18.47555779
Li       4.32428390       4.27923781      18.49779919
