152
Lattice="12.81773039427736 0.0 0.0 0.0 12.81773039427736 0.0 0.0 0.0 26.40889545827581" Properties=species:S:1:pos:R:3 energy_ry=-10204.46358918 energy_ev=-138838.79891590137 energy=-138838.79891590137 energy_eV=-138838.79891590137 source_out=TiN_Li2S6_combi_u5.out u_value=5 pbc="T T T"
Ti       0.00000000       0.00000000      10.00000000
Ti       2.13628468       0.00000000      12.13628468
Ti       0.00000000       2.13628468      12.13628468
Ti       2.13628468       2.13628468      10.00000000
N        0.00000000       2.13628468      10.00000000
N        2.13628468       0.00000000      10.00000000
N        0.00000000       0.00000000      12.13628468
N        2.13628468       2.13628468      12.13628468
Ti       0.01034708       0.00373517      14.21392658
Ti       2.17360425       0.06384930      16.35717006
Ti      -0.05317904       2.14635804      16.36330056
Ti       2.13382554       2.09373492      14.40796697
N        0.02542975       2.14371952      14.27055888
N        2.14780504      -0.00740373      14.27093465
N        0.00485489      -0.00109204      16.41655284
N        2.15993887       2.18089195      16.56806343
Ti       0.00000000       4.27256936      10.00000000
Ti       2.13628468       4.27256936      12.13628468
Ti       0.00000000       6.40885404      12.13628468
Ti       2.13628468       6.40885404      10.00000000
N        0.00000000       6.40885404      10.00000000
N        2.13628468       4.27256936      10.00000000
N        0.00000000       4.27256936      12.13628468
N        2.13628468       6.40885404      12.13628468
Ti      -0.00225704       4.27724583      14.21801612
Ti       2.13964049       4.25929471      16.33402719
Ti      -0.00388631       6.42719528      16.32369057
Ti       2.17380131       6.41158820      14.25072184
N       -0.00626910       6.40473160      14.30725555
N        2.13630246       4.26609208      14.30960382
N       -0.01105948       4.28490891      16.43504192
N        2.09932570       6.40705208      16.37109781
Ti       0.00000000       8.54513873      10.00000000
Ti       2.13628468       8.54513873      12.13628468
Ti       0.00000000      10.68142340      12.13628468
Ti       2.13628468      10.68142340      10.00000000
N        0.00000000      10.68142340      10.00000000
N        2.13628468       8.54513873      10.00000000
N        0.00000000       8.54513873      12.13628468
N        2.13628468      10.68142340      12.13628468
Ti      -0.00718548       8.53519200      14.23922762
Ti       2.13616677       8.52105430      16.35722621
Ti       0.02901806      10.65358780      16.33347296
Ti       2.14314852      10.71714964      14.37970941
N        0.00246590      10.67734867      14.28170226
N        2.13339330       8.55863857      14.31611119
N       -0.00273005       8.53496729      16.46422075
N        2.14542827      10.66866798      16.55200711
Ti       4.27256936       0.00000000      10.00000000
Ti       6.40885404       0.00000000      12.13628468
Ti       4.27256936       2.13628468      12.13628468
Ti       6.40885404       2.13628468      10.00000000
N        4.27256936       2.13628468      10.00000000
N        6.40885404       0.00000000      10.00000000
N        4.27256936       0.00000000      12.13628468
N        6.40885404       2.13628468      12.13628468
Ti       4.28233490       0.04193564      14.23660611
Ti       6.41112561      -0.02939992      16.30241641
Ti       4.37099764       2.21986289      16.64624349
Ti       6.38497883       2.15344157      14.24795429
N        4.26796401       2.15166640      14.34273545
N        6.41495334       0.00006245      14.27690060
N        4.29639199      -0.00081467      16.43649704
N        6.48897073       2.05891902      16.27037939
Ti       4.27256936       4.27256936      10.00000000
Ti       6.40885404       4.27256936      12.13628468
Ti       4.27256936       6.40885404      12.13628468
Ti       6.40885404       6.40885404      10.00000000
N        4.27256936       6.40885404      10.00000000
N        6.40885404       4.27256936      10.00000000
N        4.27256936       4.27256936      12.13628468
N        6.40885404       6.40885404      12.13628468
Ti       4.29601835       4.28973330      14.26042975
Ti       6.33977406       4.17146658      16.61567650
Ti       4.26377987       6.41560359      16.69799131
Ti       6.40057256       6.38060911      14.31322228
N        4.26944235       6.40467660      14.30286780
N        6.40325908       4.26039242      14.35145542
N        4.21544746       4.33200628      16.31826720
N        6.38085665       6.39807584      16.41977043
Ti       4.27256936       8.54513873      10.00000000
Ti       6.40885404       8.54513873      12.13628468
Ti       4.27256936      10.68142340      12.13628468
Ti       6.40885404      10.68142340      10.00000000
N        4.27256936      10.68142340      10.00000000
N        6.40885404       8.54513873      10.00000000
N        4.27256936       8.54513873      12.13628468
N        6.40885404      10.68142340      12.13628468
Ti       4.27870672       8.49313775      14.24119423
Ti       6.41831919       8.56924173      16.32970273
Ti       4.24598813      10.66978386      16.34673801
Ti       6.39264234      10.66336888      14.31182209
N        4.27627899      10.68008203      14.29045532
N        6.40393047       8.52626512      14.29170534
N        4.27308376       8.55947733      16.36568763
N        6.41328108      10.67154094      16.52228165
Ti       8.54513873       0.00000000      10.00000000
Ti      10.68142340       0.00000000      12.13628468
Ti       8.54513873       2.13628468      12.13628468
Ti      10.68142340       2.13628468      10.00000000
N        8.54513873       2.13628468      10.00000000
N       10.68142340       0.00000000      10.00000000
N        8.54513873       0.00000000      12.13628468
N       10.68142340       2.13628468      12.13628468
Ti       8.54280640       0.00356004      14.21639520
Ti      10.67078630      -0.01807540      16.33556717
Ti       8.56582949       2.13812321      16.33468826
Ti      10.73959823       2.11939656      14.39966581
N        8.55762555       2.14302777      14.30935450
N       10.68201272       0.00265333      14.27045392
N        8.55225626      -0.01524733      16.43543865
N       10.65238627       2.14135047      16.58140843
Ti       8.54513873       4.27256936      10.00000000
Ti      10.68142340       4.27256936      12.13628468
Ti       8.54513873       6.40885404      12.13628468
Ti      10.68142340       6.40885404      10.00000000
N        8.54513873       6.40885404      10.00000000
N       10.68142340       4.27256936      10.00000000
N        8.54513873       4.27256936      12.13628468
N       10.68142340       6.40885404      12.13628468
Ti       8.50497806       4.31339620      14.25626719
Ti      10.66623694       4.29024302      16.34255667
Ti       8.50926416       6.38773295      16.77117172
Ti      10.63187636       6.38686240      14.27940532
N        8.53108970       6.40105276      14.30887783
N       10.66797952       4.25776485      14.29568166
N        8.54310913       4.24166112      16.41086594
N       10.68276818       6.40833545      16.42482493
Ti       8.54513873       8.54513873      10.00000000
Ti      10.68142340       8.54513873      12.13628468
Ti       8.54513873      10.68142340      12.13628468
Ti      10.68142340      10.68142340      10.00000000
N        8.54513873      10.68142340      10.00000000
N       10.68142340       8.54513873      10.00000000
N        8.54513873       8.54513873      12.13628468
N       10.68142340      10.68142340      12.13628468
Ti       8.53884146       8.48352395      14.25189915
Ti      10.65791683       8.53008779      16.32478539
Ti       8.55044646      10.67538868      16.33864308
Ti      10.69455144      10.71137444      14.33217534
N        8.54376672      10.66473441      14.30489616
N       10.68029749       8.54980714      14.29044638
N        8.53710105       8.55290708      16.38842296
N       10.67357027      10.66300506      16.50987293
S        5.46467991       3.02014387      18.67513661
S        3.98846184       6.60798167      18.96504326
S        3.59168009       3.87850578      22.25643572
S        5.53172778       3.90035740      22.73467754
S        6.72941899       4.80758595      21.41145002
S        8.49662013       6.51531234      19.00146922
Li       4.30971320       4.51885861      20.07016953
Li       6.25166271       6.27143712      19.48436438
