144
Lattice="12.81754036612168 0.0 0.0 0.0 12.81754036612168 0.0 0.0 0.0 26.408773103823197" Properties=species:S:1:pos:R:3 source_out=TiN_slab.out system=TiN calculation=slab pbc="T T T"
Ti       0.00000000       0.00000000      10.00000018
Ti       2.13625715       0.00000000      12.13625605
Ti       0.00000000       2.13625715      12.13625605
Ti       2.13625715       2.13625715      10.00000018
N        0.00000000       2.13625715      10.00000018
N        2.13625715       0.00000000      10.00000018
N        0.00000000       0.00000000      12.13625605
N        2.13625715       2.13625715      12.13625605
Ti       0.00000000       0.00000000      14.27251321
Ti       2.13625715       0.00000000      16.40877036
Ti       0.00000000       2.13625715      16.40877036
Ti       2.13625715       2.13625715      14.27251321
N        0.00000000       2.13625715      14.27251321
N        2.13625715       0.00000000      14.27251321
N        0.00000000       0.00000000      16.40877036
N        2.13625715       2.13625715      16.40877036
Ti       0.00000000       4.27251303      10.00000018
Ti       2.13625715       4.27251303      12.13625605
Ti       0.00000000       6.40877018      12.13625605
Ti       2.13625715       6.40877018      10.00000018
N        0.00000000       6.40877018      10.00000018
N        2.13625715       4.27251303      10.00000018
N        0.00000000       4.27251303      12.13625605
N        2.13625715       6.40877018      12.13625605
Ti       0.00000000       4.27251303      14.27251321
Ti       2.13625715       4.27251303      16.40877036
Ti       0.00000000       6.40877018      16.40877036
Ti       2.13625715       6.40877018      14.27251321
N        0.00000000       6.40877018      14.27251321
N        2.13625715       4.27251303      14.27251321
N        0.00000000       4.27251303      16.40877036
N        2.13625715       6.40877018      16.40877036
Ti       0.00000000       8.54502734      10.00000018
Ti       2.13625715       8.54502734      12.13625605
Ti       0.00000000      10.68128321      12.13625605
Ti       2.13625715      10.68128321      10.00000018
N        0.00000000      10.68128321      10.00000018
N        2.13625715       8.54502734      10.00000018
N        0.00000000       8.54502734      12.13625605
N        2.13625715      10.68128321      12.13625605
Ti       0.00000000       8.54502734      14.27251321
Ti       2.13625715       8.54502734      16.40877036
Ti       0.00000000      10.68128321      16.40877036
Ti       2.13625715      10.68128321      14.27251321
N        0.00000000      10.68128321      14.27251321
N        2.13625715       8.54502734      14.27251321
N        0.00000000       8.54502734      16.40877036
N        2.13625715      10.68128321      16.40877036
Ti       4.27251303       0.00000000      10.00000018
Ti       6.40877018       0.00000000      12.13625605
Ti       4.27251303       2.13625715      12.13625605
Ti       6.40877018       2.13625715      10.00000018
N        4.27251303       2.13625715      10.00000018
N        6.40877018       0.00000000      10.00000018
N        4.27251303       0.00000000      12.13625605
N        6.40877018       2.13625715      12.13625605
Ti       4.27251303       0.00000000      14.27251321
Ti       6.40877018       0.00000000      16.40877036
Ti       4.27251303       2.13625715      16.40877036
Ti       6.40877018       2.13625715      14.27251321
N        4.27251303       2.13625715      14.27251321
N        6.40877018       0.00000000      14.27251321
N        4.27251303       0.00000000      16.40877036
N        6.40877018       2.13625715      16.40877036
Ti       4.27251303       4.27251303      10.00000018
Ti       6.40877018       4.27251303      12.13625605
Ti       4.27251303       6.40877018      12.13625605
Ti       6.40877018       6.40877018      10.00000018
N        4.27251303       6.40877018      10.00000018
N        6.40877018       4.27251303      10.00000018
N        4.27251303       4.27251303      12.13625605
N        6.40877018       6.40877018      12.13625605
Ti       4.27251303       4.27251303      14.27251321
Ti       6.40877018       4.27251303      16.40877036
Ti       4.27251303       6.40877018      16.40877036
Ti       6.40877018       6.40877018      14.27251321
N        4.27251303       6.40877018      14.27251321
N        6.40877018       4.27251303      14.27251321
N        4.27251303       4.27251303      16.40877036
N        6.40877018       6.40877018      16.40877036
Ti       4.27251303       8.54502734      10.00000018
Ti       6.40877018       8.54502734      12.13625605
Ti       4.27251303      10.68128321      12.13625605
Ti       6.40877018      10.68128321      10.00000018
N        4.27251303      10.68128321      10.00000018
N        6.40877018       8.54502734      10.00000018
N        4.27251303       8.54502734      12.13625605
N        6.40877018      10.68128321      12.13625605
Ti       4.27251303       8.54502734      14.27251321
Ti       6.40877018       8.54502734      16.40877036
Ti       4.27251303      10.68128321      16.40877036
Ti       6.40877018      10.68128321      14.27251321
N        4.27251303      10.68128321      14.27251321
N        6.40877018       8.54502734      14.27251321
N        4.27251303       8.54502734      16.40877036
N        6.40877018      10.68128321      16.40877036
Ti       8.54502734       0.00000000      10.00000018
Ti      10.68128321       0.00000000      12.13625605
Ti       8.54502734       2.13625715      12.13625605
Ti      10.68128321       2.13625715      10.00000018
N        8.54502734       2.13625715      10.00000018
N       10.68128321       0.00000000      10.00000018
N        8.54502734       0.00000000      12.13625605
N       10.68128321       2.13625715      12.13625605
Ti       8.54502734       0.00000000      14.27251321
Ti      10.68128321       0.00000000      16.40877036
Ti       8.54502734       2.13625715      16.40877036
Ti      10.68128321       2.13625715      14.27251321
N        8.54502734       2.13625715      14.27251321
N       10.68128321       0.00000000      14.27251321
N        8.54502734       0.00000000      16.40877036
N       10.68128321       2.13625715      16.40877036
Ti       8.54502734       4.27251303      10.00000018
Ti      10.68128321       4.27251303      12.13625605
Ti       8.54502734       6.40877018      12.13625605
Ti      10.68128321       6.40877018      10.00000018
N        8.54502734       6.40877018      10.00000018
N       10.68128321       4.27251303      10.00000018
N        8.54502734       4.27251303      12.13625605
N       10.68128321       6.40877018      12.13625605
Ti       8.54502734       4.27251303      14.27251321
Ti      10.68128321       4.27251303      16.40877036
Ti       8.54502734       6.40877018      16.40877036
Ti      10.68128321       6.40877018      14.27251321
N        8.54502734       6.40877018      14.27251321
N       10.68128321       4.27251303      14.27251321
N        8.54502734       4.27251303      16.40877036
N       10.68128321       6.40877018      16.40877036
Ti       8.54502734       8.54502734      10.00000018
Ti      10.68128321       8.54502734      12.13625605
Ti       8.54502734      10.68128321      12.13625605
Ti      10.68128321      10.68128321      10.00000018
N        8.54502734      10.68128321      10.00000018
N       10.68128321       8.54502734      10.00000018
N        8.54502734       8.54502734      12.13625605
N       10.68128321      10.68128321      12.13625605
Ti       8.54502734       8.54502734      14.27251321
Ti      10.68128321       8.54502734      16.40877036
Ti       8.54502734      10.68128321      16.40877036
Ti      10.68128321      10.68128321      14.27251321
N        8.54502734      10.68128321      14.27251321
N       10.68128321       8.54502734      14.27251321
N        8.54502734       8.54502734      16.40877036
N       10.68128321      10.68128321      16.40877036
