154
Lattice="12.528217542377883 0.0 0.0 0.0 12.528217542377883 0.0 0.0 0.0 26.264105142970823" Properties=species:S:1:pos:R:3 bfgs_step=166 force_counter=166 energy_ry=-12114.55047355 energy_ev=-164826.85468515687 energy=-164826.85468515687 energy_eV=-164826.85468515687 source_out=VN_Li2S8_combi_u6.out u_value=6 pbc="T T T"
V        0.00000000       0.00000000      10.00000000
V        2.08803719       0.00000000      12.08803719
V        0.00000000       2.08803719      12.08803719
V        2.08803719       2.08803719      10.00000000
N        0.00000000       2.08803719      10.00000000
N        2.08803719       0.00000000      10.00000000
N        0.00000000       0.00000000      12.08803719
N        2.08803719       2.08803719      12.08803719
V        0.00276815       0.00512300      14.20994782
V        2.05962949       0.01853134      16.33293995
V       -0.04193047       2.07082607      16.39983297
V        2.07258236       2.14452829      14.30852442
N       -0.00710847       2.09268086      14.30280641
N        2.07973580       0.01638121      14.28914422
N       -0.03574753      -0.00699013      16.38917459
N        2.07950344       2.07473194      16.41041595
V        0.00000000       4.17607438      10.00000000
V        2.08803719       4.17607438      12.08803719
V        0.00000000       6.26411156      12.08803719
V        2.08803719       6.26411156      10.00000000
N        0.00000000       6.26411156      10.00000000
N        2.08803719       4.17607438      10.00000000
N        0.00000000       4.17607438      12.08803719
N        2.08803719       6.26411156      12.08803719
V        0.03837141       4.18516712      14.28090188
V        2.04438743       4.19223410      16.68845271
V        0.00231237       6.27239800      16.34270276
V        2.14110526       6.22610460      14.31008459
N        0.01922752       6.26497708      14.28047284
N        2.09551109       4.17708249      14.22052676
N       -0.03297091       4.18127150      16.39264851
N        2.09477216       6.25231273      16.29178970
V        0.00000000       8.35214875      10.00000000
V        2.08803719       8.35214875      12.08803719
V        0.00000000      10.44018594      12.08803719
V        2.08803719      10.44018594      10.00000000
N        0.00000000      10.44018594      10.00000000
N        2.08803719       8.35214875      10.00000000
N        0.00000000       8.35214875      12.08803719
N        2.08803719      10.44018594      12.08803719
V        0.04229312       8.34268174      14.25820197
V        2.09241219       8.33270429      16.51229706
V       -0.01209743      10.43722495      16.37778381
V        2.09378158      10.43625156      14.29739420
N        0.00757088      10.43831104      14.29160131
N        2.10265086       8.34104015      14.28732734
N       -0.01643830       8.34001411      16.39472689
N        2.08628891      10.46005501      16.39723181
V        4.17607438       0.00000000      10.00000000
V        6.26411156       0.00000000      12.08803719
V        4.17607438       2.08803719      12.08803719
V        6.26411156       2.08803719      10.00000000
N        4.17607438       2.08803719      10.00000000
N        6.26411156       0.00000000      10.00000000
N        4.17607438       0.00000000      12.08803719
N        6.26411156       2.08803719      12.08803719
V        4.16882091      -0.00234934      14.20115182
V        6.27219341       0.00642682      16.33176690
V        4.17548914       2.02030123      16.26833794
V        6.28941805       2.12899717      14.29414200
N        4.17235646       2.10048140      14.26665946
N        6.26794683       0.01214338      14.27534702
N        4.17656089       0.01097584      16.38008537
N        6.25297023       2.07760630      16.33219250
V        4.17607438       4.17607438      10.00000000
V        6.26411156       4.17607438      12.08803719
V        4.17607438       6.26411156      12.08803719
V        6.26411156       6.26411156      10.00000000
N        4.17607438       6.26411156      10.00000000
N        6.26411156       4.17607438      10.00000000
N        4.17607438       4.17607438      12.08803719
N        6.26411156       6.26411156      12.08803719
V        4.16478314       4.17933540      14.38016702
V        6.27964925       4.19011240      16.58691502
V        4.16097770       6.26763596      16.69124487
V        6.21338729       6.22730840      14.30403832
N        4.16701638       6.23665105      14.22124794
N        6.25347759       4.17509908      14.22739464
N        4.16836784       4.12665970      16.43449947
N        6.24054812       6.26466462      16.34916494
V        4.17607438       8.35214875      10.00000000
V        6.26411156       8.35214875      12.08803719
V        4.17607438      10.44018594      12.08803719
V        6.26411156      10.44018594      10.00000000
N        4.17607438      10.44018594      10.00000000
N        6.26411156       8.35214875      10.00000000
N        4.17607438       8.35214875      12.08803719
N        6.26411156      10.44018594      12.08803719
V        4.16200409       8.31040873      14.29155303
V        6.23928686       8.34115085      16.31286579
V        4.17122971      10.44964007      16.34946135
V        6.26384656      10.44726627      14.22519178
N        4.17245604      10.43547043      14.28720512
N        6.25119722       8.34373155      14.28437961
N        4.18237413       8.35148581      16.37219857
N        6.25035927      10.44030812      16.40776235
V        8.35214875       0.00000000      10.00000000
V       10.44018594       0.00000000      12.08803719
V        8.35214875       2.08803719      12.08803719
V       10.44018594       2.08803719      10.00000000
N        8.35214875       2.08803719      10.00000000
N       10.44018594       0.00000000      10.00000000
N        8.35214875       0.00000000      12.08803719
N       10.44018594       2.08803719      12.08803719
V        8.34775697       0.04786396      14.27880182
V       10.42424604      -0.02134984      16.29709908
V        8.34425763       2.11679923      16.65417629
V       10.41136737       2.09245831      14.28283105
N        8.34744088       2.10709737      14.22557693
N       10.43514206       0.00409167      14.27003589
N        8.35705120       0.00173923      16.37503118
N       10.42332693       2.08331596      16.37429323
V        8.35214875       4.17607438      10.00000000
V       10.44018594       4.17607438      12.08803719
V        8.35214875       6.26411156      12.08803719
V       10.44018594       6.26411156      10.00000000
N        8.35214875       6.26411156      10.00000000
N       10.44018594       4.17607438      10.00000000
N        8.35214875       4.17607438      12.08803719
N       10.44018594       6.26411156      12.08803719
V        8.32469068       4.17368910      14.30369431
V       10.44554444       4.19001088      16.29268903
V        8.34102036       6.27048265      16.36221452
V       10.43369497       6.27163074      14.20708157
N        8.33654023       6.26491654      14.28478713
N       10.44261971       4.17892883      14.27272182
N        8.37301841       4.18450474      16.33705505
N       10.43322345       6.26675496      16.37278664
V        8.35214875       8.35214875      10.00000000
V       10.44018594       8.35214875      12.08803719
V        8.35214875      10.44018594      12.08803719
V       10.44018594      10.44018594      10.00000000
N        8.35214875      10.44018594      10.00000000
N       10.44018594       8.35214875      10.00000000
N        8.35214875       8.35214875      12.08803719
N       10.44018594      10.44018594      12.08803719
V        8.33741981       8.35470514      14.23301146
V       10.43320395       8.34797249      16.31416422
V        8.34551482      10.44222265      16.34793886
V       10.44072479      10.42535418      14.21066987
N        8.34834610      10.45096291      14.29065216
N       10.44386071       8.35315367      14.27768008
N        8.33804304       8.35049914      16.40343253
N       10.43282834      10.43819770      16.38521930
S        3.69936464       6.13125766      19.09085574
S        6.50420350       4.08194444      18.95038509
S        7.71079691       2.32943497      19.05255224
S        9.27728321       2.93644959      20.26658995
S        8.50651339       2.62022562      22.20805422
S        7.13958481       4.07003308      22.78203426
S        5.21540794       3.46494414      22.45662051
S        2.13247522       4.67587854      19.07037460
Li       4.20798995       3.82135121      18.53291927
Li       5.23322069       5.05489742      20.81900927
