148
Lattice="12.528217542377883 0.0 0.0 0.0 12.528217542377883 0.0 0.0 0.0 26.264105142970823" Properties=species:S:1:pos:R:3 bfgs_step=36 force_counter=36 energy_ry=-11969.72771576 energy_ev=-162856.44070194935 energy=-162856.44070194935 energy_eV=-162856.44070194935 source_out=VN_Li2S2_combi_u1.out u_value=1 pbc="T T T"
V        0.00000000       0.00000000      10.00000000
V        2.08803719       0.00000000      12.08803719
V        0.00000000       2.08803719      12.08803719
V        2.08803719       2.08803719      10.00000000
N        0.00000000       2.08803719      10.00000000
N        2.08803719       0.00000000      10.00000000
N        0.00000000       0.00000000      12.08803719
N        2.08803719       2.08803719      12.08803719
V        0.00886865       0.00756226      14.21677631
V        2.07843797       0.00379788      16.35789844
V        0.00548482       2.07690902      16.35751070
V        2.10469578       2.10356448      14.22217384
N        0.00871931       2.09315200      14.29574957
N        2.09413915       0.00774630      14.29584092
N        0.00529156       0.00412452      16.39926240
N        2.09498285       2.09394751      16.41880853
V        0.00000000       4.17607438      10.00000000
V        2.08803719       4.17607438      12.08803719
V        0.00000000       6.26411156      12.08803719
V        2.08803719       6.26411156      10.00000000
N        0.00000000       6.26411156      10.00000000
N        2.08803719       4.17607438      10.00000000
N        0.00000000       4.17607438      12.08803719
N        2.08803719       6.26411156      12.08803719
V        0.00365554       4.18121762      14.22128072
V        2.02124304       4.18133386      16.33352270
V        0.00986102       6.29066618      16.35767140
V        2.13478139       6.26907794      14.28224832
N        0.01500926       6.26952652      14.29484765
N        2.10002305       4.18269765      14.28335222
N        0.00206840       4.18042138      16.41520847
N        2.08703576       6.27364196      16.38554524
V        0.00000000       8.35214875      10.00000000
V        2.08803719       8.35214875      12.08803719
V        0.00000000      10.44018594      12.08803719
V        2.08803719      10.44018594      10.00000000
N        0.00000000      10.44018594      10.00000000
N        2.08803719       8.35214875      10.00000000
N        0.00000000       8.35214875      12.08803719
N        2.08803719      10.44018594      12.08803719
V        0.00839502       8.36050561      14.21842454
V        2.08731744       8.37258029      16.37075688
V        0.00613273      10.45213036      16.35344071
V        2.09494286      10.44690239      14.21977412
N        0.00536463      10.44741758      14.29330761
N        2.09604626       8.35814141      14.29779527
N        0.01180917       8.36940064      16.40170478
N        2.08934068      10.44742738      16.40379085
V        4.17607438       0.00000000      10.00000000
V        6.26411156       0.00000000      12.08803719
V        4.17607438       2.08803719      12.08803719
V        6.26411156       2.08803719      10.00000000
N        4.17607438       2.08803719      10.00000000
N        6.26411156       0.00000000      10.00000000
N        4.17607438       0.00000000      12.08803719
N        6.26411156       2.08803719      12.08803719
V        4.18262748       0.00250512      14.22328356
V        6.29226807       0.00860988      16.35671686
V        4.18314487       2.02074969      16.33184508
V        6.26966420       2.13231124      14.27841631
N        4.18399806       2.09873861      14.28245668
N        6.27071159       0.01469957      14.29449112
N        4.18178618       0.00125880      16.41525182
N        6.27572186       2.08433505      16.38469464
V        4.17607438       4.17607438      10.00000000
V        6.26411156       4.17607438      12.08803719
V        4.17607438       6.26411156      12.08803719
V        6.26411156       6.26411156      10.00000000
N        4.17607438       6.26411156      10.00000000
N        6.26411156       4.17607438      10.00000000
N        4.17607438       4.17607438      12.08803719
N        6.26411156       6.26411156      12.08803719
V        4.19961895       4.19949214      14.35091049
V        6.28704899       4.17782396      16.65766173
V        4.18146347       6.28436125      16.66358702
V        6.25025899       6.24993321      14.33822898
N        4.19268436       6.26162008      14.23506258
N        6.26253165       4.19130589      14.23655226
N        4.15540148       4.15222063      16.42101738
N        6.31171805       6.30680865      16.38202342
V        4.17607438       8.35214875      10.00000000
V        6.26411156       8.35214875      12.08803719
V        4.17607438      10.44018594      12.08803719
V        6.26411156      10.44018594      10.00000000
N        4.17607438      10.44018594      10.00000000
N        6.26411156       8.35214875      10.00000000
N        4.17607438       8.35214875      12.08803719
N        6.26411156      10.44018594      12.08803719
V        4.18050847       8.32664424      14.27458408
V        6.26186423       8.44215268      16.30289573
V        4.17086359      10.45613393      16.36082920
V        6.26919448      10.46159136      14.21828050
N        4.18264164      10.44440868      14.29664168
N        6.26891394       8.35609903      14.26825979
N        4.18562368       8.37640336      16.38017227
N        6.27742200      10.46039948      16.40890515
V        8.35214875       0.00000000      10.00000000
V       10.44018594       0.00000000      12.08803719
V        8.35214875       2.08803719      12.08803719
V       10.44018594       2.08803719      10.00000000
N        8.35214875       2.08803719      10.00000000
N       10.44018594       0.00000000      10.00000000
N        8.35214875       0.00000000      12.08803719
N       10.44018594       2.08803719      12.08803719
V        8.36115665       0.00764271      14.21956544
V       10.45266284       0.00567548      16.35344683
V        8.37277488       2.08711224      16.36727358
V       10.44776991       2.09477121      14.22042350
N        8.35846403       2.09590571      14.29637349
N       10.44825174       0.00483452      14.29343864
N        8.37014581       0.01094305      16.40069251
N       10.44792330       2.08834010      16.40337114
V        8.35214875       4.17607438      10.00000000
V       10.44018594       4.17607438      12.08803719
V        8.35214875       6.26411156      12.08803719
V       10.44018594       6.26411156      10.00000000
N        8.35214875       6.26411156      10.00000000
N       10.44018594       4.17607438      10.00000000
N        8.35214875       4.17607438      12.08803719
N       10.44018594       6.26411156      12.08803719
V        8.32890757       4.17961139      14.27271036
V       10.45798376       4.16847374      16.36194576
V        8.44241722       6.26111949      16.29579243
V       10.46258107       6.26754408      14.22078796
N        8.35709602       6.26764380      14.26388433
N       10.44519078       4.18124947      14.29668152
N        8.37865806       4.18473580      16.37780369
N       10.45890519       6.27570874      16.40941012
V        8.35214875       8.35214875      10.00000000
V       10.44018594       8.35214875      12.08803719
V        8.35214875      10.44018594      12.08803719
V       10.44018594      10.44018594      10.00000000
N        8.35214875      10.44018594      10.00000000
N       10.44018594       8.35214875      10.00000000
N        8.35214875       8.35214875      12.08803719
N       10.44018594      10.44018594      12.08803719
V        8.35060937       8.34962241      14.22656546
V       10.45465843       8.37732491      16.35916599
V        8.37781832      10.45239569      16.35721752
V       10.44485988      10.44360157      14.22052561
N        8.35768995      10.44506607      14.29502706
N       10.44631912       8.35674969      14.29572495
N        8.35618861       8.35469585      16.41641641
N       10.45157477      10.45122203      16.39740338
S        6.05740952       4.50021188      19.13751787
S        4.51206186       6.04945377      19.13612227
Li       6.61282955       6.60029188      18.36435889
Li       3.94134432       3.93511730      18.41977025
