150
Lattice="12.528217542377883 0.0 0.0 0.0 12.528217542377883 0.0 0.0 0.0 26.264105142970823" Properties=species:S:1:pos:R:3 bfgs_step=35 force_counter=35 energy_ry=-12017.9792481 energy_ev=-163512.93623818125 energy=-163512.93623818125 energy_eV=-163512.93623818125 source_out=VN_Li2S4_combi_u1.out u_value=1 pbc="T T T"
V        0.00000000       0.00000000      10.00000000
V        2.08803719       0.00000000      12.08803719
V        0.00000000       2.08803719      12.08803719
V        2.08803719       2.08803719      10.00000000
N        0.00000000       2.08803719      10.00000000
N        2.08803719       0.00000000      10.00000000
N        0.00000000       0.00000000      12.08803719
N        2.08803719       2.08803719      12.08803719
V        0.00092712      -0.00670360      14.22243046
V        2.07482007      -0.01012480      16.35926698
V       -0.00302008       2.06602893      16.35898790
V        2.09045864       2.08753744      14.21820504
N        0.00084453       2.08270614      14.29623199
N        2.08782592      -0.00375497      14.29646513
N       -0.00379399      -0.01175977      16.40265863
N        2.08222883       2.07604015      16.40943810
V        0.00000000       4.17607438      10.00000000
V        2.08803719       4.17607438      12.08803719
V        0.00000000       6.26411156      12.08803719
V        2.08803719       6.26411156      10.00000000
N        0.00000000       6.26411156      10.00000000
N        2.08803719       4.17607438      10.00000000
N        0.00000000       4.17607438      12.08803719
N        2.08803719       6.26411156      12.08803719
V       -0.00744271       4.17294935      14.22516943
V        2.02203276       4.15594542      16.32584230
V       -0.00093118       6.26765062      16.36080780
V        2.11336297       6.25744839      14.26001144
N        0.00303996       6.26003990      14.29417903
N        2.09053773       4.17050564      14.28253851
N       -0.00679244       4.16535195      16.40785548
N        2.06216108       6.25687925      16.36194093
V        0.00000000       8.35214875      10.00000000
V        2.08803719       8.35214875      12.08803719
V        0.00000000      10.44018594      12.08803719
V        2.08803719      10.44018594      10.00000000
N        0.00000000      10.44018594      10.00000000
N        2.08803719       8.35214875      10.00000000
N        0.00000000       8.35214875      12.08803719
N        2.08803719      10.44018594      12.08803719
V       -0.00090568       8.34876699      14.22044162
V        2.06926132       8.36299249      16.36417365
V       -0.00350557      10.43628851      16.36001192
V        2.08750797      10.43749782      14.22207566
N       -0.00094865      10.43659572      14.29743765
N        2.08521313       8.34929154      14.29250785
N       -0.00248530       8.35310483      16.40181051
N        2.08071601      10.43543168      16.40186206
V        4.17607438       0.00000000      10.00000000
V        6.26411156       0.00000000      12.08803719
V        4.17607438       2.08803719      12.08803719
V        6.26411156       2.08803719      10.00000000
N        4.17607438       2.08803719      10.00000000
N        6.26411156       0.00000000      10.00000000
N        4.17607438       0.00000000      12.08803719
N        6.26411156       2.08803719      12.08803719
V        4.17768520      -0.01103270      14.22673043
V        6.27631905      -0.01368101      16.36311074
V        4.16309833       2.01890375      16.33469489
V        6.26425997       2.10214204      14.25210961
N        4.17333416       2.08599985      14.28813633
N        6.26493733      -0.00626313      14.29253707
N        4.17304068      -0.01244938      16.40628766
N        6.26857794       2.05228631      16.33369673
V        4.17607438       4.17607438      10.00000000
V        6.26411156       4.17607438      12.08803719
V        4.17607438       6.26411156      12.08803719
V        6.26411156       6.26411156      10.00000000
N        4.17607438       6.26411156      10.00000000
N        6.26411156       4.17607438      10.00000000
N        4.17607438       4.17607438      12.08803719
N        6.26411156       6.26411156      12.08803719
V        4.19103557       4.18861200      14.33666776
V        6.32504746       4.11702378      16.56545102
V        4.12064618       6.28963159      16.59371530
V        6.24819273       6.24030133      14.34033605
N        4.18181152       6.25394544      14.25014979
N        6.25951356       4.17431758      14.25132790
N        4.14330048       4.15025889      16.43773024
N        6.29732633       6.26627151      16.44579567
V        4.17607438       8.35214875      10.00000000
V        6.26411156       8.35214875      12.08803719
V        4.17607438      10.44018594      12.08803719
V        6.26411156      10.44018594      10.00000000
N        4.17607438      10.44018594      10.00000000
N        6.26411156       8.35214875      10.00000000
N        4.17607438       8.35214875      12.08803719
N        6.26411156      10.44018594      12.08803719
V        4.17642194       8.32252275      14.26222437
V        6.27324188       8.39846353      16.34640976
V        4.16765269      10.43533841      16.36509348
V        6.26426450      10.43558307      14.22657976
N        4.17643580      10.43190516      14.29538936
N        6.26643682       8.34142652      14.29413680
N        4.17067928       8.36279426      16.35676428
N        6.26797042      10.43511094      16.40848841
V        8.35214875       0.00000000      10.00000000
V       10.44018594       0.00000000      12.08803719
V        8.35214875       2.08803719      12.08803719
V       10.44018594       2.08803719      10.00000000
N        8.35214875       2.08803719      10.00000000
N       10.44018594       0.00000000      10.00000000
N        8.35214875       0.00000000      12.08803719
N       10.44018594       2.08803719      12.08803719
V        8.35316203      -0.00750619      14.22182362
V       10.44327479      -0.01286350      16.35821962
V        8.37454999       2.06165447      16.36755223
V       10.44257651       2.08232790      14.22065880
N        8.35651103       2.08029392      14.28975488
N       10.44192238      -0.00631071      14.29607082
N        8.36064572      -0.01223313      16.40036274
N       10.44430972       2.07226480      16.40030955
V        8.35214875       4.17607438      10.00000000
V       10.44018594       4.17607438      12.08803719
V        8.35214875       6.26411156      12.08803719
V       10.44018594       6.26411156      10.00000000
N        8.35214875       6.26411156      10.00000000
N       10.44018594       4.17607438      10.00000000
N        8.35214875       4.17607438      12.08803719
N       10.44018594       6.26411156      12.08803719
V        8.33130060       4.17393163      14.25340216
V       10.44257472       4.15738307      16.35914339
V        8.41781869       6.27239563      16.32482627
V       10.44750064       6.26091248      14.22686615
N        8.34980240       6.26047284      14.27977363
N       10.43856039       4.17240663      14.29243450
N        8.38337806       4.16938707      16.35011646
N       10.44723525       6.26122435      16.40660406
V        8.35214875       8.35214875      10.00000000
V       10.44018594       8.35214875      12.08803719
V        8.35214875      10.44018594      12.08803719
V       10.44018594      10.44018594      10.00000000
N        8.35214875      10.44018594      10.00000000
N       10.44018594       8.35214875      10.00000000
N        8.35214875       8.35214875      12.08803719
N       10.44018594      10.44018594      12.08803719
V        8.34801903       8.34252017      14.21758357
V       10.44387584       8.35964532      16.35928448
V        8.36396943      10.43191474      16.35864791
V       10.44033053      10.43578419      14.22206597
N        8.35319229      10.43279907      14.29658093
N       10.43989946       8.34911488      14.29614911
N        8.35898155       8.34760194      16.41054104
N       10.44317058      10.43610336      16.40318763
S        4.12330315       6.89754988      18.99381910
S        6.35316891       3.36957567      18.91403282
S        6.28598169       4.79804602      20.45720998
S        4.27607156       5.42727106      20.49414729
Li       4.13048841       4.11387549      18.43963704
Li       6.34434084       6.23281885      18.45515773
