152
Lattice="12.528217542377883 0.0 0.0 0.0 12.528217542377883 0.0 0.0 0.0 26.264105142970823" Properties=species:S:1:pos:R:3 bfgs_step=163 force_counter=163 energy_ry=-12066.50129569 energy_ev=-164173.11232185885 energy=-164173.11232185885 energy_eV=-164173.11232185885 source_out=VN_Li2S6_combi_u7.out u_value=7 pbc="T T T"
V        0.00000000       0.00000000      10.00000000
V        2.08803719       0.00000000      12.08803719
V        0.00000000       2.08803719      12.08803719
V        2.08803719       2.08803719      10.00000000
N        0.00000000       2.08803719      10.00000000
N        2.08803719       0.00000000      10.00000000
N        0.00000000       0.00000000      12.08803719
N        2.08803719       2.08803719      12.08803719
V        0.00742410      -0.03061587      14.19969947
V        2.09808269      -0.03121097      16.26462849
V       -0.01868245       2.04743295      16.25643213
V        2.12171955       2.09577310      14.22283714
N       -0.00090067       2.08061635      14.26008460
N        2.11308888      -0.03232158      14.26421258
N       -0.00227345      -0.04099542      16.34129326
N        2.06283601       2.04272034      16.37474817
V        0.00000000       4.17607438      10.00000000
V        2.08803719       4.17607438      12.08803719
V        0.00000000       6.26411156      12.08803719
V        2.08803719       6.26411156      10.00000000
N        0.00000000       6.26411156      10.00000000
N        2.08803719       4.17607438      10.00000000
N        0.00000000       4.17607438      12.08803719
N        2.08803719       6.26411156      12.08803719
V        0.00064334       4.19950569      14.21583121
V        2.01588704       4.15106748      16.29137038
V       -0.01576678       6.27251764      16.36979122
V        2.13336834       6.30620830      14.27213258
N        0.00509952       6.27504890      14.26542169
N        2.09860458       4.18184979      14.26494610
N       -0.00326831       4.16849187      16.41037156
N        2.05915803       6.23810018      16.28964836
V        0.00000000       8.35214875      10.00000000
V        2.08803719       8.35214875      12.08803719
V        0.00000000      10.44018594      12.08803719
V        2.08803719      10.44018594      10.00000000
N        0.00000000      10.44018594      10.00000000
N        2.08803719       8.35214875      10.00000000
N        0.00000000       8.35214875      12.08803719
N        2.08803719      10.44018594      12.08803719
V        0.01914873       8.32490615      14.34172292
V        2.08868402       8.31975381      16.62535640
V        0.00259540      10.41998292      16.34731243
V        2.13704642      10.36428256      14.31761064
N        0.01710096      10.39693172      14.28205658
N        2.11159566       8.33490286      14.21516844
N        0.00309821       8.34299701      16.36286622
N        2.08660817      10.43155568      16.40644101
V        4.17607438       0.00000000      10.00000000
V        6.26411156       0.00000000      12.08803719
V        4.17607438       2.08803719      12.08803719
V        6.26411156       2.08803719      10.00000000
N        4.17607438       2.08803719      10.00000000
N        6.26411156       0.00000000      10.00000000
N        4.17607438       0.00000000      12.08803719
N        6.26411156       2.08803719      12.08803719
V        4.19972168      -0.07277146      14.28669946
V        6.26427031      -0.00791661      16.22093935
V        4.19206055       2.03132170      16.35723754
V        6.28961311       2.21680790      14.26093248
N        4.19084134       2.09276374      14.29566798
N        6.27071383      -0.01233897      14.24222861
N        4.20237595      -0.01904485      16.38899552
N        6.26582921       2.09676076      16.28761947
V        4.17607438       4.17607438      10.00000000
V        6.26411156       4.17607438      12.08803719
V        4.17607438       6.26411156      12.08803719
V        6.26411156       6.26411156      10.00000000
N        4.17607438       6.26411156      10.00000000
N        6.26411156       4.17607438      10.00000000
N        4.17607438       4.17607438      12.08803719
N        6.26411156       6.26411156      12.08803719
V        4.18521573       4.22344920      14.39535681
V        6.29916143       4.17523765      16.68625027
V        4.10809807       6.37513973      16.68806410
V        6.27416485       6.24307792      14.43346154
N        4.19981611       6.26517259      14.25071657
N        6.27329178       4.21255313      14.23361253
N        4.10592197       4.16214564      16.48998840
N        6.27655085       6.23232280      16.51251439
V        4.17607438       8.35214875      10.00000000
V        6.26411156       8.35214875      12.08803719
V        4.17607438      10.44018594      12.08803719
V        6.26411156      10.44018594      10.00000000
N        4.17607438      10.44018594      10.00000000
N        6.26411156       8.35214875      10.00000000
N        4.17607438       8.35214875      12.08803719
N        6.26411156      10.44018594      12.08803719
V        4.22229163       8.31072822      14.30024205
V        6.32039661       8.35290519      16.65689870
V        4.17955528      10.33836267      16.68961539
V        6.25050483      10.35010453      14.29387537
N        4.19202479      10.39141684      14.21355844
N        6.27501348       8.31326869      14.21683412
N        4.21435868       8.35268903      16.22768907
N        6.26482639      10.44172242      16.32240834
V        8.35214875       0.00000000      10.00000000
V       10.44018594       0.00000000      12.08803719
V        8.35214875       2.08803719      12.08803719
V       10.44018594       2.08803719      10.00000000
N        8.35214875       2.08803719      10.00000000
N       10.44018594       0.00000000      10.00000000
N        8.35214875       0.00000000      12.08803719
N       10.44018594       2.08803719      12.08803719
V        8.34048071      -0.00836394      14.25071598
V       10.41778695      -0.06398306      16.25142055
V        8.35589117       2.09629007      16.46476395
V       10.42761922       2.07896032      14.25038611
N        8.36373105       2.10397957      14.28504759
N       10.43029124      -0.03689774      14.25301035
N        8.33080774      -0.02105961      16.37239507
N       10.46181761       2.04642208      16.37832352
V        8.35214875       4.17607438      10.00000000
V       10.44018594       4.17607438      12.08803719
V        8.35214875       6.26411156      12.08803719
V       10.44018594       6.26411156      10.00000000
N        8.35214875       6.26411156      10.00000000
N       10.44018594       4.17607438      10.00000000
N        8.35214875       4.17607438      12.08803719
N       10.44018594       6.26411156      12.08803719
V        8.37035964       4.22629244      14.32570199
V       10.45279035       4.17141156      16.36534515
V        8.41517469       6.22650357      16.69193290
V       10.40419344       6.31711237      14.27753977
N        8.34402003       6.27463208      14.22458093
N       10.44504459       4.18059664      14.27481452
N        8.37856789       4.17875924      16.34262108
N       10.44533857       6.27060362      16.26133530
V        8.35214875       8.35214875      10.00000000
V       10.44018594       8.35214875      12.08803719
V        8.35214875      10.44018594      12.08803719
V       10.44018594      10.44018594      10.00000000
N        8.35214875      10.44018594      10.00000000
N       10.44018594       8.35214875      10.00000000
N        8.35214875       8.35214875      12.08803719
N       10.44018594      10.44018594      12.08803719
V        8.33585169       8.30602510      14.35858183
V       10.42632470       8.33561807      16.68802911
V        8.34739896      10.42231978      16.41545920
V       10.43558352      10.32810478      14.27237831
N        8.35244882      10.39805699      14.28993657
N       10.43903329       8.33130958      14.20659685
N        8.35998575       8.32457159      16.34641464
N       10.45394875      10.42050165      16.38597549
S        6.31298307       3.95623844      18.97183550
S        3.08094201       7.53578226      18.74508663
S        4.23902777       9.30963005      19.05491188
S        6.21842042       8.68511636      19.06248651
S       10.27148592       7.89267357      18.96424621
S        8.96009874       6.29696123      18.97592298
Li       4.14207739       4.24529956      18.51693972
Li       6.46264839       6.29054580      18.79701160
