152
Lattice="12.528217542377883 0.0 0.0 0.0 12.528217542377883 0.0 0.0 0.0 26.264105142970823" Properties=species:S:1:pos:R:3 bfgs_step=157 force_counter=157 energy_ry=-12085.61268234 energy_ev=-164433.1359815951 energy=-164433.1359815951 energy_eV=-164433.1359815951 source_out=VN_S8_combi_u7.out u_value=7 pbc="T T T"
V        0.00000000       0.00000000      10.00000000
V        2.08803719       0.00000000      12.08803719
V        0.00000000       2.08803719      12.08803719
V        2.08803719       2.08803719      10.00000000
N        0.00000000       2.08803719      10.00000000
N        2.08803719       0.00000000      10.00000000
N        0.00000000       0.00000000      12.08803719
N        2.08803719       2.08803719      12.08803719
V       -0.01024703       0.05579572      14.22427565
V        2.10377810       0.02301798      16.20129303
V        0.00393398       2.13573273      16.31992540
V        2.11829793       2.21015653      14.28067762
N       -0.01088701       2.14786762      14.28484165
N        2.10215088       0.03005808      14.22711822
N        0.02931395       0.00222423      16.33955131
N        2.07308130       2.09162526      16.31555483
V        0.00000000       4.17607438      10.00000000
V        2.08803719       4.17607438      12.08803719
V        0.00000000       6.26411156      12.08803719
V        2.08803719       6.26411156      10.00000000
N        0.00000000       6.26411156      10.00000000
N        2.08803719       4.17607438      10.00000000
N        0.00000000       4.17607438      12.08803719
N        2.08803719       6.26411156      12.08803719
V       -0.00016231       4.22891499      14.36633373
V        2.14187118       4.18517635      16.75255673
V       -0.00855517       6.26950799      16.48471994
V        2.14326683       6.20173816      14.34361915
N        0.01062916       6.24963129      14.28355591
N        2.10707349       4.20505316      14.21096669
N        0.01469784       4.19049059      16.36781704
N        2.11671505       6.26441364      16.39252239
V        0.00000000       8.35214875      10.00000000
V        2.08803719       8.35214875      12.08803719
V        0.00000000      10.44018594      12.08803719
V        2.08803719      10.44018594      10.00000000
N        0.00000000      10.44018594      10.00000000
N        2.08803719       8.35214875      10.00000000
N        0.00000000       8.35214875      12.08803719
N        2.08803719      10.44018594      12.08803719
V       -0.01148009       8.29327746      14.24134177
V        2.13920621       8.30352243      16.26029929
V       -0.01545489      10.42034862      16.18827855
V        2.12517829      10.41452390      14.23743474
N       -0.00423216      10.43738315      14.23039632
N        2.11769644       8.31585305      14.25674331
N        0.01215405       8.36376131      16.36626418
N        2.09390616      10.42693072      16.32539258
V        4.17607438       0.00000000      10.00000000
V        6.26411156       0.00000000      12.08803719
V        4.17607438       2.08803719      12.08803719
V        6.26411156       2.08803719      10.00000000
N        4.17607438       2.08803719      10.00000000
N        6.26411156       0.00000000      10.00000000
N        4.17607438       0.00000000      12.08803719
N        6.26411156       2.08803719      12.08803719
V        4.19967687       0.08156605      14.25367905
V        6.26669263       0.04571034      16.23916788
V        4.17185090       2.09860063      16.55545568
V        6.27661747       2.20671296      14.29186396
N        4.18254975       2.15808521      14.21252071
N        6.27218658       0.02839506      14.24803829
N        4.18430549      -0.00604753      16.32077328
N        6.23921629       2.10164686      16.26316448
V        4.17607438       4.17607438      10.00000000
V        6.26411156       4.17607438      12.08803719
V        4.17607438       6.26411156      12.08803719
V        6.26411156       6.26411156      10.00000000
N        4.17607438       6.26411156      10.00000000
N        6.26411156       4.17607438      10.00000000
N        4.17607438       4.17607438      12.08803719
N        6.26411156       6.26411156      12.08803719
V        4.21401490       4.22502998      14.39399684
V        6.28501939       4.18422182      16.76797050
V        4.21626708       6.28090610      16.74746638
V        6.29284678       6.21666309      14.40488272
N        4.21599517       6.23536083      14.22652757
N        6.27781490       4.19130382      14.21827659
N        4.20755754       4.20547195      16.37136756
N        6.29720808       6.25060619      16.40233286
V        4.17607438       8.35214875      10.00000000
V        6.26411156       8.35214875      12.08803719
V        4.17607438      10.44018594      12.08803719
V        6.26411156      10.44018594      10.00000000
N        4.17607438      10.44018594      10.00000000
N        6.26411156       8.35214875      10.00000000
N        4.17607438       8.35214875      12.08803719
N        6.26411156      10.44018594      12.08803719
V        4.26864035       8.26580417      14.28094816
V        6.27503620       8.33129399      16.71246851
V        4.19102890      10.42461679      16.32565768
V        6.26709455      10.39827677      14.28478684
N        4.20401044      10.43838513      14.25458257
N        6.28117194       8.31303623      14.20411630
N        4.20729165       8.33638214      16.29114863
N        6.27680504      10.44875748      16.33932016
V        8.35214875       0.00000000      10.00000000
V       10.44018594       0.00000000      12.08803719
V        8.35214875       2.08803719      12.08803719
V       10.44018594       2.08803719      10.00000000
N        8.35214875       2.08803719      10.00000000
N       10.44018594       0.00000000      10.00000000
N        8.35214875       0.00000000      12.08803719
N       10.44018594       2.08803719      12.08803719
V        8.36272356       0.11517972      14.29329708
V       10.44948101       0.04712143      16.36648523
V        8.26537406       2.14365790      16.76871103
V       10.39256252       2.18667359      14.36637688
N        8.35071133       2.15018363      14.20972032
N       10.42995109       0.04829609      14.29070334
N        8.32060969       0.01446361      16.37967714
N       10.43441599       2.11703643      16.44619755
V        8.35214875       4.17607438      10.00000000
V       10.44018594       4.17607438      12.08803719
V        8.35214875       6.26411156      12.08803719
V       10.44018594       6.26411156      10.00000000
N        8.35214875       6.26411156      10.00000000
N       10.44018594       4.17607438      10.00000000
N        8.35214875       4.17607438      12.08803719
N       10.44018594       6.26411156      12.08803719
V        8.34909791       4.20145241      14.38459485
V       10.44403235       4.19315723      16.72418337
V        8.38184954       6.25949659      16.74534538
V       10.39055260       6.21347726      14.29954655
N        8.33826898       6.24313583      14.21533650
N       10.43330107       4.20014604      14.21829478
N        8.36643834       4.20314006      16.36048377
N       10.43025837       6.26224156      16.26225896
V        8.35214875       8.35214875      10.00000000
V       10.44018594       8.35214875      12.08803719
V        8.35214875      10.44018594      12.08803719
V       10.44018594      10.44018594      10.00000000
N        8.35214875      10.44018594      10.00000000
N       10.44018594       8.35214875      10.00000000
N        8.35214875       8.35214875      12.08803719
N       10.44018594      10.44018594      12.08803719
V        8.30593481       8.26931360      14.32151706
V       10.41278249       8.34498608      16.36403807
V        8.33341556      10.44091133      16.25612518
V       10.41589429      10.44654590      14.24922237
N        8.34679441      10.45293633      14.25956409
N       10.41839828       8.33859241      14.27064729
N        8.33380215       8.35759928      16.36410653
N       10.42978398      10.45804187      16.36503898
S       10.45343370       4.79970689      18.96685343
S        8.96478488       6.20632383      18.98598238
S        5.88493763       8.13056952      18.99521408
S        4.47044420       6.65714485      19.00912985
S        2.56484567       3.76813980      19.12858614
S        3.78477820       2.09328958      18.92996980
S        5.69943295       2.11428491      19.80688286
S        7.19461847       3.19937728      18.82977807
