
     Program PWSCF v.7.5 starts on  3Apr2026 at 23: 5:31 

     This program is part of the open-source Quantum ESPRESSO suite
     for quantum simulation of materials; please cite
         "P. Giannozzi et al., J. Phys.:Condens. Matter 21 395502 (2009);
         "P. Giannozzi et al., J. Phys.:Condens. Matter 29 465901 (2017);
         "P. Giannozzi et al., J. Chem. Phys. 152 154105 (2020);
          URL http://www.quantum-espresso.org", 
     in publications or presentations arising from this work. More details at
     http://www.quantum-espresso.org/quote

     Parallel version (MPI & OpenMP), running on      64 processor cores
     Number of MPI processes:                64
     Threads/MPI process:                     1

     MPI processes distributed on     1 nodes
     414301 MiB available memory on the printing compute node when the environment starts

     Waiting for input...
     Reading input from standard input

     Current dimensions of program PWSCF are:
     Max number of different atomic species (ntypx) = 10
     Max number of k-points (npk) =  40000
     Max angular momentum in pseudopotentials (lmaxx) =  4

     K-points division:     npool     =       4
     R & G space division:  proc/nbgrp/npool/nimage =      16
     Subspace diagonalization in iterative solution of the eigenvalue problem:
     one sub-group per band group will be used
     ELPA distributed-memory algorithm (size of sub-group:  4*  4 procs)


     Parallelization info
     --------------------
     sticks:   dense  smooth     PW     G-vecs:    dense   smooth      PW
     Min        1200     480    126               266998    67548    9180
     Max        1201     481    127               267007    67559    9191
     Sum       19213    7685   2025              4272073  1080831  146981

     Using Slab Decomposition



     bravais-lattice index     =            0
     lattice parameter (alat)  =      23.1672  a.u.
     unit-cell volume          =   26502.2878 (a.u.)^3
     number of atoms/cell      =          147
     number of atomic types    =            4
     number of electrons       =      1308.00
     number of Kohn-Sham states=          785
     kinetic-energy cutoff     =      45.0000  Ry
     charge density cutoff     =     450.0000  Ry
     scf convergence threshold =      1.0E-06
     mixing beta               =       0.2000
     number of iterations used =            8  plain     mixing
     energy convergence thresh.=      1.0E-04
     force convergence thresh. =      1.6E-03
     Exchange-correlation=  SLA  PW   PBX  PBC
                           (   1   4   3   4   0   0   0)
     nstep                     =          170


     celldm(1)=  23.167240  celldm(2)=   0.000000  celldm(3)=   0.000000
     celldm(4)=   0.000000  celldm(5)=   0.000000  celldm(6)=   0.000000

     crystal axes: (cart. coord. in units of alat)
               a(1) = (   1.000000   0.000000   0.000000 )  
               a(2) = (   0.000000   1.000000   0.000000 )  
               a(3) = (   0.000000   0.000000   2.131378 )  

     reciprocal axes: (cart. coord. in units 2 pi/alat)
               b(1) = (  1.000000  0.000000  0.000000 )  
               b(2) = (  0.000000  1.000000  0.000000 )  
               b(3) = (  0.000000  0.000000  0.469180 )  


     PseudoPot. # 1 for V  read from file:
     /scratch/anizami/QE_2/USPP/v_pbe_v1.4.uspp.F.UPF
     MD5 check sum: 22b79981416ebb76fdaf5b1b8640f6fb
     Pseudo is Ultrasoft + core correction, Zval = 13.0
     Generated by new atomic code, or converted to UPF format
     Using radial grid of  853 points,  6 beta functions with: 
                l(1) =   0
                l(2) =   0
                l(3) =   1
                l(4) =   1
                l(5) =   2
                l(6) =   2
     Q(r) pseudized with  8 coefficients,  rinner =    1.100   1.100   1.100
                                                       1.100   1.100

     PseudoPot. # 2 for N  read from file:
     /scratch/anizami/QE_2/USPP/n_pbe_v1.2.uspp.F.UPF
     MD5 check sum: 95339753478d7afb44899504a8723017
     Pseudo is Ultrasoft + core correction, Zval =  5.0
     Generated by new atomic code, or converted to UPF format
     Using radial grid of  729 points,  4 beta functions with: 
                l(1) =   0
                l(2) =   0
                l(3) =   1
                l(4) =   1
     Q(r) pseudized with  8 coefficients,  rinner =    0.900   0.900   0.900


     PseudoPot. # 3 for S  read from file:
     /scratch/anizami/QE_2/USPP/s_pbe_v1.4.uspp.F.UPF
     MD5 check sum: 88d86576ff6df21479756cfb9bdac1df
     Pseudo is Ultrasoft + core correction, Zval =  6.0
     Generated by new atomic code, or converted to UPF format
     Using radial grid of  907 points,  6 beta functions with: 
                l(1) =   0
                l(2) =   0
                l(3) =   1
                l(4) =   1
                l(5) =   2
                l(6) =   2
     Q(r) pseudized with  8 coefficients,  rinner =    1.300   1.300   1.300
                                                       1.300   1.300

     PseudoPot. # 4 for Li read from file:
     /scratch/anizami/QE_2/USPP/li_pbe_v1.4.uspp.F.UPF
     MD5 check sum: e912e257baa3777c20ea3d68f190483c
     Pseudo is Ultrasoft, Zval =  3.0
     Generated by new atomic code, or converted to UPF format
     Using radial grid of  751 points,  5 beta functions with: 
                l(1) =   0
                l(2) =   0
                l(3) =   0
                l(4) =   1
                l(5) =   1
     Q(r) pseudized with 10 coefficients,  rinner =    1.150   1.150   1.150


     atomic species   valence    mass     pseudopotential
     V                13.00     1.00000     V ( 1.00)
     N                 5.00     1.00000     N ( 1.00)
     S                 6.00     1.00000     S ( 1.00)
     Li                3.00     1.00000     Li( 1.00)

     No symmetry found



   Cartesian axes

     site n.     atom                  positions (alat units)
         1        V      tau(   1) = (   0.0000000   0.0000000   0.8156889  )
         2        V      tau(   2) = (   0.1666667   0.0000000   0.9823556  )
         3        V      tau(   3) = (   0.0000000   0.1666667   0.9823556  )
         4        V      tau(   4) = (   0.1666667   0.1666667   0.8156889  )
         5        V      tau(   5) = (   0.0053776   0.0018546   1.1561285  )
         6        V      tau(   6) = (   0.1629965   0.0032404   1.3064311  )
         7        V      tau(   7) = (   0.0022434   0.1642584   1.3057758  )
         8        V      tau(   8) = (   0.1626887   0.1655777   1.1559476  )
         9        V      tau(   9) = (   0.0000000   0.3333333   0.8156889  )
        10        V      tau(  10) = (   0.1666667   0.3333333   0.9823556  )
        11        V      tau(  11) = (   0.0000000   0.5000000   0.9823556  )
        12        V      tau(  12) = (   0.1666667   0.5000000   0.8156889  )
        13        V      tau(  13) = (   0.0055560   0.3356734   1.1550782  )
        14        V      tau(  14) = (   0.1576526   0.3282113   1.3056555  )
        15        V      tau(  15) = (   0.0011748   0.5003126   1.3061286  )
        16        V      tau(  16) = (   0.1661971   0.4961928   1.1571564  )
        17        V      tau(  17) = (   0.0000000   0.6666667   0.8156889  )
        18        V      tau(  18) = (   0.1666667   0.6666667   0.9823556  )
        19        V      tau(  19) = (   0.0000000   0.8333333   0.9823556  )
        20        V      tau(  20) = (   0.1666667   0.8333333   0.8156889  )
        21        V      tau(  21) = (   0.0051476   0.6703966   1.1542830  )
        22        V      tau(  22) = (   0.1651231   0.6676918   1.3063542  )
        23        V      tau(  23) = (  -0.0008452   0.8354551   1.3063889  )
        24        V      tau(  24) = (   0.1615269   0.8302043   1.1543290  )
        25        V      tau(  25) = (   0.3333333   0.0000000   0.8156889  )
        26        V      tau(  26) = (   0.5000000   0.0000000   0.9823556  )
        27        V      tau(  27) = (   0.3333333   0.1666667   0.9823556  )
        28        V      tau(  28) = (   0.5000000   0.1666667   0.8156889  )
        29        V      tau(  29) = (   0.3388718   0.0037611   1.1555481  )
        30        V      tau(  30) = (   0.5005800   0.0011845   1.3058961  )
        31        V      tau(  31) = (   0.3346649   0.1583416   1.3051980  )
        32        V      tau(  32) = (   0.4940130   0.1626769   1.1551898  )
        33        V      tau(  33) = (   0.3333333   0.3333333   0.8156889  )
        34        V      tau(  34) = (   0.5000000   0.3333333   0.9823556  )
        35        V      tau(  35) = (   0.3333333   0.5000000   0.9823556  )
        36        V      tau(  36) = (   0.5000000   0.5000000   0.8156889  )
        37        V      tau(  37) = (   0.3393786   0.3411313   1.1607541  )
        38        V      tau(  38) = (   0.5076342   0.3251987   1.3061459  )
        39        V      tau(  39) = (   0.3191477   0.5126899   1.3273981  )
        40        V      tau(  40) = (   0.4910274   0.4957120   1.1612500  )
        41        V      tau(  41) = (   0.3333333   0.6666667   0.8156889  )
        42        V      tau(  42) = (   0.5000000   0.6666667   0.9823556  )
        43        V      tau(  43) = (   0.3333333   0.8333333   0.9823556  )
        44        V      tau(  44) = (   0.5000000   0.8333333   0.8156889  )
        45        V      tau(  45) = (   0.3386571   0.6654497   1.1568080  )
        46        V      tau(  46) = (   0.5048952   0.6760828   1.3053688  )
        47        V      tau(  47) = (   0.3342679   0.8322863   1.3060514  )
        48        V      tau(  48) = (   0.4953046   0.8302581   1.1550981  )
        49        V      tau(  49) = (   0.6666667   0.0000000   0.8156889  )
        50        V      tau(  50) = (   0.8333333   0.0000000   0.9823556  )
        51        V      tau(  51) = (   0.6666667   0.1666667   0.9823556  )
        52        V      tau(  52) = (   0.8333333   0.1666667   0.8156889  )
        53        V      tau(  53) = (   0.6731127   0.0047523   1.1536560  )
        54        V      tau(  54) = (   0.8359839  -0.0016378   1.3062449  )
        55        V      tau(  55) = (   0.6641623   0.1689948   1.3056553  )
        56        V      tau(  56) = (   0.8271872   0.1622899   1.1537971  )
        57        V      tau(  57) = (   0.6666667   0.3333333   0.8156889  )
        58        V      tau(  58) = (   0.8333333   0.3333333   0.9823556  )
        59        V      tau(  59) = (   0.6666667   0.5000000   0.9823556  )
        60        V      tau(  60) = (   0.8333333   0.5000000   0.8156889  )
        61        V      tau(  61) = (   0.6721232   0.3379287   1.1553057  )
        62        V      tau(  62) = (   0.8313067   0.3323068   1.3059902  )
        63        V      tau(  63) = (   0.6753664   0.4998517   1.3054866  )
        64        V      tau(  64) = (   0.8275903   0.4967137   1.1555951  )
        65        V      tau(  65) = (   0.6666667   0.6666667   0.8156889  )
        66        V      tau(  66) = (   0.8333333   0.6666667   0.9823556  )
        67        V      tau(  67) = (   0.6666667   0.8333333   0.9823556  )
        68        V      tau(  68) = (   0.8333333   0.8333333   0.8156889  )
        69        V      tau(  69) = (   0.6707361   0.6682186   1.1559359  )
        70        V      tau(  70) = (   0.8299968   0.6695393   1.3062468  )
        71        V      tau(  71) = (   0.6675675   0.8304995   1.3055838  )
        72        V      tau(  72) = (   0.8293435   0.8296749   1.1555322  )
        73        N      tau(  73) = (   0.0000000   0.1666667   0.8156889  )
        74        N      tau(  74) = (   0.1666667   0.0000000   0.8156889  )
        75        N      tau(  75) = (   0.0000000   0.0000000   0.9823556  )
        76        N      tau(  76) = (   0.1666667   0.1666667   0.9823556  )
        77        N      tau(  77) = (  -0.0037487   0.1677910   1.1507038  )
        78        N      tau(  78) = (   0.1705876  -0.0012263   1.1511128  )
        79        N      tau(  79) = (  -0.0000780   0.0000786   1.3306975  )
        80        N      tau(  80) = (   0.1686070   0.1668804   1.3318149  )
        81        N      tau(  81) = (   0.0000000   0.5000000   0.8156889  )
        82        N      tau(  82) = (   0.1666667   0.3333333   0.8156889  )
        83        N      tau(  83) = (   0.0000000   0.3333333   0.9823556  )
        84        N      tau(  84) = (   0.1666667   0.5000000   0.9823556  )
        85        N      tau(  85) = (  -0.0025773   0.5018500   1.1511167  )
        86        N      tau(  86) = (   0.1716062   0.3312406   1.1506200  )
        87        N      tau(  87) = (  -0.0031664   0.3315753   1.3278896  )
        88        N      tau(  88) = (   0.1613338   0.4980534   1.3264983  )
        89        N      tau(  89) = (   0.0000000   0.8333333   0.8156889  )
        90        N      tau(  90) = (   0.1666667   0.6666667   0.8156889  )
        91        N      tau(  91) = (   0.0000000   0.6666667   0.9823556  )
        92        N      tau(  92) = (   0.1666667   0.8333333   0.9823556  )
        93        N      tau(  93) = (  -0.0034856   0.8356186   1.1508758  )
        94        N      tau(  94) = (   0.1705317   0.6643096   1.1510639  )
        95        N      tau(  95) = (  -0.0011800   0.6682584   1.3255900  )
        96        N      tau(  96) = (   0.1659815   0.8343351   1.3254675  )
        97        N      tau(  97) = (   0.3333333   0.1666667   0.8156889  )
        98        N      tau(  98) = (   0.5000000   0.0000000   0.8156889  )
        99        N      tau(  99) = (   0.3333333   0.0000000   0.9823556  )
       100        N      tau( 100) = (   0.5000000   0.1666667   0.9823556  )
       101        N      tau( 101) = (   0.3297465   0.1702420   1.1502818  )
       102        N      tau( 102) = (   0.5045909  -0.0027908   1.1505989  )
       103        N      tau( 103) = (   0.3322243  -0.0030808   1.3280748  )
       104        N      tau( 104) = (   0.4993411   0.1642031   1.3312691  )
       105        N      tau( 105) = (   0.3333333   0.5000000   0.8156889  )
       106        N      tau( 106) = (   0.5000000   0.3333333   0.8156889  )
       107        N      tau( 107) = (   0.3333333   0.3333333   0.9823556  )
       108        N      tau( 108) = (   0.5000000   0.5000000   0.9823556  )
       109        N      tau( 109) = (   0.3297882   0.5024911   1.1545776  )
       110        N      tau( 110) = (   0.5041094   0.3305480   1.1512734  )
       111        N      tau( 111) = (   0.3342323   0.3310282   1.3236631  )
       112        N      tau( 112) = (   0.5017587   0.4992646   1.3232989  )
       113        N      tau( 113) = (   0.3333333   0.8333333   0.8156889  )
       114        N      tau( 114) = (   0.5000000   0.6666667   0.8156889  )
       115        N      tau( 115) = (   0.3333333   0.6666667   0.9823556  )
       116        N      tau( 116) = (   0.5000000   0.8333333   0.9823556  )
       117        N      tau( 117) = (   0.3300645   0.8347340   1.1509466  )
       118        N      tau( 118) = (   0.5036822   0.6634954   1.1505909  )
       119        N      tau( 119) = (   0.3349263   0.6710874   1.3263069  )
       120        N      tau( 120) = (   0.5015895   0.8367444   1.3287583  )
       121        N      tau( 121) = (   0.6666667   0.1666667   0.8156889  )
       122        N      tau( 122) = (   0.8333333   0.0000000   0.8156889  )
       123        N      tau( 123) = (   0.6666667   0.0000000   0.9823556  )
       124        N      tau( 124) = (   0.8333333   0.1666667   0.9823556  )
       125        N      tau( 125) = (   0.6620623   0.1702079   1.1506877  )
       126        N      tau( 126) = (   0.8379414  -0.0029829   1.1510103  )
       127        N      tau( 127) = (   0.6685182   0.0001617   1.3242124  )
       128        N      tau( 128) = (   0.8327836   0.1653911   1.3247303  )
       129        N      tau( 129) = (   0.6666667   0.5000000   0.8156889  )
       130        N      tau( 130) = (   0.8333333   0.3333333   0.8156889  )
       131        N      tau( 131) = (   0.6666667   0.3333333   0.9823556  )
       132        N      tau( 132) = (   0.8333333   0.5000000   0.9823556  )
       133        N      tau( 133) = (   0.6615134   0.5022226   1.1503570  )
       134        N      tau( 134) = (   0.8374764   0.3305593   1.1507614  )
       135        N      tau( 135) = (   0.6683151   0.3345418   1.3312447  )
       136        N      tau( 136) = (   0.8367904   0.5010029   1.3285010  )
       137        N      tau( 137) = (   0.6666667   0.8333333   0.8156889  )
       138        N      tau( 138) = (   0.8333333   0.6666667   0.8156889  )
       139        N      tau( 139) = (   0.6666667   0.6666667   0.9823556  )
       140        N      tau( 140) = (   0.8333333   0.8333333   0.9823556  )
       141        N      tau( 141) = (   0.6638151   0.8355679   1.1506530  )
       142        N      tau( 142) = (   0.8365623   0.6640281   1.1508599  )
       143        N      tau( 143) = (   0.6664826   0.6646513   1.3319440  )
       144        N      tau( 144) = (   0.8330647   0.8335521   1.3290334  )
       145        S      tau( 145) = (   0.3210881   0.5097336   1.5221223  )
       146        Li     tau( 146) = (   0.4966561   0.5088896   1.4802469  )
       147        Li     tau( 147) = (   0.1686070   0.1668804   1.5112664  )

     --------------------------------------------
     DFT-D3 Dispersion Correction (3-body terms):
     --------------------------------------------
       Reference C6 values for interpolation: 

         atom   Coordination number   C6
         Li         0.000          2326.89
         Li         0.987           170.64
         N          0.000            50.54
         N          0.994            44.25
         N          2.014            39.35
         N          2.990            31.16
         S          0.000           268.01
         S          0.995           261.99
         S          1.990           251.62
         V          0.000          2232.20
         V          1.914           580.29
         V          2.911           538.67

       Values used:

         atom   Coordination number  R0_AB[au]  C6      C8
         V         12.125            3.516    538.67  59684.75
         V         16.463            3.516    538.67  59684.75
         V         16.472            3.516    538.67  59684.75
         V         12.125            3.516    538.67  59684.75
         V         16.659            3.516    538.67  59684.75
         V         12.983            3.516    538.67  59684.75
         V         12.999            3.516    538.67  59684.75
         V         16.638            3.516    538.67  59684.75
         V         12.126            3.516    538.67  59684.75
         V         16.431            3.516    538.67  59684.75
         V         16.430            3.516    538.67  59684.75
         V         12.124            3.516    538.67  59684.75
         V         16.611            3.516    538.67  59684.75
         V         12.851            3.516    538.67  59684.75
         V         12.438            3.516    538.67  59684.75
         V         16.656            3.516    538.67  59684.75
         V         12.127            3.516    538.67  59684.75
         V         16.461            3.516    538.67  59684.75
         V         16.513            3.516    538.67  59684.75
         V         12.127            3.516    538.67  59684.75
         V         16.617            3.516    538.67  59684.75
         V         12.562            3.516    538.67  59684.75
         V         12.514            3.516    538.67  59684.75
         V         16.614            3.516    538.67  59684.75
         V         12.125            3.516    538.67  59684.75
         V         16.497            3.516    538.67  59684.75
         V         16.408            3.516    538.67  59684.75
         V         12.126            3.516    538.67  59684.75
         V         16.606            3.516    538.67  59684.75
         V         12.499            3.516    538.67  59684.75
         V         12.855            3.516    538.67  59684.75
         V         16.626            3.516    538.67  59684.75
         V         12.121            3.516    538.67  59684.75
         V         16.400            3.516    538.67  59684.75
         V         16.465            3.516    538.67  59684.75
         V         12.121            3.516    538.67  59684.75
         V         16.283            3.516    538.67  59684.75
         V         12.682            3.516    538.67  59684.75
         V         13.257            3.516    538.67  59684.75
         V         16.297            3.516    538.67  59684.75
         V         12.124            3.516    538.67  59684.75
         V         16.417            3.516    538.67  59684.75
         V         16.440            3.516    538.67  59684.75
         V         12.126            3.516    538.67  59684.75
         V         16.633            3.516    538.67  59684.75
         V         13.123            3.516    538.67  59684.75
         V         12.442            3.516    538.67  59684.75
         V         16.620            3.516    538.67  59684.75
         V         12.127            3.516    538.67  59684.75
         V         16.506            3.516    538.67  59684.75
         V         16.505            3.516    538.67  59684.75
         V         12.127            3.516    538.67  59684.75
         V         16.627            3.516    538.67  59684.75
         V         12.445            3.516    538.67  59684.75
         V         12.508            3.516    538.67  59684.75
         V         16.631            3.516    538.67  59684.75
         V         12.125            3.516    538.67  59684.75
         V         16.486            3.516    538.67  59684.75
         V         16.414            3.516    538.67  59684.75
         V         12.125            3.516    538.67  59684.75
         V         16.625            3.516    538.67  59684.75
         V         12.470            3.516    538.67  59684.75
         V         13.065            3.516    538.67  59684.75
         V         16.602            3.516    538.67  59684.75
         V         12.125            3.516    538.67  59684.75
         V         16.480            3.516    538.67  59684.75
         V         16.469            3.516    538.67  59684.75
         V         12.126            3.516    538.67  59684.75
         V         16.635            3.516    538.67  59684.75
         V         12.492            3.516    538.67  59684.75
         V         12.522            3.516    538.67  59684.75
         V         16.671            3.516    538.67  59684.75
         N          5.014            2.478     31.16    687.49
         N          5.014            2.478     31.16    687.49
         N          6.037            2.478     31.16    687.49
         N          6.036            2.478     31.16    687.49
         N          6.083            2.478     31.16    687.49
         N          6.079            2.478     31.16    687.49
         N          4.988            2.478     31.16    687.49
         N          5.892            2.478     31.16    687.49
         N          5.014            2.478     31.16    687.49
         N          5.014            2.478     31.16    687.49
         N          6.039            2.478     31.16    687.49
         N          6.032            2.478     31.16    687.49
         N          6.063            2.478     31.16    687.49
         N          6.076            2.478     31.16    687.49
         N          4.985            2.478     31.16    687.49
         N          5.015            2.478     31.16    687.49
         N          5.014            2.478     31.16    687.49
         N          5.014            2.478     31.16    687.49
         N          6.043            2.478     31.16    687.49
         N          6.043            2.478     31.16    687.49
         N          6.089            2.478     31.16    687.49
         N          6.080            2.478     31.16    687.49
         N          4.977            2.478     31.16    687.49
         N          4.978            2.478     31.16    687.49
         N          5.014            2.478     31.16    687.49
         N          5.014            2.478     31.16    687.49
         N          6.039            2.478     31.16    687.49
         N          6.039            2.478     31.16    687.49
         N          6.073            2.478     31.16    687.49
         N          6.083            2.478     31.16    687.49
         N          4.983            2.478     31.16    687.49
         N          4.976            2.478     31.16    687.49
         N          5.014            2.478     31.16    687.49
         N          5.014            2.478     31.16    687.49
         N          6.013            2.478     31.16    687.49
         N          6.010            2.478     31.16    687.49
         N          6.052            2.478     31.16    687.49
         N          6.070            2.478     31.16    687.49
         N          4.895            2.478     31.16    687.49
         N          5.857            2.478     31.16    687.49
         N          5.014            2.478     31.16    687.49
         N          5.014            2.478     31.16    687.49
         N          6.033            2.478     31.16    687.49
         N          6.039            2.478     31.16    687.49
         N          6.066            2.478     31.16    687.49
         N          6.073            2.478     31.16    687.49
         N          5.029            2.478     31.16    687.49
         N          4.982            2.478     31.16    687.49
         N          5.014            2.478     31.16    687.49
         N          5.014            2.478     31.16    687.49
         N          6.047            2.478     31.16    687.49
         N          6.046            2.478     31.16    687.49
         N          6.091            2.478     31.16    687.49
         N          6.084            2.478     31.16    687.49
         N          4.973            2.478     31.16    687.49
         N          4.976            2.478     31.16    687.49
         N          5.014            2.478     31.16    687.49
         N          5.014            2.478     31.16    687.49
         N          6.039            2.478     31.16    687.49
         N          6.039            2.478     31.16    687.49
         N          6.077            2.478     31.16    687.49
         N          6.078            2.478     31.16    687.49
         N          4.985            2.478     31.16    687.49
         N          4.975            2.478     31.16    687.49
         N          5.014            2.478     31.16    687.49
         N          5.014            2.478     31.16    687.49
         N          6.037            2.478     31.16    687.49
         N          6.040            2.478     31.16    687.49
         N          6.080            2.478     31.16    687.49
         N          6.082            2.478     31.16    687.49
         N          4.989            2.478     31.16    687.49
         N          4.981            2.478     31.16    687.49
         S          2.125            3.128    251.69  12330.49
         Li         5.150            3.303    170.64  12899.87
         Li         2.950            3.303    170.64  12899.87

         Molecular C6 ( Ry / a.u.^6 ) =   4383378.11


     number of k points=    10  Marzari-Vanderbilt smearing, width (Ry)=  0.0250
                       cart. coord. in units 2pi/alat
        k(    1) = (   0.0000000   0.0000000   0.0000000), wk =   0.1250000
        k(    2) = (   0.0000000   0.2500000   0.0000000), wk =   0.2500000
        k(    3) = (   0.0000000  -0.5000000   0.0000000), wk =   0.1250000
        k(    4) = (   0.2500000   0.2500000   0.0000000), wk =   0.2500000
        k(    5) = (   0.2500000  -0.5000000   0.0000000), wk =   0.2500000
        k(    6) = (  -0.5000000  -0.5000000   0.0000000), wk =   0.1250000
        k(    7) = (   0.2500000   0.0000000   0.0000000), wk =   0.2500000
        k(    8) = (  -0.5000000   0.0000000   0.0000000), wk =   0.1250000
        k(    9) = (  -0.2500000   0.2500000   0.0000000), wk =   0.2500000
        k(   10) = (  -0.5000000   0.2500000   0.0000000), wk =   0.2500000

     Dense  grid:  4272073 G-vectors     FFT dimensions: ( 160, 160, 360)

     Smooth grid:  1080831 G-vectors     FFT dimensions: ( 100, 100, 216)

     Estimated max dynamical RAM per process >       1.43 GB

     Estimated total dynamical RAM >      88.71 GB

     Atomic positions and unit cell read from directory:
     ./tmp/VN_LiS_combi2_144.save/
     Atomic positions from file used, from input discarded


     Check: negative core charge=   -0.000004

     The initial density is read from file :
     ./tmp/VN_LiS_combi2_144.save/charge-density


     negative rho (up, down):  7.582E-02 0.000E+00
     Cannot read wfcs: file not found
     Starting wfcs are 1022 randomized atomic wfcs

     total cpu time spent up to now is       73.3 secs

     per-process dynamical memory:   895.8 Mb

     Self-consistent Calculation

     iteration #  1     ecut=    45.00 Ry     beta= 0.20
     Davidson diagonalization with overlap
     c_bands:  5 eigenvalues not converged
     ethr =  1.00E-05,  avg # of iterations = 33.9

     negative rho (up, down):  7.592E-02 0.000E+00

     total cpu time spent up to now is      564.4 secs

     total energy              =  -11960.98112719 Ry
     estimated scf accuracy    <       1.43555037 Ry

     iteration #  2     ecut=    45.00 Ry     beta= 0.20
     Davidson diagonalization with overlap
     ethr =  1.10E-04,  avg # of iterations =  9.6

     negative rho (up, down):  7.589E-02 0.000E+00

     total cpu time spent up to now is      789.6 secs

     total energy              =  -11958.21574622 Ry
     estimated scf accuracy    <     245.63407459 Ry

     iteration #  3     ecut=    45.00 Ry     beta= 0.20
     Davidson diagonalization with overlap
     ethr =  1.10E-04,  avg # of iterations =  8.7

     negative rho (up, down):  7.577E-02 0.000E+00

     total cpu time spent up to now is      961.2 secs

     total energy              =  -11961.12091568 Ry
     estimated scf accuracy    <      20.57438052 Ry

     iteration #  4     ecut=    45.00 Ry     beta= 0.20
     Davidson diagonalization with overlap
     ethr =  1.10E-04,  avg # of iterations =  2.5

     negative rho (up, down):  7.573E-02 0.000E+00

     total cpu time spent up to now is     1066.2 secs

     total energy              =  -11961.37609926 Ry
     estimated scf accuracy    <       0.79633236 Ry

     iteration #  5     ecut=    45.00 Ry     beta= 0.20
     Davidson diagonalization with overlap
     ethr =  6.09E-05,  avg # of iterations =  3.1

     negative rho (up, down):  7.574E-02 0.000E+00

     total cpu time spent up to now is     1169.9 secs

     total energy              =  -11961.39765119 Ry
     estimated scf accuracy    <       0.27490750 Ry

     iteration #  6     ecut=    45.00 Ry     beta= 0.20
     Davidson diagonalization with overlap
     ethr =  2.10E-05,  avg # of iterations = 13.8

     negative rho (up, down):  7.578E-02 0.000E+00

     total cpu time spent up to now is     1327.5 secs

     total energy              =  -11961.40421672 Ry
     estimated scf accuracy    <       0.41384481 Ry

     iteration #  7     ecut=    45.00 Ry     beta= 0.20
     Davidson diagonalization with overlap
     ethr =  2.10E-05,  avg # of iterations =  1.4

     negative rho (up, down):  7.578E-02 0.000E+00

     total cpu time spent up to now is     1423.0 secs

     total energy              =  -11961.40474140 Ry
     estimated scf accuracy    <       0.26142271 Ry

     iteration #  8     ecut=    45.00 Ry     beta= 0.20
     Davidson diagonalization with overlap
     ethr =  2.00E-05,  avg # of iterations =  1.0

     negative rho (up, down):  7.578E-02 0.000E+00

     total cpu time spent up to now is     1510.5 secs

     total energy              =  -11961.40704308 Ry
     estimated scf accuracy    <       0.12442063 Ry

     iteration #  9     ecut=    45.00 Ry     beta= 0.20
     Davidson diagonalization with overlap
     ethr =  9.51E-06,  avg # of iterations =  1.2

     negative rho (up, down):  7.577E-02 0.000E+00

     total cpu time spent up to now is     1610.6 secs

     total energy              =  -11961.40744028 Ry
     estimated scf accuracy    <       0.10583443 Ry

     iteration # 10     ecut=    45.00 Ry     beta= 0.20
     Davidson diagonalization with overlap
     ethr =  8.09E-06,  avg # of iterations =  1.2

     negative rho (up, down):  7.574E-02 0.000E+00

     total cpu time spent up to now is     1705.4 secs

     total energy              =  -11961.40902247 Ry
     estimated scf accuracy    <       0.03652664 Ry

     iteration # 11     ecut=    45.00 Ry     beta= 0.20
     Davidson diagonalization with overlap
     ethr =  2.79E-06,  avg # of iterations =  2.3

     negative rho (up, down):  7.575E-02 0.000E+00

     total cpu time spent up to now is     1810.8 secs

     total energy              =  -11961.40996263 Ry
     estimated scf accuracy    <       0.01739314 Ry

     iteration # 12     ecut=    45.00 Ry     beta= 0.20
     Davidson diagonalization with overlap
     ethr =  1.33E-06,  avg # of iterations =  2.9

     negative rho (up, down):  7.576E-02 0.000E+00

     total cpu time spent up to now is     1916.6 secs

     total energy              =  -11961.40966571 Ry
     estimated scf accuracy    <       0.04210780 Ry

     iteration # 13     ecut=    45.00 Ry     beta= 0.20
     Davidson diagonalization with overlap
     ethr =  1.33E-06,  avg # of iterations =  2.4

     negative rho (up, down):  7.576E-02 0.000E+00

     total cpu time spent up to now is     2017.5 secs

     total energy              =  -11961.40912793 Ry
     estimated scf accuracy    <       0.12760310 Ry

     iteration # 14     ecut=    45.00 Ry     beta= 0.20
     Davidson diagonalization with overlap
     ethr =  1.33E-06,  avg # of iterations =  2.1

     negative rho (up, down):  7.576E-02 0.000E+00

     total cpu time spent up to now is     2122.7 secs

     total energy              =  -11961.41044750 Ry
     estimated scf accuracy    <       0.01145392 Ry

     iteration # 15     ecut=    45.00 Ry     beta= 0.20
     Davidson diagonalization with overlap
     ethr =  8.76E-07,  avg # of iterations =  1.7

     negative rho (up, down):  7.577E-02 0.000E+00

     total cpu time spent up to now is     2224.0 secs

     total energy              =  -11961.41055094 Ry
     estimated scf accuracy    <       0.01259521 Ry

     iteration # 16     ecut=    45.00 Ry     beta= 0.20
     Davidson diagonalization with overlap
     ethr =  8.76E-07,  avg # of iterations =  1.2

     negative rho (up, down):  7.578E-02 0.000E+00

     total cpu time spent up to now is     2324.1 secs

     total energy              =  -11961.41062810 Ry
     estimated scf accuracy    <       0.00329890 Ry

     iteration # 17     ecut=    45.00 Ry     beta= 0.20
     Davidson diagonalization with overlap
     ethr =  2.52E-07,  avg # of iterations =  1.5

     negative rho (up, down):  7.578E-02 0.000E+00

     total cpu time spent up to now is     2426.1 secs

     total energy              =  -11961.41061614 Ry
     estimated scf accuracy    <       0.00281657 Ry

     iteration # 18     ecut=    45.00 Ry     beta= 0.20
     Davidson diagonalization with overlap
     ethr =  2.15E-07,  avg # of iterations =  1.9

     negative rho (up, down):  7.578E-02 0.000E+00

     total cpu time spent up to now is     2528.9 secs

     total energy              =  -11961.41062200 Ry
     estimated scf accuracy    <       0.00461403 Ry

     iteration # 19     ecut=    45.00 Ry     beta= 0.20
     Davidson diagonalization with overlap
     ethr =  2.15E-07,  avg # of iterations =  1.2

     negative rho (up, down):  7.579E-02 0.000E+00

     total cpu time spent up to now is     2627.7 secs

     total energy              =  -11961.41065937 Ry
     estimated scf accuracy    <       0.00234039 Ry

     iteration # 20     ecut=    45.00 Ry     beta= 0.20
     Davidson diagonalization with overlap
     ethr =  1.79E-07,  avg # of iterations =  1.2

     negative rho (up, down):  7.579E-02 0.000E+00

     total cpu time spent up to now is     2725.7 secs

     total energy              =  -11961.41064760 Ry
     estimated scf accuracy    <       0.00103888 Ry

     iteration # 21     ecut=    45.00 Ry     beta= 0.20
     Davidson diagonalization with overlap
     ethr =  7.94E-08,  avg # of iterations =  1.8

     negative rho (up, down):  7.580E-02 0.000E+00

     total cpu time spent up to now is     2833.9 secs

     total energy              =  -11961.41063128 Ry
     estimated scf accuracy    <       0.00138944 Ry

     iteration # 22     ecut=    45.00 Ry     beta= 0.20
     Davidson diagonalization with overlap
     ethr =  7.94E-08,  avg # of iterations =  1.0

     negative rho (up, down):  7.580E-02 0.000E+00

     total cpu time spent up to now is     2921.7 secs

     total energy              =  -11961.41063026 Ry
     estimated scf accuracy    <       0.00179253 Ry

     iteration # 23     ecut=    45.00 Ry     beta= 0.20
     Davidson diagonalization with overlap
     ethr =  7.94E-08,  avg # of iterations =  1.1

     negative rho (up, down):  7.579E-02 0.000E+00

     total cpu time spent up to now is     3016.7 secs

     total energy              =  -11961.41061848 Ry
     estimated scf accuracy    <       0.00351952 Ry

     iteration # 24     ecut=    45.00 Ry     beta= 0.20
     Davidson diagonalization with overlap
     ethr =  7.94E-08,  avg # of iterations =  1.0

     negative rho (up, down):  7.580E-02 0.000E+00

     total cpu time spent up to now is     3104.7 secs

     total energy              =  -11961.41063110 Ry
     estimated scf accuracy    <       0.00180785 Ry

     iteration # 25     ecut=    45.00 Ry     beta= 0.20
     Davidson diagonalization with overlap
     ethr =  7.94E-08,  avg # of iterations =  1.9

     negative rho (up, down):  7.580E-02 0.000E+00

     total cpu time spent up to now is     3209.9 secs

     total energy              =  -11961.41057952 Ry
     estimated scf accuracy    <       0.00598908 Ry

     iteration # 26     ecut=    45.00 Ry     beta= 0.20
     Davidson diagonalization with overlap
     ethr =  7.94E-08,  avg # of iterations =  1.0

     negative rho (up, down):  7.580E-02 0.000E+00

     total cpu time spent up to now is     3298.0 secs

     total energy              =  -11961.41065770 Ry
     estimated scf accuracy    <       0.00043979 Ry

     iteration # 27     ecut=    45.00 Ry     beta= 0.20
     Davidson diagonalization with overlap
     ethr =  3.36E-08,  avg # of iterations =  1.1

     negative rho (up, down):  7.580E-02 0.000E+00

     total cpu time spent up to now is     3390.8 secs

     total energy              =  -11961.41066358 Ry
     estimated scf accuracy    <       0.00031695 Ry

     iteration # 28     ecut=    45.00 Ry     beta= 0.20
     Davidson diagonalization with overlap
     ethr =  2.42E-08,  avg # of iterations =  1.1

     negative rho (up, down):  7.580E-02 0.000E+00

     total cpu time spent up to now is     3487.1 secs

     total energy              =  -11961.41065916 Ry
     estimated scf accuracy    <       0.00058022 Ry

     iteration # 29     ecut=    45.00 Ry     beta= 0.20
     Davidson diagonalization with overlap
     ethr =  2.42E-08,  avg # of iterations =  1.0

     negative rho (up, down):  7.581E-02 0.000E+00

     total cpu time spent up to now is     3575.8 secs

     total energy              =  -11961.41066432 Ry
     estimated scf accuracy    <       0.00051914 Ry

     iteration # 30     ecut=    45.00 Ry     beta= 0.20
     Davidson diagonalization with overlap
     ethr =  2.42E-08,  avg # of iterations =  1.0

     negative rho (up, down):  7.581E-02 0.000E+00

     total cpu time spent up to now is     3665.3 secs

     total energy              =  -11961.41067118 Ry
     estimated scf accuracy    <       0.00008788 Ry

     iteration # 31     ecut=    45.00 Ry     beta= 0.20
     Davidson diagonalization with overlap
     ethr =  6.72E-09,  avg # of iterations =  1.0

     negative rho (up, down):  7.581E-02 0.000E+00

     total cpu time spent up to now is     3754.1 secs

     total energy              =  -11961.41067049 Ry
     estimated scf accuracy    <       0.00008638 Ry

     iteration # 32     ecut=    45.00 Ry     beta= 0.20
     Davidson diagonalization with overlap
     ethr =  6.60E-09,  avg # of iterations =  1.0

     negative rho (up, down):  7.581E-02 0.000E+00

     total cpu time spent up to now is     3843.6 secs

     total energy              =  -11961.41067114 Ry
     estimated scf accuracy    <       0.00006217 Ry

     iteration # 33     ecut=    45.00 Ry     beta= 0.20
     Davidson diagonalization with overlap
     ethr =  4.75E-09,  avg # of iterations =  1.0

     negative rho (up, down):  7.581E-02 0.000E+00

     total cpu time spent up to now is     3935.0 secs

     total energy              =  -11961.41066805 Ry
     estimated scf accuracy    <       0.00017830 Ry

     iteration # 34     ecut=    45.00 Ry     beta= 0.20
     Davidson diagonalization with overlap
     ethr =  4.75E-09,  avg # of iterations =  2.0

     negative rho (up, down):  7.581E-02 0.000E+00

     total cpu time spent up to now is     4038.9 secs

     total energy              =  -11961.41066487 Ry
     estimated scf accuracy    <       0.00036492 Ry

     iteration # 35     ecut=    45.00 Ry     beta= 0.20
     Davidson diagonalization with overlap
     ethr =  4.75E-09,  avg # of iterations =  1.6

     negative rho (up, down):  7.581E-02 0.000E+00

     total cpu time spent up to now is     4141.1 secs

     total energy              =  -11961.41066685 Ry
     estimated scf accuracy    <       0.00022034 Ry

     iteration # 36     ecut=    45.00 Ry     beta= 0.20
     Davidson diagonalization with overlap
     ethr =  4.75E-09,  avg # of iterations =  1.0

     negative rho (up, down):  7.581E-02 0.000E+00

     total cpu time spent up to now is     4236.2 secs

     total energy              =  -11961.41066939 Ry
     estimated scf accuracy    <       0.00008102 Ry

     iteration # 37     ecut=    45.00 Ry     beta= 0.20
     Davidson diagonalization with overlap
     ethr =  4.75E-09,  avg # of iterations =  1.0

     negative rho (up, down):  7.581E-02 0.000E+00

     total cpu time spent up to now is     4324.4 secs

     total energy              =  -11961.41066988 Ry
     estimated scf accuracy    <       0.00006118 Ry

     iteration # 38     ecut=    45.00 Ry     beta= 0.20
     Davidson diagonalization with overlap
     ethr =  4.68E-09,  avg # of iterations =  1.0

     negative rho (up, down):  7.581E-02 0.000E+00

     total cpu time spent up to now is     4412.8 secs

     total energy              =  -11961.41066926 Ry
     estimated scf accuracy    <       0.00005902 Ry

     iteration # 39     ecut=    45.00 Ry     beta= 0.20
     Davidson diagonalization with overlap
     ethr =  4.51E-09,  avg # of iterations =  1.1

     negative rho (up, down):  7.581E-02 0.000E+00

     total cpu time spent up to now is     4508.9 secs

     total energy              =  -11961.41066828 Ry
     estimated scf accuracy    <       0.00013509 Ry

     iteration # 40     ecut=    45.00 Ry     beta= 0.20
     Davidson diagonalization with overlap
     ethr =  4.51E-09,  avg # of iterations =  1.0

     negative rho (up, down):  7.581E-02 0.000E+00

     total cpu time spent up to now is     4596.0 secs

     total energy              =  -11961.41067013 Ry
     estimated scf accuracy    <       0.00003982 Ry

     iteration # 41     ecut=    45.00 Ry     beta= 0.20
     Davidson diagonalization with overlap
     ethr =  3.04E-09,  avg # of iterations =  1.0

     negative rho (up, down):  7.581E-02 0.000E+00

     total cpu time spent up to now is     4687.0 secs

     total energy              =  -11961.41067075 Ry
     estimated scf accuracy    <       0.00001793 Ry

     iteration # 42     ecut=    45.00 Ry     beta= 0.20
     Davidson diagonalization with overlap
     ethr =  1.37E-09,  avg # of iterations =  1.0

     negative rho (up, down):  7.581E-02 0.000E+00

     total cpu time spent up to now is     4775.7 secs

     total energy              =  -11961.41067103 Ry
     estimated scf accuracy    <       0.00001136 Ry

     iteration # 43     ecut=    45.00 Ry     beta= 0.20
     Davidson diagonalization with overlap
     ethr =  8.69E-10,  avg # of iterations =  1.0

     negative rho (up, down):  7.581E-02 0.000E+00

     total cpu time spent up to now is     4863.6 secs

     total energy              =  -11961.41067096 Ry
     estimated scf accuracy    <       0.00001052 Ry

     iteration # 44     ecut=    45.00 Ry     beta= 0.20
     Davidson diagonalization with overlap
     ethr =  8.04E-10,  avg # of iterations =  1.0

     negative rho (up, down):  7.582E-02 0.000E+00

     total cpu time spent up to now is     4959.1 secs

     total energy              =  -11961.41067072 Ry
     estimated scf accuracy    <       0.00002465 Ry

     iteration # 45     ecut=    45.00 Ry     beta= 0.20
     Davidson diagonalization with overlap
     ethr =  8.04E-10,  avg # of iterations =  1.0

     negative rho (up, down):  7.582E-02 0.000E+00

     total cpu time spent up to now is     5046.9 secs

     total energy              =  -11961.41067086 Ry
     estimated scf accuracy    <       0.00000987 Ry

     iteration # 46     ecut=    45.00 Ry     beta= 0.20
     Davidson diagonalization with overlap
     ethr =  7.55E-10,  avg # of iterations =  1.0

     negative rho (up, down):  7.582E-02 0.000E+00

     total cpu time spent up to now is     5134.3 secs

     total energy              =  -11961.41067086 Ry
     estimated scf accuracy    <       0.00001168 Ry

     iteration # 47     ecut=    45.00 Ry     beta= 0.20
     Davidson diagonalization with overlap
     ethr =  7.55E-10,  avg # of iterations =  1.0

     negative rho (up, down):  7.582E-02 0.000E+00

     total cpu time spent up to now is     5221.7 secs

     total energy              =  -11961.41067076 Ry
     estimated scf accuracy    <       0.00001625 Ry

     iteration # 48     ecut=    45.00 Ry     beta= 0.20
     Davidson diagonalization with overlap
     ethr =  7.55E-10,  avg # of iterations =  1.0

     negative rho (up, down):  7.582E-02 0.000E+00

     total cpu time spent up to now is     5309.1 secs

     total energy              =  -11961.41067090 Ry
     estimated scf accuracy    <       0.00000420 Ry

     iteration # 49     ecut=    45.00 Ry     beta= 0.20
     Davidson diagonalization with overlap
     ethr =  3.21E-10,  avg # of iterations =  1.4

     negative rho (up, down):  7.582E-02 0.000E+00

     total cpu time spent up to now is     5410.2 secs

     total energy              =  -11961.41067070 Ry
     estimated scf accuracy    <       0.00001213 Ry

     iteration # 50     ecut=    45.00 Ry     beta= 0.20
     Davidson diagonalization with overlap
     ethr =  3.21E-10,  avg # of iterations =  1.6

     negative rho (up, down):  7.582E-02 0.000E+00

     total cpu time spent up to now is     5511.8 secs

     total energy              =  -11961.41067076 Ry
     estimated scf accuracy    <       0.00000870 Ry

     iteration # 51     ecut=    45.00 Ry     beta= 0.20
     Davidson diagonalization with overlap
     ethr =  3.21E-10,  avg # of iterations =  1.0

     negative rho (up, down):  7.582E-02 0.000E+00

     total cpu time spent up to now is     5599.7 secs

     total energy              =  -11961.41067090 Ry
     estimated scf accuracy    <       0.00000428 Ry

     iteration # 52     ecut=    45.00 Ry     beta= 0.20
     Davidson diagonalization with overlap
     ethr =  3.21E-10,  avg # of iterations =  1.0

     negative rho (up, down):  7.582E-02 0.000E+00

     total cpu time spent up to now is     5691.1 secs

     total energy              =  -11961.41067091 Ry
     estimated scf accuracy    <       0.00000571 Ry

     iteration # 53     ecut=    45.00 Ry     beta= 0.20
     Davidson diagonalization with overlap
     ethr =  3.21E-10,  avg # of iterations =  1.0

     negative rho (up, down):  7.582E-02 0.000E+00

     total cpu time spent up to now is     5778.9 secs

     total energy              =  -11961.41067093 Ry
     estimated scf accuracy    <       0.00000390 Ry

     iteration # 54     ecut=    45.00 Ry     beta= 0.20
     Davidson diagonalization with overlap
     ethr =  2.98E-10,  avg # of iterations =  1.0

     negative rho (up, down):  7.582E-02 0.000E+00

     total cpu time spent up to now is     5867.0 secs

     total energy              =  -11961.41067092 Ry
     estimated scf accuracy    <       0.00000515 Ry

     iteration # 55     ecut=    45.00 Ry     beta= 0.20
     Davidson diagonalization with overlap
     ethr =  2.98E-10,  avg # of iterations =  1.0

     negative rho (up, down):  7.582E-02 0.000E+00

     total cpu time spent up to now is     5957.2 secs

     total energy              =  -11961.41067098 Ry
     estimated scf accuracy    <       0.00000149 Ry

     iteration # 56     ecut=    45.00 Ry     beta= 0.20
     Davidson diagonalization with overlap
     ethr =  1.14E-10,  avg # of iterations =  1.0

     negative rho (up, down):  7.582E-02 0.000E+00

     total cpu time spent up to now is     6045.4 secs

     total energy              =  -11961.41067097 Ry
     estimated scf accuracy    <       0.00000286 Ry

     iteration # 57     ecut=    45.00 Ry     beta= 0.20
     Davidson diagonalization with overlap
     ethr =  1.14E-10,  avg # of iterations =  1.0

     negative rho (up, down):  7.582E-02 0.000E+00

     total cpu time spent up to now is     6134.1 secs

     total energy              =  -11961.41067096 Ry
     estimated scf accuracy    <       0.00000200 Ry

     iteration # 58     ecut=    45.00 Ry     beta= 0.20
     Davidson diagonalization with overlap
     ethr =  1.14E-10,  avg # of iterations =  1.0

     negative rho (up, down):  7.582E-02 0.000E+00

     total cpu time spent up to now is     6230.3 secs

     End of self-consistent calculation

          k = 0.0000 0.0000 0.0000 (135157 PWs)   bands (ev):

   -61.6978 -61.6811 -61.6672 -61.6635 -61.6619 -61.6572 -61.6546 -61.6529
   -61.6486 -61.6450 -61.6359 -61.6352 -61.6320 -61.6311 -61.6289 -61.6269
   -61.6256 -61.6152 -61.6076 -61.6020 -61.6002 -61.5969 -61.5927 -61.5912
   -61.5905 -61.5894 -61.5875 -61.5871 -61.5817 -61.5802 -61.5786 -61.5778
   -61.5754 -61.5742 -61.5724 -61.5711 -61.5698 -61.5695 -61.5680 -61.5593
   -61.5572 -61.5560 -61.5444 -61.5329 -61.5288 -61.5182 -61.5107 -61.5093
   -61.5023 -61.4949 -61.4869 -61.4806 -61.4641 -61.4587 -61.4532 -61.4497
   -61.4480 -61.4400 -61.4274 -61.4201 -61.4174 -61.4099 -61.3923 -61.3846
   -61.3809 -61.3767 -61.3753 -61.3740 -61.3700 -61.3657 -61.3604 -61.3230
   -44.2898 -42.7577 -35.7768 -35.7758 -35.7736 -35.7694 -35.7353 -35.7336
   -35.7316 -35.7313 -35.7290 -35.7282 -35.7256 -35.7195 -35.7165 -35.7148
   -35.7031 -35.6987 -35.6949 -35.6913 -35.6830 -35.6825 -35.6810 -35.6792
   -35.6768 -35.6730 -35.6719 -35.6709 -35.6683 -35.6646 -35.6593 -35.6574
   -35.6556 -35.6519 -35.6496 -35.6460 -35.6389 -35.6327 -35.6322 -35.6300
   -35.6298 -35.6281 -35.6270 -35.6236 -35.6215 -35.6201 -35.6177 -35.6163
   -35.6113 -35.6058 -35.6025 -35.6007 -35.5974 -35.5967 -35.5895 -35.5878
   -35.5817 -35.5796 -35.5753 -35.5745 -35.5705 -35.5695 -35.5670 -35.5636
   -35.5616 -35.5596 -35.5557 -35.5550 -35.5521 -35.5496 -35.5402 -35.5385
   -35.5364 -35.5324 -35.5154 -35.5131 -35.5124 -35.5097 -35.5069 -35.5044
   -35.5027 -35.5015 -35.4990 -35.4933 -35.4902 -35.4867 -35.4802 -35.4777
   -35.4746 -35.4742 -35.4732 -35.4726 -35.4707 -35.4682 -35.4665 -35.4655
   -35.4636 -35.4618 -35.4585 -35.4566 -35.4523 -35.4496 -35.4444 -35.4435
   -35.4384 -35.4374 -35.4339 -35.4321 -35.4305 -35.4301 -35.4283 -35.4268
   -35.4230 -35.4218 -35.4203 -35.4192 -35.4160 -35.4149 -35.4118 -35.4106
   -35.4095 -35.4082 -35.4076 -35.4068 -35.4039 -35.4038 -35.4021 -35.4003
   -35.3980 -35.3974 -35.3947 -35.3922 -35.3917 -35.3906 -35.3890 -35.3876
   -35.3870 -35.3849 -35.3833 -35.3816 -35.3806 -35.3788 -35.3781 -35.3749
   -35.3731 -35.3708 -35.3699 -35.3665 -35.3636 -35.3621 -35.3588 -35.3550
   -35.3546 -35.3517 -35.3510 -35.3490 -35.3429 -35.3403 -35.3386 -35.3375
   -35.3368 -35.3350 -35.3290 -35.3247 -35.3210 -35.3185 -35.3117 -35.3088
   -35.3057 -35.3001 -35.2956 -35.2937 -35.2890 -35.2848 -35.2814 -35.2786
   -35.2767 -35.2718 -35.2678 -35.2623 -35.2564 -35.2548 -35.2483 -35.2477
   -35.2451 -35.2435 -35.2332 -35.2326 -35.2294 -35.2271 -35.2258 -35.2227
   -35.2194 -35.2138 -35.2100 -35.2056 -35.2000 -35.1898 -35.1871 -35.1828
   -35.1785 -35.1744 -35.1738 -35.1718 -35.1689 -35.1656 -35.1566 -35.1511
   -35.1440 -35.1383 -35.1320 -35.1231 -35.1203 -35.1160 -35.1112 -35.0938
   -35.0836 -35.0720 -14.0345 -13.3868 -13.3792 -13.3755 -13.3607 -13.1585
   -12.7867 -12.7825 -12.7732 -12.7520 -12.6173 -12.6138 -12.6068 -12.5942
   -12.4973 -12.4877 -12.4841 -12.4750 -12.4552 -12.3910 -12.3462 -12.2169
   -12.1999 -12.1844 -12.1765 -12.1728 -12.1661 -12.1587 -12.1503 -12.1404
   -12.1238 -12.1115 -12.0945 -12.0604 -12.0371 -12.0293 -12.0138 -12.0061
   -11.8798 -11.8763 -11.8746 -11.8686 -11.7805 -11.7268 -11.7124 -11.6903
   -11.6230 -11.4944 -11.4853 -11.4844 -11.4836 -11.4820 -11.4724 -11.4695
   -11.4636 -11.4327 -11.3133 -11.2984 -11.2819 -11.2667 -11.2412 -11.2401
   -11.2397 -11.2386 -11.2363 -11.2046 -11.1733 -11.1315 -10.9990 -10.9540
   -10.9121 -10.8611  -8.0088  -4.4954  -4.4798  -4.4663  -4.4462  -4.3170
    -4.3156  -4.3027  -4.2913  -4.1522  -4.1481  -4.1144  -4.1036  -4.0724
    -4.0657  -4.0507  -4.0452  -3.7528  -3.7458  -3.7151  -3.7092  -3.5406
    -3.5355  -3.5320  -3.5279  -3.4461  -3.4353  -3.4299  -3.4274  -3.4103
    -3.4026  -3.3923  -3.3789  -3.3238  -3.3069  -3.2928  -3.2847  -3.2788
    -3.0744  -3.0467  -3.0253  -3.0066  -2.9622  -2.9522  -2.9449  -2.9339
    -2.9258  -2.9156  -2.8876  -2.8814  -2.8711  -2.8649  -2.8288  -2.8239
    -2.8130  -2.8085  -2.8061  -2.7999  -2.7814  -2.7715  -2.4432  -2.4287
    -2.3949  -2.3829  -2.3620  -2.3553  -2.3099  -2.3062  -2.2921  -2.2658
    -2.2605  -2.2578  -2.2492  -2.2423  -2.2410  -2.2370  -2.2298  -2.2282
    -2.2250  -2.1856  -2.1715  -2.1651  -2.1598  -2.1475  -2.1066  -2.0910
    -2.0708  -2.0604  -2.0458  -2.0334  -2.0296  -2.0213  -2.0043  -1.9957
    -1.9904  -1.9667  -1.9598  -1.9521  -1.9474  -1.9393  -1.9156  -1.9099
    -1.9025  -1.8955  -1.8894  -1.8804  -1.8763  -1.8693  -1.8622  -1.8542
    -1.8443  -1.7822  -1.7712  -1.7654  -1.7576  -1.7441  -1.7335  -1.7217
    -1.7068  -1.6932  -1.6278  -1.6265  -1.6252  -1.6211  -1.6170  -1.6052
    -1.6028  -1.5867  -1.5738  -1.5471  -1.5331  -1.5179  -1.5133  -1.5062
    -1.4993  -1.4982  -1.4630  -1.4541  -1.4464  -1.4070  -1.3926  -1.3899
    -1.3759  -1.3748  -1.3606  -1.3600  -1.3584  -1.3582  -1.3539  -1.3402
    -1.2971  -1.2786  -1.2619  -1.2404  -1.2313  -1.2240  -1.2054  -1.1991
    -1.1843  -1.1771  -1.1705  -1.1551  -1.1466  -1.1285  -1.1157  -1.1058
    -1.0598  -1.0533  -1.0287  -1.0124  -0.9906  -0.9712  -0.9344  -0.9251
    -0.8858  -0.8588  -0.8110  -0.7790  -0.7658  -0.7363  -0.7164  -0.7125
    -0.6898  -0.6746  -0.6704  -0.6480  -0.6217  -0.5926  -0.5734  -0.5602
    -0.5247  -0.4913  -0.4748  -0.4688  -0.4629  -0.4556  -0.4340  -0.3659
    -0.2390  -0.2130  -0.1919  -0.1369  -0.1146  -0.0812  -0.0545  -0.0491
    -0.0053   0.0008   0.0380   0.0483   0.2097   0.2303   0.3450   0.5451
     0.5603   0.7560   0.7686   1.0463   1.0658   1.0822   1.0968   1.1054
     1.1194   1.1244   1.3350   1.3517   1.5220   1.6587   1.9170   2.0127
     2.0319   2.0730   2.1243   2.1622   2.5723   2.5937   2.5998   2.6293
     2.6516   2.6588   2.6727   2.6851   2.7058   2.7305   2.7408   2.7688
     2.7802   2.7870   2.7919   2.8050   2.8179   2.8327   2.8440   2.8557
     2.8612   2.8645   2.8678   2.8865   2.8904   2.9299   2.9524   2.9763
     3.1369   3.1496   3.1972   3.2299   3.2387   3.2469   3.2608   3.2773
     3.2867   3.3115   3.3237   3.3422   3.3470   3.4079   3.4215   3.4289
     3.4493   3.4538   3.4698   3.4765   3.4791   3.5110   3.5281   3.5424
     3.5537   3.5572   3.5754   3.5843   3.5977   3.6105   3.6213   3.6301
     3.6523   3.6620   3.6636   3.6727   3.6789   3.6857   3.6913   3.6916
     3.6942   3.6962   3.7051   3.7131   3.7211   3.7246   3.7418   3.7482
     3.7703   3.7866   3.8940   3.9332   3.9433   3.9592   3.9648   3.9715
     3.9799   3.9845   3.9988   4.0033   4.0160   4.0433   4.0523   4.0920
     4.1613   4.1656   4.1791   4.2117   4.2247   4.2287   4.2373   4.2435
     4.2619   4.2715   4.2777   4.2854   4.2931   4.2970   4.3150   4.3357
     4.3498   4.3661   4.3702   4.3790   4.3939   4.4029   4.4095   4.4129
     4.4251   4.4299   4.4328   4.4402   4.4423   4.4436   4.4477   4.4496
     4.4617   4.4854   4.5262   4.5384   4.5719   4.5741   4.5827   4.5859
     4.6052   4.6153   4.6249   4.6372   4.6457   4.6561   4.6585   4.6672
     4.6717   4.6781   4.7066   4.7090   4.7120   4.7130   4.7197   4.7262
     4.7336   4.7358   4.7560   4.7577   4.7701   4.7761   4.7883   4.7945
     4.8052   4.8116   4.8165   4.8343   4.8421   4.8510   4.8573   4.8607
     4.8733   4.8898   4.8952   4.9051   4.9090   4.9253   4.9417   4.9514
     4.9696   4.9982   5.0139   5.0261   5.0340   5.0389   5.0479   5.0551
     5.0678   5.0818   5.0855   5.0936   5.0982   5.1102   5.1163   5.1259
     5.1279

          k = 0.0000 0.2500 0.0000 (135097 PWs)   bands (ev):

   -61.6978 -61.6799 -61.6711 -61.6627 -61.6612 -61.6570 -61.6552 -61.6517
   -61.6460 -61.6435 -61.6376 -61.6368 -61.6355 -61.6301 -61.6286 -61.6260
   -61.6246 -61.6151 -61.6074 -61.6027 -61.5997 -61.5973 -61.5929 -61.5910
   -61.5899 -61.5893 -61.5866 -61.5862 -61.5835 -61.5807 -61.5788 -61.5783
   -61.5750 -61.5739 -61.5731 -61.5711 -61.5699 -61.5693 -61.5661 -61.5601
   -61.5581 -61.5552 -61.5444 -61.5329 -61.5288 -61.5181 -61.5102 -61.5093
   -61.5025 -61.4955 -61.4869 -61.4805 -61.4641 -61.4587 -61.4533 -61.4496
   -61.4481 -61.4400 -61.4274 -61.4200 -61.4175 -61.4098 -61.3924 -61.3846
   -61.3809 -61.3767 -61.3752 -61.3741 -61.3699 -61.3658 -61.3605 -61.3230
   -44.2898 -42.7577 -35.7804 -35.7784 -35.7601 -35.7579 -35.7558 -35.7543
   -35.7355 -35.7307 -35.7286 -35.7265 -35.7187 -35.7140 -35.7074 -35.7047
   -35.7031 -35.6996 -35.6989 -35.6956 -35.6946 -35.6937 -35.6806 -35.6726
   -35.6710 -35.6663 -35.6622 -35.6610 -35.6582 -35.6562 -35.6549 -35.6542
   -35.6511 -35.6495 -35.6447 -35.6416 -35.6395 -35.6375 -35.6363 -35.6351
   -35.6343 -35.6303 -35.6290 -35.6273 -35.6256 -35.6239 -35.6226 -35.6184
   -35.6172 -35.6141 -35.6117 -35.6076 -35.6035 -35.6002 -35.5991 -35.5940
   -35.5902 -35.5829 -35.5792 -35.5737 -35.5703 -35.5678 -35.5637 -35.5592
   -35.5587 -35.5548 -35.5523 -35.5510 -35.5470 -35.5422 -35.5402 -35.5271
   -35.5228 -35.5213 -35.5161 -35.5136 -35.5118 -35.5089 -35.5054 -35.5005
   -35.4992 -35.4966 -35.4946 -35.4926 -35.4891 -35.4859 -35.4823 -35.4809
   -35.4787 -35.4762 -35.4736 -35.4725 -35.4680 -35.4674 -35.4655 -35.4627
   -35.4612 -35.4607 -35.4552 -35.4523 -35.4508 -35.4490 -35.4471 -35.4455
   -35.4440 -35.4428 -35.4403 -35.4386 -35.4382 -35.4370 -35.4360 -35.4351
   -35.4328 -35.4303 -35.4292 -35.4272 -35.4250 -35.4229 -35.4208 -35.4174
   -35.4129 -35.4093 -35.4067 -35.4038 -35.4007 -35.3980 -35.3962 -35.3937
   -35.3926 -35.3910 -35.3893 -35.3880 -35.3871 -35.3864 -35.3841 -35.3830
   -35.3814 -35.3808 -35.3796 -35.3781 -35.3753 -35.3731 -35.3722 -35.3711
   -35.3701 -35.3683 -35.3670 -35.3652 -35.3639 -35.3609 -35.3581 -35.3574
   -35.3554 -35.3521 -35.3517 -35.3486 -35.3473 -35.3445 -35.3431 -35.3419
   -35.3399 -35.3352 -35.3290 -35.3226 -35.3195 -35.3176 -35.3162 -35.3100
   -35.3052 -35.3015 -35.3002 -35.2933 -35.2912 -35.2846 -35.2827 -35.2806
   -35.2769 -35.2704 -35.2667 -35.2610 -35.2565 -35.2539 -35.2515 -35.2479
   -35.2438 -35.2408 -35.2351 -35.2326 -35.2306 -35.2258 -35.2243 -35.2222
   -35.2192 -35.2137 -35.2082 -35.2058 -35.1996 -35.1895 -35.1854 -35.1839
   -35.1797 -35.1775 -35.1748 -35.1702 -35.1683 -35.1646 -35.1552 -35.1507
   -35.1453 -35.1388 -35.1310 -35.1242 -35.1203 -35.1155 -35.1111 -35.0940
   -35.0836 -35.0723 -13.9872 -13.6381 -13.3363 -13.3273 -13.1173 -13.0971
   -13.0144 -13.0047 -12.8143 -12.6279 -12.5761 -12.5722 -12.5362 -12.5221
   -12.4695 -12.4510 -12.4427 -12.4321 -12.3835 -12.3725 -12.3202 -12.3145
   -12.3071 -12.2452 -12.2316 -12.2179 -12.1835 -12.1700 -12.1636 -12.1621
   -12.1412 -12.1369 -12.0653 -12.0613 -12.0505 -12.0003 -11.9888 -11.9458
   -11.9396 -11.9132 -11.8428 -11.8416 -11.7275 -11.7071 -11.6709 -11.6207
   -11.6168 -11.6063 -11.5682 -11.5136 -11.5017 -11.4870 -11.4619 -11.4598
   -11.4109 -11.3488 -11.3339 -11.3188 -11.3145 -11.3089 -11.3004 -11.2441
   -11.2283 -11.2078 -11.2040 -11.1944 -11.1186 -11.1006 -11.0007 -10.9642
   -10.9088 -10.8664  -8.0089  -4.6371  -4.6111  -4.4544  -4.4453  -4.4267
    -4.3969  -4.3163  -4.3100  -4.2235  -4.2004  -4.0723  -4.0638  -3.8333
    -3.8125  -3.8040  -3.7957  -3.7694  -3.7307  -3.7087  -3.6405  -3.6363
    -3.5400  -3.5344  -3.5325  -3.5202  -3.4985  -3.4540  -3.4452  -3.4307
    -3.4001  -3.3691  -3.3560  -3.3480  -3.3365  -3.3280  -3.2906  -3.2219
    -3.1898  -3.1744  -3.1615  -3.1137  -3.0958  -3.0598  -3.0473  -3.0265
    -3.0065  -2.9726  -2.9623  -2.9292  -2.8659  -2.7856  -2.7784  -2.7044
    -2.6986  -2.6763  -2.6368  -2.6270  -2.6190  -2.6068  -2.5465  -2.5086
    -2.4442  -2.4096  -2.3790  -2.3714  -2.3601  -2.3561  -2.3322  -2.3107
    -2.3019  -2.2924  -2.2876  -2.2836  -2.2788  -2.2676  -2.2392  -2.2314
    -2.2155  -2.2148  -2.1998  -2.1813  -2.1649  -2.1549  -2.1458  -2.1173
    -2.0922  -2.0830  -2.0634  -2.0552  -2.0479  -2.0414  -2.0343  -2.0254
    -2.0153  -2.0049  -1.9978  -1.9904  -1.9846  -1.9665  -1.9251  -1.8895
    -1.8767  -1.8582  -1.8388  -1.8334  -1.8219  -1.8155  -1.8089  -1.7948
    -1.7846  -1.7748  -1.7533  -1.7363  -1.6935  -1.6903  -1.6844  -1.6831
    -1.6728  -1.6679  -1.6619  -1.6505  -1.6394  -1.6339  -1.6246  -1.6063
    -1.5993  -1.5817  -1.5628  -1.5521  -1.5515  -1.5354  -1.5252  -1.5053
    -1.4884  -1.4741  -1.4630  -1.4495  -1.4361  -1.4250  -1.3985  -1.3894
    -1.3649  -1.3511  -1.3290  -1.3223  -1.3170  -1.2993  -1.2909  -1.2836
    -1.2729  -1.2628  -1.2544  -1.2524  -1.2154  -1.1873  -1.1550  -1.1445
    -1.1252  -1.1115  -1.0884  -1.0835  -1.0592  -1.0477  -1.0360  -1.0102
    -1.0001  -0.9963  -0.9692  -0.9619  -0.9322  -0.9014  -0.8924  -0.8690
    -0.8635  -0.8527  -0.8428  -0.8186  -0.8066  -0.8007  -0.7715  -0.7254
    -0.7010  -0.6856  -0.6400  -0.6273  -0.6077  -0.5914  -0.5584  -0.5485
    -0.5426  -0.5224  -0.5023  -0.4835  -0.4808  -0.4429  -0.3926  -0.3549
    -0.3282  -0.3101  -0.2705  -0.2518  -0.2097  -0.1739  -0.1472  -0.1372
    -0.1220  -0.1001   0.0075   0.0831   0.1224   0.2710   0.3557   0.4256
     0.7599   0.7891   0.8431   0.9195   0.9426   0.9914   1.0629   1.1191
     1.2414   1.2885   1.3031   1.3327   1.6343   1.8528   1.8728   1.9358
     2.0300   2.0921   2.1633   2.2012   2.2250   2.2573   2.2981   2.3285
     2.4464   2.6083   2.6314   2.6567   2.6684   2.6767   2.6962   2.7237
     2.7392   2.7454   2.7876   2.7983   2.8207   2.8456   2.8594   2.8757
     2.8834   2.9016   2.9169   2.9540   2.9712   2.9976   3.0215   3.0540
     3.0612   3.1131   3.1446   3.1829   3.1937   3.2003   3.2212   3.2488
     3.2612   3.2743   3.2917   3.2972   3.3057   3.3263   3.3391   3.3470
     3.3644   3.3834   3.3950   3.4218   3.4654   3.4839   3.4909   3.5045
     3.5272   3.5413   3.5558   3.5811   3.5900   3.6098   3.6216   3.6419
     3.6548   3.6741   3.6979   3.7095   3.7294   3.7385   3.7511   3.7771
     3.7938   3.8141   3.8236   3.8345   3.8563   3.8690   3.8791   3.8967
     3.9111   3.9249   3.9361   3.9485   3.9544   3.9701   3.9876   3.9966
     4.0192   4.0246   4.0325   4.0577   4.0723   4.1038   4.1110   4.1360
     4.1435   4.1831   4.2051   4.2101   4.2297   4.2590   4.2797   4.2984
     4.3067   4.3100   4.3172   4.3311   4.3378   4.3409   4.3484   4.3558
     4.3685   4.3754   4.3792   4.3857   4.3940   4.3991   4.4137   4.4245
     4.4327   4.4427   4.4489   4.4592   4.4695   4.4815   4.4898   4.5000
     4.5027   4.5070   4.5156   4.5225   4.5288   4.5320   4.5362   4.5523
     4.5576   4.5711   4.5767   4.5921   4.6032   4.6308   4.6373   4.6451
     4.6486   4.6507   4.6568   4.6640   4.6781   4.6867   4.7002   4.7126
     4.7250   4.7472   4.7570   4.7677   4.7801   4.7849   4.7921   4.8042
     4.8064   4.8140   4.8320   4.8409   4.8565   4.8668   4.8766   4.8846
     4.8945   4.9147   4.9240   4.9310   4.9413   4.9487   4.9535   4.9668
     4.9704   4.9741   4.9906   5.0073   5.0152   5.0199   5.0216   5.0346
     5.0413   5.0447   5.0562   5.0703   5.0757   5.0848   5.0936   5.0990
     5.1010

          k = 0.0000-0.5000 0.0000 (135178 PWs)   bands (ev):

   -61.6978 -61.6769 -61.6757 -61.6616 -61.6605 -61.6583 -61.6571 -61.6454
   -61.6443 -61.6421 -61.6420 -61.6390 -61.6370 -61.6297 -61.6283 -61.6261
   -61.6235 -61.6151 -61.6073 -61.6033 -61.5992 -61.5979 -61.5930 -61.5911
   -61.5895 -61.5888 -61.5856 -61.5849 -61.5835 -61.5830 -61.5811 -61.5774
   -61.5742 -61.5735 -61.5733 -61.5716 -61.5704 -61.5691 -61.5638 -61.5616
   -61.5587 -61.5547 -61.5444 -61.5329 -61.5288 -61.5179 -61.5097 -61.5093
   -61.5026 -61.4960 -61.4869 -61.4804 -61.4641 -61.4587 -61.4533 -61.4495
   -61.4482 -61.4400 -61.4274 -61.4200 -61.4176 -61.4098 -61.3925 -61.3846
   -61.3809 -61.3768 -61.3750 -61.3742 -61.3698 -61.3658 -61.3605 -61.3230
   -44.2898 -42.7577 -35.7762 -35.7738 -35.7728 -35.7696 -35.7382 -35.7373
   -35.7348 -35.7337 -35.7315 -35.7300 -35.7245 -35.7231 -35.7189 -35.7176
   -35.7154 -35.7143 -35.6837 -35.6770 -35.6748 -35.6729 -35.6712 -35.6682
   -35.6667 -35.6619 -35.6613 -35.6580 -35.6564 -35.6541 -35.6526 -35.6499
   -35.6476 -35.6460 -35.6442 -35.6430 -35.6423 -35.6416 -35.6403 -35.6393
   -35.6380 -35.6374 -35.6359 -35.6335 -35.6328 -35.6257 -35.6230 -35.6219
   -35.6210 -35.6168 -35.6147 -35.6119 -35.6094 -35.6067 -35.6038 -35.6017
   -35.5960 -35.5946 -35.5894 -35.5738 -35.5690 -35.5675 -35.5549 -35.5524
   -35.5464 -35.5444 -35.5434 -35.5413 -35.5372 -35.5344 -35.5321 -35.5301
   -35.5283 -35.5244 -35.5217 -35.5212 -35.5145 -35.5117 -35.5048 -35.5009
   -35.4956 -35.4920 -35.4892 -35.4844 -35.4803 -35.4793 -35.4775 -35.4763
   -35.4733 -35.4696 -35.4685 -35.4670 -35.4662 -35.4650 -35.4634 -35.4624
   -35.4614 -35.4596 -35.4582 -35.4563 -35.4556 -35.4542 -35.4527 -35.4526
   -35.4522 -35.4508 -35.4496 -35.4486 -35.4469 -35.4444 -35.4420 -35.4406
   -35.4369 -35.4346 -35.4331 -35.4319 -35.4281 -35.4266 -35.4227 -35.4218
   -35.4151 -35.4098 -35.4068 -35.4040 -35.4008 -35.3977 -35.3928 -35.3925
   -35.3889 -35.3881 -35.3859 -35.3847 -35.3832 -35.3823 -35.3809 -35.3806
   -35.3785 -35.3765 -35.3734 -35.3718 -35.3704 -35.3681 -35.3678 -35.3666
   -35.3660 -35.3651 -35.3643 -35.3631 -35.3606 -35.3592 -35.3579 -35.3563
   -35.3556 -35.3553 -35.3529 -35.3520 -35.3514 -35.3504 -35.3495 -35.3444
   -35.3392 -35.3327 -35.3316 -35.3253 -35.3211 -35.3185 -35.3141 -35.3113
   -35.3088 -35.3017 -35.2992 -35.2956 -35.2908 -35.2874 -35.2845 -35.2813
   -35.2778 -35.2698 -35.2643 -35.2613 -35.2581 -35.2533 -35.2526 -35.2491
   -35.2427 -35.2369 -35.2342 -35.2337 -35.2316 -35.2265 -35.2252 -35.2213
   -35.2166 -35.2126 -35.2074 -35.2058 -35.1995 -35.1892 -35.1859 -35.1829
   -35.1804 -35.1789 -35.1766 -35.1698 -35.1678 -35.1650 -35.1516 -35.1504
   -35.1478 -35.1393 -35.1294 -35.1260 -35.1202 -35.1151 -35.1111 -35.0943
   -35.0836 -35.0725 -13.8565 -13.8438 -13.2158 -13.2089 -13.2057 -13.1892
   -12.9999 -12.9914 -12.8838 -12.7798 -12.4822 -12.4732 -12.4706 -12.4605
   -12.4465 -12.4270 -12.3748 -12.3668 -12.3630 -12.3577 -12.3452 -12.3288
   -12.3226 -12.3187 -12.2654 -12.2547 -12.2457 -12.2094 -12.2061 -12.1980
   -12.1196 -12.1180 -12.1106 -12.0978 -12.0802 -12.0513 -11.9455 -11.9389
   -11.9106 -11.9050 -11.7545 -11.7530 -11.7516 -11.7485 -11.6579 -11.6491
   -11.5814 -11.5780 -11.5646 -11.5635 -11.5621 -11.5324 -11.4073 -11.4018
   -11.3987 -11.3975 -11.3921 -11.3709 -11.3046 -11.2753 -11.2423 -11.2378
   -11.2352 -11.2311 -11.2093 -11.1805 -11.1018 -11.0856 -10.9928 -10.9493
   -10.8977 -10.8925  -8.0089  -4.6569  -4.6499  -4.5475  -4.5413  -4.4634
    -4.4573  -4.4433  -4.4369  -3.9714  -3.9589  -3.9517  -3.9147  -3.8019
    -3.7926  -3.7885  -3.7827  -3.7758  -3.6085  -3.6015  -3.5956  -3.5827
    -3.5808  -3.5765  -3.5722  -3.5683  -3.5666  -3.4719  -3.4239  -3.4028
    -3.3926  -3.3832  -3.3571  -3.3473  -3.3413  -3.3226  -3.3186  -3.3145
    -3.3042  -3.2679  -3.2421  -3.1641  -3.1591  -3.1554  -3.1507  -3.0620
    -2.9229  -2.9173  -2.9077  -2.9012  -2.8931  -2.8846  -2.8421  -2.8341
    -2.8093  -2.6284  -2.4574  -2.4564  -2.4500  -2.4410  -2.4317  -2.4177
    -2.4109  -2.4006  -2.3888  -2.3820  -2.3729  -2.3703  -2.3591  -2.3449
    -2.3412  -2.3323  -2.3272  -2.3135  -2.3072  -2.2969  -2.2900  -2.2586
    -2.2490  -2.2388  -2.2266  -2.2184  -2.2169  -2.2100  -2.2009  -2.1917
    -2.1780  -2.1742  -2.1591  -2.0957  -2.0816  -2.0776  -2.0669  -2.0599
    -2.0588  -2.0288  -2.0187  -1.9858  -1.9606  -1.9296  -1.8909  -1.8802
    -1.8568  -1.8518  -1.8381  -1.8310  -1.8137  -1.8073  -1.7972  -1.7810
    -1.7604  -1.7443  -1.7341  -1.7272  -1.7235  -1.7201  -1.7162  -1.6917
    -1.6804  -1.6609  -1.6596  -1.6582  -1.6555  -1.6393  -1.6362  -1.6217
    -1.5880  -1.5653  -1.5505  -1.4957  -1.4644  -1.4587  -1.4284  -1.4260
    -1.4147  -1.4039  -1.3928  -1.3912  -1.3783  -1.3758  -1.3623  -1.3430
    -1.3368  -1.3229  -1.3192  -1.3078  -1.3044  -1.2964  -1.2782  -1.2736
    -1.2232  -1.2136  -1.1861  -1.1806  -1.1740  -1.1550  -1.1472  -1.1189
    -1.0994  -1.0845  -1.0792  -1.0691  -1.0385  -1.0314  -1.0200  -0.9939
    -0.9759  -0.9498  -0.9412  -0.9303  -0.9109  -0.8368  -0.8291  -0.8227
    -0.8017  -0.7926  -0.7883  -0.7829  -0.7769  -0.7597  -0.7464  -0.6957
    -0.6883  -0.6751  -0.6683  -0.6572  -0.6542  -0.6227  -0.6081  -0.5905
    -0.5822  -0.5569  -0.5472  -0.4954  -0.4678  -0.4480  -0.4213  -0.4104
    -0.3948  -0.3784  -0.3559  -0.3270  -0.3089  -0.3026  -0.2324  -0.2207
    -0.2089   0.1227   0.1302   0.1427   0.1670   0.2481   0.2640   0.3460
     0.3801   0.5684   0.5992   0.8312   0.8360   1.0639   1.3881   1.3964
     1.4239   1.5449   1.5959   1.6104   1.6246   1.6561   1.7055   1.7322
     1.7543   1.7757   1.8803   2.0714   2.2813   2.2971   2.3796   2.4048
     2.4456   2.5001   2.5584   2.6157   2.6222   2.6475   2.6628   2.6817
     2.7032   2.7502   2.7578   2.7655   2.7870   2.8287   2.8547   2.8873
     2.9014   2.9081   2.9302   2.9349   2.9724   2.9837   2.9886   3.0103
     3.0151   3.0229   3.0337   3.0461   3.0568   3.0789   3.0943   3.1000
     3.1545   3.1839   3.2460   3.2603   3.3066   3.3220   3.3514   3.3631
     3.3686   3.4264   3.4416   3.4568   3.4727   3.4890   3.4927   3.5473
     3.5595   3.5668   3.5817   3.5926   3.6201   3.6235   3.6321   3.6581
     3.6697   3.6907   3.7008   3.7148   3.7248   3.7391   3.7529   3.7915
     3.8054   3.8811   3.8931   3.9104   3.9165   3.9341   3.9449   3.9887
     4.0162   4.0340   4.0528   4.0614   4.0694   4.0733   4.0806   4.0959
     4.1073   4.1112   4.1237   4.1380   4.1655   4.1849   4.1868   4.1954
     4.2080   4.2194   4.2373   4.2423   4.2456   4.2560   4.2660   4.2706
     4.2801   4.2825   4.2890   4.2949   4.2982   4.3024   4.3062   4.3182
     4.3340   4.3557   4.3665   4.3868   4.3947   4.4044   4.4159   4.4204
     4.4245   4.4443   4.4478   4.4582   4.4696   4.4721   4.4839   4.4981
     4.5033   4.5052   4.5113   4.5236   4.5316   4.5365   4.5462   4.5547
     4.5694   4.5770   4.5836   4.6033   4.6104   4.6127   4.6276   4.6426
     4.6471   4.6628   4.6941   4.6952   4.7091   4.7266   4.7300   4.7420
     4.7539   4.7649   4.7689   4.7696   4.7811   4.8064   4.8128   4.8343
     4.8443   4.8472   4.8537   4.8594   4.8620   4.8656   4.8686   4.8715
     4.8750   4.8809   4.8878   4.8935   4.8979   4.9116   4.9236   4.9411
     4.9560   4.9610   4.9666   4.9715   4.9858   4.9922   4.9980   5.0082
     5.0154   5.0283   5.0482   5.0503   5.0552   5.0655   5.0698   5.0753
     5.0891

          k = 0.2500 0.2500 0.0000 (135083 PWs)   bands (ev):

   -61.6978 -61.6788 -61.6716 -61.6668 -61.6616 -61.6560 -61.6516 -61.6502
   -61.6458 -61.6430 -61.6388 -61.6371 -61.6355 -61.6338 -61.6294 -61.6245
   -61.6226 -61.6154 -61.6074 -61.6026 -61.6002 -61.5975 -61.5933 -61.5901
   -61.5895 -61.5890 -61.5865 -61.5856 -61.5836 -61.5806 -61.5804 -61.5788
   -61.5764 -61.5738 -61.5729 -61.5710 -61.5689 -61.5680 -61.5659 -61.5609
   -61.5582 -61.5554 -61.5445 -61.5331 -61.5285 -61.5171 -61.5107 -61.5098
   -61.5023 -61.4954 -61.4870 -61.4804 -61.4642 -61.4588 -61.4533 -61.4498
   -61.4478 -61.4400 -61.4274 -61.4200 -61.4175 -61.4098 -61.3924 -61.3847
   -61.3808 -61.3765 -61.3752 -61.3743 -61.3701 -61.3654 -61.3607 -61.3230
   -44.2898 -42.7577 -35.7926 -35.7784 -35.7580 -35.7533 -35.7517 -35.7427
   -35.7381 -35.7337 -35.7262 -35.7219 -35.7206 -35.7182 -35.7150 -35.7104
   -35.7039 -35.6948 -35.6908 -35.6872 -35.6851 -35.6841 -35.6835 -35.6820
   -35.6750 -35.6733 -35.6685 -35.6610 -35.6575 -35.6564 -35.6522 -35.6498
   -35.6479 -35.6471 -35.6447 -35.6429 -35.6418 -35.6400 -35.6392 -35.6376
   -35.6357 -35.6341 -35.6314 -35.6288 -35.6268 -35.6256 -35.6230 -35.6209
   -35.6169 -35.6157 -35.6105 -35.6081 -35.6053 -35.6014 -35.5988 -35.5931
   -35.5906 -35.5873 -35.5834 -35.5806 -35.5706 -35.5641 -35.5585 -35.5572
   -35.5552 -35.5508 -35.5490 -35.5451 -35.5403 -35.5379 -35.5336 -35.5289
   -35.5243 -35.5195 -35.5187 -35.5168 -35.5143 -35.5122 -35.5069 -35.5032
   -35.4947 -35.4938 -35.4908 -35.4873 -35.4858 -35.4851 -35.4824 -35.4806
   -35.4775 -35.4754 -35.4727 -35.4709 -35.4692 -35.4673 -35.4652 -35.4629
   -35.4621 -35.4604 -35.4590 -35.4548 -35.4534 -35.4530 -35.4522 -35.4504
   -35.4480 -35.4476 -35.4449 -35.4432 -35.4416 -35.4408 -35.4393 -35.4375
   -35.4340 -35.4307 -35.4233 -35.4203 -35.4179 -35.4156 -35.4139 -35.4103
   -35.4093 -35.4080 -35.4061 -35.4050 -35.4040 -35.4033 -35.4017 -35.4001
   -35.3977 -35.3960 -35.3928 -35.3920 -35.3904 -35.3856 -35.3835 -35.3814
   -35.3786 -35.3768 -35.3746 -35.3730 -35.3723 -35.3715 -35.3702 -35.3694
   -35.3677 -35.3668 -35.3635 -35.3618 -35.3608 -35.3581 -35.3569 -35.3559
   -35.3549 -35.3539 -35.3530 -35.3512 -35.3500 -35.3453 -35.3436 -35.3414
   -35.3366 -35.3339 -35.3314 -35.3270 -35.3238 -35.3183 -35.3154 -35.3103
   -35.3068 -35.3049 -35.2996 -35.2966 -35.2918 -35.2866 -35.2818 -35.2783
   -35.2743 -35.2670 -35.2631 -35.2610 -35.2586 -35.2551 -35.2515 -35.2501
   -35.2440 -35.2401 -35.2338 -35.2323 -35.2300 -35.2286 -35.2246 -35.2216
   -35.2158 -35.2143 -35.2105 -35.2055 -35.1994 -35.1902 -35.1879 -35.1830
   -35.1807 -35.1777 -35.1758 -35.1695 -35.1671 -35.1631 -35.1532 -35.1496
   -35.1480 -35.1388 -35.1303 -35.1253 -35.1192 -35.1154 -35.1110 -35.0943
   -35.0839 -35.0724 -13.9403 -13.5944 -13.5905 -13.2597 -13.0755 -13.0579
   -13.0528 -12.7804 -12.7728 -12.7536 -12.7441 -12.5902 -12.5860 -12.4967
   -12.4508 -12.4116 -12.4063 -12.3618 -12.3526 -12.3462 -12.3393 -12.3286
   -12.3093 -12.2732 -12.2451 -12.2334 -12.2220 -12.1521 -12.1445 -12.1341
   -12.1278 -12.1197 -12.1074 -12.0395 -12.0204 -12.0151 -12.0026 -11.9939
   -11.9502 -11.9031 -11.8853 -11.8494 -11.7783 -11.6827 -11.6799 -11.6468
   -11.5893 -11.5461 -11.4943 -11.4923 -11.4806 -11.4771 -11.4735 -11.4687
   -11.4560 -11.3918 -11.3686 -11.3182 -11.3104 -11.3015 -11.2873 -11.2514
   -11.2277 -11.2145 -11.1940 -11.1540 -11.1433 -11.0892 -10.9969 -10.9842
   -10.9130 -10.8380  -8.0089  -4.8194  -4.6612  -4.6161  -4.5502  -4.3376
    -4.3243  -4.1937  -4.1811  -4.1005  -4.0991  -4.0017  -3.9884  -3.9739
    -3.8681  -3.8542  -3.8465  -3.7994  -3.6475  -3.6281  -3.6223  -3.5926
    -3.5891  -3.5809  -3.5763  -3.5665  -3.5482  -3.4339  -3.4237  -3.4192
    -3.3693  -3.3613  -3.3540  -3.3389  -3.3267  -3.3051  -3.2960  -3.2928
    -3.2200  -3.2066  -3.1915  -3.0927  -3.0852  -3.0402  -3.0362  -3.0015
    -2.9988  -2.9444  -2.9188  -2.9115  -2.8989  -2.8879  -2.7881  -2.7784
    -2.7701  -2.7508  -2.6388  -2.6265  -2.6062  -2.5921  -2.5536  -2.4805
    -2.4413  -2.4064  -2.3996  -2.3915  -2.3807  -2.3725  -2.3536  -2.3458
    -2.3399  -2.3292  -2.3130  -2.3076  -2.2827  -2.2770  -2.2610  -2.2528
    -2.2402  -2.2343  -2.2280  -2.2218  -2.2141  -2.2053  -2.1431  -2.1255
    -2.1228  -2.0964  -2.0778  -2.0717  -2.0518  -2.0267  -2.0131  -1.9890
    -1.9801  -1.9624  -1.9578  -1.9316  -1.9253  -1.9156  -1.9092  -1.9016
    -1.8894  -1.8608  -1.8505  -1.8385  -1.8201  -1.8141  -1.7966  -1.7914
    -1.7849  -1.7775  -1.7617  -1.7501  -1.7257  -1.7187  -1.7159  -1.7071
    -1.6980  -1.6886  -1.6777  -1.6553  -1.6441  -1.6250  -1.6055  -1.5961
    -1.5532  -1.5341  -1.5157  -1.5021  -1.4862  -1.4802  -1.4588  -1.4521
    -1.4439  -1.4199  -1.4086  -1.4035  -1.3977  -1.3867  -1.3791  -1.3360
    -1.3215  -1.3148  -1.3048  -1.2953  -1.2879  -1.2788  -1.2721  -1.2520
    -1.2422  -1.2334  -1.2170  -1.2035  -1.1767  -1.1475  -1.1269  -1.1072
    -1.0946  -1.0826  -1.0746  -1.0632  -1.0314  -1.0282  -1.0081  -0.9937
    -0.9745  -0.9670  -0.9378  -0.9235  -0.9129  -0.8979  -0.8953  -0.8590
    -0.8470  -0.8401  -0.8328  -0.8170  -0.7974  -0.7887  -0.7756  -0.7580
    -0.7354  -0.7122  -0.6950  -0.6705  -0.6546  -0.5927  -0.5633  -0.5452
    -0.5379  -0.5217  -0.5067  -0.4930  -0.4605  -0.4420  -0.4056  -0.3786
    -0.3709  -0.3490  -0.3256  -0.2890  -0.2618  -0.2232  -0.1958  -0.1580
    -0.0641  -0.0500  -0.0248   0.0301   0.1154   0.1532   0.2097   0.2683
     0.5591   0.7126   0.9297   0.9803   1.0161   1.0774   1.1250   1.1529
     1.1838   1.3576   1.3829   1.4606   1.6698   1.8447   1.9457   1.9960
     2.0200   2.0591   2.0903   2.1367   2.1687   2.1888   2.2485   2.2971
     2.3179   2.3453   2.4067   2.4106   2.4795   2.5008   2.5199   2.6473
     2.6683   2.6895   2.7241   2.7453   2.7799   2.7917   2.8101   2.8333
     2.8898   2.9139   2.9329   2.9717   3.0048   3.0229   3.0739   3.0863
     3.1065   3.1251   3.1386   3.1524   3.1708   3.1858   3.2042   3.2169
     3.2400   3.2527   3.2654   3.2858   3.3003   3.3211   3.3374   3.3761
     3.3963   3.4043   3.4346   3.4533   3.4709   3.4996   3.5099   3.5183
     3.5439   3.5578   3.5665   3.5790   3.5837   3.6105   3.6236   3.6570
     3.6960   3.7266   3.7426   3.7538   3.7695   3.7827   3.7954   3.8031
     3.8175   3.8471   3.8559   3.8829   3.8909   3.9088   3.9256   3.9300
     3.9360   3.9642   3.9742   3.9986   4.0152   4.0251   4.0501   4.0621
     4.0867   4.0922   4.1047   4.1199   4.1328   4.1471   4.1651   4.1866
     4.2023   4.2207   4.2292   4.2399   4.2531   4.2564   4.2614   4.2755
     4.2855   4.2907   4.3028   4.3219   4.3350   4.3465   4.3552   4.3648
     4.3738   4.3803   4.3819   4.3869   4.3931   4.4015   4.4114   4.4225
     4.4278   4.4391   4.4458   4.4507   4.4619   4.4667   4.4706   4.4763
     4.4799   4.4938   4.5011   4.5192   4.5272   4.5423   4.5485   4.5572
     4.5689   4.5750   4.5812   4.5884   4.5986   4.6168   4.6214   4.6419
     4.6497   4.6605   4.6674   4.6875   4.6943   4.7043   4.7157   4.7194
     4.7364   4.7492   4.7648   4.7829   4.7895   4.7966   4.8005   4.8162
     4.8399   4.8467   4.8558   4.8642   4.8711   4.8772   4.8878   4.8931
     4.9007   4.9070   4.9104   4.9230   4.9307   4.9499   4.9561   4.9627
     4.9757   4.9789   4.9898   4.9992   5.0051   5.0143   5.0190   5.0230
     5.0246   5.0298   5.0359   5.0453   5.0488   5.0575   5.0676   5.0876
     5.0946

          k = 0.2500-0.5000 0.0000 (135080 PWs)   bands (ev):

   -61.6978 -61.6760 -61.6748 -61.6662 -61.6650 -61.6541 -61.6512 -61.6454
   -61.6442 -61.6429 -61.6417 -61.6398 -61.6368 -61.6340 -61.6296 -61.6229
   -61.6225 -61.6156 -61.6072 -61.6032 -61.5996 -61.5982 -61.5932 -61.5901
   -61.5894 -61.5880 -61.5855 -61.5848 -61.5837 -61.5825 -61.5812 -61.5797
   -61.5769 -61.5730 -61.5718 -61.5712 -61.5695 -61.5679 -61.5643 -61.5623
   -61.5585 -61.5548 -61.5444 -61.5331 -61.5286 -61.5170 -61.5104 -61.5096
   -61.5025 -61.4959 -61.4870 -61.4803 -61.4641 -61.4587 -61.4534 -61.4498
   -61.4479 -61.4400 -61.4274 -61.4200 -61.4176 -61.4098 -61.3925 -61.3846
   -61.3808 -61.3766 -61.3750 -61.3744 -61.3700 -61.3655 -61.3607 -61.3230
   -44.2898 -42.7577 -35.7932 -35.7899 -35.7484 -35.7462 -35.7433 -35.7425
   -35.7396 -35.7372 -35.7303 -35.7268 -35.7245 -35.7218 -35.7074 -35.7051
   -35.7023 -35.6987 -35.6867 -35.6854 -35.6825 -35.6782 -35.6751 -35.6738
   -35.6734 -35.6694 -35.6674 -35.6667 -35.6628 -35.6615 -35.6582 -35.6570
   -35.6524 -35.6497 -35.6474 -35.6446 -35.6433 -35.6409 -35.6398 -35.6383
   -35.6363 -35.6338 -35.6312 -35.6301 -35.6281 -35.6258 -35.6249 -35.6206
   -35.6200 -35.6179 -35.6132 -35.6103 -35.6079 -35.6047 -35.6009 -35.5917
   -35.5869 -35.5856 -35.5798 -35.5737 -35.5667 -35.5629 -35.5591 -35.5571
   -35.5504 -35.5477 -35.5456 -35.5418 -35.5387 -35.5379 -35.5353 -35.5336
   -35.5324 -35.5256 -35.5230 -35.5138 -35.5103 -35.5078 -35.5010 -35.4955
   -35.4937 -35.4920 -35.4913 -35.4887 -35.4871 -35.4830 -35.4813 -35.4776
   -35.4760 -35.4733 -35.4716 -35.4699 -35.4693 -35.4685 -35.4672 -35.4663
   -35.4647 -35.4616 -35.4601 -35.4593 -35.4566 -35.4546 -35.4535 -35.4529
   -35.4506 -35.4484 -35.4452 -35.4423 -35.4395 -35.4385 -35.4377 -35.4325
   -35.4318 -35.4294 -35.4279 -35.4265 -35.4240 -35.4218 -35.4175 -35.4136
   -35.4115 -35.4105 -35.4082 -35.4042 -35.4022 -35.4000 -35.3979 -35.3952
   -35.3929 -35.3908 -35.3900 -35.3886 -35.3880 -35.3846 -35.3840 -35.3822
   -35.3803 -35.3792 -35.3763 -35.3751 -35.3739 -35.3714 -35.3689 -35.3682
   -35.3666 -35.3654 -35.3637 -35.3628 -35.3614 -35.3597 -35.3577 -35.3560
   -35.3531 -35.3522 -35.3504 -35.3494 -35.3483 -35.3458 -35.3419 -35.3409
   -35.3380 -35.3344 -35.3336 -35.3305 -35.3222 -35.3198 -35.3157 -35.3133
   -35.3082 -35.3022 -35.2997 -35.2959 -35.2899 -35.2874 -35.2808 -35.2787
   -35.2751 -35.2696 -35.2660 -35.2611 -35.2575 -35.2538 -35.2521 -35.2466
   -35.2438 -35.2392 -35.2343 -35.2332 -35.2300 -35.2272 -35.2248 -35.2201
   -35.2174 -35.2146 -35.2091 -35.2069 -35.2007 -35.1903 -35.1878 -35.1831
   -35.1800 -35.1770 -35.1758 -35.1698 -35.1666 -35.1638 -35.1555 -35.1512
   -35.1450 -35.1389 -35.1300 -35.1260 -35.1185 -35.1148 -35.1110 -35.0945
   -35.0839 -35.0725 -13.8102 -13.7973 -13.4677 -13.4548 -12.9619 -12.9512
   -12.9398 -12.9281 -12.8444 -12.7406 -12.6673 -12.6573 -12.5612 -12.4945
   -12.4790 -12.4566 -12.4280 -12.4034 -12.3432 -12.3181 -12.3130 -12.3065
   -12.2600 -12.2457 -12.2248 -12.1975 -12.1950 -12.1772 -12.1716 -12.1689
   -12.1623 -12.0915 -12.0815 -12.0565 -12.0453 -12.0336 -12.0193 -11.9917
   -11.9224 -11.9184 -11.9053 -11.8671 -11.7911 -11.7713 -11.5944 -11.5921
   -11.5529 -11.5500 -11.5455 -11.5445 -11.4593 -11.4436 -11.4387 -11.4373
   -11.4074 -11.4034 -11.3766 -11.3623 -11.3563 -11.3434 -11.2925 -11.2591
   -11.2268 -11.1858 -11.1484 -11.1444 -11.1298 -11.1114 -11.0143 -11.0030
   -10.8773 -10.8365  -8.0090  -4.8571  -4.7852  -4.6606  -4.6505  -4.3327
    -4.2576  -4.1613  -4.1398  -4.0609  -4.0449  -3.8870  -3.8835  -3.8531
    -3.8232  -3.7990  -3.7897  -3.7811  -3.7206  -3.7056  -3.6874  -3.6531
    -3.6414  -3.5985  -3.5883  -3.5809  -3.5663  -3.5532  -3.5249  -3.4362
    -3.4250  -3.3424  -3.3348  -3.3191  -3.3115  -3.2929  -3.2689  -3.2350
    -3.2297  -3.1428  -3.1005  -3.0967  -3.0862  -3.0733  -3.0415  -3.0301
    -3.0247  -2.9733  -2.9626  -2.9441  -2.8988  -2.7969  -2.7897  -2.7804
    -2.7645  -2.7433  -2.7325  -2.6657  -2.6473  -2.6290  -2.5606  -2.5400
    -2.5033  -2.4769  -2.4615  -2.4262  -2.4004  -2.3682  -2.3501  -2.3388
    -2.3309  -2.3017  -2.2885  -2.2799  -2.2710  -2.2599  -2.2536  -2.2387
    -2.2233  -2.2089  -2.1820  -2.1699  -2.1608  -2.1539  -2.1373  -2.1289
    -2.1194  -2.1164  -2.1030  -2.0855  -2.0603  -2.0453  -2.0402  -2.0301
    -2.0223  -2.0056  -1.9852  -1.9769  -1.9646  -1.9538  -1.9465  -1.9297
    -1.9116  -1.8958  -1.8763  -1.8718  -1.8622  -1.8546  -1.8450  -1.8388
    -1.8312  -1.8212  -1.7944  -1.7925  -1.7847  -1.7193  -1.6931  -1.6801
    -1.6763  -1.6636  -1.6423  -1.5802  -1.5494  -1.5271  -1.5208  -1.5114
    -1.4938  -1.4558  -1.4490  -1.4449  -1.4372  -1.4347  -1.4225  -1.4026
    -1.3895  -1.3748  -1.3610  -1.3574  -1.3332  -1.3218  -1.3157  -1.3094
    -1.2941  -1.2899  -1.2772  -1.2632  -1.2589  -1.2269  -1.2200  -1.2140
    -1.1980  -1.1904  -1.1659  -1.1567  -1.1452  -1.1407  -1.1235  -1.1110
    -1.0970  -1.0869  -1.0820  -1.0705  -1.0478  -1.0425  -1.0218  -1.0079
    -0.9886  -0.9790  -0.9381  -0.9141  -0.8971  -0.8763  -0.8717  -0.8651
    -0.8366  -0.8233  -0.8148  -0.8008  -0.7741  -0.7556  -0.7464  -0.7274
    -0.7131  -0.6923  -0.6526  -0.6384  -0.6274  -0.6067  -0.5840  -0.5550
    -0.5472  -0.5286  -0.5150  -0.4998  -0.4851  -0.4728  -0.4616  -0.4355
    -0.4206  -0.4169  -0.3477  -0.2818  -0.2642  -0.2505  -0.2297  -0.1326
    -0.1087  -0.0877  -0.0686   0.0414   0.0615   0.1016   0.1331   0.2837
     0.2984   0.4846   0.5136   1.0080   1.0770   1.1218   1.4279   1.4459
     1.4831   1.5550   1.5965   1.6149   1.6367   1.6797   1.7798   1.7989
     1.8101   1.8292   1.9268   2.0344   2.1450   2.1860   2.1980   2.2359
     2.2558   2.2916   2.3598   2.3725   2.4648   2.4770   2.4927   2.5594
     2.6440   2.6676   2.6776   2.6985   2.7140   2.7447   2.7926   2.8224
     2.8711   2.8964   2.9118   2.9239   2.9462   2.9588   2.9842   2.9960
     3.0184   3.0232   3.0556   3.0907   3.1132   3.1496   3.1848   3.2019
     3.2290   3.2428   3.2581   3.2750   3.3127   3.3385   3.3504   3.3704
     3.3775   3.4011   3.4435   3.4571   3.4749   3.4996   3.5347   3.5879
     3.6015   3.6157   3.6254   3.6366   3.6619   3.6792   3.7001   3.7120
     3.7231   3.7297   3.7742   3.7842   3.8008   3.8136   3.8296   3.8551
     3.8664   3.8837   3.9092   3.9220   3.9295   3.9577   3.9861   3.9980
     4.0189   4.0269   4.0385   4.0473   4.0591   4.0829   4.0883   4.1105
     4.1315   4.1463   4.1541   4.1640   4.1715   4.1858   4.1993   4.2052
     4.2143   4.2289   4.2339   4.2420   4.2540   4.2593   4.2633   4.2686
     4.2754   4.2808   4.2871   4.2905   4.2985   4.3072   4.3194   4.3250
     4.3327   4.3497   4.3580   4.3763   4.3804   4.3892   4.4007   4.4041
     4.4094   4.4121   4.4178   4.4239   4.4370   4.4488   4.4591   4.4641
     4.4772   4.4874   4.4962   4.5016   4.5299   4.5382   4.5633   4.5873
     4.5953   4.6055   4.6214   4.6342   4.6485   4.6640   4.6704   4.6804
     4.6832   4.6907   4.6970   4.7113   4.7290   4.7371   4.7487   4.7677
     4.7692   4.7793   4.7908   4.7959   4.8114   4.8212   4.8281   4.8382
     4.8443   4.8518   4.8554   4.8645   4.8759   4.8859   4.8949   4.9041
     4.9099   4.9182   4.9249   4.9291   4.9358   4.9400   4.9470   4.9566
     4.9601   4.9666   4.9738   4.9758   4.9829   4.9913   4.9964   5.0006
     5.0129   5.0270   5.0420   5.0476   5.0540   5.0593   5.0680   5.0766
     5.0866

          k =-0.5000-0.5000 0.0000 (135004 PWs)   bands (ev):

   -61.6978 -61.6746 -61.6734 -61.6689 -61.6686 -61.6508 -61.6466 -61.6453
   -61.6445 -61.6437 -61.6416 -61.6404 -61.6383 -61.6364 -61.6305 -61.6220
   -61.6206 -61.6164 -61.6072 -61.6030 -61.6000 -61.5986 -61.5935 -61.5895
   -61.5888 -61.5871 -61.5855 -61.5848 -61.5839 -61.5823 -61.5812 -61.5803
   -61.5799 -61.5726 -61.5719 -61.5701 -61.5693 -61.5655 -61.5649 -61.5638
   -61.5584 -61.5549 -61.5445 -61.5333 -61.5284 -61.5157 -61.5117 -61.5096
   -61.5023 -61.4958 -61.4871 -61.4802 -61.4642 -61.4587 -61.4534 -61.4500
   -61.4476 -61.4400 -61.4274 -61.4200 -61.4176 -61.4098 -61.3925 -61.3847
   -61.3808 -61.3763 -61.3750 -61.3745 -61.3701 -61.3651 -61.3610 -61.3230
   -44.2898 -42.7577 -35.7995 -35.7962 -35.7531 -35.7497 -35.7389 -35.7373
   -35.7355 -35.7313 -35.7135 -35.7113 -35.7086 -35.7073 -35.7067 -35.7057
   -35.7042 -35.7015 -35.6952 -35.6902 -35.6882 -35.6873 -35.6842 -35.6787
   -35.6746 -35.6723 -35.6717 -35.6680 -35.6660 -35.6652 -35.6643 -35.6626
   -35.6620 -35.6566 -35.6543 -35.6485 -35.6439 -35.6415 -35.6405 -35.6404
   -35.6376 -35.6359 -35.6348 -35.6322 -35.6268 -35.6220 -35.6201 -35.6162
   -35.6141 -35.6090 -35.6045 -35.6032 -35.5967 -35.5948 -35.5923 -35.5877
   -35.5850 -35.5817 -35.5804 -35.5787 -35.5726 -35.5715 -35.5701 -35.5575
   -35.5512 -35.5493 -35.5480 -35.5467 -35.5431 -35.5418 -35.5377 -35.5194
   -35.5184 -35.5164 -35.5153 -35.5148 -35.5133 -35.5051 -35.5046 -35.5011
   -35.4989 -35.4968 -35.4943 -35.4926 -35.4882 -35.4850 -35.4843 -35.4781
   -35.4751 -35.4745 -35.4728 -35.4719 -35.4708 -35.4687 -35.4671 -35.4667
   -35.4658 -35.4645 -35.4613 -35.4609 -35.4593 -35.4586 -35.4556 -35.4526
   -35.4512 -35.4498 -35.4485 -35.4417 -35.4371 -35.4358 -35.4320 -35.4301
   -35.4185 -35.4154 -35.4134 -35.4127 -35.4118 -35.4116 -35.4104 -35.4087
   -35.4076 -35.4068 -35.4062 -35.4053 -35.4044 -35.4036 -35.4030 -35.4018
   -35.4015 -35.4001 -35.3991 -35.3991 -35.3974 -35.3935 -35.3931 -35.3915
   -35.3900 -35.3766 -35.3747 -35.3718 -35.3700 -35.3689 -35.3682 -35.3670
   -35.3661 -35.3653 -35.3636 -35.3611 -35.3602 -35.3591 -35.3562 -35.3555
   -35.3531 -35.3510 -35.3493 -35.3473 -35.3456 -35.3451 -35.3425 -35.3391
   -35.3373 -35.3347 -35.3336 -35.3310 -35.3278 -35.3239 -35.3188 -35.3121
   -35.3091 -35.3006 -35.2991 -35.2934 -35.2907 -35.2835 -35.2795 -35.2773
   -35.2746 -35.2694 -35.2661 -35.2601 -35.2578 -35.2544 -35.2524 -35.2469
   -35.2425 -35.2405 -35.2331 -35.2312 -35.2296 -35.2284 -35.2254 -35.2206
   -35.2171 -35.2161 -35.2122 -35.2083 -35.1982 -35.1945 -35.1891 -35.1824
   -35.1793 -35.1770 -35.1722 -35.1699 -35.1672 -35.1632 -35.1576 -35.1520
   -35.1433 -35.1389 -35.1301 -35.1261 -35.1172 -35.1144 -35.1109 -35.0948
   -35.0842 -35.0726 -13.6832 -13.6683 -13.6646 -13.6605 -12.8499 -12.8392
   -12.8355 -12.8303 -12.7474 -12.7367 -12.7279 -12.7193 -12.6365 -12.6270
   -12.6241 -12.6083 -12.3880 -12.3632 -12.3531 -12.3448 -12.2834 -12.2759
   -12.2633 -12.2590 -12.1466 -12.1460 -12.1424 -12.1337 -12.1185 -12.1078
   -12.0948 -12.0895 -12.0723 -12.0684 -12.0670 -12.0664 -12.0602 -11.9876
   -11.9569 -11.9473 -11.9345 -11.9073 -11.8831 -11.8803 -11.4979 -11.4975
   -11.4965 -11.4957 -11.4910 -11.4776 -11.4759 -11.4739 -11.4714 -11.4702
   -11.4694 -11.4638 -11.3960 -11.3637 -11.3401 -11.3233 -11.3003 -11.2610
   -11.2446 -11.1838 -11.1662 -11.1210 -11.1096 -11.1079 -11.0419 -11.0418
   -10.8576 -10.8075  -8.0091  -4.9148  -4.8892  -4.7287  -4.7268  -4.0346
    -4.0235  -4.0164  -4.0039  -3.9750  -3.9677  -3.9648  -3.9586  -3.8993
    -3.8919  -3.8518  -3.8460  -3.8281  -3.8224  -3.8128  -3.8113  -3.7999
    -3.7937  -3.6606  -3.6529  -3.4330  -3.4232  -3.4172  -3.4108  -3.4060
    -3.3985  -3.3703  -3.3620  -3.3560  -3.3420  -3.3279  -3.3211  -3.1980
    -3.1841  -3.1778  -3.1633  -3.0722  -3.0690  -3.0654  -3.0634  -2.8976
    -2.8850  -2.8839  -2.8813  -2.8807  -2.8696  -2.8470  -2.8371  -2.8206
    -2.7981  -2.7903  -2.7863  -2.7625  -2.7568  -2.6704  -2.6544  -2.6412
    -2.6263  -2.5661  -2.5422  -2.4593  -2.4493  -2.3915  -2.3717  -2.3544
    -2.3134  -2.2625  -2.2562  -2.2496  -2.2390  -2.2230  -2.2024  -2.2020
    -2.1950  -2.1909  -2.1810  -2.1752  -2.1646  -2.1585  -2.1559  -2.1455
    -2.1428  -2.1351  -2.1259  -2.1193  -2.1178  -2.1145  -2.0866  -1.9393
    -1.9321  -1.9255  -1.9173  -1.9144  -1.9082  -1.9036  -1.8966  -1.8933
    -1.8885  -1.8839  -1.8792  -1.8719  -1.8654  -1.8600  -1.8457  -1.8398
    -1.8374  -1.8355  -1.8240  -1.8028  -1.7926  -1.7357  -1.7283  -1.7083
    -1.6925  -1.6680  -1.6514  -1.6326  -1.6173  -1.5756  -1.5437  -1.5414
    -1.5188  -1.4986  -1.4916  -1.4865  -1.4796  -1.3975  -1.3573  -1.3460
    -1.3261  -1.3103  -1.3073  -1.3001  -1.2958  -1.2893  -1.2654  -1.2630
    -1.2516  -1.2369  -1.2185  -1.2040  -1.2009  -1.1872  -1.1635  -1.1412
    -1.1357  -1.1297  -1.1111  -1.1021  -1.0953  -1.0889  -1.0785  -1.0690
    -1.0628  -1.0465  -1.0369  -1.0304  -1.0194  -0.9990  -0.9867  -0.9737
    -0.9655  -0.9346  -0.9164  -0.9100  -0.9014  -0.8867  -0.8738  -0.8662
    -0.8533  -0.8401  -0.8143  -0.7753  -0.7716  -0.7629  -0.7601  -0.7518
    -0.7099  -0.7053  -0.7041  -0.6955  -0.6774  -0.6629  -0.6535  -0.6289
    -0.6021  -0.5600  -0.4885  -0.4270  -0.4249  -0.4112  -0.4090  -0.3882
    -0.3657  -0.3589  -0.3390  -0.3303  -0.3018  -0.2713  -0.2522  -0.1644
    -0.1109  -0.1042  -0.0591  -0.0534  -0.0446  -0.0327  -0.0221   0.1685
     0.1956   0.2888   0.3243   1.0297   1.3510   1.4452   1.4750   1.5374
     1.6143   1.6392   1.6596   1.6830   1.6962   1.7180   1.7439   1.7617
     1.7828   1.8509   1.9367   1.9768   2.0016   2.0395   2.0493   2.0640
     2.0669   2.0943   2.1087   2.1299   2.2053   2.2792   2.5671   2.5842
     2.6064   2.6154   2.7721   2.7814   2.7861   2.7894   2.8114   2.8285
     2.8396   2.8492   2.8771   2.8853   2.8935   2.9075   2.9294   2.9433
     2.9510   2.9644   2.9840   2.9981   3.0212   3.0354   3.1073   3.1162
     3.1196   3.1434   3.1545   3.1935   3.2195   3.2821   3.5061   3.5105
     3.5241   3.5280   3.5560   3.5844   3.6087   3.6247   3.6358   3.6497
     3.6576   3.6663   3.6788   3.6972   3.6988   3.7191   3.7274   3.7724
     3.7838   3.7930   3.7973   3.8119   3.8231   3.9115   3.9175   3.9327
     3.9452   3.9494   3.9558   3.9622   3.9736   3.9803   3.9957   3.9995
     4.0119   4.0224   4.0328   4.0398   4.0526   4.0626   4.0757   4.0845
     4.1105   4.1186   4.1337   4.1449   4.1526   4.1700   4.1799   4.1958
     4.2048   4.2100   4.2188   4.2311   4.2345   4.2456   4.2541   4.2701
     4.2761   4.2815   4.2871   4.2906   4.2956   4.3022   4.3095   4.3129
     4.3152   4.3326   4.3407   4.3430   4.3587   4.3687   4.3753   4.3868
     4.3881   4.3902   4.4019   4.4082   4.4186   4.4338   4.4476   4.4517
     4.4530   4.4699   4.4826   4.5165   4.5307   4.5608   4.5738   4.5769
     4.6203   4.6446   4.6570   4.6685   4.6856   4.6890   4.7038   4.7041
     4.7169   4.7313   4.7477   4.7615   4.7670   4.7731   4.7837   4.7886
     4.7999   4.8018   4.8077   4.8173   4.8341   4.8403   4.8545   4.8616
     4.8722   4.8771   4.8822   4.8896   4.8917   4.8949   4.8955   4.8990
     4.9066   4.9091   4.9187   4.9221   4.9273   4.9327   4.9364   4.9385
     4.9409   4.9462   4.9469   4.9516   4.9658   4.9785   4.9844   4.9944
     5.0064   5.0116   5.0201   5.0407   5.0548   5.0717   5.0960   5.0998
     5.1069

          k = 0.2500 0.0000 0.0000 (135097 PWs)   bands (ev):

   -61.6978 -61.6799 -61.6711 -61.6630 -61.6605 -61.6574 -61.6558 -61.6509
   -61.6468 -61.6432 -61.6379 -61.6360 -61.6344 -61.6314 -61.6293 -61.6271
   -61.6228 -61.6153 -61.6075 -61.6020 -61.6008 -61.5967 -61.5928 -61.5918
   -61.5894 -61.5892 -61.5872 -61.5859 -61.5830 -61.5814 -61.5783 -61.5774
   -61.5763 -61.5743 -61.5729 -61.5714 -61.5696 -61.5691 -61.5659 -61.5601
   -61.5572 -61.5562 -61.5445 -61.5330 -61.5287 -61.5173 -61.5111 -61.5098
   -61.5022 -61.4948 -61.4870 -61.4806 -61.4642 -61.4587 -61.4533 -61.4500
   -61.4477 -61.4400 -61.4274 -61.4200 -61.4174 -61.4099 -61.3924 -61.3847
   -61.3809 -61.3764 -61.3753 -61.3743 -61.3702 -61.3654 -61.3606 -61.3230
   -44.2898 -42.7577 -35.7804 -35.7784 -35.7604 -35.7581 -35.7555 -35.7541
   -35.7352 -35.7307 -35.7285 -35.7267 -35.7188 -35.7141 -35.7073 -35.7047
   -35.7028 -35.7002 -35.6978 -35.6957 -35.6952 -35.6938 -35.6804 -35.6726
   -35.6711 -35.6662 -35.6629 -35.6605 -35.6584 -35.6568 -35.6565 -35.6544
   -35.6509 -35.6472 -35.6453 -35.6428 -35.6387 -35.6373 -35.6359 -35.6343
   -35.6334 -35.6310 -35.6296 -35.6273 -35.6247 -35.6229 -35.6217 -35.6195
   -35.6168 -35.6161 -35.6133 -35.6087 -35.6021 -35.5994 -35.5979 -35.5945
   -35.5893 -35.5865 -35.5766 -35.5734 -35.5710 -35.5683 -35.5641 -35.5593
   -35.5574 -35.5558 -35.5531 -35.5506 -35.5486 -35.5405 -35.5387 -35.5274
   -35.5245 -35.5213 -35.5166 -35.5133 -35.5112 -35.5094 -35.5029 -35.4992
   -35.4983 -35.4964 -35.4949 -35.4911 -35.4880 -35.4872 -35.4844 -35.4819
   -35.4785 -35.4760 -35.4742 -35.4727 -35.4705 -35.4675 -35.4655 -35.4628
   -35.4618 -35.4585 -35.4545 -35.4522 -35.4509 -35.4490 -35.4465 -35.4459
   -35.4436 -35.4417 -35.4409 -35.4394 -35.4383 -35.4370 -35.4360 -35.4341
   -35.4323 -35.4301 -35.4293 -35.4281 -35.4244 -35.4221 -35.4202 -35.4168
   -35.4157 -35.4103 -35.4085 -35.4050 -35.4011 -35.3983 -35.3970 -35.3953
   -35.3934 -35.3907 -35.3894 -35.3889 -35.3868 -35.3852 -35.3842 -35.3822
   -35.3817 -35.3802 -35.3782 -35.3758 -35.3746 -35.3731 -35.3724 -35.3714
   -35.3702 -35.3695 -35.3652 -35.3646 -35.3623 -35.3599 -35.3584 -35.3572
   -35.3559 -35.3533 -35.3520 -35.3496 -35.3474 -35.3443 -35.3422 -35.3401
   -35.3382 -35.3342 -35.3314 -35.3244 -35.3227 -35.3182 -35.3151 -35.3083
   -35.3045 -35.3018 -35.2980 -35.2943 -35.2899 -35.2883 -35.2826 -35.2790
   -35.2765 -35.2704 -35.2682 -35.2613 -35.2571 -35.2554 -35.2518 -35.2473
   -35.2434 -35.2405 -35.2331 -35.2313 -35.2308 -35.2276 -35.2250 -35.2215
   -35.2175 -35.2142 -35.2097 -35.2038 -35.1989 -35.1906 -35.1865 -35.1845
   -35.1799 -35.1771 -35.1741 -35.1694 -35.1686 -35.1651 -35.1556 -35.1517
   -35.1450 -35.1380 -35.1316 -35.1238 -35.1201 -35.1153 -35.1111 -35.0942
   -35.0838 -35.0722 -13.9872 -13.6380 -13.3420 -13.3214 -13.1170 -13.0979
   -13.0205 -12.9983 -12.8144 -12.6277 -12.5766 -12.5657 -12.5430 -12.5200
   -12.4723 -12.4572 -12.4404 -12.4288 -12.3808 -12.3736 -12.3208 -12.3123
   -12.3045 -12.2456 -12.2400 -12.2145 -12.1818 -12.1742 -12.1641 -12.1605
   -12.1470 -12.1293 -12.0742 -12.0585 -12.0458 -12.0010 -11.9761 -11.9566
   -11.9378 -11.9135 -11.8444 -11.8397 -11.7157 -11.7045 -11.6890 -11.6207
   -11.6179 -11.6064 -11.5651 -11.5138 -11.5011 -11.4743 -11.4620 -11.4595
   -11.4402 -11.3380 -11.3352 -11.3157 -11.3151 -11.3032 -11.2786 -11.2514
   -11.2334 -11.2091 -11.2050 -11.1973 -11.1343 -11.0938 -10.9999 -10.9521
   -10.9218 -10.8617  -8.0089  -4.6405  -4.6128  -4.4545  -4.4458  -4.4246
    -4.3967  -4.3155  -4.3106  -4.2242  -4.1996  -4.0713  -4.0636  -3.8313
    -3.8152  -3.8068  -3.7943  -3.7634  -3.7315  -3.7085  -3.6409  -3.6374
    -3.5401  -3.5370  -3.5304  -3.5205  -3.4951  -3.4550  -3.4444  -3.4331
    -3.4039  -3.3630  -3.3539  -3.3473  -3.3382  -3.3318  -3.2913  -3.2252
    -3.1892  -3.1825  -3.1605  -3.1052  -3.0907  -3.0573  -3.0413  -3.0252
    -3.0094  -2.9743  -2.9579  -2.9285  -2.8711  -2.7885  -2.7702  -2.7137
    -2.6967  -2.6787  -2.6363  -2.6260  -2.6200  -2.6072  -2.5446  -2.5071
    -2.4439  -2.4113  -2.3827  -2.3724  -2.3632  -2.3481  -2.3299  -2.3091
    -2.3016  -2.2940  -2.2916  -2.2851  -2.2760  -2.2673  -2.2486  -2.2333
    -2.2210  -2.2095  -2.1976  -2.1724  -2.1653  -2.1556  -2.1474  -2.1222
    -2.0983  -2.0839  -2.0648  -2.0528  -2.0450  -2.0399  -2.0305  -2.0204
    -2.0145  -2.0078  -1.9998  -1.9917  -1.9876  -1.9554  -1.9356  -1.8913
    -1.8722  -1.8670  -1.8368  -1.8254  -1.8241  -1.8111  -1.8098  -1.8006
    -1.7870  -1.7655  -1.7564  -1.7302  -1.7066  -1.6868  -1.6840  -1.6803
    -1.6773  -1.6689  -1.6642  -1.6536  -1.6413  -1.6329  -1.6212  -1.6077
    -1.5933  -1.5808  -1.5553  -1.5522  -1.5482  -1.5333  -1.5258  -1.5046
    -1.4850  -1.4682  -1.4663  -1.4481  -1.4423  -1.4303  -1.4033  -1.3911
    -1.3657  -1.3485  -1.3371  -1.3251  -1.3067  -1.2905  -1.2847  -1.2775
    -1.2751  -1.2677  -1.2624  -1.2467  -1.2143  -1.1995  -1.1596  -1.1488
    -1.1194  -1.1032  -1.0919  -1.0797  -1.0623  -1.0503  -1.0329  -1.0110
    -1.0042  -0.9976  -0.9839  -0.9547  -0.9225  -0.9034  -0.8861  -0.8725
    -0.8674  -0.8534  -0.8438  -0.8311  -0.8112  -0.7990  -0.7603  -0.7205
    -0.6988  -0.6782  -0.6439  -0.6318  -0.6091  -0.5945  -0.5707  -0.5580
    -0.5304  -0.5093  -0.5002  -0.4879  -0.4781  -0.4494  -0.3925  -0.3601
    -0.3243  -0.3005  -0.2626  -0.2252  -0.2059  -0.1852  -0.1745  -0.1499
    -0.1412  -0.0709   0.0093   0.0903   0.1214   0.2667   0.3541   0.4341
     0.7667   0.7905   0.8443   0.9215   0.9538   0.9987   1.0541   1.1185
     1.2387   1.2672   1.2968   1.3337   1.6641   1.7730   1.8536   1.9820
     2.0293   2.1238   2.1524   2.1817   2.2367   2.2654   2.2963   2.3361
     2.4542   2.6161   2.6287   2.6567   2.6660   2.6843   2.7082   2.7168
     2.7359   2.7495   2.7871   2.7991   2.8239   2.8530   2.8590   2.8778
     2.8853   2.9042   2.9130   2.9345   2.9603   2.9751   3.0183   3.0598
     3.0744   3.1183   3.1434   3.1734   3.1865   3.2048   3.2294   3.2428
     3.2564   3.2703   3.2919   3.3019   3.3099   3.3290   3.3389   3.3568
     3.3589   3.3898   3.4037   3.4136   3.4488   3.4816   3.5006   3.5026
     3.5271   3.5413   3.5562   3.5683   3.5837   3.6018   3.6172   3.6476
     3.6551   3.6901   3.6981   3.7107   3.7305   3.7383   3.7547   3.7610
     3.7901   3.8094   3.8234   3.8405   3.8542   3.8666   3.8774   3.8912
     3.9166   3.9265   3.9396   3.9530   3.9560   3.9684   3.9815   3.9985
     4.0093   4.0225   4.0452   4.0617   4.0739   4.1069   4.1189   4.1344
     4.1545   4.1799   4.1904   4.2208   4.2323   4.2676   4.2883   4.2923
     4.3010   4.3115   4.3194   4.3260   4.3367   4.3388   4.3462   4.3509
     4.3623   4.3755   4.3816   4.3842   4.3908   4.3976   4.4109   4.4200
     4.4264   4.4396   4.4501   4.4631   4.4739   4.4830   4.4897   4.5030
     4.5035   4.5074   4.5156   4.5234   4.5316   4.5342   4.5470   4.5541
     4.5566   4.5696   4.5870   4.6000   4.6105   4.6189   4.6312   4.6419
     4.6457   4.6506   4.6627   4.6717   4.6774   4.6860   4.7024   4.7044
     4.7330   4.7390   4.7486   4.7596   4.7780   4.7901   4.7911   4.8034
     4.8135   4.8243   4.8356   4.8438   4.8629   4.8694   4.8749   4.8878
     4.8937   4.9142   4.9202   4.9322   4.9387   4.9502   4.9588   4.9669
     4.9723   4.9807   4.9846   4.9958   5.0104   5.0177   5.0290   5.0327
     5.0402   5.0512   5.0613   5.0660   5.0835   5.0880   5.0920   5.0968
     5.1021

          k =-0.5000 0.0000 0.0000 (135178 PWs)   bands (ev):

   -61.6978 -61.6770 -61.6756 -61.6615 -61.6605 -61.6584 -61.6571 -61.6458
   -61.6451 -61.6419 -61.6404 -61.6388 -61.6364 -61.6311 -61.6290 -61.6271
   -61.6212 -61.6155 -61.6074 -61.6020 -61.6013 -61.5966 -61.5929 -61.5920
   -61.5893 -61.5880 -61.5868 -61.5847 -61.5836 -61.5824 -61.5804 -61.5774
   -61.5756 -61.5741 -61.5730 -61.5718 -61.5697 -61.5687 -61.5630 -61.5620
   -61.5573 -61.5564 -61.5445 -61.5331 -61.5286 -61.5159 -61.5121 -61.5101
   -61.5022 -61.4947 -61.4870 -61.4806 -61.4642 -61.4587 -61.4534 -61.4501
   -61.4475 -61.4400 -61.4274 -61.4200 -61.4174 -61.4099 -61.3924 -61.3848
   -61.3808 -61.3761 -61.3752 -61.3746 -61.3703 -61.3650 -61.3609 -61.3230
   -44.2898 -42.7577 -35.7759 -35.7742 -35.7718 -35.7709 -35.7378 -35.7371
   -35.7347 -35.7332 -35.7319 -35.7302 -35.7248 -35.7226 -35.7190 -35.7177
   -35.7154 -35.7142 -35.6847 -35.6775 -35.6737 -35.6723 -35.6720 -35.6682
   -35.6648 -35.6638 -35.6614 -35.6580 -35.6555 -35.6534 -35.6534 -35.6515
   -35.6476 -35.6464 -35.6446 -35.6438 -35.6427 -35.6415 -35.6400 -35.6395
   -35.6372 -35.6364 -35.6350 -35.6331 -35.6313 -35.6288 -35.6221 -35.6213
   -35.6186 -35.6180 -35.6152 -35.6124 -35.6074 -35.6071 -35.6037 -35.6018
   -35.5963 -35.5952 -35.5926 -35.5721 -35.5694 -35.5669 -35.5537 -35.5529
   -35.5507 -35.5438 -35.5427 -35.5420 -35.5363 -35.5357 -35.5328 -35.5275
   -35.5249 -35.5241 -35.5221 -35.5202 -35.5151 -35.5131 -35.5053 -35.5007
   -35.4940 -35.4906 -35.4865 -35.4839 -35.4819 -35.4779 -35.4762 -35.4753
   -35.4735 -35.4725 -35.4711 -35.4687 -35.4679 -35.4663 -35.4645 -35.4625
   -35.4607 -35.4600 -35.4592 -35.4555 -35.4548 -35.4536 -35.4533 -35.4517
   -35.4504 -35.4497 -35.4492 -35.4484 -35.4458 -35.4450 -35.4402 -35.4399
   -35.4385 -35.4368 -35.4332 -35.4313 -35.4268 -35.4265 -35.4255 -35.4200
   -35.4169 -35.4128 -35.4083 -35.4039 -35.4024 -35.3991 -35.3942 -35.3918
   -35.3896 -35.3883 -35.3873 -35.3833 -35.3828 -35.3818 -35.3801 -35.3799
   -35.3776 -35.3760 -35.3736 -35.3720 -35.3697 -35.3684 -35.3674 -35.3670
   -35.3650 -35.3643 -35.3635 -35.3616 -35.3613 -35.3597 -35.3583 -35.3569
   -35.3561 -35.3544 -35.3527 -35.3520 -35.3505 -35.3490 -35.3488 -35.3378
   -35.3362 -35.3354 -35.3313 -35.3284 -35.3243 -35.3198 -35.3188 -35.3068
   -35.3046 -35.3032 -35.3017 -35.2961 -35.2907 -35.2871 -35.2837 -35.2808
   -35.2756 -35.2739 -35.2664 -35.2616 -35.2579 -35.2553 -35.2511 -35.2504
   -35.2420 -35.2367 -35.2344 -35.2311 -35.2308 -35.2268 -35.2241 -35.2207
   -35.2194 -35.2093 -35.2082 -35.2027 -35.2006 -35.1913 -35.1866 -35.1845
   -35.1814 -35.1785 -35.1744 -35.1686 -35.1680 -35.1661 -35.1536 -35.1498
   -35.1483 -35.1378 -35.1307 -35.1250 -35.1198 -35.1145 -35.1109 -35.0946
   -35.0841 -35.0724 -13.8547 -13.8456 -13.2188 -13.2125 -13.2020 -13.1859
   -12.9990 -12.9924 -12.8863 -12.7767 -12.4806 -12.4717 -12.4683 -12.4591
   -12.4414 -12.4322 -12.3890 -12.3695 -12.3592 -12.3549 -12.3490 -12.3317
   -12.3215 -12.3164 -12.2679 -12.2584 -12.2336 -12.2076 -12.2050 -12.1996
   -12.1268 -12.1189 -12.1071 -12.1007 -12.0777 -12.0490 -11.9394 -11.9332
   -11.9207 -11.9042 -11.7551 -11.7535 -11.7522 -11.7462 -11.6641 -11.6239
   -11.5858 -11.5801 -11.5743 -11.5638 -11.5629 -11.5531 -11.4025 -11.4002
   -11.3984 -11.3977 -11.3899 -11.3593 -11.2888 -11.2673 -11.2462 -11.2387
   -11.2367 -11.2294 -11.2174 -11.2021 -11.0969 -11.0854 -10.9878 -10.9576
   -10.8980 -10.8862  -8.0089  -4.6625  -4.6568  -4.5433  -4.5388  -4.4625
    -4.4605  -4.4408  -4.4370  -3.9695  -3.9536  -3.9522  -3.9183  -3.8122
    -3.7927  -3.7897  -3.7790  -3.7726  -3.6095  -3.6045  -3.5932  -3.5799
    -3.5797  -3.5761  -3.5722  -3.5688  -3.5656  -3.4735  -3.4211  -3.4024
    -3.3913  -3.3794  -3.3512  -3.3462  -3.3411  -3.3318  -3.3166  -3.3114
    -3.3081  -3.2646  -3.2411  -3.1643  -3.1575  -3.1535  -3.1490  -3.0707
    -2.9220  -2.9162  -2.9040  -2.8920  -2.8895  -2.8856  -2.8450  -2.8328
    -2.8067  -2.6483  -2.4578  -2.4542  -2.4468  -2.4333  -2.4297  -2.4209
    -2.4140  -2.4022  -2.3878  -2.3829  -2.3710  -2.3692  -2.3547  -2.3455
    -2.3416  -2.3342  -2.3277  -2.3179  -2.3017  -2.2975  -2.2883  -2.2659
    -2.2543  -2.2395  -2.2333  -2.2185  -2.2137  -2.2067  -2.2029  -2.1924
    -2.1778  -2.1703  -2.1663  -2.0953  -2.0879  -2.0733  -2.0667  -2.0607
    -2.0486  -2.0333  -2.0254  -1.9875  -1.9449  -1.9279  -1.9149  -1.8784
    -1.8689  -1.8498  -1.8358  -1.8256  -1.8166  -1.8081  -1.7986  -1.7706
    -1.7637  -1.7484  -1.7355  -1.7280  -1.7198  -1.7154  -1.7057  -1.6962
    -1.6770  -1.6620  -1.6605  -1.6564  -1.6550  -1.6402  -1.6211  -1.6196
    -1.5838  -1.5677  -1.5339  -1.5002  -1.4848  -1.4506  -1.4369  -1.4334
    -1.4178  -1.3951  -1.3872  -1.3841  -1.3680  -1.3673  -1.3649  -1.3520
    -1.3349  -1.3257  -1.3198  -1.3076  -1.2962  -1.2917  -1.2905  -1.2778
    -1.2541  -1.2066  -1.1892  -1.1842  -1.1593  -1.1549  -1.1394  -1.1286
    -1.0966  -1.0857  -1.0802  -1.0557  -1.0406  -1.0330  -1.0169  -0.9980
    -0.9889  -0.9764  -0.9513  -0.9276  -0.8974  -0.8357  -0.8270  -0.8208
    -0.8019  -0.7988  -0.7857  -0.7833  -0.7695  -0.7536  -0.7476  -0.6967
    -0.6868  -0.6802  -0.6657  -0.6552  -0.6497  -0.6147  -0.6013  -0.5973
    -0.5804  -0.5578  -0.5516  -0.5132  -0.4723  -0.4570  -0.4343  -0.4236
    -0.3873  -0.3518  -0.3453  -0.3340  -0.3104  -0.2808  -0.2502  -0.2176
    -0.2009   0.1242   0.1283   0.1416   0.1623   0.2561   0.3024   0.3372
     0.3793   0.5655   0.5970   0.8292   0.8578   1.0627   1.3892   1.4093
     1.4332   1.4628   1.5468   1.6079   1.6271   1.6703   1.7030   1.7391
     1.7487   1.7665   1.9284   2.0715   2.2878   2.3030   2.4002   2.4178
     2.4404   2.4977   2.5632   2.5730   2.6317   2.6561   2.6777   2.7034
     2.7186   2.7283   2.7403   2.7682   2.8006   2.8313   2.8695   2.8824
     2.8977   2.9085   2.9248   2.9311   2.9610   2.9665   2.9804   2.9937
     3.0110   3.0165   3.0433   3.0519   3.0736   3.0839   3.1016   3.1352
     3.1433   3.1637   3.2461   3.2553   3.3132   3.3275   3.3483   3.3516
     3.3800   3.4075   3.4341   3.4482   3.4633   3.4756   3.5198   3.5376
     3.5483   3.5667   3.5806   3.5933   3.6243   3.6280   3.6396   3.6414
     3.6671   3.6743   3.7051   3.7212   3.7264   3.7456   3.7661   3.7744
     3.7979   3.8757   3.8997   3.9111   3.9140   3.9302   3.9462   3.9788
     4.0203   4.0259   4.0440   4.0683   4.0711   4.0806   4.0850   4.0940
     4.1048   4.1182   4.1354   4.1475   4.1610   4.1648   4.2012   4.2076
     4.2135   4.2225   4.2395   4.2416   4.2473   4.2531   4.2574   4.2711
     4.2748   4.2849   4.2882   4.2920   4.2967   4.3011   4.3141   4.3228
     4.3436   4.3627   4.3632   4.3820   4.3895   4.4024   4.4096   4.4211
     4.4398   4.4425   4.4530   4.4586   4.4634   4.4728   4.4818   4.4976
     4.5017   4.5086   4.5199   4.5351   4.5373   4.5391   4.5417   4.5605
     4.5690   4.5832   4.5902   4.5972   4.6062   4.6231   4.6278   4.6401
     4.6498   4.6617   4.6719   4.6830   4.6997   4.7058   4.7366   4.7391
     4.7518   4.7556   4.7712   4.7901   4.8009   4.8125   4.8288   4.8375
     4.8420   4.8492   4.8514   4.8539   4.8604   4.8618   4.8657   4.8724
     4.8793   4.8836   4.8957   4.9006   4.9055   4.9158   4.9225   4.9447
     4.9531   4.9600   4.9730   4.9781   4.9869   4.9913   4.9961   5.0020
     5.0113   5.0181   5.0317   5.0532   5.0629   5.0671   5.0710   5.0789
     5.0874

          k =-0.2500 0.2500 0.0000 (135083 PWs)   bands (ev):

   -61.6978 -61.6788 -61.6716 -61.6667 -61.6618 -61.6558 -61.6517 -61.6503
   -61.6465 -61.6419 -61.6387 -61.6374 -61.6362 -61.6335 -61.6293 -61.6248
   -61.6224 -61.6154 -61.6074 -61.6027 -61.6003 -61.5973 -61.5933 -61.5907
   -61.5894 -61.5886 -61.5866 -61.5852 -61.5839 -61.5811 -61.5800 -61.5788
   -61.5761 -61.5735 -61.5728 -61.5707 -61.5699 -61.5682 -61.5657 -61.5609
   -61.5580 -61.5553 -61.5444 -61.5330 -61.5288 -61.5171 -61.5108 -61.5096
   -61.5024 -61.4953 -61.4870 -61.4805 -61.4642 -61.4586 -61.4534 -61.4499
   -61.4477 -61.4400 -61.4274 -61.4200 -61.4175 -61.4099 -61.3924 -61.3847
   -61.3809 -61.3765 -61.3751 -61.3744 -61.3700 -61.3654 -61.3607 -61.3230
   -44.2898 -42.7577 -35.7905 -35.7805 -35.7584 -35.7557 -35.7507 -35.7457
   -35.7355 -35.7302 -35.7245 -35.7224 -35.7212 -35.7206 -35.7183 -35.7073
   -35.7017 -35.6974 -35.6892 -35.6879 -35.6863 -35.6847 -35.6814 -35.6803
   -35.6784 -35.6708 -35.6648 -35.6618 -35.6594 -35.6560 -35.6504 -35.6490
   -35.6481 -35.6449 -35.6432 -35.6415 -35.6410 -35.6403 -35.6378 -35.6361
   -35.6349 -35.6319 -35.6311 -35.6304 -35.6293 -35.6271 -35.6258 -35.6239
   -35.6228 -35.6176 -35.6154 -35.6132 -35.6109 -35.6058 -35.5992 -35.5928
   -35.5815 -35.5761 -35.5740 -35.5696 -35.5683 -35.5631 -35.5610 -35.5585
   -35.5536 -35.5512 -35.5509 -35.5482 -35.5471 -35.5441 -35.5396 -35.5337
   -35.5241 -35.5228 -35.5198 -35.5174 -35.5155 -35.5091 -35.5027 -35.5005
   -35.4970 -35.4922 -35.4878 -35.4862 -35.4848 -35.4820 -35.4810 -35.4788
   -35.4774 -35.4753 -35.4743 -35.4717 -35.4687 -35.4670 -35.4653 -35.4645
   -35.4623 -35.4600 -35.4563 -35.4543 -35.4530 -35.4515 -35.4508 -35.4497
   -35.4486 -35.4477 -35.4456 -35.4445 -35.4423 -35.4406 -35.4392 -35.4357
   -35.4340 -35.4317 -35.4261 -35.4211 -35.4185 -35.4152 -35.4126 -35.4110
   -35.4093 -35.4084 -35.4070 -35.4050 -35.4041 -35.4032 -35.4012 -35.4001
   -35.3979 -35.3967 -35.3937 -35.3920 -35.3899 -35.3869 -35.3844 -35.3808
   -35.3791 -35.3767 -35.3757 -35.3741 -35.3726 -35.3712 -35.3706 -35.3697
   -35.3685 -35.3659 -35.3639 -35.3612 -35.3597 -35.3589 -35.3574 -35.3562
   -35.3542 -35.3537 -35.3527 -35.3516 -35.3479 -35.3459 -35.3431 -35.3416
   -35.3373 -35.3353 -35.3339 -35.3254 -35.3233 -35.3189 -35.3132 -35.3096
   -35.3066 -35.3041 -35.2977 -35.2925 -35.2901 -35.2852 -35.2833 -35.2805
   -35.2743 -35.2728 -35.2706 -35.2610 -35.2563 -35.2541 -35.2518 -35.2461
   -35.2439 -35.2400 -35.2342 -35.2307 -35.2288 -35.2277 -35.2253 -35.2221
   -35.2191 -35.2131 -35.2074 -35.2042 -35.2016 -35.1913 -35.1870 -35.1826
   -35.1791 -35.1761 -35.1745 -35.1712 -35.1683 -35.1648 -35.1580 -35.1515
   -35.1437 -35.1382 -35.1313 -35.1248 -35.1190 -35.1148 -35.1110 -35.0944
   -35.0839 -35.0723 -13.9401 -13.5974 -13.5884 -13.2583 -13.0753 -13.0598
   -13.0500 -12.7820 -12.7695 -12.7580 -12.7439 -12.5959 -12.5844 -12.4971
   -12.4527 -12.4127 -12.4023 -12.3626 -12.3548 -12.3462 -12.3325 -12.3211
   -12.3065 -12.2733 -12.2460 -12.2338 -12.2187 -12.1537 -12.1463 -12.1354
   -12.1317 -12.1212 -12.1108 -12.0514 -12.0196 -12.0161 -11.9978 -11.9934
   -11.9366 -11.8921 -11.8904 -11.8630 -11.7781 -11.6850 -11.6763 -11.6481
   -11.5894 -11.5247 -11.5020 -11.4935 -11.4920 -11.4763 -11.4744 -11.4721
   -11.4629 -11.3808 -11.3689 -11.3167 -11.3092 -11.2924 -11.2866 -11.2511
   -11.2224 -11.2205 -11.1908 -11.1691 -11.1440 -11.1012 -10.9900 -10.9830
   -10.8931 -10.8526  -8.0089  -4.7960  -4.6889  -4.6195  -4.5469  -4.3526
    -4.3409  -4.1925  -4.1714  -4.0795  -4.0716  -4.0076  -3.9822  -3.9560
    -3.8831  -3.8710  -3.8584  -3.7957  -3.6731  -3.6332  -3.6140  -3.5904
    -3.5838  -3.5735  -3.5618  -3.5546  -3.5437  -3.4275  -3.4221  -3.4179
    -3.3945  -3.3721  -3.3603  -3.3554  -3.3300  -3.3080  -3.3015  -3.2926
    -3.2030  -3.1915  -3.1711  -3.0866  -3.0789  -3.0396  -3.0372  -3.0198
    -3.0151  -2.9439  -2.9259  -2.9132  -2.8943  -2.8916  -2.8026  -2.7838
    -2.7347  -2.7185  -2.6397  -2.6287  -2.6220  -2.6039  -2.5487  -2.4851
    -2.4448  -2.4173  -2.3982  -2.3857  -2.3790  -2.3714  -2.3653  -2.3598
    -2.3515  -2.3484  -2.3227  -2.2833  -2.2766  -2.2718  -2.2609  -2.2516
    -2.2448  -2.2377  -2.2192  -2.2149  -2.2011  -2.1729  -2.1338  -2.1245
    -2.1207  -2.0928  -2.0809  -2.0618  -2.0470  -2.0394  -2.0279  -1.9856
    -1.9783  -1.9539  -1.9483  -1.9282  -1.9158  -1.9052  -1.9019  -1.8928
    -1.8834  -1.8682  -1.8562  -1.8443  -1.8328  -1.8216  -1.8159  -1.8021
    -1.7985  -1.7875  -1.7850  -1.7799  -1.7654  -1.7402  -1.7163  -1.7071
    -1.7018  -1.6725  -1.6506  -1.6445  -1.6392  -1.6238  -1.6097  -1.5918
    -1.5727  -1.5427  -1.5064  -1.4871  -1.4806  -1.4612  -1.4575  -1.4461
    -1.4349  -1.4210  -1.4146  -1.4022  -1.3911  -1.3790  -1.3610  -1.3560
    -1.3368  -1.3119  -1.3001  -1.2968  -1.2907  -1.2758  -1.2618  -1.2450
    -1.2350  -1.2222  -1.2101  -1.2031  -1.1840  -1.1488  -1.1228  -1.1037
    -1.0885  -1.0836  -1.0731  -1.0501  -1.0298  -1.0235  -1.0134  -0.9920
    -0.9805  -0.9511  -0.9269  -0.9234  -0.9081  -0.9010  -0.8916  -0.8774
    -0.8546  -0.8415  -0.8348  -0.8197  -0.7986  -0.7899  -0.7797  -0.7521
    -0.7289  -0.7098  -0.7006  -0.6794  -0.6630  -0.5915  -0.5648  -0.5418
    -0.5271  -0.5169  -0.4989  -0.4809  -0.4685  -0.4468  -0.4324  -0.4119
    -0.3932  -0.3371  -0.3076  -0.2939  -0.2637  -0.2355  -0.1959  -0.1446
    -0.0830  -0.0640  -0.0035   0.0303   0.1196   0.1481   0.2371   0.2566
     0.5712   0.7106   0.9171   0.9898   1.0224   1.0707   1.1369   1.1438
     1.1834   1.3879   1.4041   1.4489   1.6546   1.8501   1.9434   1.9831
     2.0026   2.0289   2.0554   2.1300   2.1792   2.2017   2.2769   2.2828
     2.3078   2.3517   2.3896   2.4142   2.4907   2.4948   2.5953   2.6457
     2.6647   2.6858   2.7195   2.7542   2.7782   2.7958   2.8155   2.8259
     2.8885   2.9127   2.9412   2.9692   2.9861   3.0363   3.0798   3.0932
     3.1076   3.1160   3.1368   3.1572   3.1828   3.2007   3.2051   3.2200
     3.2302   3.2494   3.2608   3.2781   3.2902   3.3226   3.3414   3.3780
     3.3981   3.4051   3.4226   3.4593   3.4828   3.4956   3.5052   3.5213
     3.5390   3.5519   3.5687   3.5755   3.5843   3.6008   3.6253   3.6397
     3.7033   3.7164   3.7400   3.7530   3.7679   3.7802   3.7825   3.7992
     3.8101   3.8456   3.8510   3.8831   3.9078   3.9143   3.9159   3.9247
     3.9359   3.9473   3.9747   4.0018   4.0142   4.0220   4.0379   4.0517
     4.0721   4.0986   4.1115   4.1243   4.1365   4.1531   4.1684   4.1951
     4.2047   4.2231   4.2370   4.2427   4.2518   4.2595   4.2699   4.2785
     4.2850   4.2933   4.3058   4.3243   4.3324   4.3495   4.3556   4.3692
     4.3724   4.3781   4.3861   4.3904   4.4025   4.4128   4.4142   4.4292
     4.4341   4.4407   4.4442   4.4553   4.4614   4.4668   4.4713   4.4784
     4.4864   4.4925   4.4997   4.5135   4.5327   4.5373   4.5439   4.5571
     4.5699   4.5724   4.5797   4.5899   4.6004   4.6093   4.6166   4.6410
     4.6473   4.6553   4.6628   4.6742   4.6838   4.6986   4.7022   4.7196
     4.7326   4.7402   4.7550   4.7748   4.7818   4.8123   4.8222   4.8374
     4.8426   4.8546   4.8654   4.8679   4.8718   4.8802   4.8870   4.8933
     4.9052   4.9120   4.9175   4.9221   4.9347   4.9443   4.9497   4.9561
     4.9655   4.9694   4.9773   4.9872   4.9993   5.0196   5.0228   5.0250
     5.0306   5.0341   5.0416   5.0479   5.0515   5.0619   5.0758   5.0820
     5.0981

          k =-0.5000 0.2500 0.0000 (135080 PWs)   bands (ev):

   -61.6978 -61.6761 -61.6747 -61.6658 -61.6654 -61.6536 -61.6517 -61.6458
   -61.6450 -61.6423 -61.6405 -61.6392 -61.6365 -61.6354 -61.6297 -61.6241
   -61.6208 -61.6159 -61.6073 -61.6025 -61.6008 -61.5974 -61.5936 -61.5901
   -61.5893 -61.5876 -61.5865 -61.5849 -61.5833 -61.5821 -61.5807 -61.5800
   -61.5772 -61.5738 -61.5720 -61.5702 -61.5694 -61.5683 -61.5635 -61.5627
   -61.5580 -61.5555 -61.5445 -61.5332 -61.5285 -61.5158 -61.5119 -61.5099
   -61.5023 -61.4952 -61.4871 -61.4804 -61.4642 -61.4587 -61.4534 -61.4501
   -61.4475 -61.4400 -61.4274 -61.4200 -61.4175 -61.4099 -61.3924 -61.3848
   -61.3808 -61.3762 -61.3751 -61.3746 -61.3702 -61.3651 -61.3609 -61.3230
   -44.2898 -42.7577 -35.7932 -35.7899 -35.7483 -35.7464 -35.7436 -35.7429
   -35.7393 -35.7370 -35.7297 -35.7265 -35.7245 -35.7221 -35.7071 -35.7046
   -35.7030 -35.6987 -35.6872 -35.6848 -35.6830 -35.6780 -35.6749 -35.6742
   -35.6729 -35.6703 -35.6677 -35.6668 -35.6635 -35.6594 -35.6587 -35.6566
   -35.6539 -35.6499 -35.6466 -35.6450 -35.6434 -35.6414 -35.6390 -35.6382
   -35.6353 -35.6341 -35.6328 -35.6294 -35.6279 -35.6262 -35.6239 -35.6207
   -35.6178 -35.6162 -35.6137 -35.6115 -35.6087 -35.6066 -35.6016 -35.5914
   -35.5886 -35.5830 -35.5793 -35.5728 -35.5682 -35.5644 -35.5610 -35.5538
   -35.5518 -35.5485 -35.5441 -35.5426 -35.5399 -35.5366 -35.5350 -35.5340
   -35.5310 -35.5250 -35.5214 -35.5129 -35.5117 -35.5065 -35.5033 -35.4976
   -35.4933 -35.4923 -35.4904 -35.4871 -35.4861 -35.4827 -35.4792 -35.4780
   -35.4770 -35.4736 -35.4726 -35.4708 -35.4686 -35.4677 -35.4669 -35.4665
   -35.4649 -35.4628 -35.4610 -35.4589 -35.4575 -35.4551 -35.4537 -35.4528
   -35.4501 -35.4473 -35.4448 -35.4416 -35.4407 -35.4376 -35.4353 -35.4339
   -35.4321 -35.4295 -35.4286 -35.4273 -35.4247 -35.4201 -35.4162 -35.4135
   -35.4121 -35.4100 -35.4080 -35.4066 -35.4047 -35.4007 -35.3985 -35.3967
   -35.3931 -35.3914 -35.3905 -35.3889 -35.3872 -35.3848 -35.3822 -35.3817
   -35.3802 -35.3786 -35.3772 -35.3751 -35.3733 -35.3708 -35.3689 -35.3674
   -35.3665 -35.3653 -35.3635 -35.3625 -35.3605 -35.3595 -35.3577 -35.3556
   -35.3535 -35.3515 -35.3504 -35.3487 -35.3470 -35.3435 -35.3419 -35.3411
   -35.3381 -35.3378 -35.3321 -35.3290 -35.3256 -35.3208 -35.3168 -35.3119
   -35.3067 -35.3033 -35.3007 -35.2939 -35.2898 -35.2871 -35.2812 -35.2800
   -35.2747 -35.2709 -35.2657 -35.2603 -35.2578 -35.2551 -35.2517 -35.2492
   -35.2419 -35.2386 -35.2334 -35.2328 -35.2303 -35.2274 -35.2238 -35.2211
   -35.2176 -35.2135 -35.2103 -35.2049 -35.1989 -35.1934 -35.1882 -35.1833
   -35.1802 -35.1770 -35.1750 -35.1688 -35.1668 -35.1645 -35.1553 -35.1524
   -35.1448 -35.1383 -35.1304 -35.1258 -35.1182 -35.1145 -35.1109 -35.0947
   -35.0841 -35.0725 -13.8084 -13.7991 -13.4658 -13.4568 -12.9616 -12.9518
   -12.9376 -12.9289 -12.8470 -12.7376 -12.6658 -12.6586 -12.5646 -12.4922
   -12.4803 -12.4548 -12.4230 -12.4096 -12.3380 -12.3243 -12.3114 -12.3048
   -12.2579 -12.2533 -12.2211 -12.1998 -12.1939 -12.1832 -12.1725 -12.1682
   -12.1608 -12.0826 -12.0785 -12.0665 -12.0432 -12.0261 -12.0171 -12.0008
   -11.9218 -11.9193 -11.8986 -11.8710 -11.7971 -11.7639 -11.5954 -11.5927
   -11.5531 -11.5498 -11.5451 -11.5449 -11.4742 -11.4388 -11.4384 -11.4372
   -11.4067 -11.4039 -11.3720 -11.3631 -11.3538 -11.3405 -11.2779 -11.2548
   -11.2323 -11.2064 -11.1480 -11.1440 -11.1276 -11.1086 -11.0159 -11.0009
   -10.8778 -10.8352  -8.0090  -4.8601  -4.7832  -4.6611  -4.6500  -4.3386
    -4.2581  -4.1630  -4.1374  -4.0551  -4.0448  -3.8865  -3.8816  -3.8611
    -3.8248  -3.7976  -3.7857  -3.7830  -3.7190  -3.7070  -3.6853  -3.6502
    -3.6409  -3.5944  -3.5895  -3.5821  -3.5640  -3.5542  -3.5256  -3.4340
    -3.4276  -3.3434  -3.3362  -3.3198  -3.3132  -3.2937  -3.2697  -3.2345
    -3.2256  -3.1479  -3.1010  -3.0985  -3.0957  -3.0711  -3.0378  -3.0295
    -3.0244  -2.9634  -2.9554  -2.9349  -2.8993  -2.7954  -2.7895  -2.7815
    -2.7674  -2.7430  -2.7343  -2.6681  -2.6503  -2.6354  -2.5638  -2.5352
    -2.5100  -2.4708  -2.4620  -2.4292  -2.4009  -2.3697  -2.3522  -2.3355
    -2.3245  -2.3075  -2.2874  -2.2783  -2.2736  -2.2565  -2.2502  -2.2454
    -2.2302  -2.2063  -2.1792  -2.1662  -2.1643  -2.1557  -2.1359  -2.1280
    -2.1198  -2.1145  -2.1050  -2.0860  -2.0630  -2.0487  -2.0397  -2.0284
    -2.0186  -1.9999  -1.9828  -1.9769  -1.9646  -1.9528  -1.9458  -1.9334
    -1.9126  -1.8982  -1.8785  -1.8760  -1.8684  -1.8561  -1.8446  -1.8380
    -1.8285  -1.8124  -1.7943  -1.7926  -1.7829  -1.7160  -1.6972  -1.6821
    -1.6775  -1.6649  -1.6517  -1.5734  -1.5432  -1.5323  -1.5223  -1.4990
    -1.4891  -1.4592  -1.4483  -1.4425  -1.4387  -1.4328  -1.4185  -1.4135
    -1.3920  -1.3734  -1.3636  -1.3407  -1.3299  -1.3279  -1.3134  -1.3046
    -1.2969  -1.2800  -1.2779  -1.2669  -1.2529  -1.2345  -1.2206  -1.2109
    -1.1974  -1.1856  -1.1683  -1.1623  -1.1465  -1.1340  -1.1246  -1.1129
    -1.0993  -1.0967  -1.0814  -1.0685  -1.0607  -1.0377  -1.0305  -1.0098
    -0.9930  -0.9889  -0.9387  -0.9166  -0.8969  -0.8693  -0.8639  -0.8583
    -0.8398  -0.8320  -0.8159  -0.8041  -0.7900  -0.7657  -0.7417  -0.7154
    -0.7035  -0.6875  -0.6471  -0.6354  -0.6321  -0.6169  -0.5777  -0.5586
    -0.5439  -0.5339  -0.5071  -0.5019  -0.4867  -0.4659  -0.4577  -0.4262
    -0.4218  -0.4062  -0.3532  -0.3083  -0.2684  -0.2576  -0.2096  -0.1249
    -0.1206  -0.0897  -0.0651   0.0414   0.0625   0.1111   0.1420   0.2809
     0.3021   0.4938   0.5038   1.0164   1.0711   1.1406   1.4154   1.4350
     1.4724   1.5346   1.5927   1.6076   1.6188   1.7106   1.7606   1.7931
     1.8143   1.8267   1.9500   2.0642   2.1405   2.1786   2.2035   2.2347
     2.2740   2.2941   2.3617   2.3751   2.4325   2.4758   2.4999   2.5579
     2.6428   2.6496   2.6731   2.6979   2.7151   2.7568   2.8050   2.8296
     2.8856   2.9034   2.9195   2.9336   2.9424   2.9598   2.9721   2.9947
     3.0048   3.0100   3.0729   3.0886   3.1185   3.1394   3.1643   3.2001
     3.2268   3.2393   3.2453   3.2784   3.3211   3.3389   3.3627   3.3723
     3.3885   3.4290   3.4414   3.4482   3.4621   3.4901   3.5250   3.5887
     3.6044   3.6145   3.6237   3.6344   3.6681   3.6778   3.6973   3.7139
     3.7221   3.7273   3.7549   3.7830   3.8002   3.8163   3.8301   3.8533
     3.8663   3.8814   3.8944   3.9110   3.9320   3.9511   3.9998   4.0052
     4.0152   4.0256   4.0338   4.0474   4.0650   4.0806   4.0972   4.1181
     4.1324   4.1434   4.1610   4.1671   4.1741   4.1904   4.1971   4.2076
     4.2162   4.2293   4.2372   4.2439   4.2528   4.2553   4.2649   4.2688
     4.2745   4.2801   4.2859   4.2942   4.3025   4.3056   4.3186   4.3218
     4.3349   4.3507   4.3604   4.3738   4.3832   4.3880   4.3967   4.4046
     4.4107   4.4122   4.4173   4.4227   4.4437   4.4550   4.4594   4.4651
     4.4765   4.4832   4.4972   4.5021   4.5326   4.5508   4.5635   4.5784
     4.6005   4.6067   4.6177   4.6366   4.6436   4.6588   4.6644   4.6723
     4.6834   4.6899   4.6980   4.7116   4.7258   4.7374   4.7462   4.7573
     4.7694   4.7805   4.7966   4.8088   4.8108   4.8185   4.8278   4.8355
     4.8475   4.8526   4.8602   4.8697   4.8806   4.8905   4.8986   4.9090
     4.9162   4.9181   4.9245   4.9319   4.9394   4.9415   4.9489   4.9547
     4.9572   4.9663   4.9709   4.9737   4.9829   4.9853   4.9947   5.0005
     5.0150   5.0232   5.0347   5.0449   5.0527   5.0606   5.0677   5.0787
     5.0852

     the Fermi energy is     3.6462 ev

!    total energy              =  -11961.41067028 Ry
     estimated scf accuracy    <       0.00000083 Ry
     smearing contrib. (-TS)   =      -0.04527521 Ry
     internal energy E=F+TS    =  -11961.36539507 Ry

     The total energy is F=E-TS. E is the sum of the following terms:
     one-electron contribution = -159191.84462070 Ry
     hartree contribution      =   79697.44267135 Ry
     xc contribution           =   -1819.85329511 Ry
     ewald contribution        =   69356.40070127 Ry
     DFT-D3 Dispersion         =      -3.51085188 Ry

     convergence has been achieved in  58 iterations

     negative rho (up, down):  7.582E-02 0.000E+00

     Forces acting on atoms (cartesian axes, Ry/au):

     atom    1 type  1   force =     0.00148976    0.00187777    0.09146987
     atom    2 type  1   force =    -0.00159672    0.00557086   -0.02221851
     atom    3 type  1   force =     0.00551919   -0.00265973   -0.02229145
     atom    4 type  1   force =    -0.00115671   -0.00124814    0.09506354
     atom    5 type  1   force =     0.00029778    0.00041327   -0.00020759
     atom    6 type  1   force =    -0.00015116   -0.00045860   -0.00019675
     atom    7 type  1   force =    -0.00009914   -0.00006720   -0.00022962
     atom    8 type  1   force =    -0.00036122   -0.00044680    0.00113872
     atom    9 type  1   force =     0.00122106   -0.00028792    0.09285302
     atom   10 type  1   force =    -0.00487324    0.00142717   -0.02025907
     atom   11 type  1   force =     0.00327453   -0.00140147   -0.01715065
     atom   12 type  1   force =    -0.00070477   -0.00116651    0.09426546
     atom   13 type  1   force =     0.00002502    0.00035962    0.00002085
     atom   14 type  1   force =     0.00071964   -0.00061020   -0.00071665
     atom   15 type  1   force =    -0.00059522    0.00060125   -0.00012595
     atom   16 type  1   force =     0.00010780   -0.00023886   -0.00070884
     atom   17 type  1   force =     0.00004255    0.00130586    0.09548813
     atom   18 type  1   force =    -0.00566364    0.00262156   -0.02113664
     atom   19 type  1   force =     0.00414043   -0.00436506   -0.01539638
     atom   20 type  1   force =    -0.00114705   -0.00013118    0.09372711
     atom   21 type  1   force =    -0.00008994   -0.00001370    0.00033901
     atom   22 type  1   force =     0.00089626    0.00060977   -0.00051197
     atom   23 type  1   force =     0.00057104   -0.00056116    0.00006945
     atom   24 type  1   force =    -0.00006645   -0.00032382    0.00010722
     atom   25 type  1   force =     0.00024961    0.00153084    0.09153407
     atom   26 type  1   force =    -0.00323411    0.00214476   -0.02197467
     atom   27 type  1   force =     0.00078053   -0.00202263   -0.01733585
     atom   28 type  1   force =    -0.00104251   -0.00083123    0.09310837
     atom   29 type  1   force =    -0.00004915    0.00046496    0.00034004
     atom   30 type  1   force =    -0.00039211   -0.00019495    0.00019427
     atom   31 type  1   force =     0.00090042    0.00086606   -0.00021659
     atom   32 type  1   force =    -0.00000804   -0.00023357    0.00036339
     atom   33 type  1   force =     0.00035051   -0.00058727    0.09472760
     atom   34 type  1   force =    -0.00115756    0.00492699   -0.01698344
     atom   35 type  1   force =     0.00538604   -0.00098484   -0.00030637
     atom   36 type  1   force =    -0.00060219   -0.00045576    0.09554204
     atom   37 type  1   force =    -0.00020158   -0.00062432    0.00135233
     atom   38 type  1   force =    -0.00048841   -0.00072002   -0.00008305
     atom   39 type  1   force =    -0.00025708   -0.00153609    0.00211233
     atom   40 type  1   force =     0.00001119   -0.00005949    0.00011168
     atom   41 type  1   force =     0.00155761    0.00153158    0.09532236
     atom   42 type  1   force =    -0.00313182    0.00110580   -0.02100424
     atom   43 type  1   force =     0.00269985   -0.00433297   -0.01511025
     atom   44 type  1   force =    -0.00036763   -0.00076667    0.09329003
     atom   45 type  1   force =     0.00003887   -0.00011865   -0.00033567
     atom   46 type  1   force =     0.00012945    0.00052020   -0.00014505
     atom   47 type  1   force =    -0.00077098    0.00076497    0.00002937
     atom   48 type  1   force =    -0.00030105   -0.00015583   -0.00040486
     atom   49 type  1   force =     0.00086754    0.00032119    0.09613667
     atom   50 type  1   force =    -0.00416028    0.00348290   -0.01633516
     atom   51 type  1   force =     0.00287468   -0.00441140   -0.01934009
     atom   52 type  1   force =    -0.00039992   -0.00050400    0.09326894
     atom   53 type  1   force =     0.00006865   -0.00016953    0.00019732
     atom   54 type  1   force =    -0.00020806    0.00070898   -0.00011237
     atom   55 type  1   force =     0.00021101   -0.00018312   -0.00013797
     atom   56 type  1   force =     0.00003253    0.00028161    0.00016220
     atom   57 type  1   force =     0.00153714    0.00162452    0.09233828
     atom   58 type  1   force =    -0.00272522    0.00418456   -0.01880048
     atom   59 type  1   force =    -0.00098211   -0.00248976   -0.01901927
     atom   60 type  1   force =    -0.00013777   -0.00096110    0.09255082
     atom   61 type  1   force =    -0.00000036   -0.00016357    0.00012699
     atom   62 type  1   force =    -0.00043682   -0.00037029    0.00036648
     atom   63 type  1   force =     0.00020738    0.00007069   -0.00018881
     atom   64 type  1   force =    -0.00007135   -0.00027365   -0.00015210
     atom   65 type  1   force =     0.00151996    0.00068467    0.09186357
     atom   66 type  1   force =    -0.00292811    0.00298964   -0.02055071
     atom   67 type  1   force =     0.00388015   -0.00251470   -0.01939565
     atom   68 type  1   force =    -0.00153544   -0.00151984    0.09261231
     atom   69 type  1   force =     0.00002096    0.00035636   -0.00005681
     atom   70 type  1   force =     0.00001137    0.00006456    0.00016913
     atom   71 type  1   force =     0.00049664    0.00055875    0.00003790
     atom   72 type  1   force =    -0.00014454    0.00008469    0.00032238
     atom   73 type  2   force =    -0.00043704    0.00022461   -0.05330719
     atom   74 type  2   force =     0.00026620   -0.00042315   -0.05368234
     atom   75 type  2   force =     0.00106606    0.00118899   -0.01767770
     atom   76 type  2   force =    -0.00025164   -0.00114182   -0.02085849
     atom   77 type  2   force =     0.00011674    0.00031075   -0.00041654
     atom   78 type  2   force =     0.00022972   -0.00013543   -0.00030618
     atom   79 type  2   force =    -0.00051118   -0.00066551    0.00008043
     atom   80 type  2   force =    -0.00002322   -0.00007311   -0.00013714
     atom   81 type  2   force =     0.00022464    0.00025022   -0.05344472
     atom   82 type  2   force =     0.00046076   -0.00006791   -0.05406423
     atom   83 type  2   force =     0.00072313    0.00004172   -0.02105376
     atom   84 type  2   force =     0.00065051    0.00036021   -0.02133463
     atom   85 type  2   force =    -0.00000509    0.00045648   -0.00017778
     atom   86 type  2   force =    -0.00041144   -0.00021211   -0.00012119
     atom   87 type  2   force =    -0.00063403    0.00036087    0.00066000
     atom   88 type  2   force =     0.00130726   -0.00066424   -0.00028326
     atom   89 type  2   force =    -0.00049212    0.00052386   -0.05325908
     atom   90 type  2   force =     0.00130791   -0.00087361   -0.05358932
     atom   91 type  2   force =    -0.00000437    0.00007012   -0.02664325
     atom   92 type  2   force =    -0.00023875   -0.00077726   -0.01929890
     atom   93 type  2   force =    -0.00005547   -0.00006265    0.00007791
     atom   94 type  2   force =     0.00001879   -0.00026042   -0.00028538
     atom   95 type  2   force =     0.00050233    0.00011783    0.00021985
     atom   96 type  2   force =    -0.00017180    0.00020702   -0.00074788
     atom   97 type  2   force =    -0.00044699    0.00030422   -0.05405459
     atom   98 type  2   force =     0.00040779   -0.00040197   -0.05378277
     atom   99 type  2   force =    -0.00003350    0.00051127   -0.01960326
     atom  100 type  2   force =    -0.00045652   -0.00163646   -0.01651281
     atom  101 type  2   force =     0.00007053   -0.00032304   -0.00011877
     atom  102 type  2   force =     0.00012040    0.00003853    0.00012041
     atom  103 type  2   force =    -0.00014912   -0.00022660    0.00039592
     atom  104 type  2   force =    -0.00003834   -0.00005685   -0.00052667
     atom  105 type  2   force =    -0.00092896    0.00050093   -0.05797216
     atom  106 type  2   force =     0.00021623   -0.00020517   -0.05464166
     atom  107 type  2   force =    -0.00032459    0.00227408   -0.02710397
     atom  108 type  2   force =    -0.00223381   -0.00009495   -0.02141586
     atom  109 type  2   force =     0.00015362    0.00035006   -0.00083202
     atom  110 type  2   force =     0.00030030    0.00008053    0.00008142
     atom  111 type  2   force =    -0.00043279   -0.00002657   -0.00267953
     atom  112 type  2   force =    -0.00055952   -0.00032122   -0.00029019
     atom  113 type  2   force =    -0.00034925    0.00017141   -0.05274039
     atom  114 type  2   force =     0.00041157   -0.00056119   -0.05417131
     atom  115 type  2   force =    -0.00000355   -0.00200907   -0.03064896
     atom  116 type  2   force =    -0.00086431    0.00034019   -0.01693305
     atom  117 type  2   force =    -0.00024322    0.00012376    0.00018109
     atom  118 type  2   force =     0.00000973   -0.00014510   -0.00015172
     atom  119 type  2   force =    -0.00063432    0.00016979   -0.00014006
     atom  120 type  2   force =    -0.00008350    0.00023940   -0.00057904
     atom  121 type  2   force =    -0.00036592    0.00109156   -0.05318339
     atom  122 type  2   force =     0.00064701   -0.00042397   -0.05298241
     atom  123 type  2   force =     0.00071755    0.00012620   -0.02861774
     atom  124 type  2   force =    -0.00135055   -0.00081704   -0.02181372
     atom  125 type  2   force =    -0.00010462   -0.00019904   -0.00014761
     atom  126 type  2   force =     0.00007599    0.00017625   -0.00011249
     atom  127 type  2   force =     0.00009340    0.00009425    0.00032014
     atom  128 type  2   force =     0.00056615   -0.00000478   -0.00045673
     atom  129 type  2   force =    -0.00057338    0.00054613   -0.05306719
     atom  130 type  2   force =     0.00027705   -0.00083529   -0.05329331
     atom  131 type  2   force =     0.00144375    0.00095508   -0.02154653
     atom  132 type  2   force =     0.00032150   -0.00039907   -0.01768251
     atom  133 type  2   force =     0.00008595    0.00002581   -0.00012130
     atom  134 type  2   force =    -0.00003486   -0.00008180    0.00051714
     atom  135 type  2   force =     0.00058338   -0.00058332   -0.00019964
     atom  136 type  2   force =    -0.00000676    0.00013645   -0.00069988
     atom  137 type  2   force =    -0.00059282   -0.00036353   -0.05335501
     atom  138 type  2   force =    -0.00024160   -0.00018166   -0.05338263
     atom  139 type  2   force =     0.00198684    0.00093270   -0.01807598
     atom  140 type  2   force =    -0.00110311   -0.00089043   -0.02332201
     atom  141 type  2   force =    -0.00022153    0.00008322    0.00000253
     atom  142 type  2   force =    -0.00012280   -0.00003809    0.00020292
     atom  143 type  2   force =     0.00013663    0.00038927    0.00009116
     atom  144 type  2   force =     0.00034268    0.00026228   -0.00013367
     atom  145 type  3   force =     0.00030627   -0.00127915   -0.00177921
     atom  146 type  4   force =    -0.00092785   -0.00047062    0.00026755
     atom  147 type  4   force =     0.00061819    0.00100637    0.00275851

     Total force =     0.007634     Total SCF correction =     0.003078
     SCF correction compared to forces is large: reduce conv_thr to get better values
     Energy error            =      1.3E-04 Ry
     Gradient error          =      2.8E-03 Ry/Bohr

     number of scf cycles    =  21
     number of bfgs steps    =  20

     energy             old  =  -11961.4105433941 Ry
     energy             new  =  -11961.4106702797 Ry

     CASE: energy            _new < energy            _old

     new trust radius        =       0.0114658355 bohr
     new conv_thr            =       0.0000000254 Ry


ATOMIC_POSITIONS (angstrom)
V                0.0000000000        0.0000000000       10.0000000000    0   0   0
V                2.0432625400        0.0000000000       12.0432625400    0   0   0
V                0.0000000000        2.0432625400       12.0432625400    0   0   0
V                2.0432625400        2.0432625400       10.0000000000    0   0   0
V                0.0757516879        0.0725161633       14.1644324014
V                2.0186559989       -0.1012511052       16.0124705488
V               -0.1118457987        2.0285115479       16.0080912369
V                1.9857618833        1.9895483913       14.1926375099
V                0.0000000000        4.0865250700       10.0000000000    0   0   0
V                2.0432625400        4.0865250700       12.0432625400    0   0   0
V                0.0000000000        6.1297876100       12.0432625400    0   0   0
V                2.0432625400        6.1297876100       10.0000000000    0   0   0
V                0.0663338736        4.1245241363       14.1538409119
V                2.0419113654        4.1779235512       15.9939188807
V                0.0051276867        6.0787151448       16.0023582540
V                2.0465140047        6.0762002373       14.1737928278
V                0.0000000000        8.1730501500       10.0000000000    0   0   0
V                2.0432625400        8.1730501500       12.0432625400    0   0   0
V                0.0000000000       10.2163126900       12.0432625400    0   0   0
V                2.0432625400       10.2163126900       10.0000000000    0   0   0
V                0.0802012935        8.2496019796       14.1409322407
V                2.0353494794        8.2328148995       16.0120438046
V               -0.0269979843       10.2782435385       16.0017042991
V                1.9646691822       10.1384147291       14.1501010954
V                4.0865250700        0.0000000000       10.0000000000    0   0   0
V                6.1297876100        0.0000000000       12.0432625400    0   0   0
V                4.0865250700        2.0432625400       12.0432625400    0   0   0
V                6.1297876100        2.0432625400       10.0000000000    0   0   0
V                4.1300698301        0.0502161875       14.1682784870
V                6.1119492760        0.0063947889       16.0081059297
V                4.1992967210        2.0311189741       15.9928455866
V                6.0747954808        1.9827242205       14.1528776698
V                4.0865250700        4.0865250700       10.0000000000    0   0   0
V                6.1297876100        4.0865250700       12.0432625400    0   0   0
V                4.0865250700        6.1297876100       12.0432625400    0   0   0
V                6.1297876100        6.1297876100       10.0000000000    0   0   0
V                4.1352091140        4.1869353444       14.1405319124
V                6.1233513497        3.9938514961       15.9912527411
V                3.9180016607        6.0842543584       16.4046493883
V                6.0202844162        6.0825759645       14.2047278136
V                4.0865250700        8.1730501500       10.0000000000    0   0   0
V                6.1297876100        8.1730501500       12.0432625400    0   0   0
V                4.0865250700       10.2163126900       12.0432625400    0   0   0
V                6.1297876100       10.2163126900       10.0000000000    0   0   0
V                4.1655026312        8.1817206449       14.1522956851
V                6.1416190703        8.2787091963       15.9946675687
V                4.1253620427       10.2551317935       16.0066119053
V                6.0592854411       10.1629523598       14.1606919205
V                8.1730501500        0.0000000000       10.0000000000    0   0   0
V               10.2163126900        0.0000000000       12.0432625400    0   0   0
V                8.1730501500        2.0432625400       12.0432625400    0   0   0
V               10.2163126900        2.0432625400       10.0000000000    0   0   0
V                8.2460675128        0.0711957786       14.1342156631
V               10.2626276771       -0.0173883974       16.0015891804
V                8.1653233351        2.0942205933       16.0061476651
V               10.1425979386        1.9692486892       14.1433886170
V                8.1730501500        4.0865250700       10.0000000000    0   0   0
V               10.2163126900        4.0865250700       12.0432625400    0   0   0
V                8.1730501500        6.1297876100       12.0432625400    0   0   0
V               10.2163126900        6.1297876100       10.0000000000    0   0   0
V                8.2379134586        4.1679294741       14.1560427882
V               10.2129008227        4.1041495599       16.0018450572
V                8.2932225243        6.1413242254       16.0031467319
V               10.1458794822        6.0691931082       14.1595371766
V                8.1730501500        8.1730501500       10.0000000000    0   0   0
V               10.2163126900        8.1730501500       12.0432625400    0   0   0
V                8.1730501500       10.2163126900       12.0432625400    0   0   0
V               10.2163126900       10.2163126900       10.0000000000    0   0   0
V                8.2379450709        8.2168627975       14.1702962422
V               10.1821762041        8.1879080827       16.0044262399
V                8.1679084187       10.1571555373       16.0034776570
V               10.1523170158       10.1496885411       14.1448434041
N                0.0000000000        2.0432625400       10.0000000000    0   0   0
N                2.0432625400        0.0000000000       10.0000000000    0   0   0
N                0.0000000000        0.0000000000       12.0432625400    0   0   0
N                2.0432625400        2.0432625400       12.0432625400    0   0   0
N               -0.0509889039        2.0822483456       14.1113444085
N                2.0870047558       -0.0503336002       14.1144780910
N                0.0123186813        0.0240031937       16.3206054876
N                2.0429654168        2.0410178246       16.2487075731
N                0.0000000000        6.1297876100       10.0000000000    0   0   0
N                2.0432625400        4.0865250700       10.0000000000    0   0   0
N                0.0000000000        4.0865250700       12.0432625400    0   0   0
N                2.0432625400        6.1297876100       12.0432625400    0   0   0
N               -0.0290564673        6.1641742615       14.1081791967
N                2.0890548750        4.0391247890       14.1015916478
N                0.0063478961        4.0501611266       16.2888422251
N                1.9718113666        6.1773722895       16.2646373147
N                0.0000000000       10.2163126900       10.0000000000    0   0   0
N                2.0432625400        8.1730501500       10.0000000000    0   0   0
N                0.0000000000        8.1730501500       12.0432625400    0   0   0
N                2.0432625400       10.2163126900       12.0432625400    0   0   0
N               -0.0579887867       10.2751068821       14.1039729247
N                2.1019475645        8.1258193852       14.1080792452
N               -0.0144143781        8.1987851676       16.2201354874
N                2.0463246934       10.2025007765       16.2877578594
N                4.0865250700        2.0432625400       10.0000000000    0   0   0
N                6.1297876100        0.0000000000       10.0000000000    0   0   0
N                4.0865250700        0.0000000000       12.0432625400    0   0   0
N                6.1297876100        2.0432625400       12.0432625400    0   0   0
N                4.0444677931        2.0833008926       14.1019122626
N                6.1719986246       -0.0425894197       14.1074970209
N                4.0617935485        0.0213327319       16.3057744155
N                6.1682361458        2.0118494259       16.3185918244
N                4.0865250700        6.1297876100       10.0000000000    0   0   0
N                6.1297876100        4.0865250700       10.0000000000    0   0   0
N                4.0865250700        4.0865250700       12.0432625400    0   0   0
N                6.1297876100        6.1297876100       12.0432625400    0   0   0
N                4.0481212522        6.1724382152       14.1664333388
N                6.1709294269        4.0526216395       14.1007080444
N                4.0843257674        4.0555862836       16.2205877315
N                6.1493507659        6.1212292621       16.2133266995
N                4.0865250700       10.2163126900       10.0000000000    0   0   0
N                6.1297876100        8.1730501500       10.0000000000    0   0   0
N                4.0865250700        8.1730501500       12.0432625400    0   0   0
N                6.1297876100       10.2163126900       12.0432625400    0   0   0
N                4.0343782148       10.2468714986       14.1092272214
N                6.1902346120        8.1323706792       14.1013085751
N                4.1107738707        8.1935197262       16.1961417404
N                6.1422695686       10.2597227321       16.3036056162
N                8.1730501500        2.0432625400       10.0000000000    0   0   0
N               10.2163126900        0.0000000000       10.0000000000    0   0   0
N                8.1730501500        0.0000000000       12.0432625400    0   0   0
N               10.2163126900        2.0432625400       12.0432625400    0   0   0
N                8.1231689162        2.1035152592       14.1072768184
N               10.2710024264       -0.0560374745       14.1052049565
N                8.1910264520       -0.0020328532       16.2062535940
N               10.1749118567        2.0452295432       16.2798172056
N                8.1730501500        6.1297876100       10.0000000000    0   0   0
N               10.2163126900        4.0865250700       10.0000000000    0   0   0
N                8.1730501500        4.0865250700       12.0432625400    0   0   0
N               10.2163126900        6.1297876100       12.0432625400    0   0   0
N                8.1164489297        6.1783500561       14.1054292205
N               10.2641714950        4.0377282976       14.1038689343
N                8.1714072801        4.1270132158       16.2931799040
N               10.2691175280        6.1377117717       16.2991677852
N                8.1730501500       10.2163126900       10.0000000000    0   0   0
N               10.2163126900        8.1730501500       10.0000000000    0   0   0
N                8.1730501500        8.1730501500       12.0432625400    0   0   0
N               10.2163126900       10.2163126900       12.0432625400    0   0   0
N                8.1242264938       10.2571881994       14.1070427580
N               10.2727769473        8.1231008543       14.1058604297
N                8.1604850601        8.1449141001       16.3238438083
N               10.2037872926       10.2144460008       16.2729912505
S                3.9218432183        6.0499935250       18.6181487316
Li               6.1067372480        6.1391236206       18.1409592747
Li               2.1118329432        2.1550868635       18.0983371837



     Writing config-only to output data dir ./tmp/VN_LiS_combi2_144.save/ :
     XML data file
     NEW-OLD atomic charge density approx. for the potential

     Check: negative core charge=   -0.000004

     negative rho (up, down):  7.590E-02 0.000E+00

     total cpu time spent up to now is     6269.1 secs

     per-process dynamical memory:   944.8 Mb

     Self-consistent Calculation

     iteration #  1     ecut=    45.00 Ry     beta= 0.20
     Davidson diagonalization with overlap
     ethr =  1.00E-06,  avg # of iterations =  4.5

     negative rho (up, down):  7.590E-02 0.000E+00

     total cpu time spent up to now is     6436.3 secs

     total energy              =  -11961.41024239 Ry
     estimated scf accuracy    <       0.00145517 Ry

     iteration #  2     ecut=    45.00 Ry     beta= 0.20
     Davidson diagonalization with overlap
     c_bands:  2 eigenvalues not converged
     ethr =  1.11E-07,  avg # of iterations = 18.3

     negative rho (up, down):  7.590E-02 0.000E+00

     total cpu time spent up to now is     6611.3 secs

     total energy              =  -11961.40837801 Ry
     estimated scf accuracy    <       0.13685510 Ry

     iteration #  3     ecut=    45.00 Ry     beta= 0.20
     Davidson diagonalization with overlap
     c_bands:  1 eigenvalues not converged
     ethr =  1.11E-07,  avg # of iterations = 11.0

     negative rho (up, down):  7.590E-02 0.000E+00

     total cpu time spent up to now is     6766.1 secs

     total energy              =  -11961.41057230 Ry
     estimated scf accuracy    <       0.01368084 Ry

     iteration #  4     ecut=    45.00 Ry     beta= 0.20
     Davidson diagonalization with overlap
     ethr =  1.11E-07,  avg # of iterations =  1.8

     negative rho (up, down):  7.590E-02 0.000E+00

     total cpu time spent up to now is     6867.6 secs

     total energy              =  -11961.41073435 Ry
     estimated scf accuracy    <       0.00139768 Ry

     iteration #  5     ecut=    45.00 Ry     beta= 0.20
     Davidson diagonalization with overlap
     ethr =  1.07E-07,  avg # of iterations =  1.0

     negative rho (up, down):  7.590E-02 0.000E+00

     total cpu time spent up to now is     6957.7 secs

     total energy              =  -11961.41076312 Ry
     estimated scf accuracy    <       0.00008563 Ry

     iteration #  6     ecut=    45.00 Ry     beta= 0.20
     Davidson diagonalization with overlap
     ethr =  6.55E-09,  avg # of iterations =  6.4

     negative rho (up, down):  7.590E-02 0.000E+00

     total cpu time spent up to now is     7080.3 secs

     total energy              =  -11961.41076801 Ry
     estimated scf accuracy    <       0.00005297 Ry

     iteration #  7     ecut=    45.00 Ry     beta= 0.20
     Davidson diagonalization with overlap
     ethr =  4.05E-09,  avg # of iterations =  2.0

     negative rho (up, down):  7.590E-02 0.000E+00

     total cpu time spent up to now is     7186.9 secs

     total energy              =  -11961.41076653 Ry
     estimated scf accuracy    <       0.00005596 Ry

     iteration #  8     ecut=    45.00 Ry     beta= 0.20
     Davidson diagonalization with overlap
     ethr =  4.05E-09,  avg # of iterations =  1.9

     negative rho (up, down):  7.590E-02 0.000E+00

     total cpu time spent up to now is     7289.5 secs

     total energy              =  -11961.41076576 Ry
     estimated scf accuracy    <       0.00011870 Ry

     iteration #  9     ecut=    45.00 Ry     beta= 0.20
     Davidson diagonalization with overlap
     ethr =  4.05E-09,  avg # of iterations =  1.3

     negative rho (up, down):  7.590E-02 0.000E+00

     total cpu time spent up to now is     7388.0 secs

     total energy              =  -11961.41076730 Ry
     estimated scf accuracy    <       0.00005558 Ry

     iteration # 10     ecut=    45.00 Ry     beta= 0.20
     Davidson diagonalization with overlap
     ethr =  4.05E-09,  avg # of iterations =  1.0

     negative rho (up, down):  7.590E-02 0.000E+00

     total cpu time spent up to now is     7476.5 secs

     total energy              =  -11961.41076853 Ry
     estimated scf accuracy    <       0.00001797 Ry

     iteration # 11     ecut=    45.00 Ry     beta= 0.20
     Davidson diagonalization with overlap
     ethr =  1.37E-09,  avg # of iterations =  1.3

     negative rho (up, down):  7.590E-02 0.000E+00

     total cpu time spent up to now is     7574.9 secs

     total energy              =  -11961.41076908 Ry
     estimated scf accuracy    <       0.00000544 Ry

     iteration # 12     ecut=    45.00 Ry     beta= 0.20
     Davidson diagonalization with overlap
     ethr =  4.16E-10,  avg # of iterations =  2.2

     negative rho (up, down):  7.590E-02 0.000E+00

     total cpu time spent up to now is     7678.7 secs

     total energy              =  -11961.41076895 Ry
     estimated scf accuracy    <       0.00001365 Ry

     iteration # 13     ecut=    45.00 Ry     beta= 0.20
     Davidson diagonalization with overlap
     ethr =  4.16E-10,  avg # of iterations =  1.4

     negative rho (up, down):  7.590E-02 0.000E+00

     total cpu time spent up to now is     7780.5 secs

     total energy              =  -11961.41076896 Ry
     estimated scf accuracy    <       0.00002388 Ry

     iteration # 14     ecut=    45.00 Ry     beta= 0.20
     Davidson diagonalization with overlap
     ethr =  4.16E-10,  avg # of iterations =  2.0

     negative rho (up, down):  7.590E-02 0.000E+00

     total cpu time spent up to now is     7888.4 secs

     total energy              =  -11961.41076884 Ry
     estimated scf accuracy    <       0.00004566 Ry

     iteration # 15     ecut=    45.00 Ry     beta= 0.20
     Davidson diagonalization with overlap
     ethr =  4.16E-10,  avg # of iterations =  1.0

     negative rho (up, down):  7.590E-02 0.000E+00

     total cpu time spent up to now is     7976.6 secs

     total energy              =  -11961.41076944 Ry
     estimated scf accuracy    <       0.00000173 Ry

     iteration # 16     ecut=    45.00 Ry     beta= 0.20
     Davidson diagonalization with overlap
     ethr =  1.32E-10,  avg # of iterations =  2.0

     negative rho (up, down):  7.590E-02 0.000E+00

     total cpu time spent up to now is     8084.2 secs

     total energy              =  -11961.41076936 Ry
     estimated scf accuracy    <       0.00000375 Ry

     iteration # 17     ecut=    45.00 Ry     beta= 0.20
     Davidson diagonalization with overlap
     ethr =  1.32E-10,  avg # of iterations =  2.0

     negative rho (up, down):  7.590E-02 0.000E+00

     total cpu time spent up to now is     8187.1 secs

     total energy              =  -11961.41076940 Ry
     estimated scf accuracy    <       0.00000451 Ry

     iteration # 18     ecut=    45.00 Ry     beta= 0.20
     Davidson diagonalization with overlap
     ethr =  1.32E-10,  avg # of iterations =  1.2

     negative rho (up, down):  7.590E-02 0.000E+00

     total cpu time spent up to now is     8283.5 secs

     total energy              =  -11961.41076950 Ry
     estimated scf accuracy    <       0.00000145 Ry

     iteration # 19     ecut=    45.00 Ry     beta= 0.20
     Davidson diagonalization with overlap
     ethr =  1.11E-10,  avg # of iterations =  1.1

     negative rho (up, down):  7.590E-02 0.000E+00

     total cpu time spent up to now is     8378.8 secs

     total energy              =  -11961.41076950 Ry
     estimated scf accuracy    <       0.00000187 Ry

     iteration # 20     ecut=    45.00 Ry     beta= 0.20
     Davidson diagonalization with overlap
     ethr =  1.11E-10,  avg # of iterations =  1.0

     negative rho (up, down):  7.590E-02 0.000E+00

     total cpu time spent up to now is     8466.1 secs

     total energy              =  -11961.41076952 Ry
     estimated scf accuracy    <       0.00000041 Ry

     iteration # 21     ecut=    45.00 Ry     beta= 0.20
     Davidson diagonalization with overlap
     ethr =  3.12E-11,  avg # of iterations =  2.0

     negative rho (up, down):  7.590E-02 0.000E+00

     total cpu time spent up to now is     8572.6 secs

     total energy              =  -11961.41076953 Ry
     estimated scf accuracy    <       0.00000070 Ry

     iteration # 22     ecut=    45.00 Ry     beta= 0.20
     Davidson diagonalization with overlap
     ethr =  3.12E-11,  avg # of iterations =  1.0

     negative rho (up, down):  7.590E-02 0.000E+00

     total cpu time spent up to now is     8659.8 secs

     total energy              =  -11961.41076954 Ry
     estimated scf accuracy    <       0.00000047 Ry

     iteration # 23     ecut=    45.00 Ry     beta= 0.20
     Davidson diagonalization with overlap
     ethr =  3.12E-11,  avg # of iterations =  1.5

     negative rho (up, down):  7.590E-02 0.000E+00

     total cpu time spent up to now is     8760.9 secs

     total energy              =  -11961.41076953 Ry
     estimated scf accuracy    <       0.00000182 Ry

     iteration # 24     ecut=    45.00 Ry     beta= 0.20
     Davidson diagonalization with overlap
     ethr =  3.12E-11,  avg # of iterations =  1.0

     negative rho (up, down):  7.590E-02 0.000E+00

     total cpu time spent up to now is     8849.3 secs

     total energy              =  -11961.41076955 Ry
     estimated scf accuracy    <       0.00000006 Ry

     iteration # 25     ecut=    45.00 Ry     beta= 0.20
     Davidson diagonalization with overlap
     ethr =  4.55E-12,  avg # of iterations =  4.5

     negative rho (up, down):  7.590E-02 0.000E+00

     total cpu time spent up to now is     8962.8 secs

     total energy              =  -11961.41076955 Ry
     estimated scf accuracy    <       0.00000017 Ry

     iteration # 26     ecut=    45.00 Ry     beta= 0.20
     Davidson diagonalization with overlap
     ethr =  4.55E-12,  avg # of iterations =  2.4

     negative rho (up, down):  7.590E-02 0.000E+00

     total cpu time spent up to now is     9066.5 secs

     total energy              =  -11961.41076956 Ry
     estimated scf accuracy    <       0.00000015 Ry

     iteration # 27     ecut=    45.00 Ry     beta= 0.20
     Davidson diagonalization with overlap
     ethr =  4.55E-12,  avg # of iterations =  1.1

     negative rho (up, down):  7.590E-02 0.000E+00

     total cpu time spent up to now is     9161.4 secs

     total energy              =  -11961.41076956 Ry
     estimated scf accuracy    <       0.00000004 Ry

     iteration # 28     ecut=    45.00 Ry     beta= 0.20
     Davidson diagonalization with overlap
     ethr =  2.84E-12,  avg # of iterations =  1.1

     negative rho (up, down):  7.590E-02 0.000E+00

     total cpu time spent up to now is     9253.7 secs

     End of self-consistent calculation

          k = 0.0000 0.0000 0.0000 (135157 PWs)   bands (ev):

   -61.6964 -61.6789 -61.6649 -61.6613 -61.6597 -61.6552 -61.6524 -61.6507
   -61.6465 -61.6427 -61.6336 -61.6330 -61.6298 -61.6289 -61.6268 -61.6248
   -61.6234 -61.6131 -61.6055 -61.5999 -61.5980 -61.5946 -61.5904 -61.5889
   -61.5883 -61.5869 -61.5853 -61.5851 -61.5796 -61.5780 -61.5762 -61.5755
   -61.5733 -61.5721 -61.5703 -61.5690 -61.5682 -61.5675 -61.5660 -61.5572
   -61.5554 -61.5539 -61.5419 -61.5305 -61.5270 -61.5160 -61.5096 -61.5071
   -61.5006 -61.4937 -61.4853 -61.4794 -61.4620 -61.4567 -61.4512 -61.4468
   -61.4445 -61.4367 -61.4252 -61.4172 -61.4144 -61.4068 -61.3893 -61.3822
   -61.3789 -61.3746 -61.3736 -61.3718 -61.3680 -61.3635 -61.3580 -61.3216
   -44.2979 -42.7635 -35.7746 -35.7735 -35.7714 -35.7672 -35.7331 -35.7314
   -35.7295 -35.7291 -35.7268 -35.7260 -35.7234 -35.7173 -35.7143 -35.7126
   -35.7009 -35.6965 -35.6928 -35.6891 -35.6808 -35.6802 -35.6788 -35.6770
   -35.6747 -35.6708 -35.6697 -35.6687 -35.6661 -35.6625 -35.6571 -35.6553
   -35.6535 -35.6499 -35.6475 -35.6439 -35.6370 -35.6308 -35.6300 -35.6280
   -35.6276 -35.6262 -35.6249 -35.6215 -35.6195 -35.6181 -35.6159 -35.6143
   -35.6090 -35.6038 -35.6003 -35.5987 -35.5953 -35.5946 -35.5873 -35.5858
   -35.5797 -35.5774 -35.5735 -35.5724 -35.5686 -35.5675 -35.5649 -35.5616
   -35.5594 -35.5575 -35.5535 -35.5528 -35.5501 -35.5477 -35.5380 -35.5363
   -35.5342 -35.5302 -35.5133 -35.5109 -35.5103 -35.5076 -35.5047 -35.5022
   -35.5004 -35.4994 -35.4968 -35.4914 -35.4880 -35.4847 -35.4780 -35.4755
   -35.4724 -35.4723 -35.4710 -35.4704 -35.4685 -35.4661 -35.4644 -35.4633
   -35.4614 -35.4597 -35.4563 -35.4544 -35.4500 -35.4474 -35.4423 -35.4416
   -35.4362 -35.4352 -35.4319 -35.4300 -35.4283 -35.4279 -35.4261 -35.4248
   -35.4208 -35.4197 -35.4182 -35.4170 -35.4139 -35.4128 -35.4097 -35.4085
   -35.4073 -35.4059 -35.4055 -35.4046 -35.4016 -35.4016 -35.3999 -35.3982
   -35.3959 -35.3954 -35.3924 -35.3901 -35.3895 -35.3884 -35.3868 -35.3853
   -35.3848 -35.3827 -35.3811 -35.3796 -35.3785 -35.3767 -35.3759 -35.3727
   -35.3708 -35.3686 -35.3677 -35.3644 -35.3617 -35.3597 -35.3567 -35.3527
   -35.3525 -35.3494 -35.3488 -35.3468 -35.3407 -35.3381 -35.3364 -35.3353
   -35.3346 -35.3329 -35.3269 -35.3225 -35.3189 -35.3167 -35.3093 -35.3069
   -35.3036 -35.2983 -35.2935 -35.2914 -35.2865 -35.2828 -35.2794 -35.2765
   -35.2740 -35.2696 -35.2657 -35.2592 -35.2541 -35.2522 -35.2459 -35.2455
   -35.2428 -35.2408 -35.2309 -35.2301 -35.2271 -35.2253 -35.2237 -35.2205
   -35.2166 -35.2115 -35.2081 -35.2033 -35.1975 -35.1879 -35.1848 -35.1807
   -35.1760 -35.1720 -35.1711 -35.1694 -35.1669 -35.1632 -35.1540 -35.1493
   -35.1415 -35.1363 -35.1304 -35.1215 -35.1185 -35.1144 -35.1102 -35.0919
   -35.0818 -35.0709 -14.0324 -13.3845 -13.3772 -13.3732 -13.3589 -13.1564
   -12.7846 -12.7802 -12.7711 -12.7499 -12.6145 -12.6119 -12.6047 -12.5922
   -12.4948 -12.4858 -12.4819 -12.4731 -12.4525 -12.3888 -12.3440 -12.2154
   -12.1976 -12.1821 -12.1746 -12.1700 -12.1641 -12.1570 -12.1481 -12.1383
   -12.1215 -12.1098 -12.0925 -12.0577 -12.0350 -12.0270 -12.0107 -12.0042
   -11.8775 -11.8742 -11.8725 -11.8664 -11.7784 -11.7251 -11.7117 -11.6891
   -11.6208 -11.4928 -11.4831 -11.4822 -11.4815 -11.4799 -11.4703 -11.4673
   -11.4615 -11.4309 -11.3109 -11.2971 -11.2805 -11.2642 -11.2395 -11.2380
   -11.2375 -11.2366 -11.2347 -11.2033 -11.1727 -11.1310 -10.9990 -10.9530
   -10.9121 -10.8598  -8.0239  -4.4934  -4.4777  -4.4642  -4.4443  -4.3148
    -4.3134  -4.3007  -4.2892  -4.1506  -4.1458  -4.1122  -4.1016  -4.0701
    -4.0634  -4.0486  -4.0431  -3.7506  -3.7439  -3.7130  -3.7073  -3.5384
    -3.5333  -3.5297  -3.5256  -3.4437  -3.4333  -3.4278  -3.4254  -3.4079
    -3.4004  -3.3902  -3.3771  -3.3223  -3.3058  -3.2914  -3.2826  -3.2775
    -3.0722  -3.0450  -3.0235  -3.0046  -2.9597  -2.9500  -2.9430  -2.9320
    -2.9238  -2.9141  -2.8855  -2.8796  -2.8692  -2.8635  -2.8265  -2.8220
    -2.8111  -2.8065  -2.8045  -2.7980  -2.7791  -2.7694  -2.4410  -2.4264
    -2.3925  -2.3808  -2.3598  -2.3533  -2.3077  -2.3039  -2.2901  -2.2638
    -2.2584  -2.2559  -2.2473  -2.2403  -2.2394  -2.2350  -2.2279  -2.2260
    -2.2231  -2.1828  -2.1693  -2.1630  -2.1572  -2.1448  -2.1045  -2.0891
    -2.0683  -2.0581  -2.0441  -2.0308  -2.0277  -2.0201  -2.0026  -1.9936
    -1.9884  -1.9646  -1.9581  -1.9494  -1.9453  -1.9374  -1.9132  -1.9072
    -1.9002  -1.8932  -1.8874  -1.8779  -1.8743  -1.8678  -1.8605  -1.8522
    -1.8422  -1.7801  -1.7690  -1.7636  -1.7556  -1.7424  -1.7314  -1.7197
    -1.7051  -1.6907  -1.6256  -1.6244  -1.6231  -1.6190  -1.6145  -1.6030
    -1.6010  -1.5843  -1.5731  -1.5449  -1.5314  -1.5162  -1.5107  -1.5044
    -1.4971  -1.4964  -1.4612  -1.4515  -1.4445  -1.4055  -1.3910  -1.3882
    -1.3739  -1.3726  -1.3584  -1.3578  -1.3563  -1.3561  -1.3515  -1.3396
    -1.2960  -1.2776  -1.2604  -1.2394  -1.2294  -1.2220  -1.2034  -1.1971
    -1.1823  -1.1749  -1.1686  -1.1533  -1.1446  -1.1269  -1.1142  -1.1044
    -1.0575  -1.0507  -1.0286  -1.0119  -0.9889  -0.9700  -0.9330  -0.9248
    -0.8858  -0.8588  -0.8098  -0.7770  -0.7640  -0.7348  -0.7141  -0.7107
    -0.6878  -0.6724  -0.6684  -0.6463  -0.6203  -0.5916  -0.5728  -0.5590
    -0.5224  -0.4894  -0.4734  -0.4677  -0.4610  -0.4549  -0.4327  -0.3648
    -0.2371  -0.2115  -0.1909  -0.1356  -0.1126  -0.0804  -0.0533  -0.0473
    -0.0040   0.0026   0.0392   0.0500   0.2118   0.2324   0.3471   0.5465
     0.5620   0.7578   0.7707   1.0439   1.0647   1.0833   1.0986   1.1042
     1.1201   1.1235   1.3362   1.3534   1.5239   1.6512   1.9091   2.0152
     2.0344   2.0752   2.1261   2.1613   2.5744   2.5962   2.6023   2.6323
     2.6540   2.6619   2.6744   2.6880   2.7072   2.7332   2.7436   2.7708
     2.7826   2.7890   2.7937   2.8078   2.8196   2.8349   2.8460   2.8584
     2.8636   2.8670   2.8700   2.8883   2.8922   2.9319   2.9547   2.9792
     3.1390   3.1520   3.2003   3.2330   3.2415   3.2488   3.2636   3.2802
     3.2891   3.3140   3.3260   3.3452   3.3494   3.4097   3.4235   3.4310
     3.4514   3.4559   3.4721   3.4788   3.4814   3.5132   3.5303   3.5442
     3.5558   3.5600   3.5777   3.5870   3.5999   3.6129   3.6234   3.6328
     3.6546   3.6634   3.6655   3.6748   3.6807   3.6877   3.6935   3.6937
     3.6960   3.6979   3.7067   3.7145   3.7228   3.7266   3.7437   3.7502
     3.7723   3.7891   3.8963   3.9359   3.9458   3.9612   3.9667   3.9735
     3.9817   3.9865   4.0012   4.0061   4.0180   4.0454   4.0542   4.0944
     4.1633   4.1674   4.1811   4.2134   4.2268   4.2310   4.2396   4.2456
     4.2642   4.2738   4.2800   4.2876   4.2954   4.2992   4.3173   4.3375
     4.3515   4.3679   4.3715   4.3813   4.3961   4.4050   4.4117   4.4150
     4.4275   4.4322   4.4350   4.4425   4.4445   4.4457   4.4499   4.4518
     4.4638   4.4878   4.5288   4.5402   4.5743   4.5758   4.5848   4.5878
     4.6078   4.6177   4.6273   4.6397   4.6480   4.6580   4.6607   4.6693
     4.6734   4.6804   4.7091   4.7112   4.7142   4.7152   4.7218   4.7287
     4.7358   4.7379   4.7583   4.7601   4.7726   4.7786   4.7900   4.7963
     4.8077   4.8141   4.8181   4.8361   4.8442   4.8530   4.8596   4.8630
     4.8754   4.8919   4.8974   4.9072   4.9112   4.9273   4.9433   4.9524
     4.9717   5.0002   5.0162   5.0281   5.0359   5.0410   5.0494   5.0569
     5.0697   5.0834   5.0847   5.0963   5.0996   5.1092   5.1170   5.1244
     5.1285

          k = 0.0000 0.2500 0.0000 (135097 PWs)   bands (ev):

   -61.6964 -61.6777 -61.6689 -61.6604 -61.6590 -61.6548 -61.6530 -61.6496
   -61.6438 -61.6413 -61.6353 -61.6346 -61.6332 -61.6280 -61.6265 -61.6239
   -61.6224 -61.6131 -61.6053 -61.6006 -61.5975 -61.5951 -61.5907 -61.5888
   -61.5876 -61.5868 -61.5845 -61.5842 -61.5813 -61.5785 -61.5765 -61.5761
   -61.5728 -61.5719 -61.5710 -61.5692 -61.5679 -61.5676 -61.5641 -61.5580
   -61.5562 -61.5532 -61.5419 -61.5305 -61.5270 -61.5158 -61.5091 -61.5071
   -61.5008 -61.4942 -61.4853 -61.4793 -61.4619 -61.4567 -61.4512 -61.4467
   -61.4446 -61.4367 -61.4252 -61.4172 -61.4145 -61.4068 -61.3893 -61.3822
   -61.3789 -61.3747 -61.3734 -61.3719 -61.3679 -61.3635 -61.3581 -61.3216
   -44.2979 -42.7635 -35.7783 -35.7761 -35.7579 -35.7556 -35.7537 -35.7520
   -35.7333 -35.7285 -35.7264 -35.7242 -35.7165 -35.7118 -35.7052 -35.7025
   -35.7009 -35.6974 -35.6967 -35.6935 -35.6924 -35.6914 -35.6784 -35.6705
   -35.6689 -35.6642 -35.6600 -35.6588 -35.6560 -35.6540 -35.6528 -35.6520
   -35.6491 -35.6474 -35.6425 -35.6395 -35.6374 -35.6353 -35.6342 -35.6330
   -35.6322 -35.6282 -35.6270 -35.6253 -35.6236 -35.6219 -35.6206 -35.6163
   -35.6151 -35.6121 -35.6097 -35.6055 -35.6014 -35.5982 -35.5970 -35.5920
   -35.5884 -35.5810 -35.5772 -35.5717 -35.5683 -35.5657 -35.5616 -35.5571
   -35.5566 -35.5527 -35.5502 -35.5489 -35.5449 -35.5402 -35.5381 -35.5249
   -35.5206 -35.5191 -35.5141 -35.5115 -35.5096 -35.5067 -35.5034 -35.4983
   -35.4971 -35.4945 -35.4924 -35.4904 -35.4870 -35.4837 -35.4802 -35.4788
   -35.4765 -35.4741 -35.4714 -35.4703 -35.4658 -35.4653 -35.4635 -35.4606
   -35.4591 -35.4585 -35.4531 -35.4502 -35.4487 -35.4468 -35.4450 -35.4433
   -35.4419 -35.4406 -35.4380 -35.4364 -35.4361 -35.4349 -35.4339 -35.4330
   -35.4306 -35.4282 -35.4271 -35.4251 -35.4229 -35.4207 -35.4186 -35.4152
   -35.4108 -35.4072 -35.4046 -35.4016 -35.3986 -35.3958 -35.3940 -35.3916
   -35.3905 -35.3887 -35.3871 -35.3858 -35.3849 -35.3841 -35.3820 -35.3809
   -35.3793 -35.3786 -35.3774 -35.3760 -35.3731 -35.3709 -35.3701 -35.3689
   -35.3679 -35.3662 -35.3647 -35.3631 -35.3619 -35.3588 -35.3560 -35.3552
   -35.3532 -35.3501 -35.3495 -35.3464 -35.3451 -35.3424 -35.3410 -35.3397
   -35.3378 -35.3331 -35.3268 -35.3204 -35.3174 -35.3156 -35.3140 -35.3079
   -35.3028 -35.2995 -35.2980 -35.2912 -35.2890 -35.2826 -35.2805 -35.2782
   -35.2749 -35.2683 -35.2642 -35.2581 -35.2540 -35.2512 -35.2490 -35.2457
   -35.2415 -35.2385 -35.2327 -35.2298 -35.2287 -35.2237 -35.2221 -35.2200
   -35.2168 -35.2113 -35.2061 -35.2036 -35.1972 -35.1873 -35.1833 -35.1819
   -35.1773 -35.1749 -35.1723 -35.1681 -35.1662 -35.1622 -35.1524 -35.1488
   -35.1427 -35.1368 -35.1295 -35.1225 -35.1187 -35.1139 -35.1101 -35.0922
   -35.0818 -35.0711 -13.9851 -13.6360 -13.3341 -13.3252 -13.1152 -13.0950
   -13.0123 -13.0026 -12.8121 -12.6257 -12.5739 -12.5699 -12.5341 -12.5199
   -12.4673 -12.4488 -12.4408 -12.4295 -12.3812 -12.3704 -12.3181 -12.3124
   -12.3050 -12.2428 -12.2293 -12.2158 -12.1817 -12.1682 -12.1615 -12.1600
   -12.1393 -12.1343 -12.0631 -12.0590 -12.0483 -11.9982 -11.9868 -11.9434
   -11.9371 -11.9115 -11.8406 -11.8395 -11.7257 -11.7051 -11.6698 -11.6187
   -11.6147 -11.6041 -11.5663 -11.5115 -11.4996 -11.4863 -11.4598 -11.4577
   -11.4087 -11.3469 -11.3317 -11.3173 -11.3123 -11.3072 -11.2987 -11.2420
   -11.2273 -11.2057 -11.2020 -11.1926 -11.1171 -11.0996 -11.0029 -10.9626
   -10.9081 -10.8651  -8.0239  -4.6351  -4.6091  -4.4524  -4.4431  -4.4245
    -4.3948  -4.3141  -4.3078  -4.2213  -4.1984  -4.0702  -4.0616  -3.8310
    -3.8106  -3.8022  -3.7936  -3.7672  -3.7285  -3.7065  -3.6383  -3.6340
    -3.5377  -3.5323  -3.5305  -3.5181  -3.4962  -3.4524  -3.4433  -3.4287
    -3.3988  -3.3672  -3.3539  -3.3458  -3.3343  -3.3259  -3.2885  -3.2198
    -3.1875  -3.1726  -3.1599  -3.1124  -3.0940  -3.0579  -3.0450  -3.0245
    -3.0049  -2.9706  -2.9602  -2.9272  -2.8640  -2.7837  -2.7766  -2.7025
    -2.6970  -2.6745  -2.6347  -2.6249  -2.6165  -2.6045  -2.5446  -2.5065
    -2.4419  -2.4074  -2.3767  -2.3694  -2.3582  -2.3541  -2.3304  -2.3085
    -2.2996  -2.2904  -2.2853  -2.2817  -2.2765  -2.2656  -2.2372  -2.2293
    -2.2133  -2.2123  -2.1975  -2.1790  -2.1627  -2.1529  -2.1438  -2.1151
    -2.0900  -2.0809  -2.0611  -2.0533  -2.0457  -2.0394  -2.0322  -2.0230
    -2.0135  -2.0025  -1.9960  -1.9883  -1.9828  -1.9643  -1.9233  -1.8874
    -1.8747  -1.8566  -1.8371  -1.8311  -1.8197  -1.8133  -1.8072  -1.7926
    -1.7827  -1.7728  -1.7510  -1.7346  -1.6913  -1.6883  -1.6822  -1.6809
    -1.6708  -1.6658  -1.6598  -1.6486  -1.6371  -1.6319  -1.6224  -1.6043
    -1.5973  -1.5798  -1.5613  -1.5500  -1.5494  -1.5333  -1.5237  -1.5032
    -1.4861  -1.4723  -1.4609  -1.4475  -1.4342  -1.4234  -1.3966  -1.3877
    -1.3634  -1.3497  -1.3279  -1.3210  -1.3152  -1.2976  -1.2893  -1.2815
    -1.2711  -1.2611  -1.2525  -1.2502  -1.2139  -1.1859  -1.1531  -1.1437
    -1.1242  -1.1104  -1.0864  -1.0816  -1.0578  -1.0458  -1.0343  -1.0084
    -0.9980  -0.9941  -0.9689  -0.9599  -0.9311  -0.8999  -0.8906  -0.8672
    -0.8613  -0.8507  -0.8407  -0.8167  -0.8051  -0.7992  -0.7700  -0.7242
    -0.6993  -0.6837  -0.6383  -0.6257  -0.6063  -0.5896  -0.5565  -0.5467
    -0.5411  -0.5206  -0.5005  -0.4827  -0.4792  -0.4413  -0.3918  -0.3529
    -0.3262  -0.3094  -0.2694  -0.2499  -0.2089  -0.1729  -0.1458  -0.1368
    -0.1207  -0.0987   0.0095   0.0841   0.1244   0.2725   0.3569   0.4271
     0.7616   0.7909   0.8450   0.9211   0.9442   0.9925   1.0552   1.1188
     1.2421   1.2893   1.3044   1.3343   1.6287   1.8546   1.8728   1.9275
     2.0320   2.0948   2.1656   2.2037   2.2266   2.2591   2.3003   2.3292
     2.4488   2.6106   2.6342   2.6594   2.6712   2.6790   2.6987   2.7259
     2.7414   2.7474   2.7900   2.8006   2.8224   2.8483   2.8613   2.8782
     2.8858   2.9039   2.9192   2.9565   2.9736   3.0001   3.0237   3.0565
     3.0637   3.1154   3.1466   3.1852   3.1958   3.2024   3.2240   3.2513
     3.2634   3.2771   3.2938   3.2996   3.3076   3.3285   3.3409   3.3490
     3.3670   3.3856   3.3971   3.4240   3.4677   3.4861   3.4928   3.5066
     3.5296   3.5436   3.5581   3.5837   3.5923   3.6120   3.6236   3.6444
     3.6567   3.6760   3.7003   3.7117   3.7314   3.7407   3.7534   3.7793
     3.7958   3.8163   3.8257   3.8368   3.8582   3.8712   3.8812   3.8984
     3.9131   3.9269   3.9381   3.9506   3.9564   3.9719   3.9898   3.9989
     4.0216   4.0270   4.0347   4.0598   4.0741   4.1058   4.1131   4.1382
     4.1457   4.1853   4.2072   4.2122   4.2314   4.2610   4.2816   4.3007
     4.3090   4.3122   4.3197   4.3333   4.3401   4.3432   4.3506   4.3579
     4.3708   4.3778   4.3815   4.3879   4.3963   4.4016   4.4162   4.4264
     4.4348   4.4449   4.4510   4.4613   4.4717   4.4839   4.4918   4.5023
     4.5050   4.5092   4.5176   4.5248   4.5312   4.5342   4.5384   4.5545
     4.5597   4.5735   4.5791   4.5940   4.6053   4.6331   4.6395   4.6472
     4.6507   4.6529   4.6588   4.6662   4.6805   4.6891   4.7021   4.7149
     4.7271   4.7492   4.7590   4.7701   4.7822   4.7871   4.7944   4.8061
     4.8085   4.8161   4.8339   4.8431   4.8586   4.8689   4.8786   4.8866
     4.8964   4.9168   4.9261   4.9331   4.9433   4.9506   4.9553   4.9687
     4.9724   4.9760   4.9926   5.0095   5.0172   5.0218   5.0238   5.0363
     5.0431   5.0468   5.0582   5.0714   5.0777   5.0861   5.0936   5.0958
     5.0981

          k = 0.0000-0.5000 0.0000 (135178 PWs)   bands (ev):

   -61.6964 -61.6747 -61.6735 -61.6593 -61.6583 -61.6561 -61.6549 -61.6432
   -61.6420 -61.6399 -61.6399 -61.6367 -61.6348 -61.6276 -61.6262 -61.6240
   -61.6213 -61.6130 -61.6052 -61.6012 -61.5969 -61.5957 -61.5908 -61.5889
   -61.5870 -61.5866 -61.5834 -61.5827 -61.5813 -61.5809 -61.5789 -61.5753
   -61.5719 -61.5714 -61.5714 -61.5697 -61.5684 -61.5674 -61.5617 -61.5595
   -61.5567 -61.5528 -61.5419 -61.5305 -61.5271 -61.5157 -61.5086 -61.5071
   -61.5010 -61.4947 -61.4853 -61.4792 -61.4619 -61.4567 -61.4513 -61.4466
   -61.4447 -61.4367 -61.4252 -61.4171 -61.4146 -61.4067 -61.3894 -61.3821
   -61.3789 -61.3747 -61.3733 -61.3720 -61.3678 -61.3636 -61.3581 -61.3216
   -44.2979 -42.7635 -35.7740 -35.7717 -35.7706 -35.7673 -35.7360 -35.7352
   -35.7325 -35.7315 -35.7293 -35.7278 -35.7223 -35.7208 -35.7167 -35.7154
   -35.7132 -35.7121 -35.6816 -35.6748 -35.6726 -35.6707 -35.6690 -35.6661
   -35.6647 -35.6599 -35.6592 -35.6558 -35.6543 -35.6519 -35.6505 -35.6477
   -35.6456 -35.6438 -35.6421 -35.6409 -35.6402 -35.6394 -35.6382 -35.6371
   -35.6357 -35.6353 -35.6340 -35.6313 -35.6306 -35.6237 -35.6209 -35.6199
   -35.6189 -35.6148 -35.6128 -35.6100 -35.6074 -35.6047 -35.6017 -35.5997
   -35.5943 -35.5925 -35.5877 -35.5718 -35.5669 -35.5655 -35.5527 -35.5502
   -35.5443 -35.5423 -35.5413 -35.5393 -35.5350 -35.5323 -35.5299 -35.5281
   -35.5262 -35.5222 -35.5195 -35.5190 -35.5125 -35.5096 -35.5029 -35.4988
   -35.4935 -35.4899 -35.4871 -35.4822 -35.4781 -35.4771 -35.4754 -35.4741
   -35.4712 -35.4674 -35.4663 -35.4648 -35.4641 -35.4629 -35.4612 -35.4602
   -35.4593 -35.4574 -35.4561 -35.4540 -35.4534 -35.4521 -35.4505 -35.4504
   -35.4501 -35.4487 -35.4474 -35.4465 -35.4448 -35.4423 -35.4399 -35.4386
   -35.4346 -35.4326 -35.4310 -35.4298 -35.4259 -35.4245 -35.4206 -35.4197
   -35.4130 -35.4078 -35.4047 -35.4018 -35.3986 -35.3955 -35.3905 -35.3903
   -35.3869 -35.3859 -35.3837 -35.3826 -35.3810 -35.3802 -35.3788 -35.3783
   -35.3764 -35.3743 -35.3712 -35.3696 -35.3683 -35.3659 -35.3655 -35.3643
   -35.3639 -35.3629 -35.3620 -35.3609 -35.3585 -35.3571 -35.3558 -35.3542
   -35.3536 -35.3532 -35.3508 -35.3499 -35.3493 -35.3484 -35.3474 -35.3422
   -35.3371 -35.3307 -35.3296 -35.3230 -35.3190 -35.3162 -35.3118 -35.3093
   -35.3064 -35.2995 -35.2969 -35.2937 -35.2888 -35.2853 -35.2824 -35.2790
   -35.2760 -35.2678 -35.2614 -35.2590 -35.2552 -35.2506 -35.2500 -35.2470
   -35.2404 -35.2344 -35.2321 -35.2313 -35.2290 -35.2244 -35.2230 -35.2189
   -35.2143 -35.2103 -35.2050 -35.2039 -35.1972 -35.1870 -35.1837 -35.1806
   -35.1781 -35.1768 -35.1739 -35.1677 -35.1657 -35.1625 -35.1488 -35.1481
   -35.1455 -35.1373 -35.1278 -35.1243 -35.1187 -35.1135 -35.1099 -35.0924
   -35.0818 -35.0714 -13.8546 -13.8416 -13.2138 -13.2067 -13.2037 -13.1869
   -12.9978 -12.9891 -12.8819 -12.7774 -12.4800 -12.4704 -12.4684 -12.4581
   -12.4447 -12.4248 -12.3727 -12.3652 -12.3609 -12.3554 -12.3431 -12.3268
   -12.3204 -12.3164 -12.2629 -12.2527 -12.2436 -12.2070 -12.2038 -12.1957
   -12.1177 -12.1155 -12.1082 -12.0956 -12.0800 -12.0487 -11.9433 -11.9372
   -11.9079 -11.9024 -11.7527 -11.7509 -11.7493 -11.7464 -11.6558 -11.6476
   -11.5797 -11.5759 -11.5643 -11.5615 -11.5603 -11.5297 -11.4053 -11.4000
   -11.3966 -11.3953 -11.3901 -11.3696 -11.3036 -11.2733 -11.2402 -11.2357
   -11.2330 -11.2292 -11.2085 -11.1775 -11.1005 -11.0840 -10.9965 -10.9475
   -10.8973 -10.8904  -8.0240  -4.6551  -4.6481  -4.5452  -4.5392  -4.4613
    -4.4552  -4.4411  -4.4347  -3.9692  -3.9571  -3.9498  -3.9122  -3.8002
    -3.7903  -3.7862  -3.7806  -3.7739  -3.6065  -3.5993  -3.5932  -3.5807
    -3.5786  -3.5744  -3.5700  -3.5659  -3.5644  -3.4697  -3.4220  -3.4016
    -3.3907  -3.3808  -3.3550  -3.3452  -3.3396  -3.3208  -3.3167  -3.3128
    -3.3020  -3.2660  -3.2401  -3.1619  -3.1570  -3.1533  -3.1484  -3.0602
    -2.9211  -2.9156  -2.9062  -2.8995  -2.8916  -2.8828  -2.8400  -2.8318
    -2.8074  -2.6272  -2.4549  -2.4538  -2.4479  -2.4387  -2.4297  -2.4158
    -2.4089  -2.3981  -2.3867  -2.3797  -2.3707  -2.3679  -2.3567  -2.3427
    -2.3391  -2.3306  -2.3252  -2.3119  -2.3049  -2.2944  -2.2879  -2.2569
    -2.2471  -2.2365  -2.2249  -2.2163  -2.2143  -2.2082  -2.1989  -2.1899
    -2.1757  -2.1716  -2.1576  -2.0936  -2.0795  -2.0754  -2.0653  -2.0576
    -2.0565  -2.0262  -2.0168  -1.9840  -1.9581  -1.9272  -1.8898  -1.8781
    -1.8554  -1.8500  -1.8361  -1.8284  -1.8115  -1.8053  -1.7949  -1.7790
    -1.7588  -1.7421  -1.7321  -1.7252  -1.7214  -1.7181  -1.7146  -1.6898
    -1.6780  -1.6588  -1.6575  -1.6561  -1.6533  -1.6374  -1.6337  -1.6199
    -1.5859  -1.5640  -1.5482  -1.4939  -1.4631  -1.4576  -1.4263  -1.4246
    -1.4127  -1.4019  -1.3915  -1.3891  -1.3768  -1.3742  -1.3606  -1.3420
    -1.3354  -1.3207  -1.3171  -1.3057  -1.3023  -1.2945  -1.2766  -1.2717
    -1.2210  -1.2122  -1.1850  -1.1785  -1.1725  -1.1531  -1.1456  -1.1176
    -1.0975  -1.0825  -1.0777  -1.0681  -1.0376  -1.0295  -1.0191  -0.9919
    -0.9747  -0.9488  -0.9398  -0.9286  -0.9092  -0.8348  -0.8269  -0.8205
    -0.7998  -0.7907  -0.7866  -0.7809  -0.7746  -0.7578  -0.7441  -0.6941
    -0.6864  -0.6730  -0.6663  -0.6553  -0.6522  -0.6205  -0.6059  -0.5890
    -0.5801  -0.5551  -0.5451  -0.4939  -0.4659  -0.4467  -0.4193  -0.4100
    -0.3928  -0.3766  -0.3547  -0.3258  -0.3096  -0.3014  -0.2317  -0.2193
    -0.2076   0.1247   0.1323   0.1443   0.1673   0.2493   0.2655   0.3473
     0.3795   0.5702   0.6006   0.8329   0.8375   1.0533   1.3866   1.3973
     1.4255   1.5458   1.5978   1.6114   1.6258   1.6577   1.7048   1.7336
     1.7566   1.7775   1.8777   2.0652   2.2837   2.2990   2.3825   2.4070
     2.4471   2.5023   2.5615   2.6190   2.6241   2.6499   2.6653   2.6840
     2.7056   2.7521   2.7602   2.7682   2.7897   2.8310   2.8575   2.8888
     2.9038   2.9101   2.9327   2.9373   2.9746   2.9863   2.9907   3.0126
     3.0165   3.0256   3.0353   3.0482   3.0589   3.0807   3.0966   3.1028
     3.1569   3.1867   3.2480   3.2625   3.3090   3.3244   3.3536   3.3654
     3.3709   3.4285   3.4436   3.4592   3.4753   3.4911   3.4957   3.5494
     3.5616   3.5689   3.5836   3.5942   3.6221   3.6256   3.6346   3.6594
     3.6718   3.6933   3.7030   3.7170   3.7271   3.7409   3.7550   3.7941
     3.8073   3.8833   3.8953   3.9126   3.9185   3.9362   3.9471   3.9908
     4.0185   4.0360   4.0552   4.0634   4.0714   4.0753   4.0830   4.0980
     4.1094   4.1134   4.1262   4.1402   4.1675   4.1865   4.1891   4.1974
     4.2102   4.2215   4.2394   4.2445   4.2479   4.2582   4.2681   4.2727
     4.2823   4.2849   4.2913   4.2973   4.3005   4.3043   4.3085   4.3201
     4.3366   4.3578   4.3690   4.3897   4.3967   4.4068   4.4188   4.4229
     4.4269   4.4463   4.4497   4.4604   4.4717   4.4742   4.4863   4.5003
     4.5058   4.5078   4.5138   4.5256   4.5338   4.5387   4.5481   4.5570
     4.5715   4.5794   4.5856   4.6051   4.6124   4.6149   4.6297   4.6453
     4.6494   4.6651   4.6962   4.6976   4.7109   4.7284   4.7322   4.7441
     4.7558   4.7669   4.7711   4.7713   4.7835   4.8089   4.8151   4.8362
     4.8466   4.8493   4.8557   4.8615   4.8642   4.8676   4.8704   4.8737
     4.8768   4.8823   4.8901   4.8956   4.8996   4.9135   4.9257   4.9431
     4.9582   4.9630   4.9684   4.9735   4.9882   4.9942   5.0001   5.0102
     5.0172   5.0302   5.0497   5.0513   5.0576   5.0665   5.0717   5.0764
     5.0867

          k = 0.2500 0.2500 0.0000 (135083 PWs)   bands (ev):

   -61.6964 -61.6765 -61.6694 -61.6645 -61.6594 -61.6537 -61.6494 -61.6481
   -61.6436 -61.6407 -61.6366 -61.6350 -61.6333 -61.6317 -61.6273 -61.6224
   -61.6204 -61.6134 -61.6053 -61.6005 -61.5981 -61.5952 -61.5910 -61.5878
   -61.5871 -61.5867 -61.5844 -61.5836 -61.5813 -61.5785 -61.5781 -61.5767
   -61.5742 -61.5719 -61.5707 -61.5691 -61.5672 -61.5659 -61.5638 -61.5587
   -61.5562 -61.5534 -61.5420 -61.5308 -61.5266 -61.5149 -61.5093 -61.5081
   -61.5006 -61.4941 -61.4854 -61.4792 -61.4620 -61.4568 -61.4513 -61.4468
   -61.4444 -61.4367 -61.4252 -61.4172 -61.4145 -61.4068 -61.3894 -61.3823
   -61.3788 -61.3746 -61.3733 -61.3720 -61.3680 -61.3632 -61.3583 -61.3216
   -44.2979 -42.7635 -35.7904 -35.7762 -35.7557 -35.7511 -35.7495 -35.7405
   -35.7358 -35.7315 -35.7240 -35.7197 -35.7184 -35.7161 -35.7128 -35.7082
   -35.7017 -35.6927 -35.6886 -35.6850 -35.6829 -35.6819 -35.6813 -35.6799
   -35.6728 -35.6711 -35.6664 -35.6587 -35.6557 -35.6542 -35.6501 -35.6476
   -35.6457 -35.6449 -35.6425 -35.6408 -35.6397 -35.6378 -35.6371 -35.6356
   -35.6336 -35.6321 -35.6291 -35.6268 -35.6249 -35.6235 -35.6209 -35.6189
   -35.6147 -35.6139 -35.6084 -35.6060 -35.6036 -35.5991 -35.5967 -35.5911
   -35.5886 -35.5854 -35.5813 -35.5786 -35.5688 -35.5622 -35.5564 -35.5551
   -35.5531 -35.5486 -35.5469 -35.5429 -35.5382 -35.5357 -35.5315 -35.5269
   -35.5221 -35.5174 -35.5165 -35.5147 -35.5121 -35.5100 -35.5048 -35.5012
   -35.4925 -35.4917 -35.4887 -35.4851 -35.4837 -35.4830 -35.4803 -35.4784
   -35.4753 -35.4733 -35.4706 -35.4688 -35.4671 -35.4651 -35.4631 -35.4608
   -35.4599 -35.4583 -35.4569 -35.4526 -35.4512 -35.4509 -35.4500 -35.4482
   -35.4459 -35.4455 -35.4428 -35.4411 -35.4396 -35.4386 -35.4371 -35.4354
   -35.4318 -35.4285 -35.4213 -35.4182 -35.4157 -35.4135 -35.4118 -35.4081
   -35.4072 -35.4058 -35.4040 -35.4029 -35.4018 -35.4010 -35.3995 -35.3979
   -35.3954 -35.3937 -35.3906 -35.3898 -35.3882 -35.3835 -35.3813 -35.3792
   -35.3764 -35.3746 -35.3725 -35.3708 -35.3702 -35.3692 -35.3681 -35.3673
   -35.3655 -35.3646 -35.3613 -35.3597 -35.3587 -35.3560 -35.3547 -35.3537
   -35.3529 -35.3517 -35.3508 -35.3491 -35.3479 -35.3431 -35.3414 -35.3394
   -35.3344 -35.3319 -35.3292 -35.3249 -35.3217 -35.3161 -35.3133 -35.3082
   -35.3046 -35.3028 -35.2973 -35.2947 -35.2896 -35.2844 -35.2799 -35.2760
   -35.2718 -35.2647 -35.2605 -35.2584 -35.2561 -35.2526 -35.2489 -35.2477
   -35.2416 -35.2378 -35.2317 -35.2298 -35.2277 -35.2263 -35.2227 -35.2195
   -35.2135 -35.2120 -35.2083 -35.2033 -35.1971 -35.1883 -35.1855 -35.1810
   -35.1782 -35.1753 -35.1732 -35.1673 -35.1646 -35.1610 -35.1507 -35.1472
   -35.1458 -35.1368 -35.1288 -35.1235 -35.1177 -35.1137 -35.1100 -35.0924
   -35.0820 -35.0713 -13.9382 -13.5922 -13.5885 -13.2576 -13.0733 -13.0557
   -13.0507 -12.7780 -12.7707 -12.7517 -12.7420 -12.5881 -12.5837 -12.4943
   -12.4486 -12.4094 -12.4039 -12.3596 -12.3501 -12.3438 -12.3373 -12.3268
   -12.3072 -12.2710 -12.2429 -12.2313 -12.2198 -12.1503 -12.1424 -12.1322
   -12.1261 -12.1171 -12.1053 -12.0372 -12.0181 -12.0129 -12.0006 -11.9914
   -11.9481 -11.9011 -11.8830 -11.8485 -11.7762 -11.6805 -11.6780 -11.6449
   -11.5872 -11.5444 -11.4921 -11.4902 -11.4791 -11.4750 -11.4713 -11.4666
   -11.4541 -11.3910 -11.3664 -11.3165 -11.3089 -11.3000 -11.2845 -11.2495
   -11.2268 -11.2127 -11.1914 -11.1536 -11.1411 -11.0869 -10.9993 -10.9834
   -10.9122 -10.8364  -8.0240  -4.8174  -4.6590  -4.6140  -4.5480  -4.3356
    -4.3221  -4.1915  -4.1792  -4.0985  -4.0970  -3.9994  -3.9863  -3.9719
    -3.8659  -3.8524  -3.8443  -3.7972  -3.6454  -3.6259  -3.6200  -3.5903
    -3.5869  -3.5789  -3.5743  -3.5645  -3.5469  -3.4324  -3.4216  -3.4173
    -3.3668  -3.3590  -3.3519  -3.3368  -3.3250  -3.3032  -3.2938  -3.2905
    -3.2185  -3.2053  -3.1893  -3.0907  -3.0832  -3.0381  -3.0340  -2.9994
    -2.9967  -2.9429  -2.9171  -2.9094  -2.8970  -2.8861  -2.7861  -2.7765
    -2.7682  -2.7491  -2.6367  -2.6243  -2.6042  -2.5902  -2.5515  -2.4781
    -2.4393  -2.4043  -2.3973  -2.3893  -2.3789  -2.3705  -2.3514  -2.3434
    -2.3380  -2.3270  -2.3108  -2.3054  -2.2806  -2.2750  -2.2592  -2.2509
    -2.2377  -2.2323  -2.2258  -2.2197  -2.2121  -2.2031  -2.1409  -2.1234
    -2.1208  -2.0937  -2.0756  -2.0695  -2.0498  -2.0248  -2.0108  -1.9868
    -1.9780  -1.9605  -1.9556  -1.9295  -1.9233  -1.9134  -1.9070  -1.8998
    -1.8876  -1.8587  -1.8483  -1.8362  -1.8182  -1.8122  -1.7948  -1.7892
    -1.7828  -1.7756  -1.7602  -1.7486  -1.7238  -1.7166  -1.7137  -1.7055
    -1.6961  -1.6870  -1.6757  -1.6529  -1.6420  -1.6227  -1.6034  -1.5940
    -1.5518  -1.5322  -1.5140  -1.5005  -1.4843  -1.4783  -1.4568  -1.4501
    -1.4422  -1.4181  -1.4066  -1.4017  -1.3957  -1.3851  -1.3772  -1.3350
    -1.3196  -1.3130  -1.3028  -1.2932  -1.2859  -1.2768  -1.2705  -1.2503
    -1.2406  -1.2322  -1.2155  -1.2017  -1.1757  -1.1463  -1.1253  -1.1058
    -1.0927  -1.0805  -1.0727  -1.0617  -1.0296  -1.0263  -1.0061  -0.9917
    -0.9728  -0.9658  -0.9358  -0.9216  -0.9112  -0.8962  -0.8931  -0.8574
    -0.8455  -0.8382  -0.8313  -0.8153  -0.7961  -0.7868  -0.7739  -0.7561
    -0.7336  -0.7104  -0.6927  -0.6682  -0.6527  -0.5907  -0.5620  -0.5443
    -0.5362  -0.5200  -0.5053  -0.4912  -0.4593  -0.4406  -0.4039  -0.3767
    -0.3691  -0.3476  -0.3242  -0.2885  -0.2605  -0.2213  -0.1951  -0.1574
    -0.0623  -0.0488  -0.0238   0.0322   0.1171   0.1537   0.2101   0.2697
     0.5609   0.7146   0.9313   0.9800   1.0125   1.0763   1.1259   1.1543
     1.1832   1.3590   1.3818   1.4621   1.6650   1.8409   1.9476   1.9974
     2.0195   2.0616   2.0925   2.1376   2.1708   2.1899   2.2505   2.2994
     2.3200   2.3475   2.4079   2.4126   2.4819   2.5029   2.5223   2.6503
     2.6709   2.6912   2.7256   2.7475   2.7821   2.7944   2.8125   2.8356
     2.8930   2.9166   2.9356   2.9736   3.0073   3.0251   3.0765   3.0887
     3.1088   3.1279   3.1410   3.1548   3.1736   3.1886   3.2062   3.2195
     3.2417   3.2546   3.2676   3.2880   3.3027   3.3226   3.3401   3.3780
     3.3980   3.4066   3.4369   3.4556   3.4731   3.5016   3.5121   3.5205
     3.5463   3.5599   3.5684   3.5812   3.5855   3.6124   3.6259   3.6595
     3.6987   3.7287   3.7446   3.7562   3.7717   3.7847   3.7977   3.8054
     3.8198   3.8495   3.8580   3.8850   3.8928   3.9110   3.9281   3.9319
     3.9381   3.9664   3.9765   4.0009   4.0172   4.0270   4.0525   4.0643
     4.0888   4.0944   4.1068   4.1221   4.1348   4.1496   4.1673   4.1887
     4.2044   4.2226   4.2315   4.2423   4.2553   4.2584   4.2637   4.2776
     4.2875   4.2928   4.3046   4.3241   4.3371   4.3488   4.3578   4.3668
     4.3760   4.3823   4.3843   4.3891   4.3954   4.4036   4.4139   4.4247
     4.4301   4.4412   4.4481   4.4526   4.4643   4.4689   4.4728   4.4786
     4.4820   4.4959   4.5034   4.5212   4.5293   4.5446   4.5508   4.5593
     4.5711   4.5772   4.5832   4.5904   4.6012   4.6191   4.6237   4.6439
     4.6521   4.6626   4.6696   4.6888   4.6962   4.7063   4.7181   4.7215
     4.7381   4.7515   4.7675   4.7845   4.7914   4.7984   4.8027   4.8186
     4.8421   4.8490   4.8576   4.8665   4.8733   4.8794   4.8901   4.8950
     4.9025   4.9091   4.9125   4.9250   4.9325   4.9521   4.9581   4.9647
     4.9776   4.9810   4.9920   5.0010   5.0073   5.0164   5.0205   5.0248
     5.0263   5.0317   5.0375   5.0469   5.0502   5.0591   5.0697   5.0884
     5.0920

          k = 0.2500-0.5000 0.0000 (135080 PWs)   bands (ev):

   -61.6964 -61.6738 -61.6726 -61.6639 -61.6629 -61.6518 -61.6490 -61.6432
   -61.6419 -61.6407 -61.6395 -61.6375 -61.6347 -61.6319 -61.6274 -61.6208
   -61.6203 -61.6135 -61.6051 -61.6010 -61.5974 -61.5961 -61.5910 -61.5879
   -61.5868 -61.5858 -61.5834 -61.5826 -61.5815 -61.5804 -61.5789 -61.5775
   -61.5747 -61.5711 -61.5699 -61.5691 -61.5678 -61.5658 -61.5622 -61.5602
   -61.5566 -61.5529 -61.5420 -61.5308 -61.5267 -61.5148 -61.5087 -61.5081
   -61.5008 -61.4946 -61.4854 -61.4790 -61.4619 -61.4567 -61.4513 -61.4468
   -61.4445 -61.4367 -61.4252 -61.4171 -61.4146 -61.4068 -61.3894 -61.3822
   -61.3788 -61.3747 -61.3731 -61.3722 -61.3679 -61.3633 -61.3583 -61.3216
   -44.2979 -42.7635 -35.7910 -35.7877 -35.7462 -35.7441 -35.7411 -35.7402
   -35.7375 -35.7350 -35.7281 -35.7246 -35.7223 -35.7196 -35.7053 -35.7029
   -35.7001 -35.6965 -35.6845 -35.6832 -35.6804 -35.6760 -35.6729 -35.6716
   -35.6712 -35.6673 -35.6653 -35.6645 -35.6606 -35.6593 -35.6559 -35.6548
   -35.6503 -35.6476 -35.6453 -35.6425 -35.6411 -35.6387 -35.6377 -35.6361
   -35.6341 -35.6318 -35.6293 -35.6279 -35.6261 -35.6239 -35.6229 -35.6185
   -35.6179 -35.6158 -35.6112 -35.6082 -35.6058 -35.6026 -35.5993 -35.5897
   -35.5850 -35.5837 -35.5777 -35.5716 -35.5646 -35.5610 -35.5569 -35.5550
   -35.5483 -35.5456 -35.5435 -35.5397 -35.5366 -35.5358 -35.5332 -35.5315
   -35.5302 -35.5234 -35.5209 -35.5117 -35.5081 -35.5057 -35.4989 -35.4934
   -35.4915 -35.4899 -35.4892 -35.4867 -35.4849 -35.4809 -35.4792 -35.4754
   -35.4739 -35.4712 -35.4694 -35.4677 -35.4671 -35.4663 -35.4650 -35.4641
   -35.4625 -35.4594 -35.4580 -35.4572 -35.4544 -35.4524 -35.4514 -35.4507
   -35.4484 -35.4462 -35.4430 -35.4402 -35.4373 -35.4363 -35.4356 -35.4304
   -35.4296 -35.4273 -35.4257 -35.4244 -35.4219 -35.4197 -35.4154 -35.4115
   -35.4094 -35.4084 -35.4062 -35.4021 -35.4001 -35.3978 -35.3956 -35.3930
   -35.3907 -35.3886 -35.3878 -35.3863 -35.3858 -35.3825 -35.3818 -35.3800
   -35.3781 -35.3770 -35.3742 -35.3729 -35.3717 -35.3692 -35.3667 -35.3661
   -35.3644 -35.3632 -35.3616 -35.3606 -35.3593 -35.3575 -35.3556 -35.3539
   -35.3510 -35.3500 -35.3483 -35.3473 -35.3462 -35.3436 -35.3397 -35.3388
   -35.3358 -35.3322 -35.3317 -35.3281 -35.3200 -35.3176 -35.3138 -35.3110
   -35.3058 -35.3001 -35.2976 -35.2938 -35.2877 -35.2852 -35.2787 -35.2764
   -35.2731 -35.2672 -35.2637 -35.2583 -35.2546 -35.2513 -35.2495 -35.2445
   -35.2416 -35.2370 -35.2319 -35.2309 -35.2276 -35.2249 -35.2227 -35.2179
   -35.2153 -35.2123 -35.2068 -35.2047 -35.1983 -35.1879 -35.1858 -35.1812
   -35.1775 -35.1742 -35.1736 -35.1678 -35.1644 -35.1614 -35.1528 -35.1492
   -35.1426 -35.1368 -35.1283 -35.1245 -35.1170 -35.1131 -35.1099 -35.0926
   -35.0821 -35.0714 -13.8082 -13.7951 -13.4657 -13.4525 -12.9598 -12.9489
   -12.9379 -12.9258 -12.8425 -12.7381 -12.6653 -12.6550 -12.5593 -12.4923
   -12.4767 -12.4543 -12.4259 -12.4010 -12.3412 -12.3157 -12.3109 -12.3044
   -12.2578 -12.2434 -12.2228 -12.1952 -12.1928 -12.1748 -12.1693 -12.1668
   -12.1602 -12.0890 -12.0795 -12.0545 -12.0449 -12.0316 -12.0169 -11.9888
   -11.9202 -11.9162 -11.9034 -11.8645 -11.7908 -11.7687 -11.5925 -11.5900
   -11.5508 -11.5479 -11.5433 -11.5423 -11.4577 -11.4426 -11.4366 -11.4352
   -11.4053 -11.4013 -11.3747 -11.3604 -11.3541 -11.3420 -11.2910 -11.2569
   -11.2258 -11.1832 -11.1463 -11.1423 -11.1292 -11.1101 -11.0165 -11.0020
   -10.8768 -10.8347  -8.0240  -4.8552  -4.7829  -4.6586  -4.6483  -4.3310
    -4.2556  -4.1592  -4.1375  -4.0588  -4.0427  -3.8849  -3.8812  -3.8514
    -3.8211  -3.7969  -3.7875  -3.7789  -3.7188  -3.7033  -3.6852  -3.6508
    -3.6390  -3.5967  -3.5864  -3.5789  -3.5646  -3.5517  -3.5227  -3.4341
    -3.4228  -3.3403  -3.3329  -3.3169  -3.3094  -3.2909  -3.2668  -3.2329
    -3.2275  -3.1413  -3.0984  -3.0947  -3.0840  -3.0718  -3.0395  -3.0279
    -3.0226  -2.9717  -2.9602  -2.9424  -2.8966  -2.7949  -2.7879  -2.7787
    -2.7626  -2.7417  -2.7304  -2.6640  -2.6454  -2.6273  -2.5588  -2.5380
    -2.5016  -2.4747  -2.4592  -2.4243  -2.3979  -2.3662  -2.3480  -2.3366
    -2.3286  -2.2995  -2.2862  -2.2780  -2.2689  -2.2576  -2.2514  -2.2367
    -2.2210  -2.2065  -2.1802  -2.1679  -2.1588  -2.1516  -2.1354  -2.1270
    -2.1172  -2.1143  -2.1008  -2.0834  -2.0585  -2.0431  -2.0377  -2.0288
    -2.0204  -2.0035  -1.9834  -1.9745  -1.9625  -1.9517  -1.9441  -1.9276
    -1.9097  -1.8937  -1.8739  -1.8697  -1.8602  -1.8527  -1.8431  -1.8371
    -1.8293  -1.8194  -1.7923  -1.7903  -1.7822  -1.7184  -1.6911  -1.6780
    -1.6744  -1.6619  -1.6406  -1.5790  -1.5473  -1.5253  -1.5186  -1.5102
    -1.4924  -1.4538  -1.4471  -1.4428  -1.4353  -1.4326  -1.4202  -1.4011
    -1.3875  -1.3729  -1.3593  -1.3557  -1.3319  -1.3198  -1.3137  -1.3075
    -1.2926  -1.2879  -1.2751  -1.2615  -1.2568  -1.2254  -1.2182  -1.2124
    -1.1960  -1.1893  -1.1643  -1.1548  -1.1438  -1.1389  -1.1215  -1.1095
    -1.0954  -1.0854  -1.0799  -1.0687  -1.0459  -1.0407  -1.0201  -1.0061
    -0.9867  -0.9772  -0.9360  -0.9117  -0.8955  -0.8747  -0.8696  -0.8635
    -0.8351  -0.8214  -0.8129  -0.7987  -0.7723  -0.7543  -0.7442  -0.7258
    -0.7115  -0.6911  -0.6507  -0.6366  -0.6254  -0.6049  -0.5826  -0.5528
    -0.5453  -0.5264  -0.5134  -0.4980  -0.4835  -0.4713  -0.4601  -0.4338
    -0.4191  -0.4152  -0.3460  -0.2810  -0.2623  -0.2487  -0.2286  -0.1321
    -0.1083  -0.0871  -0.0672   0.0424   0.0629   0.1030   0.1343   0.2855
     0.2993   0.4857   0.5144   1.0007   1.0786   1.1188   1.4284   1.4436
     1.4849   1.5558   1.5983   1.6161   1.6380   1.6804   1.7813   1.8002
     1.8105   1.8310   1.9263   2.0318   2.1474   2.1872   2.2000   2.2381
     2.2574   2.2925   2.3622   2.3745   2.4667   2.4791   2.4951   2.5618
     2.6465   2.6700   2.6796   2.7006   2.7164   2.7473   2.7950   2.8247
     2.8741   2.8982   2.9144   2.9266   2.9481   2.9606   2.9864   2.9983
     3.0207   3.0257   3.0580   3.0931   3.1153   3.1525   3.1874   3.2050
     3.2310   3.2450   3.2607   3.2774   3.3150   3.3407   3.3528   3.3724
     3.3798   3.4031   3.4457   3.4593   3.4765   3.5009   3.5368   3.5903
     3.6037   3.6178   3.6276   3.6385   3.6641   3.6816   3.7023   3.7143
     3.7254   3.7315   3.7759   3.7863   3.8032   3.8158   3.8321   3.8572
     3.8683   3.8857   3.9112   3.9243   3.9318   3.9600   3.9888   4.0002
     4.0214   4.0292   4.0408   4.0496   4.0612   4.0852   4.0907   4.1128
     4.1338   4.1483   4.1563   4.1663   4.1738   4.1882   4.2017   4.2077
     4.2164   4.2314   4.2360   4.2442   4.2562   4.2618   4.2655   4.2709
     4.2778   4.2827   4.2892   4.2927   4.3007   4.3097   4.3217   4.3273
     4.3348   4.3520   4.3604   4.3787   4.3827   4.3907   4.4030   4.4064
     4.4118   4.4144   4.4202   4.4262   4.4389   4.4506   4.4611   4.4661
     4.4795   4.4894   4.4982   4.5036   4.5319   4.5404   4.5654   4.5897
     4.5972   4.6077   4.6235   4.6364   4.6509   4.6664   4.6724   4.6826
     4.6854   4.6927   4.6993   4.7133   4.7311   4.7392   4.7506   4.7701
     4.7716   4.7814   4.7929   4.7977   4.8136   4.8231   4.8303   4.8401
     4.8465   4.8540   4.8576   4.8664   4.8780   4.8878   4.8968   4.9061
     4.9117   4.9204   4.9269   4.9312   4.9378   4.9422   4.9492   4.9587
     4.9621   4.9685   4.9756   4.9779   4.9847   4.9933   4.9985   5.0026
     5.0147   5.0287   5.0441   5.0495   5.0556   5.0610   5.0692   5.0779
     5.0875

          k =-0.5000-0.5000 0.0000 (135004 PWs)   bands (ev):

   -61.6964 -61.6724 -61.6710 -61.6668 -61.6664 -61.6485 -61.6443 -61.6431
   -61.6422 -61.6416 -61.6394 -61.6383 -61.6363 -61.6343 -61.6283 -61.6198
   -61.6184 -61.6144 -61.6051 -61.6008 -61.5978 -61.5964 -61.5912 -61.5870
   -61.5864 -61.5850 -61.5833 -61.5826 -61.5817 -61.5799 -61.5790 -61.5779
   -61.5779 -61.5706 -61.5700 -61.5683 -61.5672 -61.5634 -61.5627 -61.5617
   -61.5565 -61.5530 -61.5420 -61.5310 -61.5264 -61.5134 -61.5096 -61.5087
   -61.5006 -61.4945 -61.4855 -61.4789 -61.4620 -61.4567 -61.4514 -61.4469
   -61.4443 -61.4367 -61.4252 -61.4171 -61.4146 -61.4068 -61.3895 -61.3823
   -61.3787 -61.3746 -61.3729 -61.3724 -61.3680 -61.3629 -61.3586 -61.3216
   -44.2979 -42.7635 -35.7973 -35.7940 -35.7509 -35.7474 -35.7367 -35.7351
   -35.7334 -35.7292 -35.7112 -35.7091 -35.7064 -35.7051 -35.7045 -35.7034
   -35.7021 -35.6994 -35.6931 -35.6880 -35.6860 -35.6851 -35.6820 -35.6766
   -35.6724 -35.6701 -35.6695 -35.6658 -35.6637 -35.6629 -35.6622 -35.6604
   -35.6598 -35.6543 -35.6522 -35.6467 -35.6417 -35.6393 -35.6384 -35.6382
   -35.6356 -35.6338 -35.6327 -35.6303 -35.6251 -35.6199 -35.6182 -35.6144
   -35.6121 -35.6069 -35.6025 -35.6010 -35.5947 -35.5926 -35.5901 -35.5855
   -35.5828 -35.5796 -35.5786 -35.5767 -35.5705 -35.5694 -35.5681 -35.5554
   -35.5492 -35.5472 -35.5459 -35.5447 -35.5409 -35.5397 -35.5358 -35.5173
   -35.5163 -35.5143 -35.5132 -35.5126 -35.5112 -35.5030 -35.5025 -35.4988
   -35.4968 -35.4947 -35.4921 -35.4904 -35.4860 -35.4830 -35.4823 -35.4760
   -35.4730 -35.4722 -35.4706 -35.4697 -35.4686 -35.4666 -35.4650 -35.4646
   -35.4637 -35.4624 -35.4591 -35.4586 -35.4571 -35.4564 -35.4534 -35.4504
   -35.4491 -35.4476 -35.4464 -35.4396 -35.4350 -35.4337 -35.4299 -35.4280
   -35.4164 -35.4133 -35.4112 -35.4106 -35.4097 -35.4095 -35.4083 -35.4065
   -35.4054 -35.4046 -35.4040 -35.4032 -35.4022 -35.4014 -35.4008 -35.3996
   -35.3992 -35.3979 -35.3970 -35.3968 -35.3952 -35.3915 -35.3909 -35.3893
   -35.3878 -35.3743 -35.3725 -35.3698 -35.3678 -35.3668 -35.3661 -35.3648
   -35.3640 -35.3631 -35.3614 -35.3590 -35.3581 -35.3570 -35.3543 -35.3533
   -35.3510 -35.3488 -35.3472 -35.3452 -35.3435 -35.3431 -35.3405 -35.3370
   -35.3352 -35.3327 -35.3314 -35.3286 -35.3262 -35.3214 -35.3166 -35.3100
   -35.3069 -35.2984 -35.2970 -35.2912 -35.2885 -35.2815 -35.2774 -35.2745
   -35.2726 -35.2670 -35.2638 -35.2569 -35.2555 -35.2519 -35.2498 -35.2444
   -35.2405 -35.2384 -35.2308 -35.2289 -35.2270 -35.2258 -35.2236 -35.2185
   -35.2148 -35.2143 -35.2098 -35.2060 -35.1959 -35.1923 -35.1871 -35.1805
   -35.1768 -35.1742 -35.1699 -35.1680 -35.1648 -35.1607 -35.1550 -35.1499
   -35.1412 -35.1367 -35.1283 -35.1246 -35.1157 -35.1126 -35.1099 -35.0929
   -35.0823 -35.0714 -13.6811 -13.6664 -13.6623 -13.6584 -12.8475 -12.8367
   -12.8338 -12.8281 -12.7454 -12.7346 -12.7264 -12.7167 -12.6342 -12.6251
   -12.6217 -12.6059 -12.3856 -12.3615 -12.3510 -12.3419 -12.2812 -12.2735
   -12.2612 -12.2568 -12.1450 -12.1438 -12.1402 -12.1311 -12.1160 -12.1053
   -12.0923 -12.0876 -12.0703 -12.0663 -12.0649 -12.0642 -12.0580 -11.9855
   -11.9547 -11.9468 -11.9339 -11.9054 -11.8805 -11.8777 -11.4957 -11.4953
   -11.4944 -11.4935 -11.4891 -11.4759 -11.4738 -11.4718 -11.4694 -11.4679
   -11.4672 -11.4616 -11.3940 -11.3641 -11.3384 -11.3210 -11.2986 -11.2581
   -11.2429 -11.1797 -11.1684 -11.1195 -11.1074 -11.1058 -11.0436 -11.0415
   -10.8574 -10.8057  -8.0241  -4.9127  -4.8871  -4.7266  -4.7247  -4.0322
    -4.0215  -4.0146  -4.0019  -3.9733  -3.9657  -3.9628  -3.9562  -3.8972
    -3.8897  -3.8492  -3.8438  -3.8258  -3.8204  -3.8108  -3.8091  -3.7976
    -3.7919  -3.6592  -3.6518  -3.4310  -3.4212  -3.4154  -3.4088  -3.4039
    -3.3962  -3.3681  -3.3599  -3.3540  -3.3397  -3.3257  -3.3190  -3.1959
    -3.1817  -3.1761  -3.1614  -3.0701  -3.0669  -3.0630  -3.0610  -2.8953
    -2.8827  -2.8817  -2.8791  -2.8785  -2.8678  -2.8454  -2.8355  -2.8187
    -2.7964  -2.7887  -2.7849  -2.7608  -2.7557  -2.6680  -2.6529  -2.6391
    -2.6249  -2.5642  -2.5403  -2.4569  -2.4467  -2.3893  -2.3693  -2.3525
    -2.3115  -2.2603  -2.2533  -2.2476  -2.2370  -2.2209  -2.2004  -2.2001
    -2.1928  -2.1888  -2.1784  -2.1731  -2.1625  -2.1562  -2.1539  -2.1437
    -2.1408  -2.1329  -2.1237  -2.1173  -2.1155  -2.1127  -2.0846  -1.9372
    -1.9295  -1.9234  -1.9154  -1.9126  -1.9062  -1.9014  -1.8949  -1.8911
    -1.8863  -1.8813  -1.8773  -1.8699  -1.8635  -1.8579  -1.8438  -1.8375
    -1.8352  -1.8333  -1.8224  -1.8010  -1.7911  -1.7338  -1.7263  -1.7069
    -1.6906  -1.6668  -1.6496  -1.6305  -1.6151  -1.5744  -1.5425  -1.5395
    -1.5170  -1.4968  -1.4895  -1.4844  -1.4771  -1.3950  -1.3555  -1.3445
    -1.3249  -1.3090  -1.3061  -1.2991  -1.2935  -1.2876  -1.2634  -1.2615
    -1.2495  -1.2358  -1.2170  -1.2020  -1.1992  -1.1862  -1.1617  -1.1396
    -1.1341  -1.1283  -1.1089  -1.1003  -1.0931  -1.0867  -1.0763  -1.0672
    -1.0604  -1.0444  -1.0350  -1.0282  -1.0181  -0.9971  -0.9852  -0.9716
    -0.9634  -0.9323  -0.9138  -0.9079  -0.8989  -0.8849  -0.8717  -0.8639
    -0.8514  -0.8382  -0.8121  -0.7745  -0.7693  -0.7612  -0.7586  -0.7501
    -0.7079  -0.7032  -0.7020  -0.6940  -0.6759  -0.6618  -0.6523  -0.6271
    -0.6007  -0.5583  -0.4869  -0.4247  -0.4228  -0.4094  -0.4069  -0.3869
    -0.3646  -0.3569  -0.3379  -0.3289  -0.3012  -0.2706  -0.2512  -0.1643
    -0.1091  -0.1025  -0.0575  -0.0513  -0.0426  -0.0307  -0.0213   0.1705
     0.1947   0.2890   0.3240   1.0188   1.3458   1.4454   1.4760   1.5397
     1.6152   1.6412   1.6616   1.6849   1.6990   1.7190   1.7445   1.7630
     1.7846   1.8483   1.9387   1.9794   2.0034   2.0413   2.0510   2.0663
     2.0689   2.0955   2.1105   2.1320   2.2068   2.2765   2.5698   2.5859
     2.6088   2.6176   2.7748   2.7835   2.7884   2.7924   2.8144   2.8313
     2.8420   2.8511   2.8790   2.8880   2.8956   2.9095   2.9322   2.9454
     2.9537   2.9665   2.9861   3.0006   3.0236   3.0374   3.1097   3.1183
     3.1224   3.1453   3.1563   3.1962   3.2221   3.2849   3.5083   3.5126
     3.5267   3.5301   3.5584   3.5865   3.6109   3.6262   3.6373   3.6521
     3.6598   3.6686   3.6806   3.6989   3.7006   3.7214   3.7297   3.7744
     3.7862   3.7953   3.7996   3.8137   3.8252   3.9141   3.9196   3.9352
     3.9479   3.9515   3.9578   3.9643   3.9761   3.9832   3.9981   4.0016
     4.0145   4.0249   4.0352   4.0423   4.0550   4.0654   4.0783   4.0865
     4.1121   4.1208   4.1361   4.1472   4.1547   4.1723   4.1824   4.1983
     4.2072   4.2126   4.2207   4.2336   4.2365   4.2478   4.2567   4.2726
     4.2786   4.2833   4.2900   4.2928   4.2983   4.3047   4.3118   4.3147
     4.3176   4.3347   4.3430   4.3449   4.3607   4.3705   4.3776   4.3887
     4.3900   4.3920   4.4043   4.4099   4.4208   4.4355   4.4493   4.4537
     4.4552   4.4719   4.4844   4.5182   4.5327   4.5626   4.5763   4.5789
     4.6224   4.6459   4.6587   4.6710   4.6879   4.6911   4.7060   4.7063
     4.7193   4.7338   4.7501   4.7637   4.7692   4.7752   4.7861   4.7907
     4.8019   4.8038   4.8098   4.8190   4.8364   4.8425   4.8563   4.8638
     4.8745   4.8790   4.8844   4.8915   4.8936   4.8967   4.8978   4.9015
     4.9087   4.9113   4.9208   4.9240   4.9293   4.9346   4.9386   4.9407
     4.9430   4.9484   4.9491   4.9538   4.9675   4.9802   4.9859   4.9972
     5.0078   5.0136   5.0217   5.0426   5.0569   5.0727   5.0970   5.1003
     5.1083

          k = 0.2500 0.0000 0.0000 (135097 PWs)   bands (ev):

   -61.6964 -61.6777 -61.6688 -61.6608 -61.6583 -61.6552 -61.6536 -61.6487
   -61.6446 -61.6410 -61.6357 -61.6338 -61.6322 -61.6292 -61.6271 -61.6250
   -61.6206 -61.6133 -61.6054 -61.5999 -61.5986 -61.5945 -61.5906 -61.5895
   -61.5871 -61.5868 -61.5849 -61.5839 -61.5808 -61.5792 -61.5760 -61.5752
   -61.5740 -61.5723 -61.5709 -61.5693 -61.5678 -61.5673 -61.5638 -61.5580
   -61.5554 -61.5541 -61.5420 -61.5307 -61.5268 -61.5150 -61.5098 -61.5080
   -61.5005 -61.4936 -61.4854 -61.4794 -61.4620 -61.4567 -61.4513 -61.4469
   -61.4443 -61.4367 -61.4252 -61.4172 -61.4144 -61.4068 -61.3893 -61.3823
   -61.3788 -61.3745 -61.3734 -61.3720 -61.3681 -61.3632 -61.3582 -61.3216
   -44.2979 -42.7635 -35.7782 -35.7762 -35.7583 -35.7559 -35.7533 -35.7519
   -35.7330 -35.7285 -35.7263 -35.7244 -35.7166 -35.7119 -35.7051 -35.7025
   -35.7006 -35.6980 -35.6956 -35.6935 -35.6930 -35.6917 -35.6782 -35.6704
   -35.6690 -35.6640 -35.6608 -35.6583 -35.6562 -35.6546 -35.6543 -35.6524
   -35.6488 -35.6451 -35.6431 -35.6406 -35.6365 -35.6352 -35.6337 -35.6324
   -35.6313 -35.6290 -35.6275 -35.6252 -35.6228 -35.6208 -35.6198 -35.6173
   -35.6148 -35.6139 -35.6112 -35.6066 -35.6000 -35.5974 -35.5959 -35.5924
   -35.5874 -35.5848 -35.5745 -35.5715 -35.5689 -35.5662 -35.5619 -35.5572
   -35.5554 -35.5537 -35.5511 -35.5484 -35.5465 -35.5385 -35.5367 -35.5252
   -35.5224 -35.5191 -35.5144 -35.5111 -35.5089 -35.5073 -35.5008 -35.4970
   -35.4961 -35.4942 -35.4927 -35.4891 -35.4858 -35.4851 -35.4823 -35.4798
   -35.4763 -35.4738 -35.4721 -35.4706 -35.4684 -35.4654 -35.4634 -35.4607
   -35.4597 -35.4564 -35.4523 -35.4500 -35.4488 -35.4469 -35.4443 -35.4438
   -35.4415 -35.4396 -35.4387 -35.4372 -35.4361 -35.4349 -35.4338 -35.4320
   -35.4301 -35.4279 -35.4272 -35.4260 -35.4223 -35.4200 -35.4180 -35.4146
   -35.4137 -35.4083 -35.4064 -35.4028 -35.3989 -35.3962 -35.3948 -35.3932
   -35.3912 -35.3884 -35.3872 -35.3867 -35.3847 -35.3829 -35.3820 -35.3800
   -35.3796 -35.3780 -35.3760 -35.3737 -35.3724 -35.3709 -35.3702 -35.3692
   -35.3680 -35.3673 -35.3632 -35.3624 -35.3602 -35.3577 -35.3563 -35.3550
   -35.3537 -35.3512 -35.3498 -35.3473 -35.3452 -35.3421 -35.3400 -35.3379
   -35.3362 -35.3319 -35.3292 -35.3223 -35.3208 -35.3160 -35.3126 -35.3062
   -35.3023 -35.3000 -35.2957 -35.2920 -35.2876 -35.2862 -35.2805 -35.2765
   -35.2745 -35.2685 -35.2657 -35.2584 -35.2549 -35.2530 -35.2494 -35.2449
   -35.2408 -35.2377 -35.2311 -35.2291 -35.2283 -35.2253 -35.2231 -35.2192
   -35.2150 -35.2120 -35.2076 -35.2016 -35.1966 -35.1885 -35.1843 -35.1823
   -35.1775 -35.1748 -35.1715 -35.1671 -35.1663 -35.1629 -35.1529 -35.1498
   -35.1425 -35.1360 -35.1300 -35.1221 -35.1184 -35.1137 -35.1100 -35.0923
   -35.0820 -35.0711 -13.9851 -13.6359 -13.3398 -13.3193 -13.1148 -13.0958
   -13.0184 -12.9963 -12.8122 -12.6255 -12.5744 -12.5634 -12.5408 -12.5180
   -12.4701 -12.4550 -12.4384 -12.4263 -12.3786 -12.3713 -12.3189 -12.3101
   -12.3022 -12.2434 -12.2376 -12.2125 -12.1801 -12.1720 -12.1621 -12.1586
   -12.1449 -12.1272 -12.0719 -12.0562 -12.0439 -11.9988 -11.9736 -11.9544
   -11.9356 -11.9120 -11.8422 -11.8376 -11.7137 -11.7025 -11.6880 -11.6186
   -11.6158 -11.6042 -11.5634 -11.5117 -11.4990 -11.4736 -11.4599 -11.4575
   -11.4379 -11.3360 -11.3330 -11.3138 -11.3130 -11.3022 -11.2776 -11.2492
   -11.2320 -11.2068 -11.2028 -11.1953 -11.1329 -11.0926 -11.0019 -10.9516
   -10.9204 -10.8605  -8.0239  -4.6385  -4.6107  -4.4524  -4.4436  -4.4226
    -4.3945  -4.3134  -4.3084  -4.2221  -4.1978  -4.0692  -4.0615  -3.8290
    -3.8132  -3.8047  -3.7924  -3.7615  -3.7294  -3.7063  -3.6387  -3.6353
    -3.5378  -3.5350  -3.5285  -3.5184  -3.4928  -3.4532  -3.4424  -3.4312
    -3.4023  -3.3611  -3.3518  -3.3452  -3.3361  -3.3298  -3.2892  -3.2229
    -3.1872  -3.1805  -3.1591  -3.1038  -3.0892  -3.0556  -3.0395  -3.0235
    -3.0077  -2.9724  -2.9558  -2.9265  -2.8689  -2.7868  -2.7683  -2.7114
    -2.6947  -2.6769  -2.6342  -2.6238  -2.6179  -2.6051  -2.5427  -2.5051
    -2.4418  -2.4091  -2.3804  -2.3702  -2.3610  -2.3458  -2.3279  -2.3067
    -2.2991  -2.2920  -2.2898  -2.2833  -2.2735  -2.2654  -2.2465  -2.2306
    -2.2186  -2.2076  -2.1953  -2.1701  -2.1631  -2.1537  -2.1455  -2.1200
    -2.0960  -2.0813  -2.0626  -2.0505  -2.0431  -2.0381  -2.0282  -2.0185
    -2.0123  -2.0053  -1.9974  -1.9900  -1.9861  -1.9534  -1.9340  -1.8897
    -1.8702  -1.8650  -1.8348  -1.8236  -1.8219  -1.8089  -1.8076  -1.7985
    -1.7847  -1.7637  -1.7546  -1.7283  -1.7050  -1.6847  -1.6818  -1.6781
    -1.6754  -1.6668  -1.6621  -1.6516  -1.6396  -1.6306  -1.6189  -1.6057
    -1.5913  -1.5789  -1.5532  -1.5501  -1.5461  -1.5317  -1.5243  -1.5024
    -1.4824  -1.4670  -1.4640  -1.4465  -1.4401  -1.4286  -1.4012  -1.3897
    -1.3644  -1.3466  -1.3362  -1.3234  -1.3050  -1.2886  -1.2830  -1.2756
    -1.2732  -1.2659  -1.2606  -1.2447  -1.2129  -1.1975  -1.1585  -1.1479
    -1.1176  -1.1015  -1.0900  -1.0780  -1.0611  -1.0484  -1.0319  -1.0099
    -1.0025  -0.9958  -0.9825  -0.9532  -0.9211  -0.9016  -0.8843  -0.8706
    -0.8653  -0.8513  -0.8423  -0.8292  -0.8099  -0.7973  -0.7584  -0.7192
    -0.6970  -0.6762  -0.6413  -0.6300  -0.6072  -0.5933  -0.5688  -0.5565
    -0.5283  -0.5075  -0.4991  -0.4869  -0.4773  -0.4482  -0.3916  -0.3582
    -0.3224  -0.2988  -0.2616  -0.2236  -0.2048  -0.1846  -0.1737  -0.1481
    -0.1398  -0.0703   0.0113   0.0914   0.1235   0.2684   0.3554   0.4355
     0.7687   0.7922   0.8464   0.9232   0.9555   0.9995   1.0465   1.1174
     1.2393   1.2672   1.2985   1.3354   1.6573   1.7722   1.8556   1.9779
     2.0305   2.1259   2.1545   2.1840   2.2388   2.2657   2.2987   2.3381
     2.4561   2.6182   2.6307   2.6592   2.6686   2.6870   2.7106   2.7197
     2.7384   2.7519   2.7890   2.8012   2.8257   2.8554   2.8612   2.8801
     2.8874   2.9065   2.9155   2.9368   2.9627   2.9779   3.0206   3.0624
     3.0767   3.1207   3.1456   3.1759   3.1890   3.2072   3.2318   3.2453
     3.2590   3.2729   3.2942   3.3042   3.3119   3.3308   3.3413   3.3588
     3.3610   3.3921   3.4061   3.4160   3.4515   3.4839   3.5022   3.5047
     3.5291   3.5434   3.5584   3.5706   3.5866   3.6041   3.6199   3.6498
     3.6569   3.6925   3.7001   3.7127   3.7328   3.7402   3.7570   3.7633
     3.7919   3.8114   3.8255   3.8428   3.8564   3.8685   3.8796   3.8934
     3.9185   3.9286   3.9419   3.9551   3.9582   3.9704   3.9837   4.0007
     4.0112   4.0246   4.0474   4.0637   4.0761   4.1089   4.1211   4.1366
     4.1568   4.1819   4.1924   4.2225   4.2345   4.2698   4.2907   4.2943
     4.3031   4.3139   4.3214   4.3280   4.3390   4.3411   4.3485   4.3530
     4.3645   4.3777   4.3838   4.3865   4.3929   4.3996   4.4133   4.4220
     4.4286   4.4419   4.4523   4.4656   4.4761   4.4852   4.4919   4.5054
     4.5058   4.5096   4.5178   4.5258   4.5337   4.5361   4.5493   4.5564
     4.5584   4.5714   4.5888   4.6019   4.6126   4.6211   4.6333   4.6441
     4.6478   4.6527   4.6649   4.6742   4.6797   4.6883   4.7045   4.7066
     4.7351   4.7412   4.7506   4.7618   4.7800   4.7926   4.7935   4.8057
     4.8153   4.8264   4.8378   4.8457   4.8648   4.8712   4.8768   4.8899
     4.8960   4.9162   4.9224   4.9345   4.9409   4.9524   4.9610   4.9687
     4.9740   4.9827   4.9865   4.9978   5.0119   5.0197   5.0307   5.0346
     5.0418   5.0533   5.0631   5.0675   5.0851   5.0891   5.0918   5.0954
     5.0971

          k =-0.5000 0.0000 0.0000 (135178 PWs)   bands (ev):

   -61.6964 -61.6749 -61.6733 -61.6592 -61.6584 -61.6563 -61.6549 -61.6435
   -61.6430 -61.6397 -61.6382 -61.6367 -61.6343 -61.6289 -61.6268 -61.6251
   -61.6190 -61.6134 -61.6053 -61.5999 -61.5991 -61.5944 -61.5906 -61.5898
   -61.5868 -61.5858 -61.5845 -61.5827 -61.5814 -61.5802 -61.5781 -61.5752
   -61.5733 -61.5722 -61.5711 -61.5697 -61.5678 -61.5670 -61.5608 -61.5599
   -61.5555 -61.5543 -61.5421 -61.5308 -61.5266 -61.5137 -61.5102 -61.5089
   -61.5004 -61.4934 -61.4854 -61.4793 -61.4620 -61.4567 -61.4513 -61.4470
   -61.4442 -61.4367 -61.4252 -61.4172 -61.4144 -61.4068 -61.3893 -61.3824
   -61.3788 -61.3745 -61.3729 -61.3724 -61.3683 -61.3628 -61.3585 -61.3216
   -44.2979 -42.7635 -35.7737 -35.7720 -35.7695 -35.7687 -35.7356 -35.7349
   -35.7324 -35.7311 -35.7297 -35.7279 -35.7226 -35.7204 -35.7169 -35.7155
   -35.7133 -35.7120 -35.6826 -35.6754 -35.6715 -35.6700 -35.6699 -35.6661
   -35.6627 -35.6617 -35.6593 -35.6559 -35.6534 -35.6513 -35.6511 -35.6493
   -35.6456 -35.6442 -35.6424 -35.6416 -35.6404 -35.6394 -35.6379 -35.6374
   -35.6352 -35.6344 -35.6329 -35.6308 -35.6290 -35.6267 -35.6203 -35.6193
   -35.6165 -35.6158 -35.6134 -35.6105 -35.6052 -35.6050 -35.6019 -35.5997
   -35.5944 -35.5932 -35.5912 -35.5701 -35.5673 -35.5648 -35.5515 -35.5508
   -35.5485 -35.5418 -35.5407 -35.5400 -35.5343 -35.5335 -35.5307 -35.5253
   -35.5229 -35.5220 -35.5199 -35.5181 -35.5130 -35.5110 -35.5034 -35.4985
   -35.4918 -35.4884 -35.4844 -35.4817 -35.4799 -35.4756 -35.4740 -35.4732
   -35.4713 -35.4704 -35.4690 -35.4665 -35.4658 -35.4642 -35.4623 -35.4604
   -35.4584 -35.4578 -35.4571 -35.4534 -35.4527 -35.4514 -35.4511 -35.4495
   -35.4483 -35.4475 -35.4470 -35.4462 -35.4437 -35.4429 -35.4383 -35.4378
   -35.4364 -35.4346 -35.4311 -35.4291 -35.4245 -35.4243 -35.4233 -35.4179
   -35.4148 -35.4108 -35.4061 -35.4017 -35.4001 -35.3969 -35.3921 -35.3896
   -35.3874 -35.3862 -35.3849 -35.3812 -35.3806 -35.3796 -35.3780 -35.3777
   -35.3757 -35.3738 -35.3715 -35.3698 -35.3674 -35.3662 -35.3652 -35.3648
   -35.3629 -35.3621 -35.3613 -35.3594 -35.3591 -35.3576 -35.3561 -35.3548
   -35.3540 -35.3523 -35.3505 -35.3500 -35.3484 -35.3469 -35.3467 -35.3356
   -35.3340 -35.3336 -35.3293 -35.3262 -35.3220 -35.3176 -35.3165 -35.3047
   -35.3026 -35.3012 -35.2992 -35.2938 -35.2888 -35.2846 -35.2813 -35.2787
   -35.2735 -35.2720 -35.2641 -35.2588 -35.2553 -35.2532 -35.2487 -35.2479
   -35.2389 -35.2343 -35.2324 -35.2289 -35.2286 -35.2241 -35.2224 -35.2183
   -35.2171 -35.2070 -35.2058 -35.2009 -35.1981 -35.1891 -35.1845 -35.1823
   -35.1789 -35.1763 -35.1718 -35.1663 -35.1656 -35.1640 -35.1514 -35.1473
   -35.1460 -35.1358 -35.1292 -35.1232 -35.1180 -35.1129 -35.1099 -35.0927
   -35.0822 -35.0712 -13.8525 -13.8435 -13.2165 -13.2105 -13.2000 -13.1837
   -12.9967 -12.9904 -12.8841 -12.7746 -12.4782 -12.4693 -12.4657 -12.4570
   -12.4396 -12.4302 -12.3866 -12.3668 -12.3573 -12.3531 -12.3470 -12.3291
   -12.3193 -12.3143 -12.2658 -12.2560 -12.2317 -12.2054 -12.2026 -12.1977
   -12.1242 -12.1169 -12.1053 -12.0985 -12.0764 -12.0475 -11.9370 -11.9309
   -11.9183 -11.9022 -11.7532 -11.7513 -11.7500 -11.7440 -11.6618 -11.6230
   -11.5833 -11.5788 -11.5731 -11.5616 -11.5607 -11.5505 -11.4005 -11.3981
   -11.3963 -11.3956 -11.3883 -11.3586 -11.2883 -11.2655 -11.2440 -11.2367
   -11.2344 -11.2277 -11.2155 -11.1993 -11.0951 -11.0841 -10.9917 -10.9568
   -10.8956 -10.8851  -8.0240  -4.6605  -4.6544  -4.5411  -4.5368  -4.4605
    -4.4582  -4.4388  -4.4348  -3.9674  -3.9514  -3.9503  -3.9165  -3.8097
    -3.7905  -3.7877  -3.7771  -3.7704  -3.6075  -3.6024  -3.5912  -3.5778
    -3.5776  -3.5740  -3.5700  -3.5666  -3.5635  -3.4710  -3.4189  -3.4006
    -3.3899  -3.3774  -3.3499  -3.3447  -3.3388  -3.3308  -3.3146  -3.3097
    -3.3060  -3.2627  -3.2391  -3.1623  -3.1553  -3.1514  -3.1469  -3.0686
    -2.9198  -2.9145  -2.9026  -2.8904  -2.8878  -2.8842  -2.8431  -2.8307
    -2.8047  -2.6457  -2.4560  -2.4513  -2.4446  -2.4308  -2.4276  -2.4189
    -2.4119  -2.4003  -2.3857  -2.3801  -2.3692  -2.3672  -2.3525  -2.3437
    -2.3394  -2.3324  -2.3255  -2.3154  -2.2997  -2.2952  -2.2861  -2.2637
    -2.2520  -2.2372  -2.2316  -2.2162  -2.2115  -2.2046  -2.2004  -2.1904
    -2.1759  -2.1683  -2.1640  -2.0935  -2.0857  -2.0708  -2.0643  -2.0589
    -2.0465  -2.0310  -2.0239  -1.9855  -1.9428  -1.9256  -1.9128  -1.8770
    -1.8671  -1.8487  -1.8340  -1.8235  -1.8144  -1.8063  -1.7966  -1.7686
    -1.7622  -1.7461  -1.7333  -1.7258  -1.7175  -1.7132  -1.7036  -1.6938
    -1.6751  -1.6600  -1.6583  -1.6542  -1.6529  -1.6390  -1.6193  -1.6177
    -1.5808  -1.5659  -1.5320  -1.4989  -1.4825  -1.4491  -1.4357  -1.4315
    -1.4158  -1.3938  -1.3851  -1.3829  -1.3664  -1.3656  -1.3629  -1.3501
    -1.3333  -1.3239  -1.3185  -1.3054  -1.2941  -1.2901  -1.2882  -1.2758
    -1.2522  -1.2060  -1.1876  -1.1825  -1.1573  -1.1540  -1.1374  -1.1270
    -1.0949  -1.0842  -1.0785  -1.0534  -1.0405  -1.0314  -1.0148  -0.9969
    -0.9882  -0.9747  -0.9495  -0.9256  -0.8959  -0.8335  -0.8251  -0.8188
    -0.7999  -0.7967  -0.7837  -0.7817  -0.7669  -0.7515  -0.7457  -0.6948
    -0.6847  -0.6782  -0.6635  -0.6534  -0.6474  -0.6124  -0.5998  -0.5956
    -0.5786  -0.5564  -0.5499  -0.5120  -0.4701  -0.4559  -0.4322  -0.4224
    -0.3849  -0.3507  -0.3437  -0.3326  -0.3108  -0.2812  -0.2494  -0.2159
    -0.1996   0.1263   0.1304   0.1427   0.1633   0.2573   0.3035   0.3381
     0.3794   0.5674   0.5988   0.8313   0.8592   1.0516   1.3911   1.4106
     1.4273   1.4640   1.5472   1.6095   1.6292   1.6719   1.7046   1.7414
     1.7504   1.7685   1.9277   2.0645   2.2892   2.3053   2.4029   2.4199
     2.4422   2.5000   2.5666   2.5755   2.6337   2.6584   2.6799   2.7055
     2.7212   2.7302   2.7432   2.7710   2.8024   2.8337   2.8718   2.8847
     2.9003   2.9107   2.9268   2.9334   2.9627   2.9688   2.9823   2.9958
     3.0135   3.0192   3.0456   3.0545   3.0758   3.0863   3.1033   3.1372
     3.1457   3.1665   3.2483   3.2576   3.3155   3.3302   3.3503   3.3539
     3.3828   3.4101   3.4365   3.4504   3.4655   3.4776   3.5224   3.5400
     3.5507   3.5690   3.5832   3.5956   3.6258   3.6297   3.6413   3.6436
     3.6694   3.6766   3.7073   3.7233   3.7289   3.7483   3.7683   3.7758
     3.8001   3.8779   3.9018   3.9131   3.9161   3.9324   3.9484   3.9811
     4.0230   4.0280   4.0463   4.0707   4.0733   4.0827   4.0874   4.0962
     4.1068   4.1201   4.1376   4.1495   4.1627   4.1670   4.2033   4.2097
     4.2158   4.2243   4.2416   4.2439   4.2494   4.2554   4.2597   4.2735
     4.2767   4.2871   4.2903   4.2942   4.2989   4.3033   4.3160   4.3249
     4.3451   4.3651   4.3658   4.3837   4.3918   4.4045   4.4118   4.4233
     4.4420   4.4449   4.4548   4.4609   4.4657   4.4752   4.4839   4.4997
     4.5039   4.5107   4.5220   4.5373   4.5394   4.5413   4.5439   4.5626
     4.5713   4.5854   4.5921   4.5992   4.6085   4.6256   4.6303   4.6423
     4.6520   4.6641   4.6747   4.6852   4.7020   4.7078   4.7394   4.7410
     4.7538   4.7572   4.7733   4.7914   4.8026   4.8141   4.8310   4.8396
     4.8441   4.8514   4.8534   4.8560   4.8627   4.8640   4.8679   4.8744
     4.8814   4.8855   4.8979   4.9027   4.9075   4.9178   4.9247   4.9464
     4.9557   4.9620   4.9751   4.9805   4.9883   4.9933   4.9981   5.0039
     5.0129   5.0201   5.0332   5.0547   5.0636   5.0682   5.0714   5.0789
     5.0861

          k =-0.2500 0.2500 0.0000 (135083 PWs)   bands (ev):

   -61.6964 -61.6765 -61.6693 -61.6645 -61.6595 -61.6535 -61.6495 -61.6481
   -61.6443 -61.6397 -61.6364 -61.6352 -61.6340 -61.6314 -61.6272 -61.6227
   -61.6202 -61.6134 -61.6053 -61.6006 -61.5980 -61.5951 -61.5911 -61.5884
   -61.5869 -61.5864 -61.5844 -61.5832 -61.5817 -61.5790 -61.5777 -61.5765
   -61.5741 -61.5715 -61.5707 -61.5689 -61.5682 -61.5661 -61.5636 -61.5588
   -61.5561 -61.5533 -61.5420 -61.5307 -61.5269 -61.5149 -61.5093 -61.5079
   -61.5007 -61.4940 -61.4854 -61.4792 -61.4620 -61.4567 -61.4513 -61.4469
   -61.4444 -61.4367 -61.4252 -61.4172 -61.4145 -61.4068 -61.3894 -61.3822
   -61.3788 -61.3746 -61.3732 -61.3722 -61.3680 -61.3632 -61.3583 -61.3216
   -44.2979 -42.7635 -35.7883 -35.7783 -35.7561 -35.7536 -35.7485 -35.7435
   -35.7333 -35.7280 -35.7223 -35.7202 -35.7191 -35.7184 -35.7161 -35.7052
   -35.6994 -35.6952 -35.6869 -35.6857 -35.6841 -35.6825 -35.6792 -35.6782
   -35.6762 -35.6688 -35.6627 -35.6596 -35.6572 -35.6539 -35.6483 -35.6468
   -35.6459 -35.6427 -35.6411 -35.6394 -35.6389 -35.6381 -35.6357 -35.6339
   -35.6328 -35.6298 -35.6290 -35.6283 -35.6272 -35.6250 -35.6238 -35.6219
   -35.6207 -35.6156 -35.6135 -35.6112 -35.6090 -35.6039 -35.5975 -35.5908
   -35.5797 -35.5741 -35.5718 -35.5675 -35.5662 -35.5611 -35.5589 -35.5565
   -35.5516 -35.5491 -35.5488 -35.5460 -35.5449 -35.5421 -35.5374 -35.5316
   -35.5220 -35.5206 -35.5177 -35.5153 -35.5133 -35.5070 -35.5006 -35.4984
   -35.4949 -35.4900 -35.4856 -35.4841 -35.4826 -35.4798 -35.4788 -35.4766
   -35.4753 -35.4731 -35.4722 -35.4696 -35.4666 -35.4648 -35.4631 -35.4624
   -35.4601 -35.4577 -35.4541 -35.4522 -35.4509 -35.4494 -35.4486 -35.4475
   -35.4464 -35.4455 -35.4435 -35.4423 -35.4401 -35.4384 -35.4372 -35.4336
   -35.4320 -35.4296 -35.4240 -35.4189 -35.4164 -35.4130 -35.4104 -35.4088
   -35.4072 -35.4063 -35.4049 -35.4028 -35.4020 -35.4010 -35.3990 -35.3979
   -35.3956 -35.3945 -35.3915 -35.3898 -35.3877 -35.3848 -35.3822 -35.3787
   -35.3769 -35.3745 -35.3736 -35.3719 -35.3705 -35.3691 -35.3685 -35.3676
   -35.3662 -35.3637 -35.3618 -35.3590 -35.3576 -35.3568 -35.3553 -35.3540
   -35.3520 -35.3516 -35.3507 -35.3495 -35.3457 -35.3437 -35.3409 -35.3394
   -35.3353 -35.3332 -35.3318 -35.3233 -35.3213 -35.3167 -35.3110 -35.3074
   -35.3043 -35.3020 -35.2955 -35.2905 -35.2879 -35.2828 -35.2811 -35.2782
   -35.2723 -35.2707 -35.2683 -35.2580 -35.2537 -35.2517 -35.2492 -35.2440
   -35.2415 -35.2375 -35.2318 -35.2281 -35.2268 -35.2257 -35.2231 -35.2197
   -35.2169 -35.2108 -35.2052 -35.2023 -35.1991 -35.1889 -35.1849 -35.1806
   -35.1766 -35.1736 -35.1722 -35.1690 -35.1661 -35.1623 -35.1554 -35.1495
   -35.1413 -35.1361 -35.1296 -35.1233 -35.1173 -35.1132 -35.1099 -35.0925
   -35.0820 -35.0712 -13.9380 -13.5951 -13.5865 -13.2562 -13.0732 -13.0575
   -13.0481 -12.7796 -12.7676 -12.7561 -12.7415 -12.5938 -12.5821 -12.4948
   -12.4505 -12.4107 -12.3999 -12.3604 -12.3523 -12.3441 -12.3305 -12.3192
   -12.3042 -12.2711 -12.2438 -12.2316 -12.2162 -12.1518 -12.1442 -12.1335
   -12.1297 -12.1195 -12.1084 -12.0493 -12.0174 -12.0139 -11.9954 -11.9912
   -11.9344 -11.8907 -11.8880 -11.8614 -11.7759 -11.6830 -11.6742 -11.6463
   -11.5872 -11.5234 -11.5011 -11.4914 -11.4898 -11.4742 -11.4724 -11.4700
   -11.4608 -11.3787 -11.3667 -11.3155 -11.3070 -11.2905 -11.2844 -11.2485
   -11.2207 -11.2188 -11.1913 -11.1667 -11.1418 -11.1006 -10.9905 -10.9836
   -10.8910 -10.8518  -8.0240  -4.7939  -4.6868  -4.6174  -4.5448  -4.3507
    -4.3388  -4.1903  -4.1693  -4.0774  -4.0697  -4.0054  -3.9802  -3.9540
    -3.8809  -3.8689  -3.8563  -3.7935  -3.6713  -3.6310  -3.6119  -3.5881
    -3.5818  -3.5714  -3.5595  -3.5528  -3.5422  -3.4255  -3.4200  -3.4161
    -3.3921  -3.3698  -3.3582  -3.3533  -3.3285  -3.3060  -3.2994  -3.2903
    -3.2008  -3.1897  -3.1697  -3.0847  -3.0769  -3.0375  -3.0354  -3.0178
    -3.0130  -2.9424  -2.9242  -2.9114  -2.8922  -2.8896  -2.8005  -2.7823
    -2.7325  -2.7169  -2.6377  -2.6265  -2.6201  -2.6020  -2.5466  -2.4831
    -2.4426  -2.4147  -2.3963  -2.3835  -2.3772  -2.3690  -2.3632  -2.3576
    -2.3495  -2.3464  -2.3203  -2.2812  -2.2745  -2.2697  -2.2589  -2.2493
    -2.2427  -2.2359  -2.2172  -2.2132  -2.1991  -2.1706  -2.1315  -2.1224
    -2.1184  -2.0907  -2.0782  -2.0596  -2.0450  -2.0370  -2.0260  -1.9834
    -1.9764  -1.9517  -1.9463  -1.9261  -1.9137  -1.9032  -1.8995  -1.8911
    -1.8817  -1.8657  -1.8540  -1.8425  -1.8304  -1.8196  -1.8143  -1.8004
    -1.7968  -1.7855  -1.7829  -1.7779  -1.7635  -1.7385  -1.7142  -1.7056
    -1.6999  -1.6706  -1.6491  -1.6422  -1.6372  -1.6221  -1.6075  -1.5897
    -1.5708  -1.5408  -1.5047  -1.4851  -1.4785  -1.4598  -1.4558  -1.4441
    -1.4329  -1.4186  -1.4126  -1.4006  -1.3896  -1.3770  -1.3594  -1.3539
    -1.3352  -1.3106  -1.2984  -1.2949  -1.2886  -1.2741  -1.2598  -1.2432
    -1.2334  -1.2208  -1.2084  -1.2021  -1.1828  -1.1475  -1.1204  -1.1018
    -1.0867  -1.0815  -1.0712  -1.0493  -1.0280  -1.0218  -1.0118  -0.9905
    -0.9786  -0.9496  -0.9248  -0.9216  -0.9058  -0.8994  -0.8898  -0.8758
    -0.8531  -0.8394  -0.8327  -0.8180  -0.7968  -0.7878  -0.7782  -0.7501
    -0.7268  -0.7085  -0.6985  -0.6774  -0.6613  -0.5897  -0.5632  -0.5402
    -0.5253  -0.5150  -0.4979  -0.4794  -0.4669  -0.4450  -0.4307  -0.4098
    -0.3919  -0.3368  -0.3067  -0.2935  -0.2633  -0.2341  -0.1952  -0.1432
    -0.0811  -0.0622  -0.0026   0.0323   0.1207   0.1496   0.2385   0.2577
     0.5730   0.7122   0.9180   0.9861   1.0242   1.0675   1.1370   1.1456
     1.1831   1.3902   1.4033   1.4505   1.6493   1.8465   1.9451   1.9849
     2.0028   2.0310   2.0572   2.1301   2.1809   2.2033   2.2790   2.2851
     2.3096   2.3538   2.3916   2.4165   2.4930   2.4965   2.5980   2.6481
     2.6670   2.6879   2.7213   2.7564   2.7803   2.7982   2.8181   2.8282
     2.8908   2.9148   2.9439   2.9721   2.9888   3.0386   3.0821   3.0957
     3.1102   3.1184   3.1393   3.1596   3.1851   3.2033   3.2077   3.2227
     3.2323   3.2511   3.2630   3.2805   3.2924   3.3239   3.3438   3.3803
     3.4001   3.4072   3.4256   3.4615   3.4848   3.4983   3.5073   3.5238
     3.5406   3.5542   3.5708   3.5774   3.5868   3.6025   3.6275   3.6418
     3.7061   3.7183   3.7419   3.7552   3.7699   3.7822   3.7846   3.8016
     3.8124   3.8475   3.8531   3.8853   3.9098   3.9161   3.9183   3.9271
     3.9379   3.9491   3.9771   4.0041   4.0160   4.0241   4.0399   4.0536
     4.0744   4.1013   4.1142   4.1264   4.1385   4.1550   4.1710   4.1974
     4.2071   4.2254   4.2391   4.2449   4.2538   4.2614   4.2722   4.2807
     4.2871   4.2953   4.3083   4.3260   4.3346   4.3520   4.3577   4.3712
     4.3750   4.3803   4.3884   4.3927   4.4045   4.4151   4.4166   4.4314
     4.4362   4.4430   4.4462   4.4576   4.4636   4.4689   4.4732   4.4807
     4.4888   4.4943   4.5019   4.5157   4.5349   4.5395   4.5459   4.5592
     4.5720   4.5745   4.5818   4.5922   4.6023   4.6117   4.6189   4.6432
     4.6497   4.6575   4.6649   4.6766   4.6864   4.7007   4.7046   4.7216
     4.7343   4.7424   4.7573   4.7769   4.7839   4.8142   4.8243   4.8393
     4.8449   4.8567   4.8675   4.8702   4.8739   4.8824   4.8892   4.8951
     4.9074   4.9138   4.9195   4.9240   4.9365   4.9465   4.9518   4.9580
     4.9674   4.9715   4.9796   4.9892   5.0011   5.0218   5.0249   5.0270
     5.0327   5.0361   5.0436   5.0496   5.0534   5.0637   5.0769   5.0822
     5.0970

          k =-0.5000 0.2500 0.0000 (135080 PWs)   bands (ev):

   -61.6964 -61.6739 -61.6724 -61.6636 -61.6632 -61.6514 -61.6496 -61.6434
   -61.6429 -61.6401 -61.6383 -61.6371 -61.6343 -61.6333 -61.6275 -61.6220
   -61.6185 -61.6139 -61.6052 -61.6004 -61.5986 -61.5952 -61.5913 -61.5877
   -61.5868 -61.5855 -61.5843 -61.5828 -61.5811 -61.5799 -61.5782 -61.5779
   -61.5751 -61.5719 -61.5699 -61.5682 -61.5677 -61.5662 -61.5613 -61.5606
   -61.5561 -61.5535 -61.5421 -61.5309 -61.5265 -61.5135 -61.5099 -61.5088
   -61.5005 -61.4940 -61.4855 -61.4791 -61.4620 -61.4567 -61.4514 -61.4470
   -61.4442 -61.4367 -61.4252 -61.4172 -61.4145 -61.4068 -61.3894 -61.3823
   -61.3787 -61.3745 -61.3729 -61.3724 -61.3681 -61.3629 -61.3585 -61.3216
   -44.2979 -42.7635 -35.7911 -35.7876 -35.7461 -35.7442 -35.7414 -35.7407
   -35.7371 -35.7348 -35.7276 -35.7243 -35.7224 -35.7199 -35.7049 -35.7024
   -35.7008 -35.6965 -35.6851 -35.6827 -35.6809 -35.6759 -35.6727 -35.6720
   -35.6707 -35.6682 -35.6655 -35.6646 -35.6612 -35.6572 -35.6565 -35.6544
   -35.6516 -35.6479 -35.6445 -35.6429 -35.6412 -35.6393 -35.6369 -35.6361
   -35.6332 -35.6321 -35.6306 -35.6274 -35.6258 -35.6242 -35.6218 -35.6187
   -35.6157 -35.6140 -35.6118 -35.6093 -35.6067 -35.6044 -35.5999 -35.5894
   -35.5869 -35.5811 -35.5771 -35.5707 -35.5661 -35.5623 -35.5589 -35.5516
   -35.5498 -35.5464 -35.5420 -35.5405 -35.5377 -35.5345 -35.5329 -35.5318
   -35.5290 -35.5230 -35.5193 -35.5108 -35.5096 -35.5044 -35.5012 -35.4955
   -35.4911 -35.4901 -35.4883 -35.4850 -35.4840 -35.4806 -35.4772 -35.4758
   -35.4748 -35.4714 -35.4704 -35.4686 -35.4665 -35.4656 -35.4647 -35.4643
   -35.4628 -35.4607 -35.4590 -35.4568 -35.4554 -35.4530 -35.4515 -35.4506
   -35.4479 -35.4451 -35.4426 -35.4395 -35.4384 -35.4356 -35.4331 -35.4317
   -35.4300 -35.4274 -35.4264 -35.4251 -35.4226 -35.4181 -35.4142 -35.4113
   -35.4100 -35.4078 -35.4059 -35.4044 -35.4026 -35.3985 -35.3963 -35.3945
   -35.3909 -35.3893 -35.3883 -35.3866 -35.3850 -35.3827 -35.3801 -35.3795
   -35.3780 -35.3764 -35.3750 -35.3729 -35.3711 -35.3687 -35.3668 -35.3653
   -35.3644 -35.3631 -35.3613 -35.3602 -35.3583 -35.3574 -35.3556 -35.3534
   -35.3514 -35.3494 -35.3483 -35.3465 -35.3449 -35.3414 -35.3398 -35.3390
   -35.3360 -35.3357 -35.3299 -35.3270 -35.3234 -35.3185 -35.3147 -35.3099
   -35.3045 -35.3012 -35.2985 -35.2917 -35.2874 -35.2848 -35.2793 -35.2779
   -35.2722 -35.2687 -35.2634 -35.2574 -35.2554 -35.2527 -35.2492 -35.2470
   -35.2392 -35.2363 -35.2312 -35.2305 -35.2281 -35.2248 -35.2221 -35.2188
   -35.2154 -35.2112 -35.2081 -35.2028 -35.1966 -35.1911 -35.1860 -35.1813
   -35.1777 -35.1745 -35.1725 -35.1668 -35.1644 -35.1622 -35.1527 -35.1504
   -35.1425 -35.1362 -35.1287 -35.1241 -35.1166 -35.1128 -35.1099 -35.0928
   -35.0823 -35.0713 -13.8062 -13.7971 -13.4636 -13.4548 -12.9593 -12.9497
   -12.9354 -12.9269 -12.8448 -12.7356 -12.6636 -12.6566 -12.5623 -12.4897
   -12.4782 -12.4527 -12.4207 -12.4076 -12.3356 -12.3221 -12.3092 -12.3025
   -12.2557 -12.2512 -12.2190 -12.1974 -12.1920 -12.1808 -12.1704 -12.1661
   -12.1587 -12.0806 -12.0763 -12.0646 -12.0417 -12.0240 -12.0155 -11.9986
   -11.9196 -11.9173 -11.8963 -11.8687 -11.7957 -11.7621 -11.5934 -11.5906
   -11.5511 -11.5477 -11.5430 -11.5427 -11.4728 -11.4368 -11.4363 -11.4352
   -11.4047 -11.4019 -11.3702 -11.3614 -11.3518 -11.3396 -11.2768 -11.2522
   -11.2310 -11.2041 -11.1458 -11.1418 -11.1262 -11.1076 -11.0178 -11.0005
   -10.8773 -10.8334  -8.0240  -4.8579  -4.7811  -4.6590  -4.6479  -4.3363
    -4.2559  -4.1609  -4.1353  -4.0532  -4.0429  -3.8846  -3.8795  -3.8588
    -3.8227  -3.7954  -3.7839  -3.7810  -3.7169  -3.7049  -3.6832  -3.6479
    -3.6387  -3.5926  -3.5877  -3.5801  -3.5622  -3.5528  -3.5235  -3.4318
    -3.4256  -3.3413  -3.3341  -3.3176  -3.3111  -3.2915  -3.2676  -3.2326
    -3.2235  -3.1460  -3.0987  -3.0965  -3.0937  -3.0696  -3.0359  -3.0274
    -3.0223  -2.9623  -2.9533  -2.9334  -2.8972  -2.7934  -2.7873  -2.7797
    -2.7653  -2.7412  -2.7321  -2.6662  -2.6483  -2.6336  -2.5618  -2.5334
    -2.5078  -2.4690  -2.4596  -2.4272  -2.3985  -2.3675  -2.3499  -2.3334
    -2.3226  -2.3055  -2.2851  -2.2760  -2.2713  -2.2545  -2.2478  -2.2430
    -2.2280  -2.2040  -2.1771  -2.1641  -2.1622  -2.1538  -2.1339  -2.1257
    -2.1177  -2.1128  -2.1030  -2.0839  -2.0611  -2.0463  -2.0375  -2.0266
    -2.0166  -1.9982  -1.9802  -1.9746  -1.9624  -1.9511  -1.9438  -1.9314
    -1.9112  -1.8963  -1.8762  -1.8739  -1.8663  -1.8536  -1.8424  -1.8360
    -1.8266  -1.8111  -1.7922  -1.7904  -1.7810  -1.7146  -1.6954  -1.6803
    -1.6754  -1.6630  -1.6496  -1.5722  -1.5410  -1.5306  -1.5206  -1.4978
    -1.4873  -1.4576  -1.4462  -1.4409  -1.4368  -1.4304  -1.4166  -1.4116
    -1.3899  -1.3717  -1.3619  -1.3390  -1.3284  -1.3264  -1.3113  -1.3026
    -1.2949  -1.2783  -1.2760  -1.2652  -1.2513  -1.2329  -1.2185  -1.2091
    -1.1960  -1.1838  -1.1675  -1.1603  -1.1445  -1.1325  -1.1230  -1.1108
    -1.0976  -1.0944  -1.0798  -1.0667  -1.0588  -1.0359  -1.0284  -1.0080
    -0.9915  -0.9873  -0.9370  -0.9142  -0.8952  -0.8679  -0.8617  -0.8567
    -0.8378  -0.8298  -0.8141  -0.8029  -0.7880  -0.7640  -0.7395  -0.7136
    -0.7017  -0.6855  -0.6457  -0.6340  -0.6302  -0.6155  -0.5758  -0.5565
    -0.5416  -0.5322  -0.5052  -0.5000  -0.4853  -0.4642  -0.4565  -0.4244
    -0.4201  -0.4048  -0.3511  -0.3080  -0.2664  -0.2556  -0.2087  -0.1241
    -0.1195  -0.0895  -0.0641   0.0426   0.0636   0.1125   0.1429   0.2825
     0.3036   0.4945   0.5050   1.0083   1.0727   1.1389   1.4117   1.4347
     1.4746   1.5345   1.5947   1.6094   1.6208   1.7112   1.7611   1.7951
     1.8160   1.8286   1.9505   2.0598   2.1423   2.1805   2.2058   2.2372
     2.2749   2.2959   2.3634   2.3773   2.4348   2.4781   2.5023   2.5601
     2.6449   2.6519   2.6754   2.7003   2.7172   2.7593   2.8073   2.8319
     2.8882   2.9056   2.9215   2.9361   2.9447   2.9623   2.9744   2.9971
     3.0069   3.0121   3.0755   3.0914   3.1206   3.1417   3.1668   3.2028
     3.2296   3.2417   3.2480   3.2810   3.3234   3.3404   3.3647   3.3744
     3.3898   3.4313   3.4431   3.4501   3.4642   3.4923   3.5270   3.5911
     3.6067   3.6167   3.6259   3.6365   3.6704   3.6803   3.6995   3.7162
     3.7244   3.7294   3.7574   3.7855   3.8023   3.8186   3.8321   3.8558
     3.8683   3.8839   3.8965   3.9135   3.9338   3.9534   4.0020   4.0074
     4.0177   4.0276   4.0359   4.0500   4.0672   4.0829   4.0994   4.1203
     4.1347   4.1457   4.1633   4.1694   4.1762   4.1926   4.1996   4.2097
     4.2184   4.2312   4.2395   4.2459   4.2551   4.2577   4.2672   4.2710
     4.2767   4.2820   4.2881   4.2961   4.3044   4.3083   4.3209   4.3241
     4.3372   4.3527   4.3628   4.3760   4.3852   4.3900   4.3991   4.4068
     4.4128   4.4144   4.4193   4.4246   4.4456   4.4569   4.4616   4.4673
     4.4783   4.4850   4.4993   4.5042   4.5351   4.5526   4.5653   4.5806
     4.6027   4.6090   4.6202   4.6388   4.6459   4.6608   4.6666   4.6744
     4.6856   4.6920   4.7002   4.7136   4.7282   4.7396   4.7481   4.7596
     4.7717   4.7823   4.7990   4.8108   4.8127   4.8206   4.8298   4.8374
     4.8493   4.8545   4.8622   4.8719   4.8826   4.8925   4.9004   4.9111
     4.9185   4.9203   4.9266   4.9340   4.9415   4.9437   4.9511   4.9571
     4.9593   4.9683   4.9733   4.9756   4.9848   4.9872   4.9966   5.0024
     5.0170   5.0249   5.0364   5.0470   5.0543   5.0620   5.0693   5.0801
     5.0861

     the Fermi energy is     3.6483 ev

!    total energy              =  -11961.41076955 Ry
     estimated scf accuracy    <          9.8E-09 Ry
     smearing contrib. (-TS)   =      -0.04524630 Ry
     internal energy E=F+TS    =  -11961.36552326 Ry

     The total energy is F=E-TS. E is the sum of the following terms:
     one-electron contribution = -159197.90106722 Ry
     hartree contribution      =   79700.52657855 Ry
     xc contribution           =   -1819.85909977 Ry
     ewald contribution        =   69359.37902484 Ry
     DFT-D3 Dispersion         =      -3.51095966 Ry

     convergence has been achieved in  28 iterations

     negative rho (up, down):  7.590E-02 0.000E+00

     Forces acting on atoms (cartesian axes, Ry/au):

     atom    1 type  1   force =     0.00146080    0.00186094    0.09153342
     atom    2 type  1   force =    -0.00158633    0.00563717   -0.02230142
     atom    3 type  1   force =     0.00558882   -0.00263118   -0.02223575
     atom    4 type  1   force =    -0.00115804   -0.00127094    0.09496969
     atom    5 type  1   force =     0.00029494    0.00050998    0.00001656
     atom    6 type  1   force =    -0.00008561   -0.00087799   -0.00018010
     atom    7 type  1   force =    -0.00036772    0.00004934   -0.00013351
     atom    8 type  1   force =    -0.00031337   -0.00039387    0.00008116
     atom    9 type  1   force =     0.00115198   -0.00023675    0.09286861
     atom   10 type  1   force =    -0.00489453    0.00142382   -0.02012778
     atom   11 type  1   force =     0.00328539   -0.00139160   -0.01719433
     atom   12 type  1   force =    -0.00069637   -0.00119876    0.09428372
     atom   13 type  1   force =    -0.00005684    0.00023517    0.00002114
     atom   14 type  1   force =     0.00045205   -0.00020120   -0.00071857
     atom   15 type  1   force =    -0.00049519    0.00031239   -0.00007388
     atom   16 type  1   force =     0.00003652   -0.00019674   -0.00086389
     atom   17 type  1   force =     0.00005681    0.00131529    0.09542059
     atom   18 type  1   force =    -0.00569006    0.00265637   -0.02098382
     atom   19 type  1   force =     0.00413968   -0.00445173   -0.01549362
     atom   20 type  1   force =    -0.00116676   -0.00007863    0.09374405
     atom   21 type  1   force =    -0.00008192    0.00009727    0.00011279
     atom   22 type  1   force =     0.00082921    0.00076300   -0.00057785
     atom   23 type  1   force =     0.00050197   -0.00054826    0.00006526
     atom   24 type  1   force =    -0.00010833   -0.00053437    0.00004205
     atom   25 type  1   force =     0.00027995    0.00154121    0.09150369
     atom   26 type  1   force =    -0.00322565    0.00213198   -0.02208602
     atom   27 type  1   force =     0.00070421   -0.00205160   -0.01740551
     atom   28 type  1   force =    -0.00104246   -0.00084333    0.09313785
     atom   29 type  1   force =    -0.00005856    0.00037183    0.00035766
     atom   30 type  1   force =    -0.00041319   -0.00042787    0.00018417
     atom   31 type  1   force =     0.00072910    0.00012287   -0.00030828
     atom   32 type  1   force =     0.00010671   -0.00021390    0.00035133
     atom   33 type  1   force =     0.00038725   -0.00060831    0.09475712
     atom   34 type  1   force =    -0.00107402    0.00496761   -0.01702408
     atom   35 type  1   force =     0.00536292   -0.00096334   -0.00013724
     atom   36 type  1   force =    -0.00061275   -0.00046301    0.09550095
     atom   37 type  1   force =    -0.00026922   -0.00041272    0.00147068
     atom   38 type  1   force =    -0.00024963   -0.00036877   -0.00007055
     atom   39 type  1   force =     0.00002985   -0.00174439    0.00038138
     atom   40 type  1   force =    -0.00000525   -0.00007565    0.00002583
     atom   41 type  1   force =     0.00155382    0.00154086    0.09532564
     atom   42 type  1   force =    -0.00314781    0.00107539   -0.02102839
     atom   43 type  1   force =     0.00276162   -0.00436087   -0.01502712
     atom   44 type  1   force =    -0.00038274   -0.00073877    0.09329128
     atom   45 type  1   force =     0.00007082   -0.00007081   -0.00032869
     atom   46 type  1   force =    -0.00008859    0.00054074   -0.00011728
     atom   47 type  1   force =    -0.00062542    0.00075439    0.00007442
     atom   48 type  1   force =    -0.00034426   -0.00016418   -0.00040691
     atom   49 type  1   force =     0.00086514    0.00033858    0.09609141
     atom   50 type  1   force =    -0.00418900    0.00346689   -0.01645948
     atom   51 type  1   force =     0.00285094   -0.00436112   -0.01933064
     atom   52 type  1   force =    -0.00037510   -0.00054484    0.09327148
     atom   53 type  1   force =     0.00017470   -0.00013895    0.00008305
     atom   54 type  1   force =    -0.00014020    0.00064014   -0.00005161
     atom   55 type  1   force =     0.00017846   -0.00010806   -0.00014556
     atom   56 type  1   force =     0.00004803    0.00027193    0.00015712
     atom   57 type  1   force =     0.00155549    0.00160158    0.09232586
     atom   58 type  1   force =    -0.00273687    0.00422851   -0.01884640
     atom   59 type  1   force =    -0.00098170   -0.00255064   -0.01894896
     atom   60 type  1   force =    -0.00012604   -0.00097087    0.09256532
     atom   61 type  1   force =     0.00019632   -0.00020940   -0.00018063
     atom   62 type  1   force =    -0.00021081   -0.00024424    0.00030638
     atom   63 type  1   force =     0.00032827   -0.00000863   -0.00014984
     atom   64 type  1   force =    -0.00002470   -0.00025775   -0.00012250
     atom   65 type  1   force =     0.00151261    0.00069568    0.09187887
     atom   66 type  1   force =    -0.00284600    0.00301508   -0.02039406
     atom   67 type  1   force =     0.00388214   -0.00250001   -0.01940157
     atom   68 type  1   force =    -0.00151900   -0.00148309    0.09261669
     atom   69 type  1   force =     0.00001848    0.00036446    0.00008922
     atom   70 type  1   force =     0.00008221    0.00000296    0.00014117
     atom   71 type  1   force =     0.00046014    0.00057128   -0.00001620
     atom   72 type  1   force =    -0.00008412    0.00004521    0.00026926
     atom   73 type  2   force =    -0.00040424    0.00024547   -0.05334572
     atom   74 type  2   force =     0.00028541   -0.00039538   -0.05369022
     atom   75 type  2   force =     0.00106588    0.00118187   -0.01799292
     atom   76 type  2   force =    -0.00021427   -0.00114646   -0.02064231
     atom   77 type  2   force =    -0.00011081    0.00024307   -0.00035406
     atom   78 type  2   force =     0.00018526   -0.00036011   -0.00035892
     atom   79 type  2   force =    -0.00034865   -0.00058404    0.00041040
     atom   80 type  2   force =     0.00010576    0.00015557    0.00092760
     atom   81 type  2   force =     0.00024161    0.00026022   -0.05341375
     atom   82 type  2   force =     0.00045429   -0.00009328   -0.05402883
     atom   83 type  2   force =     0.00071579    0.00008982   -0.02111720
     atom   84 type  2   force =     0.00066929    0.00035184   -0.02144069
     atom   85 type  2   force =    -0.00011164    0.00018933   -0.00014328
     atom   86 type  2   force =    -0.00023862   -0.00002533   -0.00040400
     atom   87 type  2   force =    -0.00034123    0.00034420    0.00062216
     atom   88 type  2   force =     0.00083644   -0.00017343   -0.00018576
     atom   89 type  2   force =    -0.00047847    0.00051751   -0.05326981
     atom   90 type  2   force =     0.00130216   -0.00089335   -0.05358918
     atom   91 type  2   force =    -0.00000630    0.00007395   -0.02650217
     atom   92 type  2   force =    -0.00025500   -0.00079478   -0.01935538
     atom   93 type  2   force =    -0.00003566    0.00013730    0.00009699
     atom   94 type  2   force =     0.00010414   -0.00034380   -0.00039295
     atom   95 type  2   force =     0.00040592   -0.00006470    0.00015755
     atom   96 type  2   force =    -0.00007604   -0.00015025   -0.00039997
     atom   97 type  2   force =    -0.00046663    0.00029493   -0.05401667
     atom   98 type  2   force =     0.00039318   -0.00039942   -0.05377781
     atom   99 type  2   force =    -0.00002675    0.00053771   -0.01970486
     atom  100 type  2   force =    -0.00047570   -0.00164208   -0.01655354
     atom  101 type  2   force =     0.00012321   -0.00027942   -0.00039244
     atom  102 type  2   force =     0.00002139    0.00001401    0.00015733
     atom  103 type  2   force =    -0.00018365    0.00000907    0.00042004
     atom  104 type  2   force =     0.00030400   -0.00012070   -0.00026719
     atom  105 type  2   force =    -0.00090819    0.00049607   -0.05795176
     atom  106 type  2   force =     0.00022063   -0.00019647   -0.05463166
     atom  107 type  2   force =    -0.00034751    0.00227726   -0.02736041
     atom  108 type  2   force =    -0.00226837   -0.00011242   -0.02148084
     atom  109 type  2   force =     0.00019896    0.00025451   -0.00093500
     atom  110 type  2   force =     0.00013452    0.00011069    0.00007527
     atom  111 type  2   force =    -0.00034795    0.00101807   -0.00219583
     atom  112 type  2   force =    -0.00080504   -0.00030610    0.00003113
     atom  113 type  2   force =    -0.00034514    0.00018034   -0.05273247
     atom  114 type  2   force =     0.00038823   -0.00057866   -0.05417797
     atom  115 type  2   force =     0.00001700   -0.00208683   -0.03066463
     atom  116 type  2   force =    -0.00087867    0.00035246   -0.01701331
     atom  117 type  2   force =    -0.00020627    0.00022992    0.00022633
     atom  118 type  2   force =    -0.00001745   -0.00019751   -0.00011566
     atom  119 type  2   force =    -0.00067324   -0.00039196   -0.00004234
     atom  120 type  2   force =    -0.00009095    0.00023948   -0.00054188
     atom  121 type  2   force =    -0.00038388    0.00109546   -0.05320450
     atom  122 type  2   force =     0.00064182   -0.00041946   -0.05300999
     atom  123 type  2   force =     0.00067276    0.00009972   -0.02846927
     atom  124 type  2   force =    -0.00137436   -0.00080185   -0.02178331
     atom  125 type  2   force =    -0.00011895   -0.00024208   -0.00014135
     atom  126 type  2   force =     0.00022838    0.00017254   -0.00002241
     atom  127 type  2   force =    -0.00002039    0.00019265    0.00022714
     atom  128 type  2   force =     0.00008349    0.00006779   -0.00034365
     atom  129 type  2   force =    -0.00059552    0.00052181   -0.05305563
     atom  130 type  2   force =     0.00025824   -0.00083187   -0.05327876
     atom  131 type  2   force =     0.00143596    0.00098549   -0.02137840
     atom  132 type  2   force =     0.00034406   -0.00042708   -0.01785934
     atom  133 type  2   force =     0.00005400   -0.00004306   -0.00011365
     atom  134 type  2   force =     0.00011511   -0.00002572    0.00039104
     atom  135 type  2   force =     0.00050010   -0.00052659   -0.00031923
     atom  136 type  2   force =    -0.00011035    0.00012419   -0.00039412
     atom  137 type  2   force =    -0.00061296   -0.00033916   -0.05333903
     atom  138 type  2   force =    -0.00021723   -0.00019816   -0.05337775
     atom  139 type  2   force =     0.00198048    0.00094395   -0.01811814
     atom  140 type  2   force =    -0.00112076   -0.00088662   -0.02327850
     atom  141 type  2   force =    -0.00012649    0.00017727   -0.00004207
     atom  142 type  2   force =    -0.00007699   -0.00003372    0.00017350
     atom  143 type  2   force =     0.00007450    0.00027922    0.00004897
     atom  144 type  2   force =     0.00029920    0.00013695   -0.00018118
     atom  145 type  3   force =     0.00016788   -0.00123440    0.00032259
     atom  146 type  4   force =    -0.00073082   -0.00046870    0.00003370
     atom  147 type  4   force =     0.00065892    0.00096048    0.00212714

     Total force =     0.006397     Total SCF correction =     0.000411
     Energy error            =      9.9E-05 Ry
     Gradient error          =      2.2E-03 Ry/Bohr

     number of scf cycles    =  22
     number of bfgs steps    =  21

     energy             old  =  -11961.4106702797 Ry
     energy             new  =  -11961.4107695543 Ry

     CASE: energy            _new < energy            _old

     new trust radius        =       0.0182518106 bohr
     new conv_thr            =       0.0000000200 Ry


ATOMIC_POSITIONS (angstrom)
V                0.0000000000        0.0000000000       10.0000000000    0   0   0
V                2.0432625400        0.0000000000       12.0432625400    0   0   0
V                0.0000000000        2.0432625400       12.0432625400    0   0   0
V                2.0432625400        2.0432625400       10.0000000000    0   0   0
V                0.0756967290        0.0735712441       14.1619682426
V                2.0189886777       -0.1000610150       16.0114470188
V               -0.1117055036        2.0285667324       16.0066317709
V                1.9851830249        1.9872477895       14.1940885929
V                0.0000000000        4.0865250700       10.0000000000    0   0   0
V                2.0432625400        4.0865250700       12.0432625400    0   0   0
V                0.0000000000        6.1297876100       12.0432625400    0   0   0
V                2.0432625400        6.1297876100       10.0000000000    0   0   0
V                0.0652683597        4.1278299199       14.1532045238
V                2.0403640440        4.1753482597       15.9927091923
V                0.0059536589        6.0815528476       16.0022223237
V                2.0471913985        6.0748177914       14.1731395945
V                0.0000000000        8.1730501500       10.0000000000    0   0   0
V                2.0432625400        8.1730501500       12.0432625400    0   0   0
V                0.0000000000       10.2163126900       12.0432625400    0   0   0
V                2.0432625400       10.2163126900       10.0000000000    0   0   0
V                0.0806075132        8.2500685572       14.1421447225
V                2.0382258123        8.2348405110       16.0117459318
V               -0.0259808718       10.2763499429       16.0011479331
V                1.9638451201       10.1378579073       14.1501366341
V                4.0865250700        0.0000000000       10.0000000000    0   0   0
V                6.1297876100        0.0000000000       12.0432625400    0   0   0
V                4.0865250700        2.0432625400       12.0432625400    0   0   0
V                6.1297876100        2.0432625400       10.0000000000    0   0   0
V                4.1299020843        0.0501364857       14.1678586368
V                6.1118014370        0.0067052457       16.0081796779
V                4.2004968001        2.0333470721       15.9923780758
V                6.0749633540        1.9825677244       14.1527149210
V                4.0865250700        4.0865250700       10.0000000000    0   0   0
V                6.1297876100        4.0865250700       12.0432625400    0   0   0
V                4.0865250700        6.1297876100       12.0432625400    0   0   0
V                6.1297876100        6.1297876100       10.0000000000    0   0   0
V                4.1344346959        4.1851639030       14.1400106894
V                6.1251568526        3.9919049995       15.9911027053
V                3.9184805716        6.0760236998       16.4040335237
V                6.0204585796        6.0826526029       14.2050286431
V                4.0865250700        8.1730501500       10.0000000000    0   0   0
V                6.1297876100        8.1730501500       12.0432625400    0   0   0
V                4.0865250700       10.2163126900       12.0432625400    0   0   0
V                6.1297876100       10.2163126900       10.0000000000    0   0   0
V                4.1658044312        8.1822832225       14.1522123403
V                6.1408394740        8.2796336451       15.9945462594
V                4.1232035824       10.2575656347       16.0061687426
V                6.0586335635       10.1623377432       14.1604291898
V                8.1730501500        0.0000000000       10.0000000000    0   0   0
V               10.2163126900        0.0000000000       12.0432625400    0   0   0
V                8.1730501500        2.0432625400       12.0432625400    0   0   0
V               10.2163126900        2.0432625400       10.0000000000    0   0   0
V                8.2451284692        0.0709729536       14.1346301066
V               10.2604530850       -0.0151388913       16.0005830947
V                8.1676380628        2.0920915256       16.0059315147
V               10.1434942128        1.9690415616       14.1434048060
V                8.1730501500        4.0865250700       10.0000000000    0   0   0
V               10.2163126900        4.0865250700       12.0432625400    0   0   0
V                8.1730501500        6.1297876100       12.0432625400    0   0   0
V               10.2163126900        6.1297876100       10.0000000000    0   0   0
V                8.2367800445        4.1689244850       14.1573242863
V               10.2109968568        4.1025066386       16.0021890931
V                8.2928305382        6.1432891705       16.0026237514
V               10.1463650339        6.0682381416       14.1588793450
V                8.1730501500        8.1730501500       10.0000000000    0   0   0
V               10.2163126900        8.1730501500       12.0432625400    0   0   0
V                8.1730501500       10.2163126900       12.0432625400    0   0   0
V               10.2163126900       10.2163126900       10.0000000000    0   0   0
V                8.2382829808        8.2178480047       14.1693645842
V               10.1816842434        8.1888229793       16.0042591265
V                8.1693624847       10.1578336818       16.0036781709
V               10.1513883395       10.1494520238       14.1448741193
N                0.0000000000        2.0432625400       10.0000000000    0   0   0
N                2.0432625400        0.0000000000       10.0000000000    0   0   0
N                0.0000000000        0.0000000000       12.0432625400    0   0   0
N                2.0432625400        2.0432625400       12.0432625400    0   0   0
N               -0.0505528200        2.0839999049       14.1100955096
N                2.0871863595       -0.0511139002       14.1135291012
N                0.0110272679        0.0229875459       16.3170251138
N                2.0416058414        2.0400386844       16.2485271696
N                0.0000000000        6.1297876100       10.0000000000    0   0   0
N                2.0432625400        4.0865250700       10.0000000000    0   0   0
N                0.0000000000        4.0865250700       12.0432625400    0   0   0
N                2.0432625400        6.1297876100       12.0432625400    0   0   0
N               -0.0285817589        6.1663278271       14.1079441480
N                2.0877612929        4.0374341055       14.1011852685
N                0.0046332466        4.0515562270       16.2882190701
N                1.9741163272        6.1758225989       16.2632300392
N                0.0000000000       10.2163126900       10.0000000000    0   0   0
N                2.0432625400        8.1730501500       10.0000000000    0   0   0
N                0.0000000000        8.1730501500       12.0432625400    0   0   0
N                2.0432625400       10.2163126900       12.0432625400    0   0   0
N               -0.0587473052       10.2752298816       14.1036319751
N                2.1022872061        8.1252551713       14.1080807417
N               -0.0133780495        8.1989945350       16.2217726732
N                2.0462203753       10.2039939793       16.2867126287
N                4.0865250700        2.0432625400       10.0000000000    0   0   0
N                6.1297876100        0.0000000000       10.0000000000    0   0   0
N                4.0865250700        0.0000000000       12.0432625400    0   0   0
N                6.1297876100        2.0432625400       12.0432625400    0   0   0
N                4.0442142813        2.0825242654       14.1016826453
N                6.1717899149       -0.0426517347       14.1075933423
N                4.0621387962        0.0223099297       16.3055485667
N                6.1688944881        2.0115602198       16.3173960973
N                4.0865250700        6.1297876100       10.0000000000    0   0   0
N                6.1297876100        4.0865250700       10.0000000000    0   0   0
N                4.0865250700        4.0865250700       12.0432625400    0   0   0
N                6.1297876100        6.1297876100       12.0432625400    0   0   0
N                4.0484989580        6.1722035701       14.1659410397
N                6.1709909766        4.0526488918       14.1007058013
N                4.0840067509        4.0526727684       16.2180310068
N                6.1494259831        6.1207458297       16.2124510748
N                4.0865250700       10.2163126900       10.0000000000    0   0   0
N                6.1297876100        8.1730501500       10.0000000000    0   0   0
N                4.0865250700        8.1730501500       12.0432625400    0   0   0
N                6.1297876100       10.2163126900       12.0432625400    0   0   0
N                4.0335725528       10.2468940687       14.1089612794
N                6.1904418643        8.1321286262       14.1010899601
N                4.1103845082        8.1941168926       16.1956612413
N                6.1417009711       10.2601720044       16.3023975346
N                8.1730501500        2.0432625400       10.0000000000    0   0   0
N               10.2163126900        0.0000000000       10.0000000000    0   0   0
N                8.1730501500        0.0000000000       12.0432625400    0   0   0
N               10.2163126900        2.0432625400       12.0432625400    0   0   0
N                8.1237256882        2.1036823768       14.1071269757
N               10.2702532526       -0.0562514208       14.1043845669
N                8.1906849351       -0.0021141662       16.2083064393
N               10.1762857140        2.0451946431       16.2803401052
N                8.1730501500        6.1297876100       10.0000000000    0   0   0
N               10.2163126900        4.0865250700       10.0000000000    0   0   0
N                8.1730501500        4.0865250700       12.0432625400    0   0   0
N               10.2163126900        6.1297876100       12.0432625400    0   0   0
N                8.1168907373        6.1792148169       14.1050418700
N               10.2630306107        4.0371211844       14.1043501132
N                8.1716990252        4.1266094495       16.2939896291
N               10.2690072656        6.1379945437       16.2966632613
N                8.1730501500       10.2163126900       10.0000000000    0   0   0
N               10.2163126900        8.1730501500       10.0000000000    0   0   0
N                8.1730501500        8.1730501500       12.0432625400    0   0   0
N               10.2163126900       10.2163126900       12.0432625400    0   0   0
N                8.1233860455       10.2574907353       14.1071958292
N               10.2729901466        8.1228998104       14.1058973448
N                8.1603909881        8.1462132566       16.3238086373
N               10.2044278641       10.2156292973       16.2726178736
S                3.9225897722        6.0418588199       18.6129956029
Li               6.1069527502        6.1359932643       18.1403233814
Li               2.1137508412        2.1599612747       18.1001253067



     Writing config-only to output data dir ./tmp/VN_LiS_combi2_144.save/ :
     XML data file
     NEW-OLD atomic charge density approx. for the potential

     Check: negative core charge=   -0.000004

     negative rho (up, down):  7.595E-02 0.000E+00

     total cpu time spent up to now is     9294.7 secs

     per-process dynamical memory:   944.8 Mb

     Self-consistent Calculation

     iteration #  1     ecut=    45.00 Ry     beta= 0.20
     Davidson diagonalization with overlap
     ethr =  1.00E-06,  avg # of iterations =  5.0

     Threshold (ethr) on eigenvalues was too large:
     Diagonalizing with lowered threshold

     Davidson diagonalization with overlap
     ethr =  2.81E-08,  avg # of iterations =  5.0

     negative rho (up, down):  7.595E-02 0.000E+00

     total cpu time spent up to now is     9595.9 secs

     total energy              =  -11961.41075256 Ry
     estimated scf accuracy    <       0.00042473 Ry

     iteration #  2     ecut=    45.00 Ry     beta= 0.20
     Davidson diagonalization with overlap
     ethr =  3.25E-08,  avg # of iterations =  7.4

     negative rho (up, down):  7.595E-02 0.000E+00

     total cpu time spent up to now is     9741.5 secs

     total energy              =  -11961.41056814 Ry
     estimated scf accuracy    <       0.00961945 Ry

     iteration #  3     ecut=    45.00 Ry     beta= 0.20
     Davidson diagonalization with overlap
     ethr =  3.25E-08,  avg # of iterations =  6.0

     negative rho (up, down):  7.595E-02 0.000E+00

     total cpu time spent up to now is     9873.2 secs

     total energy              =  -11961.41079430 Ry
     estimated scf accuracy    <       0.00233233 Ry

     iteration #  4     ecut=    45.00 Ry     beta= 0.20
     Davidson diagonalization with overlap
     ethr =  3.25E-08,  avg # of iterations =  2.7

     negative rho (up, down):  7.595E-02 0.000E+00

     total cpu time spent up to now is     9977.1 secs

     total energy              =  -11961.41083947 Ry
     estimated scf accuracy    <       0.00023837 Ry

     iteration #  5     ecut=    45.00 Ry     beta= 0.20
     Davidson diagonalization with overlap
     ethr =  1.82E-08,  avg # of iterations =  2.0

     negative rho (up, down):  7.595E-02 0.000E+00

     total cpu time spent up to now is    10085.6 secs

     total energy              =  -11961.41084642 Ry
     estimated scf accuracy    <       0.00012788 Ry

     iteration #  6     ecut=    45.00 Ry     beta= 0.20
     Davidson diagonalization with overlap
     ethr =  9.78E-09,  avg # of iterations =  2.1

     negative rho (up, down):  7.595E-02 0.000E+00

     total cpu time spent up to now is    10188.7 secs

     total energy              =  -11961.41084031 Ry
     estimated scf accuracy    <       0.00047562 Ry

     iteration #  7     ecut=    45.00 Ry     beta= 0.20
     Davidson diagonalization with overlap
     ethr =  9.78E-09,  avg # of iterations =  2.0

     negative rho (up, down):  7.595E-02 0.000E+00

     total cpu time spent up to now is    10291.3 secs

     total energy              =  -11961.41084365 Ry
     estimated scf accuracy    <       0.00050827 Ry

     iteration #  8     ecut=    45.00 Ry     beta= 0.20
     Davidson diagonalization with overlap
     ethr =  9.78E-09,  avg # of iterations =  1.3

     negative rho (up, down):  7.595E-02 0.000E+00

     total cpu time spent up to now is    10392.7 secs

     total energy              =  -11961.41084855 Ry
     estimated scf accuracy    <       0.00005576 Ry

     iteration #  9     ecut=    45.00 Ry     beta= 0.20
     Davidson diagonalization with overlap
     ethr =  4.26E-09,  avg # of iterations =  2.0

     negative rho (up, down):  7.595E-02 0.000E+00

     total cpu time spent up to now is    10495.2 secs

     total energy              =  -11961.41084761 Ry
     estimated scf accuracy    <       0.00013978 Ry

     iteration # 10     ecut=    45.00 Ry     beta= 0.20
     Davidson diagonalization with overlap
     ethr =  4.26E-09,  avg # of iterations =  1.0

     negative rho (up, down):  7.595E-02 0.000E+00

     total cpu time spent up to now is    10583.4 secs

     total energy              =  -11961.41084974 Ry
     estimated scf accuracy    <       0.00003976 Ry

     iteration # 11     ecut=    45.00 Ry     beta= 0.20
     Davidson diagonalization with overlap
     ethr =  3.04E-09,  avg # of iterations =  1.1

     negative rho (up, down):  7.595E-02 0.000E+00

     total cpu time spent up to now is    10677.3 secs

     total energy              =  -11961.41085070 Ry
     estimated scf accuracy    <       0.00001019 Ry

     iteration # 12     ecut=    45.00 Ry     beta= 0.20
     Davidson diagonalization with overlap
     ethr =  7.79E-10,  avg # of iterations =  3.6

     negative rho (up, down):  7.595E-02 0.000E+00

     total cpu time spent up to now is    10784.6 secs

     total energy              =  -11961.41085069 Ry
     estimated scf accuracy    <       0.00001883 Ry

     iteration # 13     ecut=    45.00 Ry     beta= 0.20
     Davidson diagonalization with overlap
     ethr =  7.79E-10,  avg # of iterations =  1.2

     negative rho (up, down):  7.595E-02 0.000E+00

     total cpu time spent up to now is    10885.8 secs

     total energy              =  -11961.41085072 Ry
     estimated scf accuracy    <       0.00002458 Ry

     iteration # 14     ecut=    45.00 Ry     beta= 0.20
     Davidson diagonalization with overlap
     ethr =  7.79E-10,  avg # of iterations =  2.0

     negative rho (up, down):  7.595E-02 0.000E+00

     total cpu time spent up to now is    10988.0 secs

     total energy              =  -11961.41085132 Ry
     estimated scf accuracy    <       0.00000209 Ry

     iteration # 15     ecut=    45.00 Ry     beta= 0.20
     Davidson diagonalization with overlap
     ethr =  1.60E-10,  avg # of iterations =  6.9

     negative rho (up, down):  7.595E-02 0.000E+00

     total cpu time spent up to now is    11109.7 secs

     total energy              =  -11961.41085118 Ry
     estimated scf accuracy    <       0.00001381 Ry

     iteration # 16     ecut=    45.00 Ry     beta= 0.20
     Davidson diagonalization with overlap
     ethr =  1.60E-10,  avg # of iterations =  4.0

     negative rho (up, down):  7.595E-02 0.000E+00

     total cpu time spent up to now is    11215.1 secs

     total energy              =  -11961.41085139 Ry
     estimated scf accuracy    <       0.00000420 Ry

     iteration # 17     ecut=    45.00 Ry     beta= 0.20
     Davidson diagonalization with overlap
     ethr =  1.60E-10,  avg # of iterations =  1.9

     negative rho (up, down):  7.595E-02 0.000E+00

     total cpu time spent up to now is    11316.3 secs

     total energy              =  -11961.41085132 Ry
     estimated scf accuracy    <       0.00000996 Ry

     iteration # 18     ecut=    45.00 Ry     beta= 0.20
     Davidson diagonalization with overlap
     ethr =  1.60E-10,  avg # of iterations =  2.0

     negative rho (up, down):  7.595E-02 0.000E+00

     total cpu time spent up to now is    11420.4 secs

     total energy              =  -11961.41085145 Ry
     estimated scf accuracy    <       0.00000317 Ry

     iteration # 19     ecut=    45.00 Ry     beta= 0.20
     Davidson diagonalization with overlap
     ethr =  1.60E-10,  avg # of iterations =  1.6

     negative rho (up, down):  7.595E-02 0.000E+00

     total cpu time spent up to now is    11521.2 secs

     total energy              =  -11961.41085142 Ry
     estimated scf accuracy    <       0.00000550 Ry

     iteration # 20     ecut=    45.00 Ry     beta= 0.20
     Davidson diagonalization with overlap
     ethr =  1.60E-10,  avg # of iterations =  1.0

     negative rho (up, down):  7.595E-02 0.000E+00

     total cpu time spent up to now is    11612.9 secs

     total energy              =  -11961.41085149 Ry
     estimated scf accuracy    <       0.00000164 Ry

     iteration # 21     ecut=    45.00 Ry     beta= 0.20
     Davidson diagonalization with overlap
     ethr =  1.26E-10,  avg # of iterations =  1.0

     negative rho (up, down):  7.595E-02 0.000E+00

     total cpu time spent up to now is    11701.8 secs

     total energy              =  -11961.41085155 Ry
     estimated scf accuracy    <       0.00000078 Ry

     iteration # 22     ecut=    45.00 Ry     beta= 0.20
     Davidson diagonalization with overlap
     ethr =  5.98E-11,  avg # of iterations =  1.0

     negative rho (up, down):  7.595E-02 0.000E+00

     total cpu time spent up to now is    11789.8 secs

     total energy              =  -11961.41085154 Ry
     estimated scf accuracy    <       0.00000049 Ry

     iteration # 23     ecut=    45.00 Ry     beta= 0.20
     Davidson diagonalization with overlap
     ethr =  3.76E-11,  avg # of iterations =  1.3

     negative rho (up, down):  7.595E-02 0.000E+00

     total cpu time spent up to now is    11887.1 secs

     total energy              =  -11961.41085155 Ry
     estimated scf accuracy    <       0.00000150 Ry

     iteration # 24     ecut=    45.00 Ry     beta= 0.20
     Davidson diagonalization with overlap
     ethr =  3.76E-11,  avg # of iterations =  2.0

     negative rho (up, down):  7.595E-02 0.000E+00

     total cpu time spent up to now is    11989.6 secs

     total energy              =  -11961.41085156 Ry
     estimated scf accuracy    <       0.00000090 Ry

     iteration # 25     ecut=    45.00 Ry     beta= 0.20
     Davidson diagonalization with overlap
     ethr =  3.76E-11,  avg # of iterations =  1.0

     negative rho (up, down):  7.595E-02 0.000E+00

     total cpu time spent up to now is    12078.6 secs

     total energy              =  -11961.41085158 Ry
     estimated scf accuracy    <       0.00000038 Ry

     iteration # 26     ecut=    45.00 Ry     beta= 0.20
     Davidson diagonalization with overlap
     ethr =  2.90E-11,  avg # of iterations =  1.0

     negative rho (up, down):  7.595E-02 0.000E+00

     total cpu time spent up to now is    12166.4 secs

     total energy              =  -11961.41085158 Ry
     estimated scf accuracy    <       0.00000019 Ry

     iteration # 27     ecut=    45.00 Ry     beta= 0.20
     Davidson diagonalization with overlap
     ethr =  1.46E-11,  avg # of iterations =  1.2

     negative rho (up, down):  7.595E-02 0.000E+00

     total cpu time spent up to now is    12264.8 secs

     total energy              =  -11961.41085158 Ry
     estimated scf accuracy    <       0.00000077 Ry

     iteration # 28     ecut=    45.00 Ry     beta= 0.20
     Davidson diagonalization with overlap
     ethr =  1.46E-11,  avg # of iterations =  1.1

     negative rho (up, down):  7.595E-02 0.000E+00

     total cpu time spent up to now is    12358.1 secs

     total energy              =  -11961.41085158 Ry
     estimated scf accuracy    <       0.00000038 Ry

     iteration # 29     ecut=    45.00 Ry     beta= 0.20
     Davidson diagonalization with overlap
     ethr =  1.46E-11,  avg # of iterations =  1.0

     negative rho (up, down):  7.595E-02 0.000E+00

     total cpu time spent up to now is    12445.6 secs

     total energy              =  -11961.41085159 Ry
     estimated scf accuracy    <       0.00000014 Ry

     iteration # 30     ecut=    45.00 Ry     beta= 0.20
     Davidson diagonalization with overlap
     ethr =  1.06E-11,  avg # of iterations =  1.0

     negative rho (up, down):  7.595E-02 0.000E+00

     total cpu time spent up to now is    12536.2 secs

     total energy              =  -11961.41085159 Ry
     estimated scf accuracy    <       0.00000006 Ry

     iteration # 31     ecut=    45.00 Ry     beta= 0.20
     Davidson diagonalization with overlap
     ethr =  4.86E-12,  avg # of iterations =  1.0

     negative rho (up, down):  7.595E-02 0.000E+00

     total cpu time spent up to now is    12624.7 secs

     total energy              =  -11961.41085159 Ry
     estimated scf accuracy    <       0.00000006 Ry

     iteration # 32     ecut=    45.00 Ry     beta= 0.20
     Davidson diagonalization with overlap
     ethr =  4.37E-12,  avg # of iterations =  1.0

     negative rho (up, down):  7.595E-02 0.000E+00

     total cpu time spent up to now is    12712.4 secs

     total energy              =  -11961.41085159 Ry
     estimated scf accuracy    <       0.00000002 Ry

     iteration # 33     ecut=    45.00 Ry     beta= 0.20
     Davidson diagonalization with overlap
     ethr =  1.82E-12,  avg # of iterations =  2.2

     negative rho (up, down):  7.595E-02 0.000E+00

     total cpu time spent up to now is    12817.8 secs

     total energy              =  -11961.41085159 Ry
     estimated scf accuracy    <       0.00000009 Ry

     iteration # 34     ecut=    45.00 Ry     beta= 0.20
     Davidson diagonalization with overlap
     ethr =  1.82E-12,  avg # of iterations =  1.0

     negative rho (up, down):  7.595E-02 0.000E+00

     total cpu time spent up to now is    12904.3 secs

     total energy              =  -11961.41085159 Ry
     estimated scf accuracy    <       0.00000005 Ry

     iteration # 35     ecut=    45.00 Ry     beta= 0.20
     Davidson diagonalization with overlap
     ethr =  1.82E-12,  avg # of iterations =  1.0

     negative rho (up, down):  7.595E-02 0.000E+00

     total cpu time spent up to now is    12995.3 secs

     End of self-consistent calculation

          k = 0.0000 0.0000 0.0000 (135157 PWs)   bands (ev):

   -61.6926 -61.6771 -61.6630 -61.6594 -61.6579 -61.6535 -61.6505 -61.6488
   -61.6447 -61.6410 -61.6318 -61.6311 -61.6280 -61.6271 -61.6252 -61.6231
   -61.6217 -61.6114 -61.6037 -61.5981 -61.5960 -61.5926 -61.5885 -61.5871
   -61.5865 -61.5847 -61.5835 -61.5832 -61.5778 -61.5761 -61.5743 -61.5735
   -61.5718 -61.5704 -61.5687 -61.5671 -61.5671 -61.5660 -61.5644 -61.5555
   -61.5544 -61.5522 -61.5398 -61.5278 -61.5254 -61.5141 -61.5092 -61.5048
   -61.4990 -61.4925 -61.4836 -61.4781 -61.4598 -61.4551 -61.4491 -61.4446
   -61.4408 -61.4334 -61.4227 -61.4147 -61.4112 -61.4032 -61.3863 -61.3797
   -61.3767 -61.3721 -61.3705 -61.3694 -61.3660 -61.3612 -61.3548 -61.3205
   -44.3046 -42.7667 -35.7728 -35.7716 -35.7696 -35.7655 -35.7313 -35.7295
   -35.7277 -35.7271 -35.7249 -35.7242 -35.7215 -35.7154 -35.7123 -35.7107
   -35.6990 -35.6946 -35.6910 -35.6871 -35.6790 -35.6784 -35.6770 -35.6752
   -35.6727 -35.6690 -35.6678 -35.6668 -35.6642 -35.6605 -35.6550 -35.6534
   -35.6517 -35.6480 -35.6457 -35.6420 -35.6352 -35.6290 -35.6281 -35.6260
   -35.6256 -35.6245 -35.6231 -35.6197 -35.6178 -35.6163 -35.6140 -35.6125
   -35.6069 -35.6019 -35.5984 -35.5970 -35.5934 -35.5928 -35.5854 -35.5840
   -35.5779 -35.5757 -35.5717 -35.5705 -35.5670 -35.5657 -35.5631 -35.5598
   -35.5575 -35.5556 -35.5516 -35.5508 -35.5483 -35.5458 -35.5361 -35.5344
   -35.5323 -35.5284 -35.5114 -35.5090 -35.5084 -35.5057 -35.5028 -35.5003
   -35.4983 -35.4975 -35.4949 -35.4898 -35.4863 -35.4829 -35.4760 -35.4735
   -35.4707 -35.4705 -35.4691 -35.4687 -35.4666 -35.4643 -35.4626 -35.4615
   -35.4596 -35.4579 -35.4546 -35.4525 -35.4479 -35.4456 -35.4404 -35.4398
   -35.4344 -35.4334 -35.4302 -35.4282 -35.4264 -35.4260 -35.4242 -35.4229
   -35.4190 -35.4178 -35.4164 -35.4152 -35.4118 -35.4109 -35.4080 -35.4066
   -35.4055 -35.4040 -35.4037 -35.4027 -35.3997 -35.3996 -35.3981 -35.3964
   -35.3941 -35.3936 -35.3902 -35.3882 -35.3875 -35.3865 -35.3849 -35.3834
   -35.3829 -35.3808 -35.3793 -35.3778 -35.3766 -35.3749 -35.3740 -35.3708
   -35.3688 -35.3667 -35.3657 -35.3626 -35.3600 -35.3576 -35.3549 -35.3509
   -35.3506 -35.3473 -35.3468 -35.3449 -35.3388 -35.3360 -35.3347 -35.3335
   -35.3328 -35.3311 -35.3250 -35.3201 -35.3170 -35.3150 -35.3069 -35.3054
   -35.3015 -35.2965 -35.2915 -35.2891 -35.2838 -35.2811 -35.2776 -35.2745
   -35.2713 -35.2674 -35.2635 -35.2561 -35.2518 -35.2495 -35.2437 -35.2434
   -35.2406 -35.2383 -35.2291 -35.2271 -35.2246 -35.2233 -35.2216 -35.2180
   -35.2138 -35.2091 -35.2057 -35.2009 -35.1948 -35.1861 -35.1825 -35.1783
   -35.1732 -35.1696 -35.1684 -35.1668 -35.1646 -35.1605 -35.1512 -35.1467
   -35.1387 -35.1337 -35.1285 -35.1197 -35.1164 -35.1131 -35.1093 -35.0903
   -35.0793 -35.0701 -14.0306 -13.3824 -13.3756 -13.3712 -13.3577 -13.1544
   -12.7829 -12.7783 -12.7694 -12.7484 -12.6119 -12.6100 -12.6029 -12.5907
   -12.4927 -12.4838 -12.4799 -12.4715 -12.4500 -12.3870 -12.3421 -12.2141
   -12.1951 -12.1801 -12.1728 -12.1674 -12.1625 -12.1556 -12.1462 -12.1366
   -12.1194 -12.1084 -12.0906 -12.0552 -12.0331 -12.0251 -12.0083 -12.0029
   -11.8756 -11.8724 -11.8707 -11.8647 -11.7757 -11.7247 -11.7107 -11.6880
   -11.6190 -11.4921 -11.4813 -11.4804 -11.4798 -11.4780 -11.4686 -11.4656
   -11.4598 -11.4296 -11.3104 -11.2962 -11.2809 -11.2628 -11.2386 -11.2363
   -11.2357 -11.2350 -11.2332 -11.2014 -11.1702 -11.1295 -11.0001 -10.9515
   -10.9112 -10.8580  -8.0361  -4.4920  -4.4761  -4.4625  -4.4426  -4.3130
    -4.3113  -4.2991  -4.2877  -4.1491  -4.1438  -4.1102  -4.0998  -4.0680
    -4.0615  -4.0469  -4.0415  -3.7489  -3.7423  -3.7112  -3.7062  -3.5366
    -3.5314  -3.5278  -3.5236  -3.4416  -3.4316  -3.4259  -3.4239  -3.4059
    -3.3984  -3.3883  -3.3756  -3.3209  -3.3052  -3.2903  -3.2808  -3.2759
    -3.0702  -3.0437  -3.0221  -3.0026  -2.9575  -2.9483  -2.9415  -2.9306
    -2.9226  -2.9131  -2.8838  -2.8781  -2.8675  -2.8625  -2.8243  -2.8201
    -2.8096  -2.8049  -2.8032  -2.7964  -2.7772  -2.7679  -2.4391  -2.4245
    -2.3903  -2.3792  -2.3578  -2.3514  -2.3058  -2.3017  -2.2886  -2.2622
    -2.2568  -2.2543  -2.2458  -2.2387  -2.2378  -2.2334  -2.2264  -2.2242
    -2.2215  -2.1803  -2.1671  -2.1609  -2.1546  -2.1425  -2.1027  -2.0875
    -2.0660  -2.0558  -2.0425  -2.0285  -2.0257  -2.0192  -2.0011  -1.9919
    -1.9867  -1.9628  -1.9568  -1.9470  -1.9435  -1.9359  -1.9111  -1.9047
    -1.8982  -1.8912  -1.8856  -1.8754  -1.8721  -1.8664  -1.8588  -1.8506
    -1.8403  -1.7783  -1.7673  -1.7621  -1.7536  -1.7410  -1.7293  -1.7181
    -1.7038  -1.6886  -1.6237  -1.6225  -1.6213  -1.6172  -1.6120  -1.6010
    -1.5993  -1.5828  -1.5736  -1.5431  -1.5305  -1.5148  -1.5079  -1.5026
    -1.4952  -1.4947  -1.4596  -1.4492  -1.4421  -1.4043  -1.3894  -1.3872
    -1.3727  -1.3703  -1.3566  -1.3559  -1.3546  -1.3542  -1.3493  -1.3383
    -1.2952  -1.2760  -1.2599  -1.2388  -1.2278  -1.2202  -1.2018  -1.1951
    -1.1805  -1.1731  -1.1671  -1.1517  -1.1425  -1.1255  -1.1123  -1.1037
    -1.0551  -1.0483  -1.0293  -1.0115  -0.9874  -0.9697  -0.9319  -0.9252
    -0.8867  -0.8591  -0.8088  -0.7742  -0.7623  -0.7337  -0.7122  -0.7088
    -0.6860  -0.6705  -0.6666  -0.6449  -0.6190  -0.5908  -0.5723  -0.5585
    -0.5201  -0.4878  -0.4722  -0.4668  -0.4590  -0.4542  -0.4316  -0.3640
    -0.2355  -0.2107  -0.1894  -0.1350  -0.1110  -0.0800  -0.0524  -0.0459
    -0.0031   0.0046   0.0407   0.0514   0.2135   0.2342   0.3489   0.5475
     0.5633   0.7592   0.7726   1.0406   1.0641   1.0844   1.0999   1.1036
     1.1204   1.1241   1.3366   1.3553   1.5255   1.6459   1.9023   2.0171
     2.0367   2.0772   2.1280   2.1612   2.5759   2.5989   2.6044   2.6344
     2.6556   2.6648   2.6755   2.6902   2.7079   2.7350   2.7462   2.7720
     2.7845   2.7908   2.7952   2.8103   2.8213   2.8367   2.8477   2.8604
     2.8653   2.8691   2.8717   2.8896   2.8936   2.9337   2.9567   2.9818
     3.1408   3.1542   3.2025   3.2355   3.2436   3.2500   3.2661   3.2828
     3.2910   3.3161   3.3286   3.3479   3.3519   3.4113   3.4253   3.4329
     3.4531   3.4576   3.4741   3.4807   3.4835   3.5150   3.5321   3.5453
     3.5578   3.5624   3.5795   3.5896   3.6019   3.6152   3.6252   3.6352
     3.6569   3.6641   3.6674   3.6767   3.6820   3.6893   3.6953   3.6955
     3.6973   3.6994   3.7081   3.7155   3.7243   3.7285   3.7453   3.7524
     3.7742   3.7915   3.8983   3.9384   3.9478   3.9622   3.9682   3.9754
     3.9833   3.9879   4.0032   4.0089   4.0199   4.0471   4.0558   4.0965
     4.1652   4.1692   4.1827   4.2147   4.2289   4.2334   4.2424   4.2476
     4.2665   4.2763   4.2821   4.2895   4.2975   4.3012   4.3195   4.3389
     4.3533   4.3693   4.3731   4.3836   4.3983   4.4069   4.4137   4.4169
     4.4296   4.4343   4.4371   4.4444   4.4463   4.4475   4.4519   4.4537
     4.4656   4.4901   4.5322   4.5423   4.5765   4.5772   4.5870   4.5896
     4.6104   4.6200   4.6295   4.6423   4.6504   4.6598   4.6630   4.6711
     4.6752   4.6828   4.7116   4.7132   4.7161   4.7172   4.7239   4.7309
     4.7378   4.7397   4.7603   4.7623   4.7752   4.7814   4.7916   4.7980
     4.8103   4.8166   4.8196   4.8376   4.8462   4.8548   4.8618   4.8653
     4.8772   4.8937   4.8998   4.9091   4.9135   4.9297   4.9448   4.9536
     4.9735   5.0024   5.0186   5.0299   5.0374   5.0431   5.0512   5.0590
     5.0718   5.0859   5.0866   5.0992   5.1026   5.1113   5.1187   5.1261
     5.1302

          k = 0.0000 0.2500 0.0000 (135097 PWs)   bands (ev):

   -61.6926 -61.6758 -61.6670 -61.6586 -61.6572 -61.6530 -61.6511 -61.6478
   -61.6420 -61.6395 -61.6335 -61.6328 -61.6315 -61.6262 -61.6248 -61.6222
   -61.6207 -61.6114 -61.6036 -61.5988 -61.5955 -61.5931 -61.5888 -61.5870
   -61.5857 -61.5846 -61.5827 -61.5823 -61.5794 -61.5766 -61.5747 -61.5743
   -61.5710 -61.5703 -61.5693 -61.5678 -61.5665 -61.5662 -61.5623 -61.5562
   -61.5549 -61.5517 -61.5398 -61.5278 -61.5254 -61.5139 -61.5087 -61.5048
   -61.4992 -61.4930 -61.4836 -61.4780 -61.4598 -61.4551 -61.4491 -61.4445
   -61.4409 -61.4334 -61.4227 -61.4147 -61.4113 -61.4032 -61.3864 -61.3797
   -61.3767 -61.3722 -61.3704 -61.3695 -61.3659 -61.3612 -61.3549 -61.3205
   -44.3046 -42.7667 -35.7765 -35.7743 -35.7561 -35.7538 -35.7520 -35.7502
   -35.7314 -35.7267 -35.7246 -35.7223 -35.7145 -35.7099 -35.7034 -35.7006
   -35.6990 -35.6955 -35.6949 -35.6917 -35.6906 -35.6896 -35.6764 -35.6687
   -35.6668 -35.6623 -35.6581 -35.6569 -35.6542 -35.6522 -35.6510 -35.6501
   -35.6473 -35.6455 -35.6404 -35.6376 -35.6357 -35.6334 -35.6324 -35.6310
   -35.6304 -35.6263 -35.6251 -35.6235 -35.6218 -35.6201 -35.6187 -35.6144
   -35.6133 -35.6103 -35.6079 -35.6036 -35.5995 -35.5964 -35.5952 -35.5902
   -35.5866 -35.5793 -35.5755 -35.5700 -35.5663 -35.5639 -35.5595 -35.5554
   -35.5548 -35.5509 -35.5483 -35.5471 -35.5429 -35.5383 -35.5362 -35.5230
   -35.5186 -35.5172 -35.5122 -35.5098 -35.5077 -35.5048 -35.5015 -35.4964
   -35.4952 -35.4927 -35.4905 -35.4885 -35.4851 -35.4819 -35.4783 -35.4770
   -35.4745 -35.4723 -35.4696 -35.4685 -35.4640 -35.4634 -35.4617 -35.4588
   -35.4573 -35.4567 -35.4512 -35.4483 -35.4469 -35.4449 -35.4431 -35.4414
   -35.4401 -35.4388 -35.4362 -35.4346 -35.4343 -35.4330 -35.4322 -35.4312
   -35.4287 -35.4264 -35.4252 -35.4234 -35.4211 -35.4188 -35.4169 -35.4133
   -35.4089 -35.4053 -35.4026 -35.3996 -35.3967 -35.3940 -35.3920 -35.3898
   -35.3886 -35.3867 -35.3853 -35.3839 -35.3830 -35.3822 -35.3801 -35.3791
   -35.3774 -35.3767 -35.3756 -35.3742 -35.3712 -35.3690 -35.3682 -35.3668
   -35.3660 -35.3644 -35.3627 -35.3613 -35.3601 -35.3570 -35.3541 -35.3534
   -35.3513 -35.3483 -35.3475 -35.3444 -35.3431 -35.3405 -35.3392 -35.3379
   -35.3359 -35.3312 -35.3247 -35.3183 -35.3154 -35.3136 -35.3118 -35.3057
   -35.3004 -35.2977 -35.2959 -35.2893 -35.2868 -35.2808 -35.2784 -35.2761
   -35.2730 -35.2662 -35.2616 -35.2551 -35.2517 -35.2485 -35.2467 -35.2435
   -35.2393 -35.2361 -35.2305 -35.2269 -35.2267 -35.2216 -35.2197 -35.2177
   -35.2140 -35.2088 -35.2036 -35.2012 -35.1946 -35.1851 -35.1813 -35.1795
   -35.1746 -35.1723 -35.1696 -35.1657 -35.1639 -35.1595 -35.1495 -35.1463
   -35.1398 -35.1342 -35.1275 -35.1207 -35.1167 -35.1126 -35.1090 -35.0905
   -35.0794 -35.0704 -13.9834 -13.6343 -13.3324 -13.3235 -13.1132 -13.0933
   -13.0105 -13.0009 -12.8101 -12.6238 -12.5718 -12.5678 -12.5324 -12.5182
   -12.4651 -12.4470 -12.4391 -12.4272 -12.3790 -12.3687 -12.3162 -12.3105
   -12.3032 -12.2407 -12.2272 -12.2142 -12.1799 -12.1668 -12.1597 -12.1582
   -12.1379 -12.1320 -12.0612 -12.0570 -12.0465 -11.9964 -11.9849 -11.9415
   -11.9350 -11.9099 -11.8388 -11.8378 -11.7235 -11.7034 -11.6695 -11.6170
   -11.6130 -11.6023 -11.5641 -11.5097 -11.4981 -11.4874 -11.4580 -11.4560
   -11.4070 -11.3457 -11.3300 -11.3166 -11.3105 -11.3062 -11.2974 -11.2400
   -11.2267 -11.2038 -11.2003 -11.1905 -11.1166 -11.0976 -11.0048 -10.9605
   -10.9073 -10.8633  -8.0362  -4.6337  -4.6076  -4.4507  -4.4414  -4.4227
    -4.3929  -4.3123  -4.3060  -4.2196  -4.1967  -4.0685  -4.0598  -3.8289
    -3.8094  -3.8009  -3.7919  -3.7653  -3.7267  -3.7046  -3.6365  -3.6322
    -3.5357  -3.5307  -3.5288  -3.5164  -3.4943  -3.4512  -3.4417  -3.4270
    -3.3976  -3.3655  -3.3520  -3.3438  -3.3325  -3.3241  -3.2866  -3.2182
    -3.1855  -3.1714  -3.1584  -3.1114  -3.0924  -3.0563  -3.0430  -3.0230
    -3.0036  -2.9689  -2.9584  -2.9260  -2.8627  -2.7819  -2.7751  -2.7012
    -2.6962  -2.6730  -2.6329  -2.6230  -2.6141  -2.6024  -2.5426  -2.5047
    -2.4400  -2.4053  -2.3747  -2.3678  -2.3566  -2.3522  -2.3288  -2.3068
    -2.2975  -2.2887  -2.2835  -2.2803  -2.2747  -2.2638  -2.2356  -2.2276
    -2.2115  -2.2099  -2.1954  -2.1768  -2.1607  -2.1512  -2.1421  -2.1133
    -2.0882  -2.0789  -2.0591  -2.0518  -2.0438  -2.0375  -2.0303  -2.0208
    -2.0119  -2.0003  -1.9944  -1.9866  -1.9809  -1.9621  -1.9217  -1.8859
    -1.8729  -1.8554  -1.8358  -1.8292  -1.8176  -1.8113  -1.8057  -1.7909
    -1.7809  -1.7708  -1.7488  -1.7333  -1.6898  -1.6867  -1.6804  -1.6790
    -1.6691  -1.6640  -1.6580  -1.6469  -1.6350  -1.6301  -1.6205  -1.6025
    -1.5956  -1.5780  -1.5604  -1.5482  -1.5475  -1.5316  -1.5228  -1.5012
    -1.4837  -1.4708  -1.4589  -1.4456  -1.4324  -1.4223  -1.3949  -1.3862
    -1.3619  -1.3482  -1.3271  -1.3199  -1.3136  -1.2962  -1.2877  -1.2797
    -1.2693  -1.2598  -1.2510  -1.2481  -1.2121  -1.1852  -1.1513  -1.1434
    -1.1240  -1.1103  -1.0848  -1.0801  -1.0568  -1.0443  -1.0331  -1.0066
    -0.9963  -0.9920  -0.9686  -0.9583  -0.9306  -0.8982  -0.8891  -0.8657
    -0.8592  -0.8489  -0.8387  -0.8151  -0.8038  -0.7976  -0.7685  -0.7234
    -0.6978  -0.6822  -0.6368  -0.6245  -0.6055  -0.5877  -0.5547  -0.5452
    -0.5396  -0.5190  -0.4990  -0.4823  -0.4776  -0.4400  -0.3908  -0.3512
    -0.3244  -0.3089  -0.2687  -0.2484  -0.2083  -0.1717  -0.1446  -0.1368
    -0.1195  -0.0970   0.0111   0.0851   0.1263   0.2739   0.3577   0.4284
     0.7628   0.7924   0.8467   0.9223   0.9455   0.9933   1.0492   1.1189
     1.2425   1.2899   1.3055   1.3354   1.6249   1.8561   1.8726   1.9211
     2.0334   2.0971   2.1673   2.2059   2.2280   2.2606   2.3023   2.3302
     2.4509   2.6125   2.6365   2.6616   2.6737   2.6811   2.7009   2.7277
     2.7433   2.7489   2.7921   2.8028   2.8238   2.8504   2.8630   2.8803
     2.8879   2.9062   2.9213   2.9585   2.9754   3.0021   3.0255   3.0589
     3.0658   3.1175   3.1482   3.1867   3.1977   3.2039   3.2264   3.2533
     3.2654   3.2795   3.2955   3.3018   3.3092   3.3303   3.3421   3.3508
     3.3691   3.3877   3.3989   3.4259   3.4694   3.4880   3.4943   3.5086
     3.5316   3.5460   3.5604   3.5860   3.5945   3.6140   3.6252   3.6464
     3.6582   3.6772   3.7022   3.7136   3.7330   3.7425   3.7553   3.7809
     3.7975   3.8181   3.8276   3.8389   3.8597   3.8732   3.8829   3.8997
     3.9149   3.9283   3.9397   3.9524   3.9580   3.9733   3.9919   4.0009
     4.0238   4.0292   4.0365   4.0618   4.0756   4.1073   4.1152   4.1403
     4.1477   4.1874   4.2092   4.2144   4.2337   4.2631   4.2835   4.3029
     4.3109   4.3145   4.3219   4.3353   4.3420   4.3452   4.3525   4.3598
     4.3730   4.3800   4.3834   4.3899   4.3985   4.4039   4.4185   4.4282
     4.4366   4.4471   4.4530   4.4632   4.4741   4.4863   4.4937   4.5042
     4.5070   4.5112   4.5196   4.5270   4.5334   4.5363   4.5407   4.5565
     4.5620   4.5758   4.5817   4.5958   4.6075   4.6353   4.6417   4.6495
     4.6526   4.6549   4.6607   4.6682   4.6829   4.6914   4.7040   4.7174
     4.7290   4.7512   4.7613   4.7725   4.7841   4.7894   4.7966   4.8079
     4.8104   4.8180   4.8358   4.8452   4.8606   4.8708   4.8805   4.8884
     4.8981   4.9186   4.9279   4.9351   4.9453   4.9523   4.9570   4.9704
     4.9743   4.9778   4.9945   5.0118   5.0194   5.0238   5.0264   5.0382
     5.0451   5.0490   5.0601   5.0733   5.0804   5.0885   5.0952   5.0977
     5.0999

          k = 0.0000-0.5000 0.0000 (135178 PWs)   bands (ev):

   -61.6926 -61.6729 -61.6717 -61.6575 -61.6565 -61.6543 -61.6530 -61.6414
   -61.6402 -61.6382 -61.6381 -61.6350 -61.6331 -61.6258 -61.6245 -61.6222
   -61.6196 -61.6113 -61.6034 -61.5993 -61.5950 -61.5938 -61.5888 -61.5871
   -61.5850 -61.5846 -61.5816 -61.5808 -61.5794 -61.5792 -61.5771 -61.5735
   -61.5700 -61.5699 -61.5695 -61.5685 -61.5668 -61.5662 -61.5600 -61.5577
   -61.5553 -61.5514 -61.5398 -61.5278 -61.5255 -61.5138 -61.5082 -61.5047
   -61.4995 -61.4934 -61.4835 -61.4778 -61.4597 -61.4551 -61.4491 -61.4445
   -61.4409 -61.4334 -61.4227 -61.4146 -61.4113 -61.4031 -61.3865 -61.3796
   -61.3766 -61.3722 -61.3702 -61.3696 -61.3658 -61.3613 -61.3549 -61.3205
   -44.3046 -42.7667 -35.7722 -35.7699 -35.7688 -35.7654 -35.7341 -35.7335
   -35.7307 -35.7297 -35.7274 -35.7260 -35.7204 -35.7188 -35.7149 -35.7135
   -35.7114 -35.7103 -35.6797 -35.6728 -35.6705 -35.6687 -35.6671 -35.6642
   -35.6628 -35.6582 -35.6573 -35.6539 -35.6525 -35.6500 -35.6486 -35.6456
   -35.6438 -35.6419 -35.6403 -35.6391 -35.6383 -35.6375 -35.6363 -35.6353
   -35.6338 -35.6336 -35.6323 -35.6293 -35.6284 -35.6219 -35.6192 -35.6181
   -35.6170 -35.6128 -35.6109 -35.6082 -35.6056 -35.6028 -35.5998 -35.5980
   -35.5925 -35.5908 -35.5861 -35.5700 -35.5652 -35.5638 -35.5507 -35.5481
   -35.5425 -35.5403 -35.5395 -35.5375 -35.5331 -35.5306 -35.5279 -35.5264
   -35.5243 -35.5204 -35.5175 -35.5170 -35.5107 -35.5076 -35.5012 -35.4970
   -35.4915 -35.4880 -35.4851 -35.4804 -35.4761 -35.4752 -35.4736 -35.4722
   -35.4694 -35.4656 -35.4645 -35.4629 -35.4622 -35.4611 -35.4594 -35.4583
   -35.4575 -35.4556 -35.4543 -35.4521 -35.4515 -35.4503 -35.4487 -35.4485
   -35.4482 -35.4469 -35.4455 -35.4448 -35.4430 -35.4405 -35.4381 -35.4367
   -35.4327 -35.4307 -35.4293 -35.4280 -35.4240 -35.4227 -35.4186 -35.4178
   -35.4110 -35.4060 -35.4028 -35.3999 -35.3968 -35.3936 -35.3885 -35.3880
   -35.3851 -35.3839 -35.3818 -35.3807 -35.3792 -35.3786 -35.3769 -35.3764
   -35.3744 -35.3723 -35.3694 -35.3678 -35.3665 -35.3641 -35.3636 -35.3622
   -35.3620 -35.3610 -35.3601 -35.3589 -35.3568 -35.3553 -35.3540 -35.3524
   -35.3518 -35.3513 -35.3491 -35.3481 -35.3475 -35.3467 -35.3455 -35.3401
   -35.3350 -35.3289 -35.3277 -35.3206 -35.3169 -35.3141 -35.3094 -35.3073
   -35.3039 -35.2973 -35.2945 -35.2920 -35.2869 -35.2833 -35.2804 -35.2768
   -35.2741 -35.2659 -35.2586 -35.2567 -35.2525 -35.2480 -35.2474 -35.2449
   -35.2386 -35.2321 -35.2299 -35.2290 -35.2262 -35.2222 -35.2206 -35.2164
   -35.2118 -35.2078 -35.2025 -35.2016 -35.1947 -35.1847 -35.1812 -35.1784
   -35.1755 -35.1744 -35.1711 -35.1654 -35.1635 -35.1598 -35.1462 -35.1450
   -35.1428 -35.1348 -35.1257 -35.1226 -35.1168 -35.1121 -35.1088 -35.0908
   -35.0794 -35.0706 -13.8530 -13.8396 -13.2121 -13.2050 -13.2021 -13.1850
   -12.9960 -12.9870 -12.8805 -12.7751 -12.4780 -12.4678 -12.4665 -12.4560
   -12.4428 -12.4226 -12.3712 -12.3640 -12.3591 -12.3532 -12.3413 -12.3252
   -12.3187 -12.3144 -12.2605 -12.2510 -12.2416 -12.2048 -12.2019 -12.1937
   -12.1163 -12.1134 -12.1060 -12.0938 -12.0803 -12.0459 -11.9414 -11.9357
   -11.9057 -11.9001 -11.7512 -11.7490 -11.7474 -11.7445 -11.6526 -11.6457
   -11.5792 -11.5741 -11.5662 -11.5597 -11.5586 -11.5279 -11.4036 -11.3985
   -11.3948 -11.3935 -11.3885 -11.3694 -11.3036 -11.2706 -11.2385 -11.2339
   -11.2310 -11.2275 -11.2087 -11.1744 -11.1005 -11.0825 -10.9982 -10.9457
   -10.8974 -10.8872  -8.0363  -4.6540  -4.6468  -4.5431  -4.5371  -4.4596
    -4.4536  -4.4392  -4.4328  -3.9676  -3.9556  -3.9482  -3.9101  -3.7996
    -3.7883  -3.7843  -3.7789  -3.7724  -3.6048  -3.5974  -3.5909  -3.5791
    -3.5768  -3.5726  -3.5679  -3.5638  -3.5625  -3.4680  -3.4207  -3.4005
    -3.3889  -3.3788  -3.3534  -3.3434  -3.3382  -3.3192  -3.3149  -3.3114
    -3.3002  -3.2646  -3.2385  -3.1600  -3.1552  -3.1515  -3.1465  -3.0591
    -2.9198  -2.9143  -2.9049  -2.8978  -2.8905  -2.8813  -2.8382  -2.8296
    -2.8052  -2.6275  -2.4529  -2.4513  -2.4459  -2.4365  -2.4279  -2.4145
    -2.4070  -2.3959  -2.3849  -2.3775  -2.3690  -2.3656  -2.3544  -2.3408
    -2.3372  -2.3294  -2.3237  -2.3105  -2.3026  -2.2923  -2.2861  -2.2555
    -2.2456  -2.2346  -2.2235  -2.2146  -2.2120  -2.2067  -2.1968  -2.1884
    -2.1736  -2.1690  -2.1563  -2.0916  -2.0777  -2.0733  -2.0638  -2.0556
    -2.0544  -2.0240  -2.0151  -1.9828  -1.9560  -1.9254  -1.8890  -1.8762
    -1.8539  -1.8483  -1.8346  -1.8259  -1.8094  -1.8034  -1.7928  -1.7768
    -1.7575  -1.7402  -1.7306  -1.7235  -1.7198  -1.7160  -1.7134  -1.6880
    -1.6759  -1.6569  -1.6557  -1.6544  -1.6515  -1.6358  -1.6317  -1.6192
    -1.5839  -1.5631  -1.5461  -1.4922  -1.4619  -1.4569  -1.4248  -1.4231
    -1.4107  -1.3997  -1.3901  -1.3873  -1.3756  -1.3728  -1.3589  -1.3407
    -1.3344  -1.3190  -1.3153  -1.3040  -1.3003  -1.2929  -1.2751  -1.2703
    -1.2189  -1.2108  -1.1847  -1.1765  -1.1714  -1.1517  -1.1443  -1.1160
    -1.0958  -1.0811  -1.0767  -1.0681  -1.0381  -1.0278  -1.0187  -0.9903
    -0.9737  -0.9481  -0.9387  -0.9267  -0.9073  -0.8333  -0.8250  -0.8184
    -0.7983  -0.7891  -0.7847  -0.7791  -0.7725  -0.7562  -0.7421  -0.6931
    -0.6846  -0.6714  -0.6644  -0.6532  -0.6506  -0.6185  -0.6039  -0.5878
    -0.5781  -0.5538  -0.5422  -0.4932  -0.4641  -0.4466  -0.4170  -0.4102
    -0.3909  -0.3752  -0.3538  -0.3245  -0.3104  -0.3001  -0.2307  -0.2177
    -0.2068   0.1265   0.1341   0.1458   0.1672   0.2502   0.2669   0.3486
     0.3793   0.5717   0.6019   0.8341   0.8389   1.0452   1.3844   1.3986
     1.4267   1.5473   1.5995   1.6115   1.6266   1.6596   1.7035   1.7347
     1.7585   1.7787   1.8761   2.0613   2.2857   2.3006   2.3849   2.4084
     2.4480   2.5046   2.5649   2.6210   2.6260   2.6521   2.6676   2.6855
     2.7077   2.7535   2.7627   2.7703   2.7924   2.8331   2.8598   2.8901
     2.9058   2.9118   2.9348   2.9391   2.9763   2.9887   2.9923   3.0149
     3.0174   3.0280   3.0368   3.0501   3.0609   3.0823   3.0986   3.1053
     3.1593   3.1889   3.2498   3.2646   3.3110   3.3265   3.3557   3.3672
     3.3727   3.4297   3.4451   3.4611   3.4774   3.4931   3.4988   3.5510
     3.5631   3.5706   3.5853   3.5948   3.6235   3.6274   3.6370   3.6605
     3.6739   3.6955   3.7048   3.7188   3.7293   3.7417   3.7568   3.7964
     3.8089   3.8850   3.8973   3.9146   3.9199   3.9380   3.9489   3.9919
     4.0202   4.0376   4.0572   4.0647   4.0731   4.0769   4.0851   4.0997
     4.1111   4.1152   4.1287   4.1421   4.1691   4.1879   4.1912   4.1991
     4.2119   4.2232   4.2416   4.2462   4.2500   4.2602   4.2711   4.2747
     4.2843   4.2873   4.2933   4.2995   4.3025   4.3060   4.3106   4.3215
     4.3398   4.3599   4.3719   4.3923   4.3988   4.4091   4.4220   4.4254
     4.4296   4.4487   4.4516   4.4626   4.4737   4.4762   4.4887   4.5024
     4.5084   4.5104   4.5163   4.5275   4.5360   4.5406   4.5501   4.5589
     4.5734   4.5816   4.5874   4.6067   4.6143   4.6170   4.6318   4.6479
     4.6515   4.6673   4.6985   4.7004   4.7126   4.7301   4.7342   4.7460
     4.7574   4.7685   4.7731   4.7734   4.7858   4.8116   4.8175   4.8379
     4.8487   4.8512   4.8575   4.8635   4.8660   4.8694   4.8717   4.8758
     4.8783   4.8836   4.8922   4.8978   4.9015   4.9154   4.9278   4.9447
     4.9602   4.9648   4.9700   4.9753   4.9905   4.9961   5.0021   5.0119
     5.0192   5.0322   5.0515   5.0537   5.0614   5.0682   5.0739   5.0785
     5.0879

          k = 0.2500 0.2500 0.0000 (135083 PWs)   bands (ev):

   -61.6926 -61.6747 -61.6674 -61.6628 -61.6576 -61.6519 -61.6476 -61.6463
   -61.6418 -61.6388 -61.6348 -61.6332 -61.6315 -61.6300 -61.6256 -61.6207
   -61.6186 -61.6117 -61.6035 -61.5986 -61.5961 -61.5933 -61.5891 -61.5859
   -61.5853 -61.5845 -61.5825 -61.5819 -61.5795 -61.5767 -61.5762 -61.5748
   -61.5724 -61.5705 -61.5690 -61.5678 -61.5660 -61.5641 -61.5620 -61.5570
   -61.5550 -61.5519 -61.5398 -61.5283 -61.5248 -61.5131 -61.5088 -61.5059
   -61.4989 -61.4929 -61.4836 -61.4778 -61.4598 -61.4552 -61.4492 -61.4445
   -61.4408 -61.4334 -61.4227 -61.4147 -61.4113 -61.4032 -61.3864 -61.3797
   -61.3767 -61.3719 -61.3705 -61.3695 -61.3660 -61.3610 -61.3550 -61.3205
   -44.3046 -42.7667 -35.7886 -35.7744 -35.7538 -35.7493 -35.7477 -35.7386
   -35.7339 -35.7297 -35.7221 -35.7180 -35.7165 -35.7142 -35.7111 -35.7062
   -35.6998 -35.6908 -35.6868 -35.6832 -35.6810 -35.6800 -35.6794 -35.6781
   -35.6708 -35.6691 -35.6645 -35.6568 -35.6538 -35.6523 -35.6482 -35.6456
   -35.6437 -35.6430 -35.6406 -35.6390 -35.6378 -35.6360 -35.6353 -35.6338
   -35.6318 -35.6303 -35.6273 -35.6251 -35.6231 -35.6218 -35.6189 -35.6169
   -35.6128 -35.6120 -35.6063 -35.6041 -35.6019 -35.5971 -35.5949 -35.5893
   -35.5869 -35.5836 -35.5794 -35.5768 -35.5671 -35.5604 -35.5545 -35.5531
   -35.5513 -35.5467 -35.5451 -35.5410 -35.5363 -35.5338 -35.5297 -35.5250
   -35.5202 -35.5155 -35.5147 -35.5128 -35.5102 -35.5082 -35.5028 -35.4994
   -35.4906 -35.4899 -35.4868 -35.4832 -35.4819 -35.4812 -35.4784 -35.4766
   -35.4734 -35.4715 -35.4687 -35.4670 -35.4652 -35.4633 -35.4613 -35.4590
   -35.4581 -35.4563 -35.4550 -35.4508 -35.4494 -35.4491 -35.4481 -35.4463
   -35.4440 -35.4436 -35.4410 -35.4393 -35.4378 -35.4368 -35.4352 -35.4336
   -35.4299 -35.4267 -35.4195 -35.4163 -35.4139 -35.4117 -35.4100 -35.4063
   -35.4053 -35.4039 -35.4021 -35.4012 -35.4000 -35.3991 -35.3976 -35.3959
   -35.3935 -35.3918 -35.3888 -35.3879 -35.3862 -35.3817 -35.3795 -35.3773
   -35.3744 -35.3728 -35.3707 -35.3689 -35.3684 -35.3672 -35.3663 -35.3655
   -35.3636 -35.3626 -35.3595 -35.3579 -35.3569 -35.3541 -35.3529 -35.3519
   -35.3511 -35.3499 -35.3489 -35.3472 -35.3461 -35.3411 -35.3395 -35.3375
   -35.3326 -35.3300 -35.3271 -35.3229 -35.3196 -35.3138 -35.3111 -35.3062
   -35.3024 -35.3009 -35.2952 -35.2928 -35.2875 -35.2823 -35.2781 -35.2737
   -35.2695 -35.2626 -35.2580 -35.2559 -35.2537 -35.2499 -35.2465 -35.2454
   -35.2393 -35.2356 -35.2296 -35.2273 -35.2251 -35.2239 -35.2207 -35.2172
   -35.2110 -35.2093 -35.2057 -35.2008 -35.1946 -35.1863 -35.1830 -35.1788
   -35.1755 -35.1728 -35.1705 -35.1650 -35.1620 -35.1586 -35.1479 -35.1443
   -35.1429 -35.1343 -35.1268 -35.1215 -35.1158 -35.1123 -35.1091 -35.0908
   -35.0796 -35.0705 -13.9364 -13.5904 -13.5868 -13.2558 -13.0714 -13.0540
   -13.0490 -12.7757 -12.7687 -12.7502 -12.7403 -12.5864 -12.5818 -12.4921
   -12.4465 -12.4074 -12.4016 -12.3577 -12.3477 -12.3417 -12.3355 -12.3254
   -12.3056 -12.2691 -12.2409 -12.2294 -12.2179 -12.1486 -12.1407 -12.1305
   -12.1246 -12.1148 -12.1036 -12.0350 -12.0162 -12.0111 -11.9989 -11.9893
   -11.9465 -11.8997 -11.8810 -11.8473 -11.7744 -11.6786 -11.6765 -11.6430
   -11.5853 -11.5433 -11.4903 -11.4884 -11.4786 -11.4730 -11.4695 -11.4648
   -11.4520 -11.3923 -11.3646 -11.3156 -11.3079 -11.2991 -11.2822 -11.2485
   -11.2262 -11.2111 -11.1882 -11.1526 -11.1393 -11.0846 -11.0007 -10.9823
   -10.9121 -10.8340  -8.0363  -4.8157  -4.6570  -4.6122  -4.5463  -4.3340
    -4.3204  -4.1897  -4.1776  -4.0967  -4.0953  -3.9975  -3.9846  -3.9703
    -3.8641  -3.8510  -3.8425  -3.7953  -3.6436  -3.6242  -3.6182  -3.5883
    -3.5851  -3.5772  -3.5727  -3.5629  -3.5458  -3.4313  -3.4198  -3.4156
    -3.3646  -3.3570  -3.3503  -3.3353  -3.3237  -3.3016  -3.2920  -3.2884
    -3.2172  -3.2046  -3.1874  -3.0892  -3.0816  -3.0365  -3.0325  -2.9975
    -2.9947  -2.9415  -2.9158  -2.9077  -2.8956  -2.8845  -2.7843  -2.7752
    -2.7666  -2.7481  -2.6345  -2.6223  -2.6023  -2.5887  -2.5497  -2.4759
    -2.4376  -2.4026  -2.3951  -2.3876  -2.3774  -2.3688  -2.3497  -2.3411
    -2.3360  -2.3248  -2.3089  -2.3033  -2.2786  -2.2735  -2.2578  -2.2493
    -2.2352  -2.2304  -2.2238  -2.2181  -2.2105  -2.2012  -2.1390  -2.1217
    -2.1190  -2.0913  -2.0738  -2.0676  -2.0482  -2.0229  -2.0085  -1.9849
    -1.9761  -1.9588  -1.9536  -1.9277  -1.9214  -1.9114  -1.9051  -1.8983
    -1.8860  -1.8570  -1.8465  -1.8340  -1.8167  -1.8103  -1.7932  -1.7872
    -1.7809  -1.7740  -1.7589  -1.7470  -1.7221  -1.7151  -1.7118  -1.7042
    -1.6945  -1.6857  -1.6737  -1.6506  -1.6401  -1.6208  -1.6014  -1.5918
    -1.5507  -1.5306  -1.5129  -1.4997  -1.4830  -1.4767  -1.4551  -1.4484
    -1.4410  -1.4164  -1.4047  -1.4000  -1.3938  -1.3840  -1.3755  -1.3337
    -1.3182  -1.3110  -1.3009  -1.2914  -1.2844  -1.2751  -1.2692  -1.2485
    -1.2395  -1.2311  -1.2143  -1.2004  -1.1752  -1.1451  -1.1240  -1.1051
    -1.0911  -1.0788  -1.0709  -1.0606  -1.0281  -1.0249  -1.0047  -0.9899
    -0.9719  -0.9645  -0.9340  -0.9196  -0.9101  -0.8948  -0.8912  -0.8562
    -0.8445  -0.8366  -0.8298  -0.8139  -0.7948  -0.7851  -0.7727  -0.7544
    -0.7317  -0.7089  -0.6902  -0.6656  -0.6512  -0.5885  -0.5614  -0.5436
    -0.5348  -0.5187  -0.5042  -0.4896  -0.4583  -0.4396  -0.4024  -0.3750
    -0.3673  -0.3461  -0.3233  -0.2881  -0.2588  -0.2196  -0.1941  -0.1571
    -0.0610  -0.0483  -0.0230   0.0341   0.1186   0.1541   0.2097   0.2709
     0.5623   0.7165   0.9331   0.9791   1.0098   1.0758   1.1263   1.1557
     1.1831   1.3596   1.3806   1.4634   1.6620   1.8374   1.9492   1.9985
     2.0194   2.0637   2.0941   2.1383   2.1725   2.1911   2.2520   2.3016
     2.3218   2.3494   2.4086   2.4144   2.4840   2.5043   2.5243   2.6527
     2.6733   2.6928   2.7271   2.7494   2.7839   2.7969   2.8143   2.8377
     2.8961   2.9189   2.9379   2.9748   3.0095   3.0271   3.0790   3.0907
     3.1109   3.1306   3.1431   3.1569   3.1763   3.1908   3.2079   3.2215
     3.2425   3.2560   3.2696   3.2897   3.3050   3.3238   3.3426   3.3796
     3.3993   3.4083   3.4389   3.4575   3.4744   3.5032   3.5140   3.5223
     3.5486   3.5616   3.5700   3.5831   3.5867   3.6138   3.6280   3.6619
     3.7010   3.7304   3.7463   3.7584   3.7736   3.7863   3.7996   3.8075
     3.8220   3.8516   3.8600   3.8868   3.8944   3.9131   3.9301   3.9336
     3.9399   3.9686   3.9787   4.0031   4.0188   4.0284   4.0546   4.0662
     4.0907   4.0961   4.1085   4.1241   4.1367   4.1519   4.1691   4.1907
     4.2066   4.2244   4.2334   4.2446   4.2572   4.2604   4.2659   4.2795
     4.2896   4.2946   4.3061   4.3262   4.3389   4.3511   4.3603   4.3686
     4.3781   4.3841   4.3865   4.3910   4.3974   4.4056   4.4161   4.4269
     4.4322   4.4432   4.4504   4.4543   4.4665   4.4707   4.4748   4.4807
     4.4839   4.4982   4.5059   4.5231   4.5313   4.5469   4.5531   4.5615
     4.5729   4.5791   4.5850   4.5924   4.6038   4.6215   4.6260   4.6457
     4.6544   4.6644   4.6720   4.6902   4.6981   4.7082   4.7205   4.7235
     4.7396   4.7541   4.7707   4.7861   4.7932   4.8002   4.8048   4.8208
     4.8441   4.8513   4.8591   4.8688   4.8753   4.8814   4.8923   4.8968
     4.9040   4.9109   4.9146   4.9270   4.9341   4.9542   4.9601   4.9668
     4.9794   4.9829   4.9942   5.0026   5.0093   5.0181   5.0221   5.0265
     5.0281   5.0335   5.0391   5.0487   5.0519   5.0611   5.0720   5.0903
     5.0938

          k = 0.2500-0.5000 0.0000 (135080 PWs)   bands (ev):

   -61.6926 -61.6720 -61.6707 -61.6621 -61.6610 -61.6500 -61.6472 -61.6413
   -61.6401 -61.6389 -61.6378 -61.6357 -61.6329 -61.6301 -61.6257 -61.6190
   -61.6186 -61.6119 -61.6034 -61.5992 -61.5954 -61.5942 -61.5891 -61.5860
   -61.5847 -61.5840 -61.5815 -61.5808 -61.5796 -61.5786 -61.5771 -61.5757
   -61.5728 -61.5697 -61.5686 -61.5673 -61.5665 -61.5640 -61.5604 -61.5584
   -61.5553 -61.5515 -61.5398 -61.5283 -61.5249 -61.5129 -61.5082 -61.5059
   -61.4992 -61.4934 -61.4837 -61.4777 -61.4598 -61.4551 -61.4492 -61.4445
   -61.4408 -61.4334 -61.4227 -61.4147 -61.4113 -61.4031 -61.3865 -61.3797
   -61.3766 -61.3719 -61.3704 -61.3696 -61.3659 -61.3610 -61.3550 -61.3205
   -44.3046 -42.7667 -35.7893 -35.7859 -35.7442 -35.7423 -35.7391 -35.7383
   -35.7357 -35.7331 -35.7263 -35.7228 -35.7205 -35.7178 -35.7034 -35.7011
   -35.6983 -35.6945 -35.6827 -35.6813 -35.6785 -35.6739 -35.6710 -35.6698
   -35.6694 -35.6654 -35.6634 -35.6627 -35.6588 -35.6574 -35.6540 -35.6529
   -35.6485 -35.6457 -35.6435 -35.6407 -35.6392 -35.6368 -35.6359 -35.6342
   -35.6323 -35.6299 -35.6276 -35.6261 -35.6242 -35.6221 -35.6208 -35.6165
   -35.6160 -35.6140 -35.6093 -35.6065 -35.6039 -35.6008 -35.5974 -35.5879
   -35.5833 -35.5818 -35.5757 -35.5698 -35.5628 -35.5592 -35.5548 -35.5532
   -35.5464 -35.5438 -35.5416 -35.5379 -35.5347 -35.5340 -35.5314 -35.5296
   -35.5283 -35.5214 -35.5192 -35.5098 -35.5062 -35.5038 -35.4969 -35.4916
   -35.4896 -35.4881 -35.4873 -35.4849 -35.4829 -35.4790 -35.4775 -35.4736
   -35.4720 -35.4693 -35.4677 -35.4658 -35.4652 -35.4644 -35.4632 -35.4623
   -35.4607 -35.4575 -35.4561 -35.4553 -35.4527 -35.4506 -35.4496 -35.4489
   -35.4466 -35.4442 -35.4410 -35.4384 -35.4354 -35.4345 -35.4338 -35.4285
   -35.4278 -35.4255 -35.4238 -35.4225 -35.4200 -35.4178 -35.4134 -35.4097
   -35.4076 -35.4065 -35.4044 -35.4001 -35.3982 -35.3958 -35.3937 -35.3912
   -35.3887 -35.3867 -35.3860 -35.3844 -35.3839 -35.3806 -35.3798 -35.3780
   -35.3763 -35.3752 -35.3723 -35.3711 -35.3699 -35.3673 -35.3648 -35.3643
   -35.3626 -35.3614 -35.3599 -35.3588 -35.3574 -35.3555 -35.3538 -35.3521
   -35.3491 -35.3481 -35.3465 -35.3455 -35.3445 -35.3415 -35.3379 -35.3371
   -35.3340 -35.3302 -35.3298 -35.3259 -35.3177 -35.3153 -35.3121 -35.3088
   -35.3034 -35.2981 -35.2955 -35.2918 -35.2856 -35.2832 -35.2767 -35.2741
   -35.2712 -35.2650 -35.2615 -35.2556 -35.2518 -35.2488 -35.2466 -35.2425
   -35.2396 -35.2348 -35.2296 -35.2284 -35.2250 -35.2225 -35.2205 -35.2154
   -35.2130 -35.2100 -35.2042 -35.2021 -35.1958 -35.1855 -35.1835 -35.1790
   -35.1749 -35.1716 -35.1711 -35.1656 -35.1621 -35.1587 -35.1497 -35.1465
   -35.1399 -35.1341 -35.1263 -35.1226 -35.1152 -35.1116 -35.1089 -35.0910
   -35.0796 -35.0707 -13.8066 -13.7932 -13.4642 -13.4506 -12.9578 -12.9467
   -12.9364 -12.9239 -12.8411 -12.7359 -12.6635 -12.6528 -12.5578 -12.4906
   -12.4747 -12.4521 -12.4240 -12.3986 -12.3394 -12.3135 -12.3091 -12.3025
   -12.2560 -12.2413 -12.2211 -12.1934 -12.1909 -12.1728 -12.1673 -12.1650
   -12.1584 -12.0867 -12.0777 -12.0530 -12.0447 -12.0299 -12.0143 -11.9862
   -11.9184 -11.9143 -11.9020 -11.8623 -11.7910 -11.7657 -11.5910 -11.5882
   -11.5491 -11.5462 -11.5414 -11.5405 -11.4570 -11.4425 -11.4347 -11.4334
   -11.4036 -11.3997 -11.3732 -11.3592 -11.3524 -11.3411 -11.2906 -11.2544
   -11.2256 -11.1808 -11.1446 -11.1404 -11.1285 -11.1090 -11.0169 -11.0009
   -10.8763 -10.8326  -8.0363  -4.8537  -4.7808  -4.6568  -4.6465  -4.3299
    -4.2538  -4.1574  -4.1356  -4.0572  -4.0407  -3.8831  -3.8792  -3.8507
    -3.8194  -3.7950  -3.7857  -3.7768  -3.7175  -3.7013  -3.6831  -3.6488
    -3.6369  -3.5953  -3.5850  -3.5774  -3.5633  -3.5505  -3.5210  -3.4322
    -3.4209  -3.3387  -3.3315  -3.3150  -3.3077  -3.2893  -3.2651  -3.2310
    -3.2256  -3.1402  -3.0968  -3.0932  -3.0823  -3.0705  -3.0381  -3.0261
    -3.0210  -2.9704  -2.9580  -2.9406  -2.8943  -2.7932  -2.7864  -2.7771
    -2.7611  -2.7407  -2.7281  -2.6626  -2.6438  -2.6259  -2.5576  -2.5361
    -2.5004  -2.4725  -2.4571  -2.4223  -2.3953  -2.3645  -2.3462  -2.3347
    -2.3266  -2.2975  -2.2841  -2.2765  -2.2671  -2.2555  -2.2495  -2.2349
    -2.2190  -2.2043  -2.1787  -2.1662  -2.1571  -2.1494  -2.1340  -2.1254
    -2.1151  -2.1126  -2.0987  -2.0815  -2.0568  -2.0412  -2.0355  -2.0277
    -2.0188  -2.0019  -1.9818  -1.9721  -1.9606  -1.9498  -1.9419  -1.9254
    -1.9080  -1.8917  -1.8716  -1.8677  -1.8586  -1.8511  -1.8413  -1.8354
    -1.8275  -1.8178  -1.7904  -1.7884  -1.7797  -1.7179  -1.6895  -1.6760
    -1.6730  -1.6606  -1.6390  -1.5788  -1.5452  -1.5238  -1.5165  -1.5094
    -1.4913  -1.4519  -1.4453  -1.4409  -1.4337  -1.4305  -1.4180  -1.4000
    -1.3856  -1.3710  -1.3584  -1.3541  -1.3309  -1.3181  -1.3119  -1.3057
    -1.2912  -1.2860  -1.2732  -1.2602  -1.2548  -1.2244  -1.2168  -1.2108
    -1.1941  -1.1888  -1.1631  -1.1532  -1.1431  -1.1372  -1.1202  -1.1086
    -1.0943  -1.0842  -1.0781  -1.0673  -1.0444  -1.0392  -1.0188  -1.0040
    -0.9849  -0.9755  -0.9341  -0.9097  -0.8944  -0.8734  -0.8676  -0.8623
    -0.8340  -0.8200  -0.8116  -0.7967  -0.7703  -0.7530  -0.7421  -0.7244
    -0.7102  -0.6903  -0.6488  -0.6349  -0.6235  -0.6031  -0.5813  -0.5510
    -0.5439  -0.5244  -0.5123  -0.4964  -0.4821  -0.4698  -0.4588  -0.4326
    -0.4180  -0.4137  -0.3439  -0.2806  -0.2605  -0.2471  -0.2275  -0.1318
    -0.1078  -0.0865  -0.0662   0.0430   0.0643   0.1043   0.1354   0.2871
     0.2998   0.4866   0.5150   0.9947   1.0798   1.1170   1.4278   1.4424
     1.4864   1.5565   1.5996   1.6168   1.6389   1.6812   1.7825   1.8011
     1.8103   1.8327   1.9261   2.0309   2.1491   2.1881   2.2014   2.2399
     2.2585   2.2936   2.3642   2.3761   2.4684   2.4806   2.4972   2.5640
     2.6490   2.6720   2.6814   2.7021   2.7185   2.7495   2.7972   2.8269
     2.8767   2.8998   2.9168   2.9293   2.9497   2.9623   2.9883   3.0002
     3.0229   3.0279   3.0602   3.0952   3.1171   3.1546   3.1902   3.2085
     3.2327   3.2467   3.2630   3.2796   3.3166   3.3426   3.3549   3.3742
     3.3818   3.4049   3.4477   3.4613   3.4774   3.5006   3.5381   3.5922
     3.6053   3.6194   3.6295   3.6398   3.6659   3.6836   3.7044   3.7160
     3.7271   3.7328   3.7769   3.7874   3.8050   3.8179   3.8346   3.8588
     3.8697   3.8871   3.9130   3.9260   3.9339   3.9616   3.9914   4.0021
     4.0236   4.0312   4.0428   4.0518   4.0630   4.0873   4.0929   4.1145
     4.1359   4.1498   4.1583   4.1684   4.1757   4.1904   4.2043   4.2099
     4.2184   4.2341   4.2377   4.2464   4.2581   4.2641   4.2673   4.2731
     4.2801   4.2843   4.2914   4.2946   4.3028   4.3121   4.3239   4.3293
     4.3368   4.3541   4.3627   4.3808   4.3852   4.3920   4.4053   4.4087
     4.4138   4.4165   4.4226   4.4287   4.4410   4.4525   4.4632   4.4681
     4.4819   4.4911   4.5002   4.5054   4.5340   4.5424   4.5677   4.5921
     4.5990   4.6099   4.6255   4.6387   4.6530   4.6686   4.6744   4.6848
     4.6875   4.6946   4.7014   4.7151   4.7329   4.7414   4.7525   4.7723
     4.7740   4.7832   4.7948   4.7995   4.8157   4.8249   4.8323   4.8417
     4.8486   4.8562   4.8596   4.8683   4.8799   4.8898   4.8986   4.9082
     4.9133   4.9223   4.9285   4.9331   4.9396   4.9441   4.9512   4.9605
     4.9639   4.9704   4.9770   4.9799   4.9864   4.9951   5.0005   5.0050
     5.0167   5.0304   5.0461   5.0515   5.0585   5.0629   5.0710   5.0797
     5.0893

          k =-0.5000-0.5000 0.0000 (135004 PWs)   bands (ev):

   -61.6926 -61.6706 -61.6691 -61.6651 -61.6646 -61.6467 -61.6424 -61.6412
   -61.6403 -61.6398 -61.6377 -61.6365 -61.6346 -61.6326 -61.6266 -61.6181
   -61.6166 -61.6127 -61.6034 -61.5990 -61.5958 -61.5945 -61.5893 -61.5849
   -61.5844 -61.5832 -61.5816 -61.5808 -61.5799 -61.5780 -61.5772 -61.5763
   -61.5760 -61.5693 -61.5688 -61.5670 -61.5655 -61.5616 -61.5609 -61.5600
   -61.5553 -61.5516 -61.5399 -61.5287 -61.5245 -61.5116 -61.5083 -61.5073
   -61.4989 -61.4933 -61.4838 -61.4776 -61.4598 -61.4551 -61.4493 -61.4445
   -61.4407 -61.4334 -61.4227 -61.4147 -61.4113 -61.4032 -61.3865 -61.3797
   -61.3767 -61.3716 -61.3707 -61.3695 -61.3660 -61.3608 -61.3552 -61.3205
   -44.3046 -42.7667 -35.7955 -35.7922 -35.7490 -35.7455 -35.7349 -35.7333
   -35.7316 -35.7274 -35.7092 -35.7072 -35.7046 -35.7033 -35.7028 -35.7015
   -35.7004 -35.6978 -35.6911 -35.6862 -35.6841 -35.6833 -35.6801 -35.6747
   -35.6706 -35.6683 -35.6675 -35.6639 -35.6617 -35.6610 -35.6602 -35.6585
   -35.6579 -35.6521 -35.6502 -35.6450 -35.6397 -35.6375 -35.6366 -35.6363
   -35.6339 -35.6319 -35.6306 -35.6287 -35.6234 -35.6181 -35.6163 -35.6126
   -35.6102 -35.6049 -35.6008 -35.5991 -35.5929 -35.5906 -35.5881 -35.5836
   -35.5808 -35.5779 -35.5770 -35.5749 -35.5686 -35.5677 -35.5662 -35.5535
   -35.5476 -35.5454 -35.5440 -35.5429 -35.5390 -35.5379 -35.5339 -35.5154
   -35.5145 -35.5124 -35.5113 -35.5108 -35.5094 -35.5011 -35.5005 -35.4969
   -35.4950 -35.4929 -35.4903 -35.4886 -35.4843 -35.4811 -35.4805 -35.4740
   -35.4711 -35.4704 -35.4687 -35.4679 -35.4669 -35.4647 -35.4632 -35.4628
   -35.4618 -35.4607 -35.4573 -35.4567 -35.4552 -35.4545 -35.4516 -35.4486
   -35.4473 -35.4457 -35.4444 -35.4378 -35.4331 -35.4317 -35.4279 -35.4261
   -35.4146 -35.4114 -35.4093 -35.4087 -35.4078 -35.4076 -35.4065 -35.4047
   -35.4035 -35.4028 -35.4022 -35.4013 -35.4004 -35.3994 -35.3989 -35.3978
   -35.3973 -35.3960 -35.3952 -35.3947 -35.3935 -35.3897 -35.3889 -35.3874
   -35.3858 -35.3722 -35.3705 -35.3681 -35.3660 -35.3651 -35.3642 -35.3631
   -35.3622 -35.3612 -35.3596 -35.3571 -35.3560 -35.3551 -35.3527 -35.3512
   -35.3491 -35.3469 -35.3454 -35.3433 -35.3417 -35.3412 -35.3386 -35.3350
   -35.3333 -35.3306 -35.3296 -35.3263 -35.3248 -35.3189 -35.3145 -35.3079
   -35.3046 -35.2963 -35.2950 -35.2891 -35.2866 -35.2794 -35.2754 -35.2721
   -35.2706 -35.2648 -35.2615 -35.2537 -35.2532 -35.2494 -35.2470 -35.2420
   -35.2387 -35.2363 -35.2285 -35.2265 -35.2245 -35.2231 -35.2219 -35.2164
   -35.2124 -35.2119 -35.2070 -35.2034 -35.1934 -35.1899 -35.1848 -35.1783
   -35.1741 -35.1715 -35.1677 -35.1659 -35.1620 -35.1581 -35.1520 -35.1472
   -35.1385 -35.1340 -35.1263 -35.1227 -35.1141 -35.1110 -35.1089 -35.0912
   -35.0799 -35.0707 -13.6793 -13.6650 -13.6605 -13.6565 -12.8452 -12.8344
   -12.8322 -12.8262 -12.7437 -12.7331 -12.7255 -12.7144 -12.6320 -12.6236
   -12.6196 -12.6039 -12.3832 -12.3600 -12.3489 -12.3391 -12.2793 -12.2715
   -12.2597 -12.2551 -12.1435 -12.1420 -12.1383 -12.1288 -12.1134 -12.1033
   -12.0900 -12.0860 -12.0685 -12.0645 -12.0633 -12.0624 -12.0562 -11.9836
   -11.9536 -11.9452 -11.9338 -11.9038 -11.8784 -11.8753 -11.4938 -11.4935
   -11.4925 -11.4916 -11.4873 -11.4750 -11.4722 -11.4699 -11.4677 -11.4660
   -11.4654 -11.4597 -11.3915 -11.3667 -11.3365 -11.3206 -11.2974 -11.2556
   -11.2422 -11.1748 -11.1714 -11.1174 -11.1056 -11.1039 -11.0435 -11.0410
   -10.8571 -10.8036  -8.0364  -4.9109  -4.8852  -4.7249  -4.7229  -4.0301
    -4.0198  -4.0132  -4.0002  -3.9722  -3.9644  -3.9611  -3.9540  -3.8953
    -3.8877  -3.8469  -3.8417  -3.8239  -3.8187  -3.8094  -3.8073  -3.7960
    -3.7904  -3.6580  -3.6509  -3.4296  -3.4196  -3.4142  -3.4072  -3.4023
    -3.3943  -3.3666  -3.3583  -3.3522  -3.3378  -3.3238  -3.3172  -3.1944
    -3.1797  -3.1750  -3.1599  -3.0685  -3.0651  -3.0608  -3.0588  -2.8934
    -2.8809  -2.8798  -2.8773  -2.8767  -2.8663  -2.8439  -2.8339  -2.8167
    -2.7946  -2.7876  -2.7835  -2.7599  -2.7550  -2.6655  -2.6518  -2.6372
    -2.6238  -2.5624  -2.5386  -2.4545  -2.4443  -2.3876  -2.3672  -2.3509
    -2.3099  -2.2585  -2.2508  -2.2458  -2.2352  -2.2194  -2.1986  -2.1983
    -2.1909  -2.1867  -2.1762  -2.1713  -2.1607  -2.1542  -2.1524  -2.1420
    -2.1392  -2.1308  -2.1219  -2.1156  -2.1132  -2.1114  -2.0831  -1.9353
    -1.9271  -1.9218  -1.9139  -1.9109  -1.9041  -1.8998  -1.8933  -1.8891
    -1.8843  -1.8790  -1.8759  -1.8684  -1.8618  -1.8559  -1.8422  -1.8354
    -1.8334  -1.8314  -1.8211  -1.7989  -1.7900  -1.7317  -1.7246  -1.7055
    -1.6889  -1.6657  -1.6483  -1.6286  -1.6130  -1.5737  -1.5417  -1.5376
    -1.5160  -1.4948  -1.4875  -1.4826  -1.4748  -1.3931  -1.3536  -1.3433
    -1.3245  -1.3083  -1.3051  -1.2983  -1.2916  -1.2861  -1.2616  -1.2598
    -1.2477  -1.2349  -1.2164  -1.2002  -1.1975  -1.1852  -1.1601  -1.1390
    -1.1329  -1.1271  -1.1067  -1.0993  -1.0912  -1.0852  -1.0744  -1.0655
    -1.0581  -1.0425  -1.0332  -1.0262  -1.0176  -0.9955  -0.9844  -0.9696
    -0.9614  -0.9300  -0.9117  -0.9060  -0.8965  -0.8836  -0.8700  -0.8618
    -0.8497  -0.8370  -0.8095  -0.7744  -0.7668  -0.7599  -0.7572  -0.7486
    -0.7063  -0.7011  -0.7000  -0.6922  -0.6750  -0.6615  -0.6518  -0.6246
    -0.5999  -0.5562  -0.4857  -0.4228  -0.4208  -0.4080  -0.4051  -0.3856
    -0.3635  -0.3553  -0.3369  -0.3280  -0.3005  -0.2698  -0.2502  -0.1639
    -0.1072  -0.1008  -0.0563  -0.0495  -0.0408  -0.0291  -0.0210   0.1721
     0.1939   0.2893   0.3236   1.0104   1.3414   1.4453   1.4768   1.5417
     1.6153   1.6428   1.6632   1.6865   1.7014   1.7200   1.7444   1.7641
     1.7860   1.8461   1.9402   1.9819   2.0049   2.0427   2.0522   2.0684
     2.0705   2.0962   2.1121   2.1338   2.2084   2.2748   2.5721   2.5870
     2.6108   2.6195   2.7771   2.7852   2.7900   2.7950   2.8171   2.8338
     2.8442   2.8523   2.8807   2.8907   2.8974   2.9113   2.9348   2.9474
     2.9569   2.9682   2.9878   3.0030   3.0259   3.0390   3.1118   3.1204
     3.1250   3.1469   3.1576   3.1986   3.2247   3.2871   3.5100   3.5143
     3.5282   3.5320   3.5605   3.5876   3.6123   3.6265   3.6379   3.6540
     3.6616   3.6707   3.6819   3.7000   3.7017   3.7233   3.7319   3.7760
     3.7885   3.7972   3.8017   3.8149   3.8268   3.9167   3.9214   3.9372
     3.9503   3.9531   3.9593   3.9657   3.9784   3.9856   4.0002   4.0034
     4.0168   4.0268   4.0375   4.0445   4.0574   4.0679   4.0811   4.0882
     4.1134   4.1230   4.1383   4.1497   4.1566   4.1743   4.1838   4.2008
     4.2095   4.2154   4.2224   4.2360   4.2387   4.2502   4.2592   4.2749
     4.2810   4.2850   4.2929   4.2949   4.3007   4.3069   4.3141   4.3164
     4.3201   4.3367   4.3449   4.3466   4.3625   4.3724   4.3796   4.3902
     4.3914   4.3940   4.4067   4.4118   4.4230   4.4372   4.4512   4.4556
     4.4574   4.4736   4.4859   4.5199   4.5346   4.5644   4.5793   4.5813
     4.6246   4.6473   4.6601   4.6733   4.6899   4.6930   4.7082   4.7083
     4.7214   4.7365   4.7526   4.7658   4.7713   4.7773   4.7883   4.7926
     4.8036   4.8055   4.8115   4.8204   4.8388   4.8446   4.8580   4.8659
     4.8765   4.8805   4.8863   4.8931   4.8952   4.8984   4.8999   4.9038
     4.9107   4.9134   4.9228   4.9262   4.9308   4.9364   4.9404   4.9428
     4.9449   4.9503   4.9512   4.9556   4.9689   4.9819   4.9874   5.0004
     5.0095   5.0158   5.0234   5.0446   5.0592   5.0740   5.0991   5.1021
     5.1078

          k = 0.2500 0.0000 0.0000 (135097 PWs)   bands (ev):

   -61.6926 -61.6759 -61.6669 -61.6589 -61.6565 -61.6533 -61.6518 -61.6469
   -61.6427 -61.6392 -61.6339 -61.6320 -61.6304 -61.6274 -61.6254 -61.6233
   -61.6188 -61.6116 -61.6036 -61.5981 -61.5966 -61.5925 -61.5886 -61.5877
   -61.5853 -61.5846 -61.5830 -61.5823 -61.5791 -61.5772 -61.5741 -61.5734
   -61.5721 -61.5709 -61.5694 -61.5675 -61.5666 -61.5660 -61.5620 -61.5562
   -61.5544 -61.5524 -61.5398 -61.5282 -61.5249 -61.5131 -61.5092 -61.5059
   -61.4988 -61.4924 -61.4837 -61.4780 -61.4599 -61.4551 -61.4492 -61.4446
   -61.4407 -61.4334 -61.4228 -61.4147 -61.4112 -61.4032 -61.3863 -61.3797
   -61.3767 -61.3718 -61.3706 -61.3695 -61.3661 -61.3609 -61.3550 -61.3205
   -44.3046 -42.7667 -35.7764 -35.7744 -35.7565 -35.7540 -35.7515 -35.7501
   -35.7311 -35.7266 -35.7244 -35.7226 -35.7147 -35.7100 -35.7033 -35.7006
   -35.6987 -35.6962 -35.6937 -35.6916 -35.6911 -35.6899 -35.6763 -35.6686
   -35.6670 -35.6620 -35.6589 -35.6565 -35.6544 -35.6527 -35.6524 -35.6506
   -35.6469 -35.6432 -35.6412 -35.6386 -35.6347 -35.6333 -35.6319 -35.6306
   -35.6294 -35.6272 -35.6255 -35.6233 -35.6210 -35.6191 -35.6179 -35.6153
   -35.6131 -35.6119 -35.6094 -35.6047 -35.5982 -35.5957 -35.5942 -35.5905
   -35.5856 -35.5831 -35.5727 -35.5698 -35.5668 -35.5643 -35.5598 -35.5554
   -35.5535 -35.5518 -35.5494 -35.5465 -35.5446 -35.5366 -35.5349 -35.5233
   -35.5205 -35.5172 -35.5125 -35.5092 -35.5070 -35.5054 -35.4990 -35.4952
   -35.4943 -35.4923 -35.4909 -35.4872 -35.4839 -35.4832 -35.4805 -35.4779
   -35.4744 -35.4719 -35.4702 -35.4688 -35.4667 -35.4635 -35.4616 -35.4589
   -35.4578 -35.4545 -35.4504 -35.4482 -35.4470 -35.4449 -35.4424 -35.4420
   -35.4396 -35.4377 -35.4369 -35.4354 -35.4342 -35.4330 -35.4320 -35.4302
   -35.4282 -35.4261 -35.4254 -35.4241 -35.4205 -35.4182 -35.4161 -35.4127
   -35.4118 -35.4064 -35.4045 -35.4009 -35.3967 -35.3943 -35.3929 -35.3913
   -35.3894 -35.3865 -35.3854 -35.3848 -35.3829 -35.3810 -35.3802 -35.3782
   -35.3778 -35.3762 -35.3741 -35.3719 -35.3705 -35.3692 -35.3682 -35.3673
   -35.3662 -35.3654 -35.3615 -35.3604 -35.3584 -35.3557 -35.3543 -35.3532
   -35.3519 -35.3493 -35.3478 -35.3452 -35.3433 -35.3403 -35.3382 -35.3361
   -35.3345 -35.3297 -35.3272 -35.3204 -35.3188 -35.3140 -35.3102 -35.3043
   -35.3001 -35.2984 -35.2935 -35.2899 -35.2853 -35.2840 -35.2785 -35.2740
   -35.2724 -35.2668 -35.2632 -35.2556 -35.2527 -35.2506 -35.2469 -35.2426
   -35.2383 -35.2351 -35.2291 -35.2270 -35.2258 -35.2229 -35.2210 -35.2168
   -35.2122 -35.2095 -35.2050 -35.1992 -35.1940 -35.1865 -35.1820 -35.1799
   -35.1748 -35.1724 -35.1688 -35.1646 -35.1639 -35.1604 -35.1500 -35.1472
   -35.1396 -35.1333 -35.1281 -35.1202 -35.1164 -35.1124 -35.1090 -35.0906
   -35.0796 -35.0703 -13.9834 -13.6342 -13.3379 -13.3178 -13.1128 -13.0941
   -13.0165 -12.9947 -12.8102 -12.6236 -12.5726 -12.5614 -12.5388 -12.5165
   -12.4681 -12.4527 -12.4365 -12.4240 -12.3766 -12.3694 -12.3171 -12.3082
   -12.3003 -12.2414 -12.2354 -12.2104 -12.1787 -12.1701 -12.1603 -12.1569
   -12.1432 -12.1255 -12.0697 -12.0541 -12.0424 -11.9968 -11.9715 -11.9524
   -11.9339 -11.9107 -11.8404 -11.8359 -11.7111 -11.7003 -11.6881 -11.6169
   -11.6140 -11.6024 -11.5615 -11.5099 -11.4972 -11.4752 -11.4581 -11.4559
   -11.4358 -11.3345 -11.3311 -11.3125 -11.3112 -11.3019 -11.2776 -11.2472
   -11.2312 -11.2046 -11.2009 -11.1927 -11.1319 -11.0915 -11.0027 -10.9513
   -10.9184 -10.8588  -8.0362  -4.6369  -4.6087  -4.4506  -4.4418  -4.4208
    -4.3925  -4.3116  -4.3066  -4.2205  -4.1963  -4.0675  -4.0598  -3.8270
    -3.8117  -3.8029  -3.7909  -3.7603  -3.7277  -3.7046  -3.6367  -3.6334
    -3.5359  -3.5334  -3.5270  -3.5166  -3.4908  -3.4520  -3.4408  -3.4296
    -3.4008  -3.3594  -3.3501  -3.3433  -3.3343  -3.3278  -3.2874  -3.2209
    -3.1855  -3.1787  -3.1581  -3.1026  -3.0879  -3.0546  -3.0384  -3.0224
    -3.0064  -2.9707  -2.9541  -2.9249  -2.8672  -2.7853  -2.7668  -2.7093
    -2.6930  -2.6754  -2.6325  -2.6216  -2.6159  -2.6034  -2.5411  -2.5034
    -2.4399  -2.4071  -2.3783  -2.3683  -2.3591  -2.3437  -2.3261  -2.3045
    -2.2969  -2.2903  -2.2883  -2.2818  -2.2715  -2.2638  -2.2448  -2.2282
    -2.2161  -2.2060  -2.1932  -2.1682  -2.1612  -2.1523  -2.1439  -2.1182
    -2.0940  -2.0788  -2.0604  -2.0485  -2.0415  -2.0364  -2.0263  -2.0171
    -2.0101  -2.0031  -1.9953  -1.9887  -1.9846  -1.9517  -1.9323  -1.8887
    -1.8685  -1.8632  -1.8329  -1.8222  -1.8200  -1.8068  -1.8056  -1.7966
    -1.7826  -1.7623  -1.7532  -1.7268  -1.7039  -1.6827  -1.6799  -1.6761
    -1.6740  -1.6650  -1.6603  -1.6497  -1.6382  -1.6286  -1.6170  -1.6040
    -1.5896  -1.5772  -1.5514  -1.5483  -1.5441  -1.5302  -1.5232  -1.5004
    -1.4798  -1.4664  -1.4618  -1.4450  -1.4379  -1.4269  -1.3994  -1.3882
    -1.3636  -1.3448  -1.3352  -1.3220  -1.3037  -1.2871  -1.2814  -1.2739
    -1.2715  -1.2644  -1.2591  -1.2430  -1.2122  -1.1950  -1.1577  -1.1478
    -1.1159  -1.0999  -1.0883  -1.0767  -1.0599  -1.0468  -1.0321  -1.0090
    -1.0013  -0.9943  -0.9814  -0.9520  -0.9198  -0.9000  -0.8825  -0.8692
    -0.8635  -0.8495  -0.8413  -0.8272  -0.8091  -0.7956  -0.7568  -0.7181
    -0.6954  -0.6747  -0.6387  -0.6282  -0.6060  -0.5920  -0.5673  -0.5551
    -0.5264  -0.5061  -0.4979  -0.4865  -0.4764  -0.4470  -0.3908  -0.3569
    -0.3205  -0.2974  -0.2611  -0.2223  -0.2039  -0.1839  -0.1733  -0.1466
    -0.1385  -0.0692   0.0130   0.0921   0.1252   0.2700   0.3562   0.4365
     0.7705   0.7936   0.8482   0.9247   0.9567   0.9999   1.0404   1.1170
     1.2397   1.2675   1.2997   1.3371   1.6524   1.7714   1.8573   1.9748
     2.0315   2.1277   2.1563   2.1858   2.2408   2.2659   2.3008   2.3403
     2.4580   2.6197   2.6322   2.6608   2.6705   2.6893   2.7128   2.7220
     2.7406   2.7541   2.7905   2.8027   2.8270   2.8573   2.8631   2.8817
     2.8890   2.9082   2.9177   2.9388   2.9645   2.9802   3.0226   3.0646
     3.0789   3.1225   3.1474   3.1781   3.1911   3.2096   3.2339   3.2474
     3.2613   3.2753   3.2959   3.3063   3.3134   3.3322   3.3436   3.3605
     3.3629   3.3939   3.4085   3.4180   3.4538   3.4859   3.5033   3.5064
     3.5308   3.5452   3.5604   3.5726   3.5895   3.6063   3.6224   3.6516
     3.6586   3.6944   3.7018   3.7144   3.7346   3.7416   3.7588   3.7653
     3.7934   3.8129   3.8271   3.8450   3.8582   3.8700   3.8815   3.8957
     3.9200   3.9305   3.9441   3.9569   3.9601   3.9720   3.9858   4.0026
     4.0127   4.0264   4.0495   4.0655   4.0784   4.1106   4.1232   4.1384
     4.1589   4.1836   4.1943   4.2245   4.2371   4.2717   4.2929   4.2961
     4.3051   4.3162   4.3232   4.3299   4.3410   4.3432   4.3503   4.3548
     4.3665   4.3798   4.3858   4.3886   4.3948   4.4014   4.4153   4.4237
     4.4306   4.4441   4.4543   4.4684   4.4782   4.4878   4.4940   4.5074
     4.5082   4.5115   4.5197   4.5281   4.5354   4.5379   4.5517   4.5584
     4.5599   4.5731   4.5903   4.6035   4.6144   4.6231   4.6354   4.6463
     4.6499   4.6548   4.6669   4.6766   4.6822   4.6903   4.7067   4.7090
     4.7376   4.7435   4.7527   4.7640   4.7817   4.7947   4.7963   4.8080
     4.8169   4.8285   4.8400   4.8476   4.8667   4.8729   4.8787   4.8918
     4.8981   4.9182   4.9244   4.9365   4.9430   4.9544   4.9629   4.9702
     4.9755   4.9847   4.9882   4.9996   5.0136   5.0215   5.0326   5.0367
     5.0440   5.0554   5.0649   5.0691   5.0870   5.0911   5.0934   5.0973
     5.0988

          k =-0.5000 0.0000 0.0000 (135178 PWs)   bands (ev):

   -61.6926 -61.6730 -61.6714 -61.6573 -61.6566 -61.6545 -61.6531 -61.6416
   -61.6411 -61.6379 -61.6363 -61.6350 -61.6326 -61.6272 -61.6251 -61.6234
   -61.6171 -61.6118 -61.6036 -61.5981 -61.5972 -61.5924 -61.5887 -61.5880
   -61.5846 -61.5840 -61.5826 -61.5810 -61.5797 -61.5783 -61.5761 -61.5736
   -61.5713 -61.5707 -61.5695 -61.5679 -61.5666 -61.5659 -61.5590 -61.5581
   -61.5545 -61.5526 -61.5399 -61.5284 -61.5246 -61.5118 -61.5093 -61.5073
   -61.4987 -61.4922 -61.4837 -61.4780 -61.4599 -61.4551 -61.4492 -61.4446
   -61.4406 -61.4334 -61.4228 -61.4147 -61.4112 -61.4032 -61.3864 -61.3798
   -61.3767 -61.3714 -61.3706 -61.3697 -61.3663 -61.3607 -61.3551 -61.3205
   -44.3046 -42.7667 -35.7719 -35.7702 -35.7676 -35.7669 -35.7337 -35.7330
   -35.7306 -35.7292 -35.7278 -35.7260 -35.7207 -35.7184 -35.7151 -35.7137
   -35.7114 -35.7101 -35.6806 -35.6734 -35.6696 -35.6681 -35.6679 -35.6642
   -35.6607 -35.6600 -35.6574 -35.6542 -35.6516 -35.6494 -35.6491 -35.6474
   -35.6438 -35.6423 -35.6405 -35.6396 -35.6385 -35.6375 -35.6360 -35.6357
   -35.6335 -35.6327 -35.6311 -35.6289 -35.6269 -35.6249 -35.6186 -35.6175
   -35.6147 -35.6137 -35.6116 -35.6088 -35.6034 -35.6029 -35.6002 -35.5978
   -35.5926 -35.5913 -35.5896 -35.5683 -35.5655 -35.5630 -35.5494 -35.5488
   -35.5463 -35.5400 -35.5389 -35.5381 -35.5327 -35.5316 -35.5289 -35.5233
   -35.5211 -35.5202 -35.5180 -35.5162 -35.5110 -35.5090 -35.5017 -35.4967
   -35.4900 -35.4866 -35.4825 -35.4799 -35.4780 -35.4737 -35.4721 -35.4712
   -35.4695 -35.4686 -35.4671 -35.4645 -35.4639 -35.4624 -35.4605 -35.4585
   -35.4565 -35.4559 -35.4553 -35.4516 -35.4509 -35.4496 -35.4492 -35.4477
   -35.4464 -35.4456 -35.4452 -35.4444 -35.4419 -35.4410 -35.4366 -35.4358
   -35.4345 -35.4325 -35.4293 -35.4272 -35.4227 -35.4224 -35.4215 -35.4160
   -35.4131 -35.4090 -35.4043 -35.3999 -35.3981 -35.3949 -35.3903 -35.3875
   -35.3855 -35.3844 -35.3829 -35.3793 -35.3788 -35.3777 -35.3763 -35.3758
   -35.3740 -35.3719 -35.3697 -35.3678 -35.3653 -35.3644 -35.3634 -35.3629
   -35.3610 -35.3602 -35.3593 -35.3576 -35.3571 -35.3557 -35.3542 -35.3530
   -35.3521 -35.3503 -35.3487 -35.3482 -35.3466 -35.3452 -35.3448 -35.3335
   -35.3323 -35.3318 -35.3275 -35.3241 -35.3198 -35.3154 -35.3141 -35.3027
   -35.3006 -35.2993 -35.2967 -35.2915 -35.2870 -35.2822 -35.2789 -35.2767
   -35.2718 -35.2697 -35.2619 -35.2561 -35.2528 -35.2513 -35.2464 -35.2454
   -35.2360 -35.2320 -35.2303 -35.2267 -35.2263 -35.2214 -35.2206 -35.2156
   -35.2146 -35.2043 -35.2032 -35.1988 -35.1955 -35.1867 -35.1822 -35.1800
   -35.1764 -35.1740 -35.1692 -35.1639 -35.1627 -35.1617 -35.1489 -35.1446
   -35.1429 -35.1332 -35.1272 -35.1214 -35.1160 -35.1116 -35.1089 -35.0910
   -35.0798 -35.0705 -13.8507 -13.8419 -13.2147 -13.2086 -13.1984 -13.1821
   -12.9946 -12.9886 -12.8822 -12.7730 -12.4763 -12.4670 -12.4632 -12.4552
   -12.4383 -12.4284 -12.3843 -12.3642 -12.3556 -12.3515 -12.3451 -12.3266
   -12.3175 -12.3127 -12.2641 -12.2537 -12.2302 -12.2035 -12.2006 -12.1959
   -12.1218 -12.1151 -12.1038 -12.0965 -12.0750 -12.0467 -11.9348 -11.9289
   -11.9163 -11.9006 -11.7517 -11.7495 -11.7481 -11.7421 -11.6577 -11.6229
   -11.5814 -11.5794 -11.5726 -11.5598 -11.5590 -11.5483 -11.3991 -11.3963
   -11.3944 -11.3939 -11.3871 -11.3592 -11.2881 -11.2643 -11.2422 -11.2351
   -11.2323 -11.2261 -11.2138 -11.1963 -11.0951 -11.0824 -10.9928 -10.9568
   -10.8923 -10.8841  -8.0363  -4.6587  -4.6523  -4.5393  -4.5350  -4.4588
    -4.4563  -4.4371  -4.4329  -3.9658  -3.9498  -3.9486  -3.9153  -3.8076
    -3.7886  -3.7863  -3.7756  -3.7687  -3.6057  -3.6006  -3.5894  -3.5762
    -3.5755  -3.5723  -3.5682  -3.5648  -3.5617  -3.4686  -3.4169  -3.3992
    -3.3885  -3.3761  -3.3491  -3.3439  -3.3370  -3.3300  -3.3129  -3.3086
    -3.3041  -3.2612  -3.2378  -3.1605  -3.1535  -3.1496  -3.1453  -3.0666
    -2.9180  -2.9130  -2.9014  -2.8891  -2.8864  -2.8832  -2.8415  -2.8289
    -2.8030  -2.6433  -2.4544  -2.4486  -2.4425  -2.4284  -2.4258  -2.4171
    -2.4102  -2.3986  -2.3843  -2.3778  -2.3675  -2.3656  -2.3505  -2.3425
    -2.3375  -2.3309  -2.3236  -2.3133  -2.2979  -2.2932  -2.2843  -2.2616
    -2.2497  -2.2351  -2.2301  -2.2141  -2.2097  -2.2026  -2.1979  -2.1886
    -2.1740  -2.1666  -2.1617  -2.0921  -2.0836  -2.0685  -2.0623  -2.0575
    -2.0446  -2.0290  -2.0227  -1.9838  -1.9409  -1.9236  -1.9108  -1.8761
    -1.8655  -1.8479  -1.8324  -1.8218  -1.8124  -1.8045  -1.7950  -1.7669
    -1.7608  -1.7439  -1.7315  -1.7239  -1.7154  -1.7113  -1.7018  -1.6915
    -1.6730  -1.6584  -1.6565  -1.6524  -1.6512  -1.6393  -1.6185  -1.6162
    -1.5774  -1.5642  -1.5304  -1.4980  -1.4803  -1.4475  -1.4348  -1.4295
    -1.4140  -1.3924  -1.3832  -1.3819  -1.3655  -1.3639  -1.3612  -1.3485
    -1.3321  -1.3221  -1.3175  -1.3035  -1.2922  -1.2886  -1.2861  -1.2738
    -1.2508  -1.2061  -1.1864  -1.1811  -1.1558  -1.1533  -1.1359  -1.1257
    -1.0931  -1.0829  -1.0773  -1.0513  -1.0406  -1.0301  -1.0129  -0.9961
    -0.9877  -0.9737  -0.9477  -0.9236  -0.8943  -0.8316  -0.8237  -0.8174
    -0.7981  -0.7949  -0.7820  -0.7803  -0.7642  -0.7498  -0.7441  -0.6934
    -0.6828  -0.6764  -0.6615  -0.6519  -0.6453  -0.6101  -0.5985  -0.5943
    -0.5770  -0.5552  -0.5487  -0.5116  -0.4680  -0.4550  -0.4299  -0.4215
    -0.3829  -0.3498  -0.3424  -0.3312  -0.3110  -0.2809  -0.2488  -0.2147
    -0.1985   0.1280   0.1322   0.1440   0.1637   0.2584   0.3039   0.3400
     0.3780   0.5692   0.6004   0.8329   0.8603   1.0431   1.3925   1.4108
     1.4235   1.4648   1.5473   1.6110   1.6308   1.6733   1.7061   1.7435
     1.7517   1.7704   1.9277   2.0588   2.2905   2.3074   2.4055   2.4219
     2.4437   2.5015   2.5696   2.5779   2.6351   2.6604   2.6815   2.7068
     2.7228   2.7318   2.7452   2.7737   2.8040   2.8355   2.8736   2.8870
     2.9024   2.9122   2.9281   2.9357   2.9640   2.9706   2.9838   2.9976
     3.0159   3.0218   3.0474   3.0569   3.0776   3.0883   3.1042   3.1388
     3.1481   3.1690   3.2505   3.2597   3.3173   3.3325   3.3520   3.3560
     3.3858   3.4123   3.4385   3.4520   3.4674   3.4793   3.5248   3.5424
     3.5528   3.5709   3.5857   3.5977   3.6269   3.6311   3.6428   3.6456
     3.6718   3.6786   3.7092   3.7247   3.7311   3.7511   3.7702   3.7766
     3.8020   3.8794   3.9032   3.9150   3.9181   3.9339   3.9507   3.9833
     4.0254   4.0297   4.0483   4.0727   4.0754   4.0845   4.0896   4.0982
     4.1088   4.1219   4.1399   4.1517   4.1640   4.1689   4.2051   4.2116
     4.2179   4.2261   4.2436   4.2458   4.2513   4.2575   4.2619   4.2754
     4.2792   4.2890   4.2922   4.2961   4.3007   4.3054   4.3179   4.3268
     4.3461   4.3673   4.3688   4.3849   4.3940   4.4066   4.4134   4.4251
     4.4441   4.4471   4.4561   4.4631   4.4679   4.4772   4.4857   4.5018
     4.5060   4.5130   4.5237   4.5397   4.5412   4.5433   4.5459   4.5645
     4.5734   4.5872   4.5935   4.6011   4.6107   4.6280   4.6327   4.6445
     4.6540   4.6662   4.6779   4.6873   4.7046   4.7106   4.7418   4.7429
     4.7556   4.7585   4.7755   4.7927   4.8045   4.8160   4.8332   4.8419
     4.8460   4.8535   4.8550   4.8580   4.8646   4.8661   4.8697   4.8763
     4.8833   4.8874   4.9000   4.9045   4.9096   4.9198   4.9265   4.9481
     4.9580   4.9637   4.9771   4.9827   4.9895   4.9954   4.9998   5.0054
     5.0143   5.0221   5.0358   5.0565   5.0655   5.0694   5.0739   5.0806
     5.0875

          k =-0.2500 0.2500 0.0000 (135083 PWs)   bands (ev):

   -61.6926 -61.6747 -61.6675 -61.6627 -61.6577 -61.6517 -61.6476 -61.6463
   -61.6424 -61.6380 -61.6346 -61.6335 -61.6322 -61.6296 -61.6254 -61.6209
   -61.6184 -61.6117 -61.6035 -61.5987 -61.5961 -61.5931 -61.5892 -61.5865
   -61.5849 -61.5845 -61.5825 -61.5814 -61.5799 -61.5772 -61.5759 -61.5746
   -61.5723 -61.5700 -61.5690 -61.5676 -61.5670 -61.5644 -61.5618 -61.5570
   -61.5549 -61.5518 -61.5398 -61.5282 -61.5250 -61.5130 -61.5088 -61.5058
   -61.4990 -61.4928 -61.4837 -61.4779 -61.4598 -61.4550 -61.4492 -61.4446
   -61.4407 -61.4334 -61.4227 -61.4147 -61.4113 -61.4032 -61.3864 -61.3797
   -61.3767 -61.3719 -61.3703 -61.3697 -61.3660 -61.3610 -61.3550 -61.3205
   -44.3046 -42.7667 -35.7865 -35.7765 -35.7543 -35.7518 -35.7467 -35.7415
   -35.7314 -35.7262 -35.7204 -35.7184 -35.7173 -35.7165 -35.7143 -35.7032
   -35.6975 -35.6932 -35.6850 -35.6838 -35.6823 -35.6807 -35.6774 -35.6764
   -35.6744 -35.6667 -35.6608 -35.6578 -35.6553 -35.6519 -35.6465 -35.6449
   -35.6439 -35.6409 -35.6394 -35.6376 -35.6371 -35.6361 -35.6338 -35.6320
   -35.6309 -35.6280 -35.6271 -35.6264 -35.6254 -35.6233 -35.6218 -35.6200
   -35.6188 -35.6138 -35.6117 -35.6094 -35.6073 -35.6020 -35.5955 -35.5889
   -35.5781 -35.5723 -35.5700 -35.5656 -35.5643 -35.5593 -35.5570 -35.5548
   -35.5498 -35.5472 -35.5469 -35.5439 -35.5430 -35.5402 -35.5356 -35.5298
   -35.5203 -35.5188 -35.5158 -35.5134 -35.5114 -35.5050 -35.4988 -35.4965
   -35.4930 -35.4882 -35.4838 -35.4822 -35.4807 -35.4780 -35.4769 -35.4749
   -35.4735 -35.4714 -35.4704 -35.4678 -35.4647 -35.4629 -35.4613 -35.4605
   -35.4583 -35.4558 -35.4522 -35.4503 -35.4491 -35.4476 -35.4468 -35.4456
   -35.4446 -35.4437 -35.4416 -35.4405 -35.4384 -35.4366 -35.4354 -35.4317
   -35.4301 -35.4278 -35.4221 -35.4172 -35.4145 -35.4110 -35.4085 -35.4069
   -35.4053 -35.4044 -35.4030 -35.4010 -35.4001 -35.3992 -35.3972 -35.3960
   -35.3937 -35.3926 -35.3896 -35.3878 -35.3858 -35.3828 -35.3803 -35.3768
   -35.3750 -35.3726 -35.3717 -35.3701 -35.3686 -35.3673 -35.3666 -35.3659
   -35.3643 -35.3618 -35.3600 -35.3572 -35.3558 -35.3549 -35.3535 -35.3521
   -35.3501 -35.3496 -35.3489 -35.3476 -35.3437 -35.3417 -35.3389 -35.3375
   -35.3334 -35.3313 -35.3298 -35.3213 -35.3196 -35.3146 -35.3086 -35.3053
   -35.3021 -35.3000 -35.2932 -35.2885 -35.2858 -35.2805 -35.2791 -35.2760
   -35.2704 -35.2687 -35.2662 -35.2550 -35.2512 -35.2493 -35.2466 -35.2418
   -35.2394 -35.2350 -35.2295 -35.2255 -35.2247 -35.2234 -35.2209 -35.2171
   -35.2145 -35.2082 -35.2028 -35.2000 -35.1964 -35.1866 -35.1825 -35.1783
   -35.1740 -35.1713 -35.1699 -35.1664 -35.1637 -35.1596 -35.1524 -35.1470
   -35.1385 -35.1334 -35.1276 -35.1215 -35.1154 -35.1118 -35.1088 -35.0908
   -35.0796 -35.0704 -13.9363 -13.5930 -13.5851 -13.2545 -13.0712 -13.0555
   -13.0467 -12.7772 -12.7660 -12.7545 -12.7395 -12.5921 -12.5801 -12.4928
   -12.4483 -12.4088 -12.3978 -12.3584 -12.3501 -12.3423 -12.3286 -12.3176
   -12.3023 -12.2693 -12.2418 -12.2297 -12.2141 -12.1502 -12.1423 -12.1318
   -12.1278 -12.1180 -12.1064 -12.0475 -12.0155 -12.0120 -11.9932 -11.9894
   -11.9327 -11.8893 -11.8858 -11.8604 -11.7741 -11.6809 -11.6724 -11.6442
   -11.5854 -11.5237 -11.5012 -11.4897 -11.4880 -11.4724 -11.4708 -11.4682
   -11.4590 -11.3763 -11.3648 -11.3154 -11.3052 -11.2890 -11.2836 -11.2464
   -11.2200 -11.2167 -11.1915 -11.1634 -11.1400 -11.1014 -10.9904 -10.9829
   -10.8881 -10.8513  -8.0363  -4.7921  -4.6850  -4.6157  -4.5430  -4.3493
    -4.3370  -4.1883  -4.1678  -4.0755  -4.0680  -4.0034  -3.9787  -3.9524
    -3.8792  -3.8675  -3.8547  -3.7916  -3.6698  -3.6290  -3.6104  -3.5859
    -3.5801  -3.5697  -3.5576  -3.5513  -3.5410  -3.4239  -3.4183  -3.4144
    -3.3901  -3.3680  -3.3565  -3.3517  -3.3274  -3.3044  -3.2975  -3.2884
    -3.1990  -3.1882  -3.1683  -3.0830  -3.0753  -3.0360  -3.0341  -3.0160
    -3.0112  -2.9411  -2.9230  -2.9099  -2.8905  -2.8881  -2.7987  -2.7815
    -2.7306  -2.7159  -2.6359  -2.6246  -2.6180  -2.6000  -2.5449  -2.4815
    -2.4405  -2.4123  -2.3949  -2.3815  -2.3757  -2.3669  -2.3611  -2.3557
    -2.3476  -2.3446  -2.3179  -2.2795  -2.2728  -2.2679  -2.2574  -2.2474
    -2.2411  -2.2346  -2.2152  -2.2115  -2.1972  -2.1682  -2.1296  -2.1204
    -2.1164  -2.0888  -2.0758  -2.0575  -2.0432  -2.0347  -2.0245  -1.9814
    -1.9746  -1.9498  -1.9447  -1.9243  -1.9120  -1.9017  -1.8974  -1.8898
    -1.8801  -1.8633  -1.8518  -1.8408  -1.8285  -1.8175  -1.8130  -1.7986
    -1.7955  -1.7838  -1.7811  -1.7763  -1.7620  -1.7372  -1.7124  -1.7042
    -1.6985  -1.6690  -1.6482  -1.6399  -1.6354  -1.6210  -1.6057  -1.5876
    -1.5695  -1.5391  -1.5031  -1.4834  -1.4766  -1.4583  -1.4540  -1.4422
    -1.4310  -1.4162  -1.4107  -1.3991  -1.3886  -1.3753  -1.3580  -1.3520
    -1.3332  -1.3097  -1.2970  -1.2932  -1.2869  -1.2724  -1.2583  -1.2412
    -1.2320  -1.2201  -1.2074  -1.2014  -1.1820  -1.1459  -1.1188  -1.1000
    -1.0853  -1.0798  -1.0698  -1.0493  -1.0267  -1.0204  -1.0106  -0.9891
    -0.9770  -0.9481  -0.9230  -0.9203  -0.9037  -0.8977  -0.8883  -0.8743
    -0.8522  -0.8373  -0.8306  -0.8165  -0.7952  -0.7860  -0.7770  -0.7483
    -0.7249  -0.7078  -0.6967  -0.6759  -0.6603  -0.5877  -0.5619  -0.5386
    -0.5238  -0.5133  -0.4963  -0.4780  -0.4657  -0.4435  -0.4293  -0.4082
    -0.3912  -0.3370  -0.3061  -0.2934  -0.2636  -0.2325  -0.1945  -0.1414
    -0.0794  -0.0604  -0.0022   0.0342   0.1218   0.1516   0.2395   0.2587
     0.5748   0.7134   0.9181   0.9826   1.0258   1.0655   1.1367   1.1470
     1.1833   1.3923   1.4027   1.4518   1.6455   1.8433   1.9466   1.9865
     2.0027   2.0329   2.0581   2.1302   2.1822   2.2053   2.2809   2.2872
     2.3107   2.3556   2.3934   2.4185   2.4950   2.4979   2.6002   2.6501
     2.6690   2.6900   2.7227   2.7585   2.7820   2.8005   2.8204   2.8303
     2.8930   2.9164   2.9459   2.9747   2.9913   3.0407   3.0840   3.0978
     3.1126   3.1204   3.1413   3.1616   3.1870   3.2056   3.2101   3.2253
     3.2341   3.2519   3.2648   3.2827   3.2944   3.3244   3.3460   3.3820
     3.4016   3.4089   3.4284   3.4632   3.4864   3.5007   3.5092   3.5259
     3.5415   3.5561   3.5730   3.5789   3.5891   3.6038   3.6291   3.6435
     3.7088   3.7193   3.7435   3.7570   3.7717   3.7837   3.7865   3.8035
     3.8146   3.8490   3.8550   3.8876   3.9115   3.9173   3.9204   3.9296
     3.9398   3.9503   3.9791   4.0062   4.0176   4.0260   4.0414   4.0551
     4.0765   4.1037   4.1168   4.1281   4.1402   4.1566   4.1736   4.1997
     4.2094   4.2278   4.2412   4.2469   4.2557   4.2630   4.2742   4.2825
     4.2892   4.2972   4.3110   4.3276   4.3369   4.3545   4.3597   4.3728
     4.3776   4.3822   4.3904   4.3947   4.4064   4.4174   4.4189   4.4333
     4.4384   4.4452   4.4480   4.4598   4.4655   4.4707   4.4749   4.4828
     4.4912   4.4959   4.5040   4.5180   4.5368   4.5414   4.5474   4.5612
     4.5739   4.5763   4.5836   4.5947   4.6042   4.6142   4.6213   4.6454
     4.6521   4.6596   4.6670   4.6788   4.6889   4.7028   4.7072   4.7237
     4.7361   4.7443   4.7596   4.7789   4.7860   4.8162   4.8264   4.8412
     4.8471   4.8589   4.8693   4.8723   4.8758   4.8846   4.8910   4.8967
     4.9094   4.9153   4.9212   4.9259   4.9382   4.9485   4.9537   4.9598
     4.9692   4.9735   4.9819   4.9911   5.0028   5.0237   5.0268   5.0289
     5.0348   5.0379   5.0458   5.0515   5.0558   5.0658   5.0784   5.0838
     5.0982

          k =-0.5000 0.2500 0.0000 (135080 PWs)   bands (ev):

   -61.6926 -61.6721 -61.6705 -61.6618 -61.6614 -61.6495 -61.6477 -61.6415
   -61.6410 -61.6383 -61.6365 -61.6354 -61.6326 -61.6316 -61.6258 -61.6203
   -61.6167 -61.6122 -61.6035 -61.5986 -61.5967 -61.5932 -61.5894 -61.5858
   -61.5846 -61.5837 -61.5824 -61.5811 -61.5794 -61.5781 -61.5762 -61.5761
   -61.5733 -61.5705 -61.5682 -61.5668 -61.5664 -61.5644 -61.5595 -61.5589
   -61.5549 -61.5520 -61.5399 -61.5285 -61.5245 -61.5117 -61.5089 -61.5073
   -61.4988 -61.4928 -61.4837 -61.4778 -61.4599 -61.4551 -61.4493 -61.4446
   -61.4407 -61.4334 -61.4228 -61.4147 -61.4113 -61.4032 -61.3865 -61.3798
   -61.3767 -61.3715 -61.3706 -61.3696 -61.3661 -61.3607 -61.3552 -61.3205
   -44.3046 -42.7667 -35.7893 -35.7858 -35.7441 -35.7424 -35.7395 -35.7388
   -35.7353 -35.7329 -35.7258 -35.7225 -35.7206 -35.7181 -35.7030 -35.7005
   -35.6989 -35.6946 -35.6832 -35.6808 -35.6790 -35.6739 -35.6708 -35.6702
   -35.6689 -35.6663 -35.6636 -35.6627 -35.6593 -35.6553 -35.6545 -35.6525
   -35.6496 -35.6462 -35.6426 -35.6412 -35.6392 -35.6374 -35.6351 -35.6342
   -35.6315 -35.6302 -35.6288 -35.6255 -35.6240 -35.6224 -35.6200 -35.6169
   -35.6138 -35.6121 -35.6101 -35.6074 -35.6048 -35.6024 -35.5979 -35.5876
   -35.5853 -35.5792 -35.5752 -35.5689 -35.5644 -35.5604 -35.5568 -35.5497
   -35.5480 -35.5446 -35.5402 -35.5387 -35.5359 -35.5326 -35.5310 -35.5299
   -35.5271 -35.5211 -35.5174 -35.5088 -35.5077 -35.5025 -35.4993 -35.4936
   -35.4893 -35.4882 -35.4865 -35.4831 -35.4821 -35.4787 -35.4754 -35.4740
   -35.4730 -35.4695 -35.4686 -35.4666 -35.4646 -35.4638 -35.4629 -35.4624
   -35.4609 -35.4589 -35.4572 -35.4551 -35.4535 -35.4512 -35.4497 -35.4487
   -35.4461 -35.4432 -35.4406 -35.4377 -35.4364 -35.4337 -35.4312 -35.4299
   -35.4282 -35.4256 -35.4245 -35.4232 -35.4206 -35.4162 -35.4125 -35.4094
   -35.4082 -35.4060 -35.4039 -35.4025 -35.4007 -35.3967 -35.3943 -35.3926
   -35.3889 -35.3875 -35.3864 -35.3848 -35.3831 -35.3808 -35.3782 -35.3777
   -35.3761 -35.3746 -35.3731 -35.3710 -35.3692 -35.3669 -35.3650 -35.3635
   -35.3625 -35.3612 -35.3594 -35.3583 -35.3564 -35.3556 -35.3538 -35.3515
   -35.3495 -35.3476 -35.3465 -35.3446 -35.3431 -35.3395 -35.3379 -35.3371
   -35.3342 -35.3338 -35.3276 -35.3252 -35.3213 -35.3161 -35.3125 -35.3078
   -35.3024 -35.2991 -35.2965 -35.2896 -35.2853 -35.2825 -35.2775 -35.2757
   -35.2699 -35.2665 -35.2613 -35.2546 -35.2529 -35.2504 -35.2467 -35.2447
   -35.2367 -35.2340 -35.2290 -35.2282 -35.2258 -35.2221 -35.2203 -35.2161
   -35.2129 -35.2088 -35.2055 -35.2003 -35.1940 -35.1888 -35.1837 -35.1791
   -35.1751 -35.1720 -35.1700 -35.1646 -35.1616 -35.1597 -35.1497 -35.1477
   -35.1398 -35.1335 -35.1268 -35.1222 -35.1148 -35.1114 -35.1089 -35.0911
   -35.0799 -35.0706 -13.8044 -13.7955 -13.4618 -13.4531 -12.9572 -12.9479
   -12.9336 -12.9253 -12.8429 -12.7339 -12.6616 -12.6547 -12.5603 -12.4876
   -12.4764 -12.4510 -12.4184 -12.4058 -12.3334 -12.3200 -12.3074 -12.3006
   -12.2537 -12.2491 -12.2170 -12.1954 -12.1904 -12.1785 -12.1685 -12.1644
   -12.1571 -12.0789 -12.0742 -12.0628 -12.0400 -12.0224 -12.0144 -11.9966
   -11.9178 -11.9156 -11.8943 -11.8668 -11.7937 -11.7610 -11.5919 -11.5888
   -11.5494 -11.5460 -11.5411 -11.5409 -11.4717 -11.4356 -11.4345 -11.4335
   -11.4030 -11.4002 -11.3691 -11.3602 -11.3503 -11.3396 -11.2767 -11.2503
   -11.2296 -11.2014 -11.1439 -11.1400 -11.1254 -11.1069 -11.0179 -10.9998
   -10.8767 -10.8313  -8.0363  -4.8560  -4.7794  -4.6572  -4.6462  -4.3342
    -4.2541  -4.1591  -4.1335  -4.0517  -4.0414  -3.8831  -3.8779  -3.8566
    -3.8209  -3.7934  -3.7825  -3.7792  -3.7152  -3.7033  -3.6815  -3.6460
    -3.6371  -3.5911  -3.5862  -3.5786  -3.5608  -3.5517  -3.5217  -3.4299
    -3.4238  -3.3394  -3.3324  -3.3156  -3.3091  -3.2898  -3.2662  -3.2310
    -3.2218  -3.1442  -3.0967  -3.0948  -3.0922  -3.0686  -3.0347  -3.0257
    -3.0207  -2.9619  -2.9518  -2.9325  -2.8952  -2.7917  -2.7855  -2.7780
    -2.7631  -2.7396  -2.7298  -2.6645  -2.6465  -2.6321  -2.5602  -2.5320
    -2.5057  -2.4675  -2.4572  -2.4254  -2.3962  -2.3656  -2.3481  -2.3315
    -2.3207  -2.3037  -2.2831  -2.2741  -2.2692  -2.2527  -2.2458  -2.2411
    -2.2262  -2.2019  -2.1754  -2.1622  -2.1601  -2.1522  -2.1322  -2.1238
    -2.1161  -2.1115  -2.1014  -2.0823  -2.0592  -2.0440  -2.0356  -2.0251
    -2.0149  -1.9965  -1.9777  -1.9725  -1.9605  -1.9497  -1.9420  -1.9297
    -1.9098  -1.8946  -1.8742  -1.8718  -1.8644  -1.8512  -1.8403  -1.8344
    -1.8249  -1.8104  -1.7903  -1.7886  -1.7789  -1.7133  -1.6939  -1.6790
    -1.6736  -1.6612  -1.6475  -1.5721  -1.5388  -1.5294  -1.5191  -1.4965
    -1.4857  -1.4563  -1.4444  -1.4397  -1.4354  -1.4280  -1.4146  -1.4101
    -1.3877  -1.3703  -1.3603  -1.3376  -1.3270  -1.3249  -1.3096  -1.3011
    -1.2933  -1.2770  -1.2744  -1.2635  -1.2499  -1.2322  -1.2168  -1.2078
    -1.1949  -1.1819  -1.1673  -1.1586  -1.1429  -1.1314  -1.1217  -1.1090
    -1.0964  -1.0921  -1.0783  -1.0648  -1.0570  -1.0344  -1.0265  -1.0064
    -0.9903  -0.9860  -0.9355  -0.9120  -0.8940  -0.8667  -0.8596  -0.8552
    -0.8362  -0.8278  -0.8127  -0.8021  -0.7862  -0.7625  -0.7373  -0.7120
    -0.7003  -0.6838  -0.6448  -0.6327  -0.6284  -0.6142  -0.5741  -0.5546
    -0.5398  -0.5308  -0.5037  -0.4984  -0.4840  -0.4630  -0.4553  -0.4227
    -0.4188  -0.4034  -0.3491  -0.3079  -0.2645  -0.2539  -0.2082  -0.1236
    -0.1183  -0.0895  -0.0627   0.0435   0.0646   0.1137   0.1433   0.2843
     0.3044   0.4946   0.5064   1.0019   1.0739   1.1378   1.4079   1.4351
     1.4765   1.5339   1.5965   1.6108   1.6226   1.7118   1.7615   1.7966
     1.8174   1.8303   1.9514   2.0558   2.1434   2.1821   2.2077   2.2391
     2.2759   2.2977   2.3648   2.3792   2.4367   2.4799   2.5042   2.5617
     2.6468   2.6539   2.6773   2.7023   2.7192   2.7619   2.8092   2.8342
     2.8906   2.9076   2.9232   2.9385   2.9469   2.9644   2.9766   2.9990
     3.0088   3.0139   3.0778   3.0940   3.1223   3.1431   3.1693   3.2054
     3.2322   3.2440   3.2506   3.2832   3.3252   3.3411   3.3664   3.3759
     3.3903   3.4332   3.4441   3.4518   3.4659   3.4940   3.5285   3.5933
     3.6087   3.6186   3.6279   3.6384   3.6722   3.6826   3.7014   3.7182
     3.7264   3.7312   3.7595   3.7877   3.8042   3.8207   3.8340   3.8582
     3.8701   3.8861   3.8981   3.9158   3.9350   3.9555   4.0038   4.0093
     4.0200   4.0290   4.0377   4.0522   4.0691   4.0850   4.1015   4.1223
     4.1367   4.1476   4.1654   4.1717   4.1781   4.1945   4.2021   4.2117
     4.2204   4.2328   4.2415   4.2476   4.2574   4.2601   4.2694   4.2731
     4.2787   4.2837   4.2900   4.2977   4.3060   4.3110   4.3230   4.3264
     4.3393   4.3545   4.3651   4.3784   4.3871   4.3917   4.4014   4.4088
     4.4147   4.4167   4.4209   4.4265   4.4475   4.4589   4.4637   4.4695
     4.4801   4.4866   4.5013   4.5063   4.5376   4.5543   4.5670   4.5828
     4.6048   4.6111   4.6229   4.6410   4.6483   4.6626   4.6689   4.6764
     4.6877   4.6940   4.7024   4.7155   4.7304   4.7416   4.7499   4.7618
     4.7741   4.7841   4.8016   4.8124   4.8144   4.8228   4.8318   4.8391
     4.8508   4.8563   4.8640   4.8739   4.8845   4.8945   4.9019   4.9131
     4.9205   4.9222   4.9284   4.9358   4.9434   4.9457   4.9530   4.9594
     4.9613   4.9701   4.9754   4.9771   4.9867   4.9891   4.9984   5.0043
     5.0193   5.0267   5.0380   5.0492   5.0562   5.0638   5.0711   5.0817
     5.0875

     the Fermi energy is     3.6501 ev

!    total energy              =  -11961.41085159 Ry
     estimated scf accuracy    <          6.6E-09 Ry
     smearing contrib. (-TS)   =      -0.04516892 Ry
     internal energy E=F+TS    =  -11961.36568267 Ry

     The total energy is F=E-TS. E is the sum of the following terms:
     one-electron contribution = -159210.10416421 Ry
     hartree contribution      =   79706.71786554 Ry
     xc contribution           =   -1819.86977975 Ry
     ewald contribution        =   69365.40157862 Ry
     DFT-D3 Dispersion         =      -3.51118287 Ry

     convergence has been achieved in  35 iterations

     negative rho (up, down):  7.595E-02 0.000E+00

     Forces acting on atoms (cartesian axes, Ry/au):

     atom    1 type  1   force =     0.00142114    0.00184855    0.09158565
     atom    2 type  1   force =    -0.00158474    0.00571480   -0.02236189
     atom    3 type  1   force =     0.00564310   -0.00262786   -0.02214816
     atom    4 type  1   force =    -0.00115106   -0.00131374    0.09489065
     atom    5 type  1   force =     0.00027450    0.00049444    0.00032291
     atom    6 type  1   force =    -0.00005949   -0.00100563   -0.00000031
     atom    7 type  1   force =    -0.00028959    0.00019758    0.00012101
     atom    8 type  1   force =    -0.00020121   -0.00023536   -0.00076668
     atom    9 type  1   force =     0.00108037   -0.00015802    0.09287247
     atom   10 type  1   force =    -0.00487160    0.00147862   -0.01993815
     atom   11 type  1   force =     0.00328683   -0.00138833   -0.01725350
     atom   12 type  1   force =    -0.00067220   -0.00122641    0.09431492
     atom   13 type  1   force =    -0.00011224    0.00001941    0.00009878
     atom   14 type  1   force =    -0.00013889    0.00010589   -0.00053881
     atom   15 type  1   force =    -0.00024043   -0.00004185   -0.00001225
     atom   16 type  1   force =    -0.00008822   -0.00011572   -0.00094800
     atom   17 type  1   force =     0.00009023    0.00133295    0.09533263
     atom   18 type  1   force =    -0.00574656    0.00270807   -0.02087416
     atom   19 type  1   force =     0.00412854   -0.00457592   -0.01557904
     atom   20 type  1   force =    -0.00120057   -0.00004264    0.09372933
     atom   21 type  1   force =    -0.00008710    0.00015631   -0.00016596
     atom   22 type  1   force =     0.00067741    0.00068110   -0.00055599
     atom   23 type  1   force =     0.00031708   -0.00054028    0.00004900
     atom   24 type  1   force =    -0.00011811   -0.00065439   -0.00012767
     atom   25 type  1   force =     0.00032584    0.00159814    0.09145548
     atom   26 type  1   force =    -0.00322048    0.00212341   -0.02223175
     atom   27 type  1   force =     0.00064986   -0.00203074   -0.01761186
     atom   28 type  1   force =    -0.00101757   -0.00086717    0.09316523
     atom   29 type  1   force =    -0.00000888    0.00019589    0.00037360
     atom   30 type  1   force =    -0.00036137   -0.00067510    0.00012899
     atom   31 type  1   force =     0.00019322   -0.00073473   -0.00024788
     atom   32 type  1   force =     0.00019765   -0.00013019    0.00021675
     atom   33 type  1   force =     0.00043196   -0.00064111    0.09477808
     atom   34 type  1   force =    -0.00102034    0.00501452   -0.01709571
     atom   35 type  1   force =     0.00533422   -0.00095843   -0.00008924
     atom   36 type  1   force =    -0.00063136   -0.00047935    0.09546847
     atom   37 type  1   force =    -0.00027495   -0.00005415    0.00100452
     atom   38 type  1   force =     0.00003622    0.00018634   -0.00007751
     atom   39 type  1   force =     0.00029205   -0.00137200   -0.00123756
     atom   40 type  1   force =    -0.00001593   -0.00007346   -0.00000684
     atom   41 type  1   force =     0.00155230    0.00150754    0.09535395
     atom   42 type  1   force =    -0.00316208    0.00102975   -0.02104274
     atom   43 type  1   force =     0.00284624   -0.00441157   -0.01483063
     atom   44 type  1   force =    -0.00040014   -0.00069986    0.09328964
     atom   45 type  1   force =     0.00009235    0.00006944   -0.00028236
     atom   46 type  1   force =    -0.00036194    0.00044417   -0.00002997
     atom   47 type  1   force =    -0.00043574    0.00049706    0.00007672
     atom   48 type  1   force =    -0.00034195   -0.00014254   -0.00038908
     atom   49 type  1   force =     0.00085649    0.00036171    0.09601688
     atom   50 type  1   force =    -0.00421252    0.00344441   -0.01661014
     atom   51 type  1   force =     0.00281083   -0.00432062   -0.01940339
     atom   52 type  1   force =    -0.00037186   -0.00059949    0.09322609
     atom   53 type  1   force =     0.00030743   -0.00013609   -0.00004183
     atom   54 type  1   force =    -0.00001962    0.00042649    0.00005526
     atom   55 type  1   force =     0.00007927   -0.00006204   -0.00013555
     atom   56 type  1   force =     0.00000613    0.00024973    0.00008797
     atom   57 type  1   force =     0.00155166    0.00157699    0.09231889
     atom   58 type  1   force =    -0.00273368    0.00430144   -0.01890083
     atom   59 type  1   force =    -0.00098481   -0.00260932   -0.01883669
     atom   60 type  1   force =    -0.00011280   -0.00099059    0.09257127
     atom   61 type  1   force =     0.00043943   -0.00028898   -0.00050014
     atom   62 type  1   force =     0.00024351   -0.00005367    0.00018787
     atom   63 type  1   force =     0.00033171   -0.00015808   -0.00004514
     atom   64 type  1   force =     0.00001665   -0.00018688   -0.00008522
     atom   65 type  1   force =     0.00149629    0.00071522    0.09188582
     atom   66 type  1   force =    -0.00276013    0.00307268   -0.02013060
     atom   67 type  1   force =     0.00390357   -0.00249301   -0.01939736
     atom   68 type  1   force =    -0.00150322   -0.00143753    0.09262060
     atom   69 type  1   force =    -0.00001695    0.00032055    0.00025055
     atom   70 type  1   force =     0.00015116   -0.00006623    0.00008874
     atom   71 type  1   force =     0.00044049    0.00057416   -0.00009525
     atom   72 type  1   force =     0.00001619    0.00004213    0.00019012
     atom   73 type  2   force =    -0.00039500    0.00025503   -0.05341004
     atom   74 type  2   force =     0.00029340   -0.00038692   -0.05372776
     atom   75 type  2   force =     0.00104448    0.00117350   -0.01844596
     atom   76 type  2   force =    -0.00019893   -0.00117164   -0.02057986
     atom   77 type  2   force =    -0.00030112    0.00019630   -0.00009434
     atom   78 type  2   force =     0.00009816   -0.00054599   -0.00019482
     atom   79 type  2   force =    -0.00006301   -0.00032205    0.00065148
     atom   80 type  2   force =     0.00023314    0.00029497    0.00171832
     atom   81 type  2   force =     0.00024747    0.00028902   -0.05339054
     atom   82 type  2   force =     0.00044110   -0.00012079   -0.05403563
     atom   83 type  2   force =     0.00067156    0.00015025   -0.02125080
     atom   84 type  2   force =     0.00066013    0.00035675   -0.02163888
     atom   85 type  2   force =    -0.00020031   -0.00009615   -0.00004610
     atom   86 type  2   force =    -0.00003543    0.00001276   -0.00067042
     atom   87 type  2   force =     0.00006503    0.00025279    0.00047645
     atom   88 type  2   force =     0.00016649    0.00030726   -0.00033152
     atom   89 type  2   force =    -0.00047888    0.00051738   -0.05327882
     atom   90 type  2   force =     0.00129144   -0.00090568   -0.05360615
     atom   91 type  2   force =    -0.00001773    0.00008827   -0.02636177
     atom   92 type  2   force =    -0.00029439   -0.00083654   -0.01936964
     atom   93 type  2   force =    -0.00001128    0.00033665    0.00007939
     atom   94 type  2   force =     0.00013057   -0.00036425   -0.00049435
     atom   95 type  2   force =     0.00025754   -0.00027348    0.00004617
     atom   96 type  2   force =     0.00007256   -0.00044844    0.00005348
     atom   97 type  2   force =    -0.00047071    0.00028397   -0.05403958
     atom   98 type  2   force =     0.00039405   -0.00039905   -0.05377475
     atom   99 type  2   force =    -0.00000582    0.00053834   -0.01983595
     atom  100 type  2   force =    -0.00046233   -0.00165391   -0.01660639
     atom  101 type  2   force =     0.00007438   -0.00012508   -0.00049224
     atom  102 type  2   force =    -0.00006842   -0.00007174    0.00017527
     atom  103 type  2   force =    -0.00023146    0.00033564    0.00044182
     atom  104 type  2   force =     0.00056527   -0.00021053    0.00008831
     atom  105 type  2   force =    -0.00088364    0.00048927   -0.05799998
     atom  106 type  2   force =     0.00023082   -0.00019644   -0.05464074
     atom  107 type  2   force =    -0.00035369    0.00227360   -0.02754486
     atom  108 type  2   force =    -0.00227671   -0.00012963   -0.02159763
     atom  109 type  2   force =     0.00017936    0.00001999   -0.00086117
     atom  110 type  2   force =    -0.00007294    0.00006395   -0.00003883
     atom  111 type  2   force =    -0.00006643    0.00162440   -0.00117669
     atom  112 type  2   force =    -0.00091590   -0.00025250    0.00027855
     atom  113 type  2   force =    -0.00033886    0.00019890   -0.05272934
     atom  114 type  2   force =     0.00037524   -0.00058459   -0.05418903
     atom  115 type  2   force =     0.00005034   -0.00215148   -0.03068572
     atom  116 type  2   force =    -0.00088510    0.00036115   -0.01712564
     atom  117 type  2   force =    -0.00016761    0.00032370    0.00016137
     atom  118 type  2   force =    -0.00001553   -0.00018222   -0.00007379
     atom  119 type  2   force =    -0.00045066   -0.00069910   -0.00008251
     atom  120 type  2   force =    -0.00016558    0.00015374   -0.00045409
     atom  121 type  2   force =    -0.00039751    0.00109106   -0.05323024
     atom  122 type  2   force =     0.00062614   -0.00042136   -0.05303712
     atom  123 type  2   force =     0.00061920    0.00006371   -0.02831180
     atom  124 type  2   force =    -0.00140928   -0.00079411   -0.02170018
     atom  125 type  2   force =    -0.00008669   -0.00026494   -0.00012081
     atom  126 type  2   force =     0.00039230    0.00016863    0.00005009
     atom  127 type  2   force =    -0.00011607    0.00021774    0.00010198
     atom  128 type  2   force =    -0.00040289    0.00013863   -0.00014874
     atom  129 type  2   force =    -0.00061000    0.00050647   -0.05305411
     atom  130 type  2   force =     0.00022609   -0.00083411   -0.05325943
     atom  131 type  2   force =     0.00144112    0.00101402   -0.02123511
     atom  132 type  2   force =     0.00037219   -0.00046108   -0.01809924
     atom  133 type  2   force =     0.00003384   -0.00008334   -0.00005239
     atom  134 type  2   force =     0.00028884    0.00001492    0.00014259
     atom  135 type  2   force =     0.00023282   -0.00033435   -0.00043371
     atom  136 type  2   force =    -0.00020884    0.00007593   -0.00000755
     atom  137 type  2   force =    -0.00062885   -0.00030575   -0.05330922
     atom  138 type  2   force =    -0.00019512   -0.00020651   -0.05336737
     atom  139 type  2   force =     0.00198751    0.00098223   -0.01818437
     atom  140 type  2   force =    -0.00114369   -0.00088024   -0.02328699
     atom  141 type  2   force =    -0.00002662    0.00025101   -0.00009636
     atom  142 type  2   force =    -0.00002565   -0.00001221    0.00010490
     atom  143 type  2   force =    -0.00006706    0.00014324   -0.00004029
     atom  144 type  2   force =     0.00027320    0.00003410   -0.00019640
     atom  145 type  3   force =    -0.00009677   -0.00122460    0.00262090
     atom  146 type  4   force =    -0.00048605   -0.00038212   -0.00019145
     atom  147 type  4   force =     0.00070118    0.00084317    0.00154514

     Total force =     0.006533     Total SCF correction =     0.000272
     Energy error            =      8.2E-05 Ry
     Gradient error          =      2.6E-03 Ry/Bohr

     number of scf cycles    =  23
     number of bfgs steps    =  22

     energy             old  =  -11961.4107695543 Ry
     energy             new  =  -11961.4108515878 Ry

     CASE: energy            _new < energy            _old

     new trust radius        =       0.0102229455 bohr
     new conv_thr            =       0.0000000200 Ry


ATOMIC_POSITIONS (angstrom)
V                0.0000000000        0.0000000000       10.0000000000    0   0   0
V                2.0432625400        0.0000000000       12.0432625400    0   0   0
V                0.0000000000        2.0432625400       12.0432625400    0   0   0
V                2.0432625400        2.0432625400       10.0000000000    0   0   0
V                0.0758377952        0.0744150416       14.1608469051
V                2.0191159236       -0.0998533060       16.0108097140
V               -0.1115938043        2.0287194364       16.0058376986
V                1.9847085912        1.9858597933       14.1941686866
V                0.0000000000        4.0865250700       10.0000000000    0   0   0
V                2.0432625400        4.0865250700       12.0432625400    0   0   0
V                0.0000000000        6.1297876100       12.0432625400    0   0   0
V                2.0432625400        6.1297876100       10.0000000000    0   0   0
V                0.0645936132        4.1296711047       14.1529005324
V                2.0392233054        4.1736509099       15.9915952175
V                0.0062136782        6.0832792802       16.0021579926
V                2.0474951637        6.0739805625       14.1721377708
V                0.0000000000        8.1730501500       10.0000000000    0   0   0
V                2.0432625400        8.1730501500       12.0432625400    0   0   0
V                0.0000000000       10.2163126900       12.0432625400    0   0   0
V                2.0432625400       10.2163126900       10.0000000000    0   0   0
V                0.0807385103        8.2503963404       14.1427180203
V                2.0403193601        8.2364053028       16.0111898526
V               -0.0251156793       10.2747641335       16.0009195491
V                1.9633155762       10.1371442260       14.1501013756
V                4.0865250700        0.0000000000       10.0000000000    0   0   0
V                6.1297876100        0.0000000000       12.0432625400    0   0   0
V                4.0865250700        2.0432625400       12.0432625400    0   0   0
V                6.1297876100        2.0432625400       10.0000000000    0   0   0
V                4.1298374541        0.0502413724       14.1678664529
V                6.1115312389        0.0064398416       16.0083231109
V                4.2011602299        2.0339499841       15.9918815573
V                6.0751617313        1.9824142232       14.1528641856
V                4.0865250700        4.0865250700       10.0000000000    0   0   0
V                6.1297876100        4.0865250700       12.0432625400    0   0   0
V                4.0865250700        6.1297876100       12.0432625400    0   0   0
V                6.1297876100        6.1297876100       10.0000000000    0   0   0
V                4.1338489502        4.1840829545       14.1410237857
V                6.1264328233        3.9909102204       15.9910470185
V                3.9189366110        6.0707806772       16.4027812717
V                6.0205376148        6.0826219962       14.2052732651
V                4.0865250700        8.1730501500       10.0000000000    0   0   0
V                6.1297876100        8.1730501500       12.0432625400    0   0   0
V                4.0865250700       10.2163126900       12.0432625400    0   0   0
V                6.1297876100       10.2163126900       10.0000000000    0   0   0
V                4.1660094403        8.1825781745       14.1520663863
V                6.1402411580        8.2805025147       15.9944866948
V                4.1216054785       10.2591556684       16.0060159434
V                6.0580585264       10.1619129664       14.1599886891
V                8.1730501500        0.0000000000       10.0000000000    0   0   0
V               10.2163126900        0.0000000000       12.0432625400    0   0   0
V                8.1730501500        2.0432625400       12.0432625400    0   0   0
V               10.2163126900        2.0432625400       10.0000000000    0   0   0
V                8.2448333856        0.0707311335       14.1348457484
V               10.2591366408       -0.0135539441       16.0000930430
V                8.1689290811        2.0908228377       16.0057068732
V               10.1440066340        1.9691511363       14.1435098062
V                8.1730501500        4.0865250700       10.0000000000    0   0   0
V               10.2163126900        4.0865250700       12.0432625400    0   0   0
V                8.1730501500        6.1297876100       12.0432625400    0   0   0
V               10.2163126900        6.1297876100       10.0000000000    0   0   0
V                8.2364556250        4.1692081523       14.1576592247
V               10.2099729024        4.1014589373       16.0025539028
V                8.2928300786        6.1442539626       16.0022804666
V               10.1466486314        6.0676217261       14.1584709671
V                8.1730501500        8.1730501500       10.0000000000    0   0   0
V               10.2163126900        8.1730501500       12.0432625400    0   0   0
V                8.1730501500       10.2163126900       12.0432625400    0   0   0
V               10.2163126900       10.2163126900       10.0000000000    0   0   0
V                8.2384375208        8.2185899705       14.1690283414
V               10.1815132448        8.1893376551       16.0042586197
V                8.1705378487       10.1586876920       16.0037327630
V               10.1509142281       10.1493919896       14.1450724060
N                0.0000000000        2.0432625400       10.0000000000    0   0   0
N                2.0432625400        0.0000000000       10.0000000000    0   0   0
N                0.0000000000        0.0000000000       12.0432625400    0   0   0
N                2.0432625400        2.0432625400       12.0432625400    0   0   0
N               -0.0505157875        2.0850704874       14.1092586597
N                2.0873666714       -0.0518952416       14.1127978739
N                0.0102012657        0.0220976043       16.3154689256
N                2.0410629717        2.0397236643       16.2497543916
N                0.0000000000        6.1297876100       10.0000000000    0   0   0
N                2.0432625400        4.0865250700       10.0000000000    0   0   0
N                0.0000000000        4.0865250700       12.0432625400    0   0   0
N                2.0432625400        6.1297876100       12.0432625400    0   0   0
N               -0.0284522649        6.1674786874       14.1077903681
N                2.0869972019        4.0365685341       14.1004887948
N                0.0035503749        4.0525755627       16.2882095847
N                1.9756412011        6.1749901330       16.2622422601
N                0.0000000000       10.2163126900       10.0000000000    0   0   0
N                2.0432625400        8.1730501500       10.0000000000    0   0   0
N                0.0000000000        8.1730501500       12.0432625400    0   0   0
N                2.0432625400       10.2163126900       12.0432625400    0   0   0
N               -0.0591491079       10.2754701447       14.1035156732
N                2.1025469480        8.1247041832       14.1077463308
N               -0.0126002376        8.1989128289       16.2227769215
N                2.0461701169       10.2045970696       16.2860591413
N                4.0865250700        2.0432625400       10.0000000000    0   0   0
N                6.1297876100        0.0000000000       10.0000000000    0   0   0
N                4.0865250700        0.0000000000       12.0432625400    0   0   0
N                6.1297876100        2.0432625400       12.0432625400    0   0   0
N                4.0441680066        2.0819717451       14.1011634999
N                6.1716663053       -0.0427113011       14.1077696525
N                4.0621942687        0.0228971399       16.3056888328
N                6.1695248662        2.0112742213       16.3167440865
N                4.0865250700        6.1297876100       10.0000000000    0   0   0
N                6.1297876100        4.0865250700       10.0000000000    0   0   0
N                4.0865250700        4.0865250700       12.0432625400    0   0   0
N                6.1297876100        6.1297876100       12.0432625400    0   0   0
N                4.0488198171        6.1721226965       14.1649437535
N                6.1710231760        4.0527158665       14.1007604568
N                4.0838037180        4.0520983023       16.2155378851
N                6.1487955743        6.1202831055       16.2121431230
N                4.0865250700       10.2163126900       10.0000000000    0   0   0
N                6.1297876100        8.1730501500       10.0000000000    0   0   0
N                4.0865250700        8.1730501500       12.0432625400    0   0   0
N                6.1297876100       10.2163126900       12.0432625400    0   0   0
N                4.0330192361       10.2470855961       14.1089677429
N                6.1905217162        8.1318616840       14.1009368658
N                4.1097642230        8.1941093938       16.1955048138
N                6.1412947257       10.2605350352       16.3013517785
N                8.1730501500        2.0432625400       10.0000000000    0   0   0
N               10.2163126900        0.0000000000       10.0000000000    0   0   0
N                8.1730501500        0.0000000000       12.0432625400    0   0   0
N               10.2163126900        2.0432625400       12.0432625400    0   0   0
N                8.1239636287        2.1035472406       14.1069481450
N               10.2701014049       -0.0562081109       14.1039709824
N                8.1904102663       -0.0019879114       16.2096050389
N               10.1768753472        2.0452349245       16.2804341632
N                8.1730501500        6.1297876100       10.0000000000    0   0   0
N               10.2163126900        4.0865250700       10.0000000000    0   0   0
N                8.1730501500        4.0865250700       12.0432625400    0   0   0
N               10.2163126900        6.1297876100       12.0432625400    0   0   0
N                8.1171536831        6.1795965761       14.1047717193
N               10.2625900449        4.0368220214       14.1047636969
N                8.1721664256        4.1260591725       16.2941838918
N               10.2687748394        6.1382233128       16.2952062156
N                8.1730501500       10.2163126900       10.0000000000    0   0   0
N               10.2163126900        8.1730501500       10.0000000000    0   0   0
N                8.1730501500        8.1730501500       12.0432625400    0   0   0
N               10.2163126900       10.2163126900       12.0432625400    0   0   0
N                8.1229258215       10.2578127749       14.1072122549
N               10.2730616912        8.1228106590       14.1060084406
N                8.1603194032        8.1470687284       16.3237671174
N               10.2050092921       10.2163357519       16.2722870342
S                3.9231076541        6.0368206346       18.6116280003
Li               6.1065715442        6.1341559193       18.1398952280
Li               2.1152489228        2.1631016242       18.1033796295



     Writing config-only to output data dir ./tmp/VN_LiS_combi2_144.save/ :
     XML data file
     NEW-OLD atomic charge density approx. for the potential

     Check: negative core charge=   -0.000004

     negative rho (up, down):  7.601E-02 0.000E+00

     total cpu time spent up to now is    13033.7 secs

     per-process dynamical memory:   944.8 Mb

     Self-consistent Calculation

     iteration #  1     ecut=    45.00 Ry     beta= 0.20
     Davidson diagonalization with overlap
     ethr =  1.00E-06,  avg # of iterations =  4.0

     Threshold (ethr) on eigenvalues was too large:
     Diagonalizing with lowered threshold

     Davidson diagonalization with overlap
     ethr =  1.14E-08,  avg # of iterations =  5.1

     negative rho (up, down):  7.601E-02 0.000E+00

     total cpu time spent up to now is    13321.9 secs

     total energy              =  -11961.41087079 Ry
     estimated scf accuracy    <       0.00018993 Ry

     iteration #  2     ecut=    45.00 Ry     beta= 0.20
     Davidson diagonalization with overlap
     ethr =  1.45E-08,  avg # of iterations =  6.0

     negative rho (up, down):  7.601E-02 0.000E+00

     total cpu time spent up to now is    13460.0 secs

     total energy              =  -11961.41080418 Ry
     estimated scf accuracy    <       0.00332090 Ry

     iteration #  3     ecut=    45.00 Ry     beta= 0.20
     Davidson diagonalization with overlap
     ethr =  1.45E-08,  avg # of iterations =  6.0

     negative rho (up, down):  7.601E-02 0.000E+00

     total cpu time spent up to now is    13590.7 secs

     total energy              =  -11961.41088280 Ry
     estimated scf accuracy    <       0.00164821 Ry

     iteration #  4     ecut=    45.00 Ry     beta= 0.20
     Davidson diagonalization with overlap
     ethr =  1.45E-08,  avg # of iterations =  2.3

     negative rho (up, down):  7.601E-02 0.000E+00

     total cpu time spent up to now is    13693.7 secs

     total energy              =  -11961.41090314 Ry
     estimated scf accuracy    <       0.00062509 Ry

     iteration #  5     ecut=    45.00 Ry     beta= 0.20
     Davidson diagonalization with overlap
     ethr =  1.45E-08,  avg # of iterations =  1.7

     negative rho (up, down):  7.601E-02 0.000E+00

     total cpu time spent up to now is    13800.8 secs

     total energy              =  -11961.41091038 Ry
     estimated scf accuracy    <       0.00017710 Ry

     iteration #  6     ecut=    45.00 Ry     beta= 0.20
     Davidson diagonalization with overlap
     ethr =  1.35E-08,  avg # of iterations =  1.5

     negative rho (up, down):  7.601E-02 0.000E+00

     total cpu time spent up to now is    13897.0 secs

     total energy              =  -11961.41091158 Ry
     estimated scf accuracy    <       0.00009305 Ry

     iteration #  7     ecut=    45.00 Ry     beta= 0.20
     Davidson diagonalization with overlap
     ethr =  7.11E-09,  avg # of iterations =  1.8

     negative rho (up, down):  7.601E-02 0.000E+00

     total cpu time spent up to now is    13998.7 secs

     total energy              =  -11961.41091287 Ry
     estimated scf accuracy    <       0.00003714 Ry

     iteration #  8     ecut=    45.00 Ry     beta= 0.20
     Davidson diagonalization with overlap
     ethr =  2.84E-09,  avg # of iterations =  2.0

     negative rho (up, down):  7.601E-02 0.000E+00

     total cpu time spent up to now is    14101.7 secs

     total energy              =  -11961.41091374 Ry
     estimated scf accuracy    <       0.00001068 Ry

     iteration #  9     ecut=    45.00 Ry     beta= 0.20
     Davidson diagonalization with overlap
     ethr =  8.16E-10,  avg # of iterations =  6.0

     negative rho (up, down):  7.601E-02 0.000E+00

     total cpu time spent up to now is    14212.0 secs

     total energy              =  -11961.41091288 Ry
     estimated scf accuracy    <       0.00006158 Ry

     iteration # 10     ecut=    45.00 Ry     beta= 0.20
     Davidson diagonalization with overlap
     ethr =  8.16E-10,  avg # of iterations =  3.2

     negative rho (up, down):  7.601E-02 0.000E+00

     total cpu time spent up to now is    14320.6 secs

     total energy              =  -11961.41091392 Ry
     estimated scf accuracy    <       0.00002013 Ry

     iteration # 11     ecut=    45.00 Ry     beta= 0.20
     Davidson diagonalization with overlap
     ethr =  8.16E-10,  avg # of iterations =  1.1

     negative rho (up, down):  7.601E-02 0.000E+00

     total cpu time spent up to now is    14412.6 secs

     total energy              =  -11961.41091437 Ry
     estimated scf accuracy    <       0.00000399 Ry

     iteration # 12     ecut=    45.00 Ry     beta= 0.20
     Davidson diagonalization with overlap
     ethr =  3.05E-10,  avg # of iterations =  4.1

     negative rho (up, down):  7.601E-02 0.000E+00

     total cpu time spent up to now is    14519.9 secs

     total energy              =  -11961.41091440 Ry
     estimated scf accuracy    <       0.00000552 Ry

     iteration # 13     ecut=    45.00 Ry     beta= 0.20
     Davidson diagonalization with overlap
     ethr =  3.05E-10,  avg # of iterations =  1.6

     negative rho (up, down):  7.601E-02 0.000E+00

     total cpu time spent up to now is    14624.6 secs

     total energy              =  -11961.41091435 Ry
     estimated scf accuracy    <       0.00001071 Ry

     iteration # 14     ecut=    45.00 Ry     beta= 0.20
     Davidson diagonalization with overlap
     ethr =  3.05E-10,  avg # of iterations =  2.0

     negative rho (up, down):  7.601E-02 0.000E+00

     total cpu time spent up to now is    14727.5 secs

     total energy              =  -11961.41091449 Ry
     estimated scf accuracy    <       0.00000222 Ry

     iteration # 15     ecut=    45.00 Ry     beta= 0.20
     Davidson diagonalization with overlap
     ethr =  1.70E-10,  avg # of iterations =  2.9

     negative rho (up, down):  7.601E-02 0.000E+00

     total cpu time spent up to now is    14836.3 secs

     total energy              =  -11961.41091437 Ry
     estimated scf accuracy    <       0.00002490 Ry

     iteration # 16     ecut=    45.00 Ry     beta= 0.20
     Davidson diagonalization with overlap
     ethr =  1.70E-10,  avg # of iterations =  1.0

     negative rho (up, down):  7.601E-02 0.000E+00

     total cpu time spent up to now is    14923.6 secs

     total energy              =  -11961.41091463 Ry
     estimated scf accuracy    <       0.00000076 Ry

     iteration # 17     ecut=    45.00 Ry     beta= 0.20
     Davidson diagonalization with overlap
     ethr =  5.77E-11,  avg # of iterations =  2.0

     negative rho (up, down):  7.601E-02 0.000E+00

     total cpu time spent up to now is    15026.1 secs

     total energy              =  -11961.41091463 Ry
     estimated scf accuracy    <       0.00000045 Ry

     iteration # 18     ecut=    45.00 Ry     beta= 0.20
     Davidson diagonalization with overlap
     ethr =  3.44E-11,  avg # of iterations =  2.2

     negative rho (up, down):  7.601E-02 0.000E+00

     total cpu time spent up to now is    15132.2 secs

     total energy              =  -11961.41091464 Ry
     estimated scf accuracy    <       0.00000102 Ry

     iteration # 19     ecut=    45.00 Ry     beta= 0.20
     Davidson diagonalization with overlap
     ethr =  3.44E-11,  avg # of iterations =  1.6

     negative rho (up, down):  7.601E-02 0.000E+00

     total cpu time spent up to now is    15234.2 secs

     total energy              =  -11961.41091466 Ry
     estimated scf accuracy    <       0.00000066 Ry

     iteration # 20     ecut=    45.00 Ry     beta= 0.20
     Davidson diagonalization with overlap
     ethr =  3.44E-11,  avg # of iterations =  1.4

     negative rho (up, down):  7.601E-02 0.000E+00

     total cpu time spent up to now is    15337.7 secs

     total energy              =  -11961.41091466 Ry
     estimated scf accuracy    <       0.00000050 Ry

     iteration # 21     ecut=    45.00 Ry     beta= 0.20
     Davidson diagonalization with overlap
     ethr =  3.44E-11,  avg # of iterations =  1.2

     negative rho (up, down):  7.601E-02 0.000E+00

     total cpu time spent up to now is    15434.9 secs

     total energy              =  -11961.41091467 Ry
     estimated scf accuracy    <       0.00000032 Ry

     iteration # 22     ecut=    45.00 Ry     beta= 0.20
     Davidson diagonalization with overlap
     ethr =  2.45E-11,  avg # of iterations =  1.5

     negative rho (up, down):  7.601E-02 0.000E+00

     total cpu time spent up to now is    15537.2 secs

     total energy              =  -11961.41091467 Ry
     estimated scf accuracy    <       0.00000018 Ry

     iteration # 23     ecut=    45.00 Ry     beta= 0.20
     Davidson diagonalization with overlap
     ethr =  1.34E-11,  avg # of iterations =  2.0

     negative rho (up, down):  7.601E-02 0.000E+00

     total cpu time spent up to now is    15641.1 secs

     total energy              =  -11961.41091467 Ry
     estimated scf accuracy    <       0.00000049 Ry

     iteration # 24     ecut=    45.00 Ry     beta= 0.20
     Davidson diagonalization with overlap
     ethr =  1.34E-11,  avg # of iterations =  1.0

     negative rho (up, down):  7.601E-02 0.000E+00

     total cpu time spent up to now is    15728.6 secs

     total energy              =  -11961.41091468 Ry
     estimated scf accuracy    <       0.00000005 Ry

     iteration # 25     ecut=    45.00 Ry     beta= 0.20
     Davidson diagonalization with overlap
     ethr =  4.11E-12,  avg # of iterations =  2.3

     negative rho (up, down):  7.601E-02 0.000E+00

     total cpu time spent up to now is    15832.3 secs

     total energy              =  -11961.41091468 Ry
     estimated scf accuracy    <       0.00000041 Ry

     iteration # 26     ecut=    45.00 Ry     beta= 0.20
     Davidson diagonalization with overlap
     ethr =  4.11E-12,  avg # of iterations =  1.7

     negative rho (up, down):  7.601E-02 0.000E+00

     total cpu time spent up to now is    15936.4 secs

     total energy              =  -11961.41091468 Ry
     estimated scf accuracy    <       0.00000009 Ry

     iteration # 27     ecut=    45.00 Ry     beta= 0.20
     Davidson diagonalization with overlap
     ethr =  4.11E-12,  avg # of iterations =  2.1

     negative rho (up, down):  7.601E-02 0.000E+00

     total cpu time spent up to now is    16041.9 secs

     total energy              =  -11961.41091468 Ry
     estimated scf accuracy    <       0.00000013 Ry

     iteration # 28     ecut=    45.00 Ry     beta= 0.20
     Davidson diagonalization with overlap
     ethr =  4.11E-12,  avg # of iterations =  1.0

     negative rho (up, down):  7.601E-02 0.000E+00

     total cpu time spent up to now is    16132.9 secs

     End of self-consistent calculation

          k = 0.0000 0.0000 0.0000 (135157 PWs)   bands (ev):

   -61.6906 -61.6765 -61.6624 -61.6589 -61.6574 -61.6531 -61.6499 -61.6482
   -61.6443 -61.6405 -61.6313 -61.6306 -61.6275 -61.6266 -61.6247 -61.6227
   -61.6212 -61.6109 -61.6031 -61.5975 -61.5954 -61.5920 -61.5879 -61.5866
   -61.5860 -61.5838 -61.5831 -61.5827 -61.5774 -61.5756 -61.5738 -61.5730
   -61.5715 -61.5700 -61.5683 -61.5670 -61.5666 -61.5656 -61.5640 -61.5551
   -61.5543 -61.5518 -61.5392 -61.5267 -61.5250 -61.5136 -61.5097 -61.5040
   -61.4987 -61.4922 -61.4831 -61.4777 -61.4592 -61.4549 -61.4484 -61.4439
   -61.4389 -61.4320 -61.4215 -61.4138 -61.4097 -61.4014 -61.3853 -61.3787
   -61.3758 -61.3711 -61.3692 -61.3684 -61.3653 -61.3603 -61.3531 -61.3203
   -44.3128 -42.7638 -35.7723 -35.7710 -35.7692 -35.7650 -35.7308 -35.7290
   -35.7272 -35.7265 -35.7244 -35.7237 -35.7210 -35.7148 -35.7117 -35.7101
   -35.6984 -35.6940 -35.6904 -35.6865 -35.6785 -35.6778 -35.6765 -35.6747
   -35.6721 -35.6685 -35.6672 -35.6662 -35.6637 -35.6598 -35.6543 -35.6529
   -35.6512 -35.6475 -35.6452 -35.6415 -35.6346 -35.6284 -35.6276 -35.6255
   -35.6250 -35.6240 -35.6226 -35.6191 -35.6172 -35.6159 -35.6132 -35.6120
   -35.6063 -35.6013 -35.5978 -35.5966 -35.5929 -35.5922 -35.5847 -35.5835
   -35.5774 -35.5752 -35.5711 -35.5699 -35.5666 -35.5652 -35.5625 -35.5592
   -35.5569 -35.5550 -35.5510 -35.5502 -35.5475 -35.5451 -35.5356 -35.5339
   -35.5318 -35.5280 -35.5109 -35.5084 -35.5077 -35.5052 -35.5023 -35.4997
   -35.4976 -35.4970 -35.4944 -35.4893 -35.4858 -35.4824 -35.4753 -35.4729
   -35.4702 -35.4699 -35.4685 -35.4682 -35.4661 -35.4637 -35.4620 -35.4610
   -35.4591 -35.4574 -35.4541 -35.4519 -35.4472 -35.4451 -35.4399 -35.4393
   -35.4339 -35.4329 -35.4297 -35.4277 -35.4259 -35.4254 -35.4237 -35.4223
   -35.4184 -35.4172 -35.4159 -35.4148 -35.4112 -35.4104 -35.4074 -35.4059
   -35.4050 -35.4035 -35.4031 -35.4021 -35.3992 -35.3991 -35.3976 -35.3959
   -35.3936 -35.3931 -35.3896 -35.3877 -35.3869 -35.3860 -35.3843 -35.3828
   -35.3823 -35.3803 -35.3788 -35.3773 -35.3761 -35.3745 -35.3735 -35.3703
   -35.3682 -35.3662 -35.3650 -35.3620 -35.3596 -35.3569 -35.3544 -35.3504
   -35.3500 -35.3467 -35.3462 -35.3443 -35.3383 -35.3354 -35.3342 -35.3330
   -35.3322 -35.3306 -35.3244 -35.3192 -35.3163 -35.3146 -35.3059 -35.3051
   -35.3008 -35.2960 -35.2908 -35.2884 -35.2827 -35.2806 -35.2770 -35.2738
   -35.2703 -35.2666 -35.2627 -35.2549 -35.2510 -35.2485 -35.2428 -35.2426
   -35.2398 -35.2371 -35.2286 -35.2258 -35.2235 -35.2226 -35.2209 -35.2169
   -35.2126 -35.2081 -35.2046 -35.2000 -35.1937 -35.1855 -35.1816 -35.1772
   -35.1722 -35.1688 -35.1673 -35.1657 -35.1638 -35.1593 -35.1501 -35.1455
   -35.1376 -35.1326 -35.1279 -35.1191 -35.1157 -35.1129 -35.1089 -35.0900
   -35.0781 -35.0702 -14.0302 -13.3817 -13.3752 -13.3706 -13.3574 -13.1537
   -12.7822 -12.7777 -12.7690 -12.7481 -12.6111 -12.6091 -12.6024 -12.5902
   -12.4920 -12.4829 -12.4792 -12.4709 -12.4493 -12.3865 -12.3416 -12.2138
   -12.1940 -12.1794 -12.1722 -12.1665 -12.1619 -12.1551 -12.1457 -12.1360
   -12.1188 -12.1079 -12.0899 -12.0545 -12.0324 -12.0246 -12.0077 -12.0026
   -11.8751 -11.8719 -11.8702 -11.8642 -11.7742 -11.7258 -11.7100 -11.6875
   -11.6184 -11.4921 -11.4807 -11.4798 -11.4793 -11.4775 -11.4681 -11.4652
   -11.4593 -11.4292 -11.3118 -11.2960 -11.2820 -11.2631 -11.2388 -11.2358
   -11.2351 -11.2346 -11.2328 -11.2003 -11.1684 -11.1285 -11.0013 -10.9509
   -10.9107 -10.8570  -8.0350  -4.4917  -4.4757  -4.4620  -4.4422  -4.3127
    -4.3105  -4.2985  -4.2874  -4.1486  -4.1434  -4.1096  -4.0992  -4.0673
    -4.0610  -4.0462  -4.0411  -3.7485  -3.7419  -3.7108  -3.7063  -3.5360
    -3.5307  -3.5272  -3.5230  -3.4408  -3.4311  -3.4252  -3.4234  -3.4053
    -3.3978  -3.3876  -3.3754  -3.3205  -3.3053  -3.2901  -3.2804  -3.2751
    -3.0694  -3.0433  -3.0217  -3.0020  -2.9568  -2.9478  -2.9412  -2.9302
    -2.9225  -2.9129  -2.8834  -2.8776  -2.8670  -2.8624  -2.8236  -2.8191
    -2.8094  -2.8047  -2.8028  -2.7959  -2.7766  -2.7678  -2.4385  -2.4239
    -2.3895  -2.3786  -2.3573  -2.3507  -2.3051  -2.3009  -2.2883  -2.2618
    -2.2563  -2.2539  -2.2453  -2.2384  -2.2371  -2.2330  -2.2261  -2.2236
    -2.2210  -2.1794  -2.1662  -2.1601  -2.1537  -2.1417  -2.1019  -2.0873
    -2.0653  -2.0548  -2.0421  -2.0277  -2.0249  -2.0189  -2.0005  -1.9915
    -1.9862  -1.9624  -1.9564  -1.9461  -1.9429  -1.9355  -1.9103  -1.9037
    -1.8976  -1.8907  -1.8848  -1.8744  -1.8711  -1.8659  -1.8581  -1.8501
    -1.8397  -1.7777  -1.7670  -1.7616  -1.7529  -1.7406  -1.7286  -1.7177
    -1.7036  -1.6881  -1.6232  -1.6219  -1.6208  -1.6167  -1.6112  -1.6003
    -1.5987  -1.5826  -1.5744  -1.5428  -1.5304  -1.5144  -1.5068  -1.5020
    -1.4947  -1.4942  -1.4591  -1.4481  -1.4406  -1.4038  -1.3886  -1.3872
    -1.3724  -1.3693  -1.3560  -1.3554  -1.3541  -1.3536  -1.3486  -1.3372
    -1.2949  -1.2747  -1.2607  -1.2387  -1.2275  -1.2197  -1.2015  -1.1940
    -1.1798  -1.1726  -1.1666  -1.1511  -1.1416  -1.1250  -1.1113  -1.1037
    -1.0544  -1.0475  -1.0303  -1.0116  -0.9871  -0.9701  -0.9321  -0.9255
    -0.8876  -0.8599  -0.8087  -0.7726  -0.7617  -0.7337  -0.7121  -0.7080
    -0.6853  -0.6700  -0.6662  -0.6446  -0.6183  -0.5906  -0.5721  -0.5586
    -0.5192  -0.4874  -0.4721  -0.4667  -0.4583  -0.4541  -0.4315  -0.3638
    -0.2351  -0.2108  -0.1886  -0.1350  -0.1106  -0.0802  -0.0522  -0.0455
    -0.0030   0.0054   0.0411   0.0519   0.2140   0.2348   0.3496   0.5476
     0.5634   0.7597   0.7733   1.0409   1.0646   1.0852   1.1002   1.1047
     1.1212   1.1244   1.3366   1.3562   1.5260   1.6477   1.9028   2.0175
     2.0375   2.0779   2.1288   2.1621   2.5765   2.5999   2.6050   2.6349
     2.6562   2.6660   2.6756   2.6907   2.7079   2.7353   2.7474   2.7719
     2.7850   2.7915   2.7956   2.8113   2.8217   2.8372   2.8482   2.8608
     2.8656   2.8697   2.8720   2.8897   2.8939   2.9342   2.9574   2.9827
     3.1414   3.1551   3.2031   3.2363   3.2440   3.2503   3.2672   3.2838
     3.2915   3.3168   3.3298   3.3485   3.3533   3.4117   3.4258   3.4335
     3.4536   3.4580   3.4747   3.4811   3.4842   3.5157   3.5326   3.5453
     3.5584   3.5632   3.5801   3.5907   3.6026   3.6161   3.6258   3.6358
     3.6577   3.6640   3.6680   3.6772   3.6822   3.6897   3.6957   3.6959
     3.6974   3.6997   3.7084   3.7155   3.7246   3.7290   3.7457   3.7531
     3.7749   3.7921   3.8990   3.9396   3.9483   3.9619   3.9684   3.9760
     3.9838   3.9882   4.0037   4.0101   4.0205   4.0476   4.0563   4.0968
     4.1658   4.1699   4.1830   4.2150   4.2295   4.2342   4.2434   4.2483
     4.2675   4.2774   4.2829   4.2900   4.2982   4.3017   4.3203   4.3393
     4.3538   4.3695   4.3738   4.3844   4.3991   4.4074   4.4143   4.4175
     4.4302   4.4349   4.4378   4.4449   4.4469   4.4481   4.4525   4.4542
     4.4661   4.4909   4.5339   4.5432   4.5773   4.5777   4.5878   4.5902
     4.6113   4.6210   4.6303   4.6434   4.6513   4.6603   4.6641   4.6716
     4.6758   4.6838   4.7125   4.7139   4.7167   4.7178   4.7246   4.7317
     4.7384   4.7403   4.7608   4.7631   4.7762   4.7828   4.7921   4.7985
     4.8113   4.8176   4.8200   4.8380   4.8468   4.8554   4.8625   4.8662
     4.8777   4.8942   4.9005   4.9097   4.9144   4.9307   4.9450   4.9537
     4.9740   5.0030   5.0195   5.0304   5.0376   5.0437   5.0518   5.0598
     5.0726   5.0868   5.0871   5.1000   5.1043   5.1119   5.1194   5.1267
     5.1308

          k = 0.0000 0.2500 0.0000 (135097 PWs)   bands (ev):

   -61.6905 -61.6753 -61.6664 -61.6580 -61.6567 -61.6525 -61.6506 -61.6473
   -61.6415 -61.6390 -61.6330 -61.6323 -61.6310 -61.6257 -61.6244 -61.6217
   -61.6202 -61.6109 -61.6030 -61.5981 -61.5949 -61.5925 -61.5882 -61.5866
   -61.5851 -61.5838 -61.5822 -61.5818 -61.5790 -61.5762 -61.5743 -61.5737
   -61.5706 -61.5700 -61.5690 -61.5675 -61.5663 -61.5658 -61.5619 -61.5558
   -61.5548 -61.5514 -61.5392 -61.5267 -61.5251 -61.5135 -61.5092 -61.5039
   -61.4990 -61.4927 -61.4830 -61.4776 -61.4592 -61.4549 -61.4485 -61.4438
   -61.4389 -61.4320 -61.4215 -61.4138 -61.4098 -61.4014 -61.3854 -61.3787
   -61.3757 -61.3712 -61.3691 -61.3685 -61.3652 -61.3603 -61.3531 -61.3203
   -44.3128 -42.7638 -35.7760 -35.7738 -35.7556 -35.7533 -35.7515 -35.7497
   -35.7307 -35.7262 -35.7240 -35.7218 -35.7139 -35.7093 -35.7029 -35.7001
   -35.6985 -35.6949 -35.6943 -35.6912 -35.6901 -35.6891 -35.6758 -35.6682
   -35.6660 -35.6618 -35.6575 -35.6563 -35.6537 -35.6516 -35.6505 -35.6495
   -35.6467 -35.6449 -35.6398 -35.6370 -35.6352 -35.6329 -35.6319 -35.6305
   -35.6298 -35.6258 -35.6245 -35.6229 -35.6214 -35.6196 -35.6180 -35.6138
   -35.6127 -35.6097 -35.6073 -35.6030 -35.5989 -35.5958 -35.5947 -35.5897
   -35.5859 -35.5787 -35.5749 -35.5695 -35.5657 -35.5634 -35.5589 -35.5550
   -35.5543 -35.5503 -35.5478 -35.5466 -35.5423 -35.5376 -35.5355 -35.5225
   -35.5180 -35.5167 -35.5116 -35.5093 -35.5071 -35.5043 -35.5008 -35.4958
   -35.4947 -35.4921 -35.4899 -35.4879 -35.4846 -35.4815 -35.4777 -35.4765
   -35.4739 -35.4718 -35.4690 -35.4679 -35.4635 -35.4628 -35.4612 -35.4583
   -35.4567 -35.4562 -35.4506 -35.4478 -35.4464 -35.4443 -35.4425 -35.4408
   -35.4396 -35.4382 -35.4356 -35.4340 -35.4338 -35.4325 -35.4317 -35.4306
   -35.4282 -35.4259 -35.4247 -35.4229 -35.4205 -35.4183 -35.4164 -35.4128
   -35.4082 -35.4048 -35.4019 -35.3990 -35.3962 -35.3934 -35.3914 -35.3893
   -35.3881 -35.3862 -35.3848 -35.3833 -35.3824 -35.3816 -35.3796 -35.3786
   -35.3769 -35.3762 -35.3750 -35.3736 -35.3706 -35.3685 -35.3677 -35.3662
   -35.3654 -35.3640 -35.3621 -35.3608 -35.3596 -35.3565 -35.3536 -35.3529
   -35.3507 -35.3479 -35.3469 -35.3438 -35.3425 -35.3400 -35.3387 -35.3374
   -35.3354 -35.3307 -35.3240 -35.3176 -35.3148 -35.3130 -35.3109 -35.3050
   -35.2995 -35.2971 -35.2951 -35.2887 -35.2861 -35.2803 -35.2776 -35.2753
   -35.2724 -35.2655 -35.2606 -35.2540 -35.2508 -35.2475 -35.2458 -35.2427
   -35.2386 -35.2351 -35.2297 -35.2260 -35.2255 -35.2208 -35.2188 -35.2167
   -35.2127 -35.2079 -35.2025 -35.2003 -35.1936 -35.1843 -35.1805 -35.1785
   -35.1735 -35.1713 -35.1685 -35.1648 -35.1631 -35.1584 -35.1483 -35.1451
   -35.1386 -35.1332 -35.1268 -35.1201 -35.1160 -35.1123 -35.1087 -35.0903
   -35.0781 -35.0705 -13.9829 -13.6338 -13.3318 -13.3231 -13.1125 -13.0928
   -13.0099 -13.0005 -12.8094 -12.6232 -12.5711 -12.5671 -12.5320 -12.5178
   -12.4643 -12.4463 -12.4385 -12.4264 -12.3781 -12.3682 -12.3154 -12.3098
   -12.3028 -12.2399 -12.2264 -12.2137 -12.1792 -12.1663 -12.1590 -12.1575
   -12.1375 -12.1314 -12.0606 -12.0564 -12.0460 -11.9958 -11.9841 -11.9409
   -11.9345 -11.9094 -11.8383 -11.8373 -11.7221 -11.7028 -11.6701 -11.6166
   -11.6126 -11.6017 -11.5628 -11.5092 -11.4980 -11.4887 -11.4575 -11.4555
   -11.4067 -11.3459 -11.3295 -11.3168 -11.3100 -11.3061 -11.2972 -11.2395
   -11.2266 -11.2032 -11.1997 -11.1898 -11.1171 -11.0965 -11.0054 -10.9595
   -10.9073 -10.8622  -8.0351  -4.6334  -4.6073  -4.4502  -4.4408  -4.4221
    -4.3923  -4.3118  -4.3054  -4.2192  -4.1963  -4.0680  -4.0592  -3.8283
    -3.8091  -3.8006  -3.7914  -3.7648  -3.7263  -3.7040  -3.6358  -3.6316
    -3.5351  -3.5303  -3.5283  -3.5159  -3.4936  -3.4510  -3.4412  -3.4265
    -3.3973  -3.3650  -3.3514  -3.3431  -3.3319  -3.3236  -3.2861  -3.2178
    -3.1849  -3.1710  -3.1580  -3.1113  -3.0919  -3.0559  -3.0424  -3.0227
    -3.0033  -2.9683  -2.9580  -2.9258  -2.8626  -2.7813  -2.7749  -2.7011
    -2.6961  -2.6726  -2.6324  -2.6223  -2.6131  -2.6016  -2.5418  -2.5042
    -2.4394  -2.4047  -2.3741  -2.3673  -2.3561  -2.3515  -2.3283  -2.3063
    -2.2968  -2.2882  -2.2829  -2.2800  -2.2742  -2.2632  -2.2350  -2.2270
    -2.2109  -2.2091  -2.1948  -2.1759  -2.1600  -2.1507  -2.1415  -2.1128
    -2.0875  -2.0782  -2.0585  -2.0513  -2.0431  -2.0368  -2.0297  -2.0200
    -2.0114  -1.9996  -1.9939  -1.9860  -1.9802  -1.9613  -1.9212  -1.8855
    -1.8722  -1.8553  -1.8355  -1.8285  -1.8167  -1.8106  -1.8052  -1.7906
    -1.7802  -1.7701  -1.7481  -1.7331  -1.6895  -1.6860  -1.6798  -1.6785
    -1.6686  -1.6635  -1.6574  -1.6463  -1.6342  -1.6294  -1.6197  -1.6020
    -1.5951  -1.5774  -1.5603  -1.5477  -1.5470  -1.5311  -1.5227  -1.5006
    -1.4828  -1.4702  -1.4582  -1.4449  -1.4317  -1.4219  -1.3944  -1.3859
    -1.3612  -1.3475  -1.3270  -1.3194  -1.3130  -1.2959  -1.2872  -1.2791
    -1.2687  -1.2595  -1.2506  -1.2474  -1.2111  -1.1852  -1.1506  -1.1436
    -1.1243  -1.1108  -1.0843  -1.0797  -1.0567  -1.0439  -1.0332  -1.0060
    -0.9958  -0.9913  -0.9687  -0.9578  -0.9308  -0.8974  -0.8887  -0.8653
    -0.8585  -0.8483  -0.8381  -0.8148  -0.8036  -0.7970  -0.7681  -0.7234
    -0.6973  -0.6818  -0.6364  -0.6242  -0.6056  -0.5867  -0.5542  -0.5448
    -0.5392  -0.5186  -0.4988  -0.4827  -0.4770  -0.4397  -0.3906  -0.3506
    -0.3239  -0.3090  -0.2686  -0.2481  -0.2084  -0.1714  -0.1443  -0.1372
    -0.1191  -0.0963   0.0117   0.0854   0.1270   0.2742   0.3576   0.4288
     0.7633   0.7928   0.8473   0.9230   0.9460   0.9936   1.0505   1.1193
     1.2430   1.2906   1.3061   1.3357   1.6265   1.8566   1.8730   1.9218
     2.0337   2.0978   2.1676   2.2067   2.2284   2.2610   2.3031   2.3309
     2.4518   2.6131   2.6372   2.6623   2.6747   2.6816   2.7018   2.7282
     2.7437   2.7491   2.7928   2.8034   2.8241   2.8510   2.8636   2.8810
     2.8885   2.9070   2.9219   2.9591   2.9757   3.0023   3.0261   3.0596
     3.0664   3.1183   3.1485   3.1870   3.1983   3.2044   3.2274   3.2538
     3.2661   3.2805   3.2959   3.3024   3.3097   3.3307   3.3422   3.3513
     3.3697   3.3883   3.3994   3.4265   3.4698   3.4886   3.4947   3.5094
     3.5323   3.5470   3.5613   3.5866   3.5952   3.6146   3.6257   3.6469
     3.6586   3.6774   3.7029   3.7140   3.7334   3.7429   3.7558   3.7813
     3.7980   3.8185   3.8282   3.8395   3.8599   3.8737   3.8834   3.8997
     3.9155   3.9285   3.9401   3.9529   3.9583   3.9735   3.9925   4.0012
     4.0245   4.0300   4.0370   4.0623   4.0760   4.1076   4.1158   4.1410
     4.1483   4.1880   4.2099   4.2151   4.2347   4.2639   4.2842   4.3036
     4.3114   4.3154   4.3226   4.3359   4.3425   4.3459   4.3532   4.3604
     4.3738   4.3807   4.3840   4.3905   4.3991   4.4047   4.4194   4.4287
     4.4371   4.4478   4.4536   4.4638   4.4751   4.4872   4.4943   4.5048
     4.5077   4.5119   4.5204   4.5278   4.5343   4.5370   4.5416   4.5572
     4.5629   4.5767   4.5827   4.5964   4.6084   4.6362   4.6425   4.6504
     4.6532   4.6555   4.6613   4.6689   4.6838   4.6923   4.7047   4.7184
     4.7296   4.7520   4.7623   4.7734   4.7847   4.7903   4.7975   4.8085
     4.8111   4.8186   4.8365   4.8459   4.8613   4.8714   4.8812   4.8889
     4.8986   4.9192   4.9284   4.9356   4.9460   4.9528   4.9575   4.9709
     4.9748   4.9783   4.9951   5.0126   5.0202   5.0243   5.0275   5.0387
     5.0458   5.0497   5.0606   5.0739   5.0814   5.0896   5.0957   5.0984
     5.1004

          k = 0.0000-0.5000 0.0000 (135178 PWs)   bands (ev):

   -61.6905 -61.6723 -61.6711 -61.6570 -61.6560 -61.6538 -61.6525 -61.6408
   -61.6396 -61.6377 -61.6375 -61.6345 -61.6327 -61.6253 -61.6241 -61.6217
   -61.6191 -61.6108 -61.6029 -61.5987 -61.5943 -61.5932 -61.5882 -61.5867
   -61.5844 -61.5837 -61.5811 -61.5803 -61.5789 -61.5787 -61.5767 -61.5730
   -61.5698 -61.5693 -61.5690 -61.5684 -61.5664 -61.5660 -61.5595 -61.5572
   -61.5553 -61.5511 -61.5392 -61.5267 -61.5251 -61.5134 -61.5087 -61.5038
   -61.4993 -61.4931 -61.4830 -61.4775 -61.4591 -61.4549 -61.4485 -61.4438
   -61.4389 -61.4320 -61.4215 -61.4138 -61.4099 -61.4014 -61.3855 -61.3787
   -61.3757 -61.3712 -61.3690 -61.3685 -61.3651 -61.3604 -61.3531 -61.3204
   -44.3128 -42.7638 -35.7716 -35.7695 -35.7683 -35.7649 -35.7335 -35.7330
   -35.7301 -35.7292 -35.7268 -35.7254 -35.7198 -35.7182 -35.7144 -35.7130
   -35.7109 -35.7098 -35.6790 -35.6722 -35.6699 -35.6681 -35.6665 -35.6635
   -35.6622 -35.6578 -35.6567 -35.6533 -35.6520 -35.6494 -35.6481 -35.6450
   -35.6433 -35.6413 -35.6398 -35.6385 -35.6378 -35.6370 -35.6358 -35.6347
   -35.6333 -35.6332 -35.6318 -35.6286 -35.6277 -35.6214 -35.6188 -35.6175
   -35.6164 -35.6123 -35.6103 -35.6075 -35.6050 -35.6022 -35.5992 -35.5975
   -35.5918 -35.5902 -35.5856 -35.5694 -35.5647 -35.5632 -35.5501 -35.5475
   -35.5420 -35.5396 -35.5389 -35.5370 -35.5326 -35.5301 -35.5272 -35.5259
   -35.5237 -35.5199 -35.5168 -35.5164 -35.5101 -35.5071 -35.5007 -35.4964
   -35.4909 -35.4876 -35.4844 -35.4799 -35.4755 -35.4747 -35.4731 -35.4716
   -35.4688 -35.4650 -35.4639 -35.4624 -35.4616 -35.4606 -35.4589 -35.4578
   -35.4570 -35.4550 -35.4538 -35.4516 -35.4510 -35.4498 -35.4482 -35.4480
   -35.4476 -35.4464 -35.4450 -35.4443 -35.4424 -35.4399 -35.4376 -35.4362
   -35.4321 -35.4302 -35.4288 -35.4276 -35.4235 -35.4223 -35.4179 -35.4173
   -35.4104 -35.4054 -35.4021 -35.3994 -35.3962 -35.3930 -35.3879 -35.3872
   -35.3847 -35.3833 -35.3813 -35.3802 -35.3787 -35.3782 -35.3763 -35.3759
   -35.3738 -35.3718 -35.3689 -35.3673 -35.3659 -35.3636 -35.3630 -35.3616
   -35.3614 -35.3604 -35.3595 -35.3583 -35.3563 -35.3548 -35.3535 -35.3519
   -35.3513 -35.3508 -35.3486 -35.3475 -35.3471 -35.3462 -35.3450 -35.3395
   -35.3344 -35.3285 -35.3271 -35.3197 -35.3161 -35.3134 -35.3085 -35.3067
   -35.3029 -35.2966 -35.2936 -35.2916 -35.2863 -35.2828 -35.2798 -35.2760
   -35.2735 -35.2653 -35.2575 -35.2559 -35.2515 -35.2469 -35.2463 -35.2440
   -35.2380 -35.2313 -35.2292 -35.2281 -35.2249 -35.2213 -35.2195 -35.2154
   -35.2109 -35.2068 -35.2016 -35.2006 -35.1936 -35.1838 -35.1802 -35.1774
   -35.1746 -35.1736 -35.1700 -35.1646 -35.1628 -35.1586 -35.1451 -35.1437
   -35.1414 -35.1337 -35.1250 -35.1219 -35.1162 -35.1118 -35.1084 -35.0905
   -35.0781 -35.0707 -13.8525 -13.8391 -13.2115 -13.2046 -13.2017 -13.1844
   -12.9954 -12.9862 -12.8802 -12.7743 -12.4772 -12.4670 -12.4658 -12.4552
   -12.4421 -12.4218 -12.3708 -12.3637 -12.3585 -12.3525 -12.3407 -12.3250
   -12.3183 -12.3138 -12.2596 -12.2504 -12.2409 -12.2040 -12.2013 -12.1931
   -12.1157 -12.1127 -12.1054 -12.0932 -12.0809 -12.0448 -11.9407 -11.9351
   -11.9051 -11.8995 -11.7507 -11.7485 -11.7468 -11.7440 -11.6504 -11.6445
   -11.5803 -11.5737 -11.5678 -11.5592 -11.5581 -11.5279 -11.4031 -11.3982
   -11.3943 -11.3930 -11.3881 -11.3698 -11.3041 -11.2693 -11.2380 -11.2334
   -11.2305 -11.2270 -11.2094 -11.1733 -11.1012 -11.0824 -10.9976 -10.9451
   -10.8980 -10.8855  -8.0351  -4.6540  -4.6466  -4.5423  -4.5363  -4.4591
    -4.4531  -4.4386  -4.4321  -3.9673  -3.9553  -3.9478  -3.9095  -3.7998
    -3.7876  -3.7837  -3.7785  -3.7721  -3.6043  -3.5968  -3.5900  -3.5787
    -3.5762  -3.5721  -3.5672  -3.5631  -3.5619  -3.4675  -3.4205  -3.4001
    -3.3882  -3.3782  -3.3531  -3.3429  -3.3380  -3.3188  -3.3143  -3.3110
    -3.2998  -3.2643  -3.2383  -3.1594  -3.1546  -3.1509  -3.1460  -3.0590
    -2.9196  -2.9140  -2.9045  -2.8971  -2.8905  -2.8810  -2.8374  -2.8288
    -2.8043  -2.6282  -2.4523  -2.4502  -2.4452  -2.4358  -2.4274  -2.4143
    -2.4062  -2.3952  -2.3845  -2.3764  -2.3685  -2.3647  -2.3536  -2.3402
    -2.3364  -2.3293  -2.3232  -2.3102  -2.3018  -2.2916  -2.2855  -2.2550
    -2.2452  -2.2340  -2.2229  -2.2143  -2.2113  -2.2063  -2.1958  -2.1879
    -2.1729  -2.1680  -2.1559  -2.0909  -2.0771  -2.0724  -2.0632  -2.0550
    -2.0537  -2.0233  -2.0146  -1.9827  -1.9551  -1.9247  -1.8890  -1.8757
    -1.8534  -1.8476  -1.8341  -1.8250  -1.8087  -1.8029  -1.7919  -1.7760
    -1.7572  -1.7395  -1.7302  -1.7228  -1.7194  -1.7151  -1.7132  -1.6874
    -1.6751  -1.6564  -1.6552  -1.6539  -1.6510  -1.6353  -1.6312  -1.6194
    -1.5830  -1.5629  -1.5455  -1.4916  -1.4615  -1.4566  -1.4247  -1.4225
    -1.4098  -1.3988  -1.3893  -1.3867  -1.3754  -1.3723  -1.3582  -1.3402
    -1.3343  -1.3186  -1.3147  -1.3036  -1.2997  -1.2924  -1.2747  -1.2700
    -1.2178  -1.2103  -1.1848  -1.1758  -1.1711  -1.1516  -1.1439  -1.1152
    -1.0953  -1.0808  -1.0766  -1.0688  -1.0391  -1.0272  -1.0186  -0.9900
    -0.9736  -0.9483  -0.9386  -0.9257  -0.9065  -0.8330  -0.8244  -0.8175
    -0.7979  -0.7886  -0.7839  -0.7786  -0.7719  -0.7557  -0.7413  -0.6928
    -0.6840  -0.6710  -0.6639  -0.6523  -0.6500  -0.6178  -0.6033  -0.5875
    -0.5773  -0.5534  -0.5405  -0.4932  -0.4634  -0.4472  -0.4161  -0.4110
    -0.3903  -0.3751  -0.3536  -0.3242  -0.3110  -0.2997  -0.2304  -0.2171
    -0.2069   0.1270   0.1346   0.1459   0.1670   0.2503   0.2672   0.3493
     0.3790   0.5718   0.6024   0.8343   0.8398   1.0467   1.3848   1.3993
     1.4270   1.5487   1.6002   1.6116   1.6267   1.6607   1.7033   1.7349
     1.7592   1.7788   1.8769   2.0630   2.2860   2.3013   2.3855   2.4084
     2.4480   2.5059   2.5667   2.6212   2.6270   2.6528   2.6684   2.6859
     2.7084   2.7537   2.7636   2.7709   2.7933   2.8338   2.8605   2.8904
     2.9066   2.9121   2.9354   2.9395   2.9767   2.9895   2.9928   3.0155
     3.0174   3.0288   3.0372   3.0506   3.0616   3.0829   3.0993   3.1056
     3.1604   3.1894   3.2505   3.2653   3.3116   3.3271   3.3564   3.3677
     3.3735   3.4297   3.4453   3.4617   3.4782   3.4939   3.5000   3.5514
     3.5633   3.5711   3.5858   3.5944   3.6239   3.6278   3.6378   3.6606
     3.6747   3.6960   3.7052   3.7193   3.7299   3.7415   3.7574   3.7971
     3.8093   3.8854   3.8977   3.9152   3.9199   3.9385   3.9494   3.9918
     4.0207   4.0382   4.0579   4.0650   4.0737   4.0772   4.0856   4.1000
     4.1116   4.1158   4.1296   4.1428   4.1695   4.1882   4.1917   4.1995
     4.2124   4.2236   4.2424   4.2466   4.2507   4.2608   4.2726   4.2752
     4.2849   4.2881   4.2939   4.3003   4.3031   4.3065   4.3114   4.3218
     4.3412   4.3608   4.3730   4.3931   4.3995   4.4098   4.4232   4.4263
     4.4308   4.4495   4.4522   4.4634   4.4744   4.4768   4.4896   4.5030
     4.5093   4.5116   4.5173   4.5282   4.5370   4.5411   4.5509   4.5594
     4.5739   4.5823   4.5879   4.6072   4.6151   4.6179   4.6326   4.6488
     4.6520   4.6680   4.6994   4.7018   4.7130   4.7307   4.7348   4.7466
     4.7579   4.7689   4.7739   4.7744   4.7867   4.8126   4.8184   4.8384
     4.8492   4.8519   4.8580   4.8642   4.8665   4.8699   4.8719   4.8766
     4.8787   4.8838   4.8929   4.8985   4.9023   4.9161   4.9284   4.9452
     4.9608   4.9653   4.9705   4.9757   4.9913   4.9967   5.0027   5.0123
     5.0200   5.0327   5.0520   5.0545   5.0632   5.0687   5.0747   5.0792
     5.0881

          k = 0.2500 0.2500 0.0000 (135083 PWs)   bands (ev):

   -61.6905 -61.6742 -61.6669 -61.6623 -61.6571 -61.6513 -61.6470 -61.6458
   -61.6414 -61.6383 -61.6343 -61.6326 -61.6311 -61.6296 -61.6252 -61.6202
   -61.6181 -61.6112 -61.6030 -61.5980 -61.5955 -61.5927 -61.5886 -61.5853
   -61.5848 -61.5836 -61.5820 -61.5814 -61.5790 -61.5763 -61.5756 -61.5743
   -61.5719 -61.5703 -61.5685 -61.5677 -61.5659 -61.5637 -61.5616 -61.5565
   -61.5550 -61.5516 -61.5392 -61.5273 -61.5242 -61.5127 -61.5093 -61.5051
   -61.4986 -61.4926 -61.4831 -61.4775 -61.4592 -61.4549 -61.4485 -61.4438
   -61.4389 -61.4320 -61.4215 -61.4138 -61.4098 -61.4014 -61.3855 -61.3788
   -61.3758 -61.3708 -61.3694 -61.3683 -61.3653 -61.3602 -61.3532 -61.3203
   -44.3128 -42.7638 -35.7881 -35.7739 -35.7532 -35.7489 -35.7473 -35.7380
   -35.7333 -35.7292 -35.7215 -35.7175 -35.7159 -35.7137 -35.7106 -35.7056
   -35.6992 -35.6902 -35.6862 -35.6827 -35.6804 -35.6794 -35.6788 -35.6776
   -35.6703 -35.6684 -35.6639 -35.6561 -35.6530 -35.6517 -35.6477 -35.6451
   -35.6432 -35.6424 -35.6400 -35.6385 -35.6373 -35.6355 -35.6347 -35.6332
   -35.6314 -35.6299 -35.6267 -35.6247 -35.6226 -35.6213 -35.6183 -35.6163
   -35.6123 -35.6112 -35.6057 -35.6036 -35.6013 -35.5965 -35.5944 -35.5887
   -35.5865 -35.5831 -35.5788 -35.5762 -35.5664 -35.5598 -35.5539 -35.5526
   -35.5508 -35.5462 -35.5446 -35.5404 -35.5358 -35.5332 -35.5291 -35.5245
   -35.5197 -35.5150 -35.5142 -35.5123 -35.5096 -35.5076 -35.5021 -35.4988
   -35.4900 -35.4894 -35.4863 -35.4827 -35.4813 -35.4807 -35.4778 -35.4760
   -35.4729 -35.4710 -35.4681 -35.4664 -35.4647 -35.4628 -35.4607 -35.4584
   -35.4576 -35.4558 -35.4543 -35.4503 -35.4488 -35.4486 -35.4475 -35.4458
   -35.4435 -35.4431 -35.4405 -35.4388 -35.4374 -35.4363 -35.4347 -35.4330
   -35.4292 -35.4262 -35.4190 -35.4158 -35.4134 -35.4111 -35.4094 -35.4058
   -35.4047 -35.4033 -35.4016 -35.4007 -35.3994 -35.3986 -35.3971 -35.3953
   -35.3929 -35.3913 -35.3883 -35.3874 -35.3856 -35.3811 -35.3790 -35.3767
   -35.3738 -35.3723 -35.3702 -35.3683 -35.3678 -35.3667 -35.3658 -35.3650
   -35.3630 -35.3621 -35.3590 -35.3574 -35.3564 -35.3536 -35.3523 -35.3514
   -35.3506 -35.3493 -35.3484 -35.3467 -35.3456 -35.3405 -35.3389 -35.3370
   -35.3321 -35.3294 -35.3263 -35.3222 -35.3189 -35.3130 -35.3103 -35.3055
   -35.3017 -35.3003 -35.2945 -35.2923 -35.2868 -35.2816 -35.2777 -35.2728
   -35.2686 -35.2619 -35.2571 -35.2548 -35.2529 -35.2488 -35.2456 -35.2443
   -35.2384 -35.2348 -35.2289 -35.2263 -35.2241 -35.2230 -35.2199 -35.2162
   -35.2100 -35.2081 -35.2046 -35.1999 -35.1936 -35.1854 -35.1821 -35.1779
   -35.1745 -35.1718 -35.1693 -35.1642 -35.1611 -35.1577 -35.1468 -35.1433
   -35.1415 -35.1332 -35.1263 -35.1208 -35.1152 -35.1120 -35.1087 -35.0906
   -35.0783 -35.0706 -13.9360 -13.5900 -13.5863 -13.2554 -13.0707 -13.0535
   -13.0485 -12.7748 -12.7679 -12.7498 -12.7400 -12.5858 -12.5812 -12.4913
   -12.4457 -12.4067 -12.4008 -12.3570 -12.3470 -12.3410 -12.3348 -12.3250
   -12.3052 -12.2685 -12.2402 -12.2288 -12.2173 -12.1479 -12.1401 -12.1300
   -12.1240 -12.1140 -12.1031 -12.0343 -12.0156 -12.0106 -11.9984 -11.9886
   -11.9461 -11.8995 -11.8805 -11.8465 -11.7739 -11.6780 -11.6761 -11.6422
   -11.5848 -11.5433 -11.4898 -11.4878 -11.4790 -11.4723 -11.4690 -11.4644
   -11.4512 -11.3936 -11.3640 -11.3156 -11.3079 -11.2991 -11.2818 -11.2488
   -11.2262 -11.2105 -11.1871 -11.1521 -11.1387 -11.0840 -11.0004 -10.9820
   -10.9124 -10.8328  -8.0352  -4.8153  -4.6564  -4.6116  -4.5458  -4.3335
    -4.3200  -4.1893  -4.1770  -4.0962  -4.0948  -3.9970  -3.9840  -3.9699
    -3.8637  -3.8507  -3.8421  -3.7947  -3.6430  -3.6236  -3.6176  -3.5876
    -3.5846  -3.5767  -3.5723  -3.5626  -3.5457  -3.4311  -3.4193  -3.4150
    -3.3639  -3.3564  -3.3499  -3.3349  -3.3235  -3.3011  -3.2915  -3.2878
    -3.2168  -3.2047  -3.1868  -3.0888  -3.0811  -3.0361  -3.0321  -2.9969
    -2.9940  -2.9409  -2.9154  -2.9072  -2.8953  -2.8842  -2.7838  -2.7750
    -2.7661  -2.7482  -2.6336  -2.6215  -2.6014  -2.5883  -2.5492  -2.4751
    -2.4369  -2.4021  -2.3942  -2.3872  -2.3770  -2.3683  -2.3492  -2.3404
    -2.3352  -2.3241  -2.3084  -2.3027  -2.2780  -2.2731  -2.2575  -2.2489
    -2.2343  -2.2298  -2.2232  -2.2176  -2.2101  -2.2006  -2.1384  -2.1212
    -2.1184  -2.0904  -2.0733  -2.0669  -2.0478  -2.0221  -2.0075  -1.9842
    -1.9755  -1.9583  -1.9529  -1.9270  -1.9207  -1.9106  -1.9045  -1.8980
    -1.8855  -1.8565  -1.8458  -1.8332  -1.8164  -1.8095  -1.7928  -1.7864
    -1.7804  -1.7735  -1.7586  -1.7464  -1.7217  -1.7147  -1.7113  -1.7038
    -1.6941  -1.6855  -1.6730  -1.6497  -1.6393  -1.6201  -1.6006  -1.5908
    -1.5504  -1.5301  -1.5130  -1.4996  -1.4827  -1.4763  -1.4545  -1.4480
    -1.4406  -1.4157  -1.4040  -1.3994  -1.3932  -1.3838  -1.3749  -1.3331
    -1.3176  -1.3103  -1.3002  -1.2909  -1.2841  -1.2744  -1.2689  -1.2478
    -1.2394  -1.2307  -1.2142  -1.2002  -1.1752  -1.1446  -1.1235  -1.1053
    -1.0906  -1.0782  -1.0705  -1.0603  -1.0275  -1.0246  -1.0044  -0.9893
    -0.9720  -0.9639  -0.9333  -0.9188  -0.9101  -0.8945  -0.8905  -0.8561
    -0.8441  -0.8362  -0.8293  -0.8136  -0.7944  -0.7847  -0.7724  -0.7539
    -0.7309  -0.7086  -0.6892  -0.6643  -0.6508  -0.5876  -0.5615  -0.5435
    -0.5346  -0.5183  -0.5040  -0.4891  -0.4582  -0.4394  -0.4019  -0.3745
    -0.3667  -0.3457  -0.3232  -0.2883  -0.2581  -0.2194  -0.1936  -0.1571
    -0.0605  -0.0485  -0.0227   0.0347   0.1188   0.1539   0.2093   0.2713
     0.5627   0.7171   0.9340   0.9796   1.0104   1.0765   1.1265   1.1566
     1.1837   1.3597   1.3812   1.4641   1.6636   1.8379   1.9499   1.9989
     2.0201   2.0644   2.0946   2.1384   2.1730   2.1918   2.2523   2.3023
     2.3222   2.3501   2.4086   2.4149   2.4847   2.5047   2.5250   2.6536
     2.6740   2.6933   2.7275   2.7500   2.7843   2.7977   2.8148   2.8385
     2.8972   2.9195   2.9386   2.9752   3.0104   3.0279   3.0799   3.0915
     3.1115   3.1316   3.1437   3.1576   3.1774   3.1913   3.2084   3.2222
     3.2424   3.2563   3.2704   3.2899   3.3058   3.3238   3.3434   3.3800
     3.3995   3.4088   3.4398   3.4582   3.4745   3.5036   3.5146   3.5230
     3.5493   3.5620   3.5704   3.5835   3.5867   3.6142   3.6285   3.6628
     3.7018   3.7308   3.7468   3.7590   3.7742   3.7867   3.8002   3.8082
     3.8228   3.8522   3.8606   3.8873   3.8949   3.9139   3.9307   3.9340
     3.9404   3.9693   3.9795   4.0039   4.0190   4.0286   4.0552   4.0666
     4.0912   4.0964   4.1089   4.1247   4.1372   4.1526   4.1694   4.1915
     4.2075   4.2250   4.2340   4.2455   4.2578   4.2612   4.2667   4.2802
     4.2903   4.2952   4.3065   4.3270   4.3395   4.3519   4.3612   4.3691
     4.3788   4.3848   4.3872   4.3915   4.3981   4.4061   4.4168   4.4277
     4.4328   4.4439   4.4514   4.4548   4.4674   4.4713   4.4755   4.4813
     4.4845   4.4991   4.5070   4.5238   4.5319   4.5478   4.5539   4.5623
     4.5735   4.5795   4.5857   4.5931   4.6046   4.6224   4.6269   4.6462
     4.6552   4.6649   4.6730   4.6907   4.6987   4.7088   4.7215   4.7242
     4.7402   4.7552   4.7722   4.7866   4.7936   4.8008   4.8055   4.8216
     4.8448   4.8521   4.8594   4.8696   4.8760   4.8821   4.8929   4.8974
     4.9044   4.9114   4.9153   4.9277   4.9345   4.9549   4.9608   4.9675
     4.9800   4.9834   4.9950   5.0029   5.0099   5.0186   5.0225   5.0270
     5.0286   5.0340   5.0395   5.0492   5.0524   5.0618   5.0728   5.0910
     5.0942

          k = 0.2500-0.5000 0.0000 (135080 PWs)   bands (ev):

   -61.6905 -61.6715 -61.6701 -61.6616 -61.6605 -61.6495 -61.6466 -61.6408
   -61.6395 -61.6385 -61.6373 -61.6353 -61.6325 -61.6297 -61.6253 -61.6184
   -61.6181 -61.6114 -61.6028 -61.5986 -61.5948 -61.5936 -61.5885 -61.5856
   -61.5838 -61.5834 -61.5810 -61.5802 -61.5791 -61.5782 -61.5767 -61.5752
   -61.5723 -61.5695 -61.5685 -61.5668 -61.5664 -61.5636 -61.5599 -61.5579
   -61.5552 -61.5512 -61.5392 -61.5273 -61.5243 -61.5126 -61.5087 -61.5050
   -61.4989 -61.4930 -61.4831 -61.4774 -61.4592 -61.4549 -61.4486 -61.4438
   -61.4389 -61.4320 -61.4215 -61.4138 -61.4099 -61.4014 -61.3855 -61.3787
   -61.3757 -61.3709 -61.3693 -61.3683 -61.3652 -61.3602 -61.3533 -61.3204
   -44.3128 -42.7638 -35.7888 -35.7854 -35.7436 -35.7417 -35.7386 -35.7378
   -35.7352 -35.7326 -35.7258 -35.7223 -35.7200 -35.7173 -35.7028 -35.7006
   -35.6977 -35.6939 -35.6821 -35.6807 -35.6779 -35.6733 -35.6705 -35.6693
   -35.6689 -35.6649 -35.6628 -35.6621 -35.6582 -35.6567 -35.6534 -35.6524
   -35.6479 -35.6451 -35.6430 -35.6402 -35.6386 -35.6363 -35.6353 -35.6337
   -35.6317 -35.6293 -35.6272 -35.6256 -35.6236 -35.6215 -35.6202 -35.6160
   -35.6155 -35.6135 -35.6088 -35.6060 -35.6034 -35.6003 -35.5966 -35.5873
   -35.5828 -35.5812 -35.5751 -35.5693 -35.5623 -35.5588 -35.5540 -35.5527
   -35.5457 -35.5433 -35.5411 -35.5374 -35.5342 -35.5333 -35.5309 -35.5290
   -35.5277 -35.5208 -35.5187 -35.5092 -35.5057 -35.5032 -35.4962 -35.4910
   -35.4891 -35.4875 -35.4868 -35.4844 -35.4823 -35.4784 -35.4770 -35.4731
   -35.4715 -35.4687 -35.4672 -35.4653 -35.4647 -35.4639 -35.4627 -35.4617
   -35.4603 -35.4570 -35.4556 -35.4548 -35.4522 -35.4501 -35.4490 -35.4484
   -35.4462 -35.4436 -35.4404 -35.4379 -35.4349 -35.4339 -35.4333 -35.4280
   -35.4273 -35.4250 -35.4233 -35.4220 -35.4194 -35.4173 -35.4128 -35.4092
   -35.4071 -35.4060 -35.4039 -35.3996 -35.3976 -35.3952 -35.3931 -35.3906
   -35.3881 -35.3862 -35.3854 -35.3838 -35.3833 -35.3801 -35.3792 -35.3774
   -35.3758 -35.3747 -35.3717 -35.3705 -35.3694 -35.3667 -35.3642 -35.3639
   -35.3620 -35.3609 -35.3595 -35.3582 -35.3568 -35.3549 -35.3533 -35.3516
   -35.3486 -35.3475 -35.3461 -35.3449 -35.3440 -35.3408 -35.3374 -35.3366
   -35.3335 -35.3298 -35.3291 -35.3252 -35.3167 -35.3144 -35.3117 -35.3080
   -35.3026 -35.2975 -35.2948 -35.2912 -35.2849 -35.2825 -35.2760 -35.2732
   -35.2707 -35.2643 -35.2607 -35.2546 -35.2507 -35.2476 -35.2455 -35.2418
   -35.2389 -35.2341 -35.2287 -35.2275 -35.2240 -35.2216 -35.2196 -35.2144
   -35.2120 -35.2091 -35.2031 -35.2010 -35.1948 -35.1845 -35.1826 -35.1782
   -35.1739 -35.1706 -35.1700 -35.1648 -35.1612 -35.1576 -35.1485 -35.1452
   -35.1389 -35.1330 -35.1257 -35.1219 -35.1147 -35.1113 -35.1085 -35.0908
   -35.0784 -35.0708 -13.8062 -13.7927 -13.4637 -13.4501 -12.9571 -12.9459
   -12.9359 -12.9234 -12.8408 -12.7351 -12.6628 -12.6521 -12.5575 -12.4900
   -12.4741 -12.4513 -12.4232 -12.3978 -12.3387 -12.3127 -12.3085 -12.3019
   -12.2554 -12.2406 -12.2204 -12.1929 -12.1902 -12.1721 -12.1667 -12.1645
   -12.1579 -12.0860 -12.0770 -12.0526 -12.0449 -12.0293 -12.0133 -11.9855
   -11.9179 -11.9138 -11.9015 -11.8617 -11.7914 -11.7642 -11.5907 -11.5877
   -11.5487 -11.5457 -11.5409 -11.5399 -11.4572 -11.4428 -11.4342 -11.4328
   -11.4032 -11.3994 -11.3729 -11.3594 -11.3520 -11.3408 -11.2911 -11.2533
   -11.2261 -11.1804 -11.1441 -11.1398 -11.1283 -11.1090 -11.0161 -11.0007
   -10.8760 -10.8318  -8.0352  -4.8534  -4.7800  -4.6563  -4.6459  -4.3298
    -4.2533  -4.1569  -4.1349  -4.0567  -4.0401  -3.8826  -3.8786  -3.8508
    -3.8189  -3.7943  -3.7851  -3.7761  -3.7172  -3.7008  -3.6824  -3.6483
    -3.6363  -3.5949  -3.5847  -3.5771  -3.5630  -3.5501  -3.5205  -3.4316
    -3.4203  -3.3383  -3.3311  -3.3144  -3.3072  -3.2890  -3.2648  -3.2304
    -3.2249  -3.1400  -3.0964  -3.0928  -3.0819  -3.0701  -3.0379  -3.0256
    -3.0206  -2.9702  -2.9573  -2.9400  -2.8934  -2.7927  -2.7861  -2.7764
    -2.7607  -2.7406  -2.7271  -2.6620  -2.6435  -2.6255  -2.5574  -2.5355
    -2.5001  -2.4716  -2.4563  -2.4216  -2.3943  -2.3640  -2.3456  -2.3341
    -2.3259  -2.2969  -2.2834  -2.2760  -2.2666  -2.2548  -2.2490  -2.2344
    -2.2185  -2.2034  -2.1783  -2.1657  -2.1566  -2.1487  -2.1337  -2.1249
    -2.1143  -2.1121  -2.0979  -2.0809  -2.0563  -2.0409  -2.0348  -2.0272
    -2.0183  -2.0016  -1.9812  -1.9712  -1.9600  -1.9491  -1.9411  -1.9245
    -1.9074  -1.8909  -1.8707  -1.8669  -1.8581  -1.8507  -1.8407  -1.8348
    -1.8269  -1.8173  -1.7899  -1.7879  -1.7787  -1.7179  -1.6891  -1.6753
    -1.6726  -1.6603  -1.6384  -1.5791  -1.5443  -1.5234  -1.5157  -1.5092
    -1.4910  -1.4512  -1.4447  -1.4403  -1.4333  -1.4297  -1.4172  -1.4000
    -1.3849  -1.3702  -1.3585  -1.3534  -1.3307  -1.3176  -1.3114  -1.3052
    -1.2907  -1.2853  -1.2726  -1.2600  -1.2540  -1.2241  -1.2165  -1.2100
    -1.1934  -1.1889  -1.1628  -1.1527  -1.1433  -1.1366  -1.1201  -1.1086
    -1.0940  -1.0840  -1.0777  -1.0670  -1.0440  -1.0388  -1.0185  -1.0031
    -0.9842  -0.9750  -0.9334  -0.9091  -0.8943  -0.8732  -0.8670  -0.8620
    -0.8338  -0.8198  -0.8113  -0.7962  -0.7694  -0.7525  -0.7413  -0.7241
    -0.7098  -0.6901  -0.6480  -0.6343  -0.6228  -0.6026  -0.5809  -0.5505
    -0.5436  -0.5237  -0.5122  -0.4958  -0.4817  -0.4694  -0.4584  -0.4325
    -0.4178  -0.4133  -0.3430  -0.2807  -0.2599  -0.2467  -0.2274  -0.1323
    -0.1080  -0.0863  -0.0659   0.0429   0.0646   0.1048   0.1357   0.2878
     0.2998   0.4868   0.5150   0.9958   1.0801   1.1183   1.4282   1.4432
     1.4868   1.5575   1.5998   1.6173   1.6392   1.6820   1.7832   1.8016
     1.8101   1.8335   1.9266   2.0325   2.1494   2.1884   2.2018   2.2403
     2.2587   2.2944   2.3646   2.3767   2.4691   2.4809   2.4979   2.5648
     2.6500   2.6727   2.6821   2.7023   2.7191   2.7501   2.7981   2.8278
     2.8775   2.9006   2.9176   2.9303   2.9501   2.9629   2.9887   3.0007
     3.0236   3.0286   3.0609   3.0959   3.1177   3.1553   3.1913   3.2100
     3.2332   3.2472   3.2639   3.2800   3.3168   3.3431   3.3557   3.3748
     3.3824   3.4054   3.4481   3.4619   3.4774   3.4998   3.5382   3.5928
     3.6057   3.6198   3.6301   3.6400   3.6664   3.6843   3.7050   3.7165
     3.7274   3.7331   3.7769   3.7873   3.8057   3.8186   3.8357   3.8591
     3.8700   3.8874   3.9135   3.9264   3.9346   3.9619   3.9924   4.0026
     4.0243   4.0319   4.0435   4.0525   4.0635   4.0880   4.0936   4.1150
     4.1366   4.1502   4.1589   4.1691   4.1762   4.1912   4.2053   4.2106
     4.2191   4.2352   4.2383   4.2471   4.2586   4.2648   4.2678   4.2738
     4.2809   4.2847   4.2922   4.2953   4.3035   4.3129   4.3246   4.3300
     4.3374   4.3547   4.3636   4.3815   4.3863   4.3923   4.4061   4.4094
     4.4145   4.4171   4.4235   4.4296   4.4418   4.4531   4.4639   4.4688
     4.4827   4.4916   4.5009   4.5059   4.5348   4.5432   4.5687   4.5930
     4.5996   4.6108   4.6263   4.6394   4.6537   4.6695   4.6751   4.6856
     4.6884   4.6952   4.7022   4.7157   4.7334   4.7422   4.7531   4.7731
     4.7750   4.7837   4.7954   4.8001   4.8164   4.8255   4.8329   4.8421
     4.8494   4.8570   4.8602   4.8689   4.8806   4.8904   4.8992   4.9088
     4.9138   4.9228   4.9289   4.9338   4.9401   4.9446   4.9518   4.9610
     4.9644   4.9710   4.9773   4.9805   4.9868   4.9957   5.0012   5.0060
     5.0176   5.0309   5.0466   5.0521   5.0597   5.0636   5.0716   5.0804
     5.0898

          k =-0.5000-0.5000 0.0000 (135004 PWs)   bands (ev):

   -61.6905 -61.6700 -61.6685 -61.6646 -61.6641 -61.6461 -61.6418 -61.6406
   -61.6398 -61.6393 -61.6373 -61.6361 -61.6342 -61.6321 -61.6261 -61.6176
   -61.6160 -61.6123 -61.6028 -61.5984 -61.5952 -61.5939 -61.5887 -61.5842
   -61.5836 -61.5826 -61.5812 -61.5803 -61.5794 -61.5775 -61.5767 -61.5759
   -61.5755 -61.5691 -61.5686 -61.5669 -61.5650 -61.5611 -61.5604 -61.5595
   -61.5552 -61.5513 -61.5393 -61.5277 -61.5238 -61.5114 -61.5087 -61.5065
   -61.4986 -61.4930 -61.4832 -61.4773 -61.4592 -61.4549 -61.4486 -61.4438
   -61.4388 -61.4319 -61.4215 -61.4138 -61.4099 -61.4014 -61.3856 -61.3788
   -61.3758 -61.3703 -61.3699 -61.3681 -61.3653 -61.3600 -61.3534 -61.3204
   -44.3128 -42.7638 -35.7950 -35.7917 -35.7483 -35.7449 -35.7345 -35.7327
   -35.7310 -35.7270 -35.7085 -35.7067 -35.7041 -35.7027 -35.7023 -35.7010
   -35.7000 -35.6973 -35.6906 -35.6856 -35.6835 -35.6828 -35.6795 -35.6742
   -35.6700 -35.6677 -35.6669 -35.6634 -35.6610 -35.6605 -35.6597 -35.6580
   -35.6574 -35.6514 -35.6495 -35.6445 -35.6391 -35.6371 -35.6361 -35.6358
   -35.6334 -35.6314 -35.6298 -35.6283 -35.6229 -35.6177 -35.6156 -35.6120
   -35.6097 -35.6043 -35.6003 -35.5986 -35.5924 -35.5900 -35.5874 -35.5830
   -35.5801 -35.5774 -35.5766 -35.5744 -35.5679 -35.5672 -35.5656 -35.5529
   -35.5471 -35.5448 -35.5432 -35.5425 -35.5385 -35.5373 -35.5332 -35.5149
   -35.5140 -35.5119 -35.5107 -35.5103 -35.5089 -35.5005 -35.4998 -35.4964
   -35.4944 -35.4925 -35.4898 -35.4880 -35.4839 -35.4805 -35.4799 -35.4735
   -35.4706 -35.4698 -35.4681 -35.4675 -35.4663 -35.4642 -35.4627 -35.4623
   -35.4613 -35.4602 -35.4567 -35.4561 -35.4547 -35.4539 -35.4510 -35.4482
   -35.4468 -35.4452 -35.4438 -35.4372 -35.4325 -35.4311 -35.4273 -35.4257
   -35.4141 -35.4108 -35.4087 -35.4081 -35.4073 -35.4071 -35.4059 -35.4042
   -35.4030 -35.4023 -35.4017 -35.4008 -35.3999 -35.3988 -35.3984 -35.3973
   -35.3967 -35.3955 -35.3947 -35.3941 -35.3930 -35.3892 -35.3884 -35.3869
   -35.3853 -35.3715 -35.3699 -35.3676 -35.3655 -35.3646 -35.3636 -35.3626
   -35.3618 -35.3607 -35.3590 -35.3566 -35.3553 -35.3547 -35.3523 -35.3505
   -35.3485 -35.3463 -35.3448 -35.3427 -35.3413 -35.3406 -35.3381 -35.3344
   -35.3328 -35.3298 -35.3290 -35.3256 -35.3245 -35.3178 -35.3140 -35.3072
   -35.3038 -35.2957 -35.2944 -35.2884 -35.2860 -35.2786 -35.2749 -35.2713
   -35.2697 -35.2639 -35.2608 -35.2526 -35.2522 -35.2483 -35.2457 -35.2412
   -35.2380 -35.2357 -35.2276 -35.2256 -35.2236 -35.2222 -35.2211 -35.2155
   -35.2115 -35.2107 -35.2058 -35.2023 -35.1923 -35.1888 -35.1839 -35.1774
   -35.1731 -35.1704 -35.1670 -35.1651 -35.1608 -35.1572 -35.1506 -35.1459
   -35.1376 -35.1329 -35.1255 -35.1220 -35.1137 -35.1107 -35.1084 -35.0910
   -35.0786 -35.0708 -13.6787 -13.6646 -13.6601 -13.6560 -12.8444 -12.8337
   -12.8315 -12.8255 -12.7432 -12.7327 -12.7254 -12.7137 -12.6313 -12.6232
   -12.6189 -12.6032 -12.3823 -12.3595 -12.3481 -12.3382 -12.2786 -12.2710
   -12.2591 -12.2546 -12.1427 -12.1414 -12.1376 -12.1281 -12.1123 -12.1028
   -12.0892 -12.0855 -12.0680 -12.0641 -12.0629 -12.0619 -12.0557 -11.9831
   -11.9540 -11.9439 -11.9341 -11.9033 -11.8779 -11.8743 -11.4933 -11.4930
   -11.4920 -11.4910 -11.4867 -11.4751 -11.4720 -11.4693 -11.4672 -11.4654
   -11.4649 -11.4592 -11.3901 -11.3688 -11.3357 -11.3217 -11.2970 -11.2552
   -11.2428 -11.1755 -11.1704 -11.1164 -11.1051 -11.1033 -11.0435 -11.0402
   -10.8568 -10.8028  -8.0353  -4.9104  -4.8846  -4.7244  -4.7223  -4.0296
    -4.0194  -4.0127  -3.9997  -3.9719  -3.9641  -3.9607  -3.9533  -3.8946
    -3.8871  -3.8460  -3.8410  -3.8233  -3.8181  -3.8092  -3.8068  -3.7956
    -3.7902  -3.6578  -3.6508  -3.4292  -3.4191  -3.4139  -3.4067  -3.4020
    -3.3940  -3.3664  -3.3580  -3.3516  -3.3373  -3.3233  -3.3167  -3.1940
    -3.1791  -3.1748  -3.1595  -3.0680  -3.0644  -3.0601  -3.0579  -2.8929
    -2.8804  -2.8793  -2.8768  -2.8762  -2.8660  -2.8434  -2.8329  -2.8159
    -2.7938  -2.7874  -2.7831  -2.7600  -2.7551  -2.6645  -2.6515  -2.6367
    -2.6233  -2.5615  -2.5380  -2.4535  -2.4433  -2.3871  -2.3665  -2.3505
    -2.3095  -2.2580  -2.2502  -2.2450  -2.2345  -2.2190  -2.1982  -2.1974
    -2.1905  -2.1860  -2.1755  -2.1708  -2.1601  -2.1536  -2.1521  -2.1414
    -2.1389  -2.1301  -2.1216  -2.1151  -2.1124  -2.1111  -2.0828  -1.9346
    -1.9262  -1.9213  -1.9133  -1.9104  -1.9032  -1.8992  -1.8926  -1.8883
    -1.8834  -1.8782  -1.8757  -1.8680  -1.8612  -1.8553  -1.8417  -1.8347
    -1.8329  -1.8309  -1.8206  -1.7980  -1.7898  -1.7307  -1.7241  -1.7052
    -1.6883  -1.6651  -1.6481  -1.6278  -1.6122  -1.5735  -1.5417  -1.5369
    -1.5161  -1.4939  -1.4868  -1.4820  -1.4742  -1.3924  -1.3527  -1.3427
    -1.3247  -1.3082  -1.3046  -1.2982  -1.2911  -1.2856  -1.2611  -1.2590
    -1.2472  -1.2347  -1.2169  -1.1997  -1.1970  -1.1845  -1.1597  -1.1392
    -1.1325  -1.1267  -1.1060  -1.0993  -1.0906  -1.0848  -1.0738  -1.0648
    -1.0573  -1.0420  -1.0325  -1.0256  -1.0178  -0.9951  -0.9843  -0.9688
    -0.9610  -0.9292  -0.9111  -0.9055  -0.8956  -0.8834  -0.8696  -0.8611
    -0.8490  -0.8371  -0.8084  -0.7746  -0.7657  -0.7595  -0.7567  -0.7483
    -0.7058  -0.7005  -0.6992  -0.6913  -0.6752  -0.6621  -0.6521  -0.6232
    -0.5997  -0.5553  -0.4860  -0.4221  -0.4202  -0.4076  -0.4043  -0.3855
    -0.3632  -0.3550  -0.3367  -0.3280  -0.3003  -0.2697  -0.2496  -0.1637
    -0.1067  -0.1002  -0.0561  -0.0489  -0.0403  -0.0287  -0.0213   0.1724
     0.1936   0.2894   0.3230   1.0117   1.3427   1.4459   1.4770   1.5424
     1.6150   1.6434   1.6640   1.6871   1.7024   1.7208   1.7443   1.7644
     1.7865   1.8465   1.9405   1.9831   2.0052   2.0433   2.0527   2.0692
     2.0710   2.0963   2.1127   2.1342   2.2093   2.2755   2.5729   2.5872
     2.6114   2.6203   2.7779   2.7857   2.7901   2.7959   2.8182   2.8348
     2.8452   2.8525   2.8812   2.8919   2.8978   2.9117   2.9356   2.9482
     2.9584   2.9686   2.9885   3.0041   3.0268   3.0394   3.1124   3.1212
     3.1259   3.1473   3.1578   3.1992   3.2257   3.2875   3.5105   3.5147
     3.5284   3.5326   3.5612   3.5874   3.6119   3.6263   3.6377   3.6545
     3.6621   3.6714   3.6821   3.7001   3.7018   3.7238   3.7327   3.7764
     3.7893   3.7977   3.8024   3.8150   3.8273   3.9178   3.9219   3.9379
     3.9511   3.9536   3.9594   3.9660   3.9791   3.9865   4.0010   4.0040
     4.0176   4.0274   4.0384   4.0452   4.0583   4.0690   4.0823   4.0887
     4.1137   4.1238   4.1389   4.1507   4.1572   4.1748   4.1839   4.2016
     4.2102   4.2166   4.2228   4.2368   4.2397   4.2511   4.2599   4.2757
     4.2819   4.2855   4.2938   4.2959   4.3015   4.3076   4.3149   4.3169
     4.3212   4.3372   4.3453   4.3472   4.3632   4.3733   4.3802   4.3906
     4.3917   4.3948   4.4076   4.4126   4.4239   4.4379   4.4518   4.4561
     4.4582   4.4741   4.4861   4.5204   4.5352   4.5652   4.5805   4.5823
     4.6255   4.6477   4.6604   4.6740   4.6906   4.6938   4.7089   4.7092
     4.7221   4.7377   4.7536   4.7664   4.7721   4.7780   4.7891   4.7932
     4.8041   4.8059   4.8118   4.8205   4.8396   4.8454   4.8583   4.8666
     4.8770   4.8809   4.8868   4.8934   4.8956   4.8989   4.9005   4.9047
     4.9112   4.9140   4.9233   4.9269   4.9312   4.9368   4.9409   4.9434
     4.9455   4.9508   4.9519   4.9562   4.9695   4.9823   4.9878   5.0019
     5.0102   5.0165   5.0240   5.0454   5.0601   5.0744   5.1001   5.1029
     5.1080

          k = 0.2500 0.0000 0.0000 (135097 PWs)   bands (ev):

   -61.6905 -61.6753 -61.6664 -61.6584 -61.6560 -61.6528 -61.6514 -61.6463
   -61.6422 -61.6387 -61.6334 -61.6315 -61.6299 -61.6270 -61.6250 -61.6229
   -61.6183 -61.6111 -61.6031 -61.5975 -61.5961 -61.5919 -61.5880 -61.5871
   -61.5848 -61.5837 -61.5825 -61.5818 -61.5787 -61.5767 -61.5736 -61.5730
   -61.5715 -61.5706 -61.5690 -61.5670 -61.5664 -61.5658 -61.5615 -61.5557
   -61.5545 -61.5520 -61.5393 -61.5272 -61.5244 -61.5128 -61.5097 -61.5051
   -61.4984 -61.4921 -61.4831 -61.4776 -61.4592 -61.4549 -61.4485 -61.4439
   -61.4388 -61.4319 -61.4215 -61.4138 -61.4097 -61.4014 -61.3854 -61.3788
   -61.3758 -61.3707 -61.3694 -61.3684 -61.3654 -61.3601 -61.3532 -61.3203
   -44.3128 -42.7638 -35.7759 -35.7738 -35.7560 -35.7535 -35.7511 -35.7497
   -35.7305 -35.7261 -35.7238 -35.7220 -35.7141 -35.7095 -35.7028 -35.7001
   -35.6982 -35.6956 -35.6931 -35.6911 -35.6906 -35.6894 -35.6757 -35.6680
   -35.6663 -35.6614 -35.6583 -35.6560 -35.6538 -35.6521 -35.6518 -35.6500
   -35.6464 -35.6426 -35.6407 -35.6380 -35.6341 -35.6328 -35.6314 -35.6301
   -35.6288 -35.6267 -35.6249 -35.6228 -35.6205 -35.6186 -35.6173 -35.6147
   -35.6126 -35.6112 -35.6088 -35.6042 -35.5977 -35.5952 -35.5937 -35.5900
   -35.5850 -35.5824 -35.5722 -35.5694 -35.5662 -35.5638 -35.5592 -35.5549
   -35.5529 -35.5512 -35.5489 -35.5459 -35.5442 -35.5359 -35.5343 -35.5227
   -35.5199 -35.5166 -35.5118 -35.5087 -35.5064 -35.5049 -35.4984 -35.4947
   -35.4937 -35.4918 -35.4904 -35.4866 -35.4834 -35.4826 -35.4800 -35.4774
   -35.4738 -35.4714 -35.4696 -35.4682 -35.4662 -35.4630 -35.4611 -35.4584
   -35.4573 -35.4540 -35.4498 -35.4476 -35.4465 -35.4443 -35.4419 -35.4415
   -35.4391 -35.4372 -35.4363 -35.4349 -35.4336 -35.4325 -35.4315 -35.4297
   -35.4277 -35.4256 -35.4249 -35.4236 -35.4199 -35.4177 -35.4155 -35.4122
   -35.4113 -35.4058 -35.4040 -35.4004 -35.3960 -35.3937 -35.3924 -35.3908
   -35.3888 -35.3859 -35.3849 -35.3842 -35.3824 -35.3805 -35.3796 -35.3776
   -35.3773 -35.3757 -35.3736 -35.3714 -35.3699 -35.3687 -35.3676 -35.3667
   -35.3657 -35.3649 -35.3610 -35.3598 -35.3580 -35.3552 -35.3538 -35.3528
   -35.3514 -35.3488 -35.3471 -35.3444 -35.3428 -35.3398 -35.3376 -35.3356
   -35.3341 -35.3290 -35.3266 -35.3198 -35.3182 -35.3133 -35.3093 -35.3038
   -35.2994 -35.2980 -35.2928 -35.2892 -35.2846 -35.2831 -35.2779 -35.2731
   -35.2716 -35.2662 -35.2623 -35.2545 -35.2520 -35.2496 -35.2461 -35.2417
   -35.2373 -35.2340 -35.2285 -35.2263 -35.2247 -35.2220 -35.2201 -35.2158
   -35.2111 -35.2085 -35.2040 -35.1982 -35.1929 -35.1857 -35.1812 -35.1788
   -35.1737 -35.1715 -35.1678 -35.1637 -35.1630 -35.1593 -35.1488 -35.1460
   -35.1384 -35.1322 -35.1276 -35.1196 -35.1157 -35.1122 -35.1087 -35.0904
   -35.0783 -35.0704 -13.9829 -13.6337 -13.3373 -13.3174 -13.1120 -13.0936
   -13.0160 -12.9943 -12.8094 -12.6230 -12.5721 -12.5606 -12.5382 -12.5160
   -12.4674 -12.4518 -12.4358 -12.4233 -12.3758 -12.3689 -12.3165 -12.3076
   -12.2997 -12.2408 -12.2345 -12.2096 -12.1783 -12.1695 -12.1596 -12.1562
   -12.1427 -12.1251 -12.0690 -12.0535 -12.0420 -11.9962 -11.9709 -11.9518
   -11.9334 -11.9103 -11.8399 -11.8354 -11.7098 -11.6991 -11.6889 -11.6164
   -11.6135 -11.6018 -11.5605 -11.5094 -11.4967 -11.4771 -11.4576 -11.4555
   -11.4352 -11.3342 -11.3306 -11.3124 -11.3106 -11.3022 -11.2781 -11.2467
   -11.2315 -11.2039 -11.2003 -11.1916 -11.1317 -11.0914 -11.0025 -10.9515
   -10.9177 -10.8578  -8.0351  -4.6364  -4.6081  -4.4501  -4.4412  -4.4203
    -4.3919  -4.3111  -4.3060  -4.2201  -4.1960  -4.0671  -4.0594  -3.8262
    -3.8114  -3.8023  -3.7906  -3.7602  -3.7273  -3.7041  -3.6360  -3.6328
    -3.5352  -3.5330  -3.5266  -3.5161  -3.4903  -3.4518  -3.4404  -3.4291
    -3.4004  -3.3589  -3.3495  -3.3428  -3.3338  -3.3271  -3.2869  -3.2203
    -3.1850  -3.1782  -3.1579  -3.1023  -3.0876  -3.0546  -3.0383  -3.0222
    -3.0060  -2.9701  -2.9536  -2.9245  -2.8668  -2.7848  -2.7664  -2.7087
    -2.6924  -2.6751  -2.6320  -2.6208  -2.6151  -2.6029  -2.5405  -2.5030
    -2.4392  -2.4065  -2.3776  -2.3677  -2.3585  -2.3429  -2.3255  -2.3038
    -2.2960  -2.2897  -2.2879  -2.2813  -2.2711  -2.2634  -2.2443  -2.2273
    -2.2152  -2.2055  -2.1925  -2.1675  -2.1606  -2.1520  -2.1433  -2.1175
    -2.0933  -2.0779  -2.0594  -2.0477  -2.0410  -2.0358  -2.0257  -2.0168
    -2.0093  -2.0024  -1.9945  -1.9882  -1.9842  -1.9512  -1.9316  -1.8885
    -1.8680  -1.8626  -1.8322  -1.8218  -1.8194  -1.8061  -1.8049  -1.7958
    -1.7820  -1.7620  -1.7528  -1.7265  -1.7037  -1.6821  -1.6793  -1.6755
    -1.6737  -1.6645  -1.6598  -1.6490  -1.6378  -1.6278  -1.6163  -1.6035
    -1.5892  -1.5765  -1.5509  -1.5478  -1.5435  -1.5298  -1.5231  -1.4998
    -1.4787  -1.4665  -1.4610  -1.4444  -1.4371  -1.4260  -1.3987  -1.3876
    -1.3635  -1.3440  -1.3348  -1.3216  -1.3036  -1.2867  -1.2809  -1.2733
    -1.2711  -1.2640  -1.2587  -1.2424  -1.2123  -1.1935  -1.1577  -1.1482
    -1.1152  -1.0993  -1.0878  -1.0764  -1.0596  -1.0463  -1.0329  -1.0090
    -1.0013  -0.9939  -0.9811  -0.9519  -0.9192  -0.8995  -0.8818  -0.8688
    -0.8629  -0.8489  -0.8412  -0.8263  -0.8091  -0.7950  -0.7563  -0.7180
    -0.6949  -0.6744  -0.6377  -0.6275  -0.6060  -0.5914  -0.5669  -0.5546
    -0.5258  -0.5060  -0.4977  -0.4868  -0.4760  -0.4467  -0.3908  -0.3566
    -0.3198  -0.2972  -0.2612  -0.2221  -0.2038  -0.1838  -0.1733  -0.1461
    -0.1383  -0.0687   0.0136   0.0922   0.1258   0.2705   0.3560   0.4366
     0.7710   0.7940   0.8488   0.9250   0.9571   1.0003   1.0414   1.1174
     1.2404   1.2683   1.2998   1.3381   1.6539   1.7722   1.8579   1.9756
     2.0319   2.1282   2.1569   2.1862   2.2417   2.2660   2.3016   2.3412
     2.4589   2.6201   2.6326   2.6610   2.6709   2.6900   2.7136   2.7226
     2.7412   2.7549   2.7907   2.8031   2.8274   2.8579   2.8636   2.8821
     2.8892   2.9085   2.9182   2.9395   2.9648   2.9809   3.0233   3.0654
     3.0796   3.1229   3.1480   3.1790   3.1917   3.2104   3.2345   3.2480
     3.2621   3.2763   3.2963   3.3069   3.3136   3.3327   3.3443   3.3608
     3.3636   3.3944   3.4094   3.4189   3.4545   3.4866   3.5034   3.5070
     3.5313   3.5459   3.5611   3.5733   3.5906   3.6070   3.6234   3.6520
     3.6592   3.6949   3.7023   3.7148   3.7351   3.7418   3.7593   3.7658
     3.7937   3.8131   3.8274   3.8457   3.8586   3.8703   3.8820   3.8966
     3.9202   3.9310   3.9448   3.9573   3.9606   3.9724   3.9865   4.0031
     4.0131   4.0268   4.0500   4.0661   4.0792   4.1111   4.1240   4.1390
     4.1596   4.1842   4.1950   4.2253   4.2381   4.2723   4.2935   4.2966
     4.3059   4.3171   4.3237   4.3306   4.3416   4.3438   4.3508   4.3554
     4.3671   4.3805   4.3864   4.3893   4.3953   4.4020   4.4159   4.4242
     4.4313   4.4448   4.4549   4.4696   4.4789   4.4889   4.4947   4.5081
     4.5091   4.5121   4.5204   4.5289   4.5358   4.5384   4.5525   4.5591
     4.5604   4.5737   4.5907   4.6039   4.6150   4.6238   4.6362   4.6471
     4.6507   4.6555   4.6676   4.6775   4.6833   4.6910   4.7075   4.7101
     4.7387   4.7445   4.7535   4.7648   4.7822   4.7954   4.7975   4.8090
     4.8173   4.8293   4.8407   4.8482   4.8673   4.8734   4.8793   4.8925
     4.8989   4.9188   4.9250   4.9371   4.9436   4.9551   4.9635   4.9706
     4.9759   4.9853   4.9888   5.0001   5.0142   5.0220   5.0332   5.0373
     5.0448   5.0561   5.0655   5.0695   5.0876   5.0916   5.0939   5.0979
     5.0994

          k =-0.5000 0.0000 0.0000 (135178 PWs)   bands (ev):

   -61.6905 -61.6725 -61.6709 -61.6568 -61.6560 -61.6540 -61.6526 -61.6411
   -61.6405 -61.6375 -61.6358 -61.6345 -61.6321 -61.6267 -61.6246 -61.6230
   -61.6166 -61.6113 -61.6030 -61.5974 -61.5966 -61.5918 -61.5881 -61.5875
   -61.5839 -61.5834 -61.5821 -61.5806 -61.5793 -61.5778 -61.5755 -61.5733
   -61.5708 -61.5703 -61.5691 -61.5675 -61.5664 -61.5657 -61.5585 -61.5577
   -61.5545 -61.5522 -61.5393 -61.5275 -61.5239 -61.5115 -61.5098 -61.5066
   -61.4982 -61.4919 -61.4832 -61.4776 -61.4593 -61.4549 -61.4486 -61.4439
   -61.4387 -61.4319 -61.4216 -61.4138 -61.4098 -61.4015 -61.3854 -61.3788
   -61.3759 -61.3702 -61.3697 -61.3684 -61.3655 -61.3599 -61.3533 -61.3203
   -44.3128 -42.7638 -35.7714 -35.7697 -35.7671 -35.7665 -35.7332 -35.7324
   -35.7301 -35.7287 -35.7273 -35.7255 -35.7201 -35.7179 -35.7146 -35.7132
   -35.7109 -35.7096 -35.6799 -35.6727 -35.6690 -35.6675 -35.6673 -35.6637
   -35.6600 -35.6595 -35.6568 -35.6537 -35.6510 -35.6489 -35.6484 -35.6468
   -35.6433 -35.6418 -35.6400 -35.6390 -35.6380 -35.6370 -35.6354 -35.6352
   -35.6330 -35.6323 -35.6306 -35.6283 -35.6263 -35.6244 -35.6180 -35.6170
   -35.6142 -35.6130 -35.6110 -35.6082 -35.6029 -35.6023 -35.5996 -35.5973
   -35.5920 -35.5907 -35.5889 -35.5678 -35.5650 -35.5625 -35.5488 -35.5483
   -35.5455 -35.5395 -35.5385 -35.5376 -35.5323 -35.5310 -35.5284 -35.5227
   -35.5205 -35.5197 -35.5174 -35.5156 -35.5104 -35.5084 -35.5012 -35.4962
   -35.4895 -35.4861 -35.4817 -35.4793 -35.4774 -35.4731 -35.4716 -35.4706
   -35.4689 -35.4681 -35.4666 -35.4639 -35.4634 -35.4618 -35.4599 -35.4580
   -35.4560 -35.4554 -35.4547 -35.4512 -35.4504 -35.4491 -35.4487 -35.4472
   -35.4459 -35.4451 -35.4446 -35.4439 -35.4414 -35.4405 -35.4362 -35.4351
   -35.4339 -35.4318 -35.4288 -35.4267 -35.4222 -35.4218 -35.4209 -35.4155
   -35.4126 -35.4084 -35.4038 -35.3994 -35.3975 -35.3943 -35.3897 -35.3868
   -35.3849 -35.3839 -35.3823 -35.3788 -35.3783 -35.3772 -35.3759 -35.3753
   -35.3736 -35.3712 -35.3691 -35.3672 -35.3647 -35.3638 -35.3629 -35.3624
   -35.3605 -35.3596 -35.3588 -35.3571 -35.3565 -35.3551 -35.3537 -35.3526
   -35.3516 -35.3498 -35.3482 -35.3477 -35.3462 -35.3447 -35.3442 -35.3329
   -35.3317 -35.3312 -35.3270 -35.3234 -35.3190 -35.3147 -35.3132 -35.3020
   -35.3000 -35.2987 -35.2957 -35.2907 -35.2865 -35.2814 -35.2779 -35.2760
   -35.2715 -35.2688 -35.2611 -35.2551 -35.2517 -35.2507 -35.2456 -35.2443
   -35.2349 -35.2311 -35.2296 -35.2258 -35.2255 -35.2207 -35.2196 -35.2145
   -35.2135 -35.2032 -35.2022 -35.1980 -35.1944 -35.1857 -35.1812 -35.1791
   -35.1754 -35.1731 -35.1682 -35.1632 -35.1615 -35.1607 -35.1477 -35.1435
   -35.1414 -35.1321 -35.1267 -35.1207 -35.1154 -35.1113 -35.1086 -35.0908
   -35.0786 -35.0706 -13.8502 -13.8414 -13.2142 -13.2080 -13.1979 -13.1818
   -12.9938 -12.9879 -12.8817 -12.7725 -12.4757 -12.4661 -12.4622 -12.4545
   -12.4379 -12.4278 -12.3833 -12.3632 -12.3551 -12.3511 -12.3445 -12.3258
   -12.3171 -12.3122 -12.2636 -12.2529 -12.2299 -12.2029 -12.2001 -12.1953
   -12.1209 -12.1144 -12.1035 -12.0960 -12.0744 -12.0468 -11.9340 -11.9283
   -11.9157 -11.9001 -11.7512 -11.7489 -11.7475 -11.7415 -11.6547 -11.6231
   -11.5818 -11.5805 -11.5725 -11.5592 -11.5584 -11.5477 -11.3988 -11.3958
   -11.3939 -11.3935 -11.3869 -11.3599 -11.2882 -11.2643 -11.2418 -11.2348
   -11.2317 -11.2256 -11.2134 -11.1953 -11.0963 -11.0818 -10.9918 -10.9575
   -10.8906 -10.8839  -8.0352  -4.6581  -4.6517  -4.5388  -4.5343  -4.4582
    -4.4557  -4.4367  -4.4323  -3.9654  -3.9494  -3.9480  -3.9153  -3.8070
    -3.7881  -3.7860  -3.7753  -3.7682  -3.6050  -3.6000  -3.5889  -3.5758
    -3.5747  -3.5718  -3.5677  -3.5643  -3.5611  -3.4677  -3.4163  -3.3989
    -3.3882  -3.3759  -3.3493  -3.3438  -3.3365  -3.3298  -3.3125  -3.3084
    -3.3037  -3.2609  -3.2377  -3.1598  -3.1530  -3.1492  -3.1449  -3.0659
    -2.9174  -2.9126  -2.9010  -2.8888  -2.8860  -2.8832  -2.8408  -2.8284
    -2.8024  -2.6426  -2.4541  -2.4475  -2.4417  -2.4275  -2.4253  -2.4164
    -2.4097  -2.3980  -2.3841  -2.3770  -2.3668  -2.3649  -2.3496  -2.3424
    -2.3367  -2.3303  -2.3230  -2.3126  -2.2974  -2.2924  -2.2838  -2.2608
    -2.2489  -2.2345  -2.2298  -2.2133  -2.2093  -2.2018  -2.1967  -2.1879
    -2.1733  -2.1661  -2.1608  -2.0916  -2.0828  -2.0677  -2.0617  -2.0572
    -2.0439  -2.0283  -2.0223  -1.9833  -1.9402  -1.9228  -1.9100  -1.8760
    -1.8651  -1.8478  -1.8319  -1.8212  -1.8115  -1.8039  -1.7947  -1.7664
    -1.7604  -1.7431  -1.7309  -1.7234  -1.7147  -1.7106  -1.7012  -1.6907
    -1.6719  -1.6581  -1.6559  -1.6519  -1.6508  -1.6402  -1.6186  -1.6156
    -1.5758  -1.5636  -1.5300  -1.4978  -1.4795  -1.4466  -1.4347  -1.4287
    -1.4136  -1.3918  -1.3825  -1.3815  -1.3656  -1.3632  -1.3609  -1.3480
    -1.3320  -1.3214  -1.3175  -1.3030  -1.2917  -1.2882  -1.2851  -1.2732
    -1.2505  -1.2062  -1.1862  -1.1807  -1.1554  -1.1530  -1.1357  -1.1253
    -1.0924  -1.0825  -1.0773  -1.0507  -1.0406  -1.0296  -1.0125  -0.9959
    -0.9879  -0.9740  -0.9472  -0.9229  -0.8937  -0.8310  -0.8233  -0.8172
    -0.7974  -0.7943  -0.7815  -0.7797  -0.7631  -0.7495  -0.7437  -0.6932
    -0.6820  -0.6756  -0.6609  -0.6513  -0.6448  -0.6091  -0.5980  -0.5941
    -0.5764  -0.5548  -0.5486  -0.5118  -0.4672  -0.4548  -0.4289  -0.4214
    -0.3825  -0.3498  -0.3423  -0.3306  -0.3113  -0.2808  -0.2487  -0.2146
    -0.1982   0.1285   0.1327   0.1442   0.1634   0.2587   0.3037   0.3412
     0.3766   0.5698   0.6008   0.8333   0.8609   1.0443   1.3930   1.4116
     1.4251   1.4652   1.5478   1.6118   1.6310   1.6736   1.7065   1.7444
     1.7520   1.7710   1.9289   2.0593   2.2910   2.3082   2.4065   2.4227
     2.4440   2.5018   2.5707   2.5789   2.6356   2.6611   2.6817   2.7068
     2.7231   2.7322   2.7455   2.7749   2.8044   2.8359   2.8739   2.8881
     2.9029   2.9124   2.9282   2.9365   2.9642   2.9711   2.9843   2.9982
     3.0165   3.0228   3.0478   3.0578   3.0782   3.0890   3.1037   3.1390
     3.1490   3.1699   3.2513   3.2604   3.3179   3.3334   3.3525   3.3568
     3.3871   3.4131   3.4390   3.4525   3.4679   3.4798   3.5258   3.5434
     3.5536   3.5714   3.5866   3.5984   3.6268   3.6313   3.6432   3.6463
     3.6727   3.6793   3.7098   3.7248   3.7317   3.7521   3.7710   3.7764
     3.8023   3.8796   3.9034   3.9156   3.9187   3.9340   3.9515   3.9839
     4.0262   4.0302   4.0490   4.0732   4.0761   4.0851   4.0906   4.0988
     4.1095   4.1224   4.1408   4.1528   4.1642   4.1694   4.2056   4.2121
     4.2188   4.2268   4.2442   4.2464   4.2518   4.2582   4.2626   4.2759
     4.2803   4.2895   4.2928   4.2966   4.3012   4.3061   4.3187   4.3274
     4.3461   4.3682   4.3702   4.3853   4.3949   4.4075   4.4138   4.4255
     4.4447   4.4479   4.4564   4.4639   4.4686   4.4778   4.4862   4.5027
     4.5067   4.5138   4.5242   4.5405   4.5416   4.5441   4.5465   4.5651
     4.5741   4.5877   4.5937   4.6019   4.6116   4.6289   4.6335   4.6453
     4.6547   4.6670   4.6793   4.6881   4.7057   4.7120   4.7426   4.7436
     4.7563   4.7587   4.7762   4.7930   4.8050   4.8166   4.8340   4.8429
     4.8466   4.8541   4.8554   4.8586   4.8652   4.8667   4.8701   4.8768
     4.8839   4.8880   4.9008   4.9049   4.9102   4.9207   4.9270   4.9486
     4.9588   4.9642   4.9778   4.9835   4.9896   4.9962   5.0002   5.0057
     5.0146   5.0227   5.0370   5.0571   5.0661   5.0697   5.0749   5.0811
     5.0879

          k =-0.2500 0.2500 0.0000 (135083 PWs)   bands (ev):

   -61.6905 -61.6742 -61.6669 -61.6622 -61.6572 -61.6512 -61.6471 -61.6458
   -61.6419 -61.6375 -61.6341 -61.6330 -61.6317 -61.6292 -61.6250 -61.6204
   -61.6179 -61.6113 -61.6030 -61.5981 -61.5955 -61.5925 -61.5886 -61.5860
   -61.5843 -61.5837 -61.5820 -61.5809 -61.5794 -61.5767 -61.5754 -61.5741
   -61.5719 -61.5697 -61.5685 -61.5675 -61.5668 -61.5639 -61.5614 -61.5565
   -61.5549 -61.5515 -61.5392 -61.5272 -61.5245 -61.5126 -61.5092 -61.5051
   -61.4987 -61.4925 -61.4831 -61.4775 -61.4592 -61.4548 -61.4486 -61.4438
   -61.4388 -61.4319 -61.4215 -61.4138 -61.4098 -61.4014 -61.3855 -61.3787
   -61.3758 -61.3708 -61.3692 -61.3685 -61.3653 -61.3602 -61.3532 -61.3203
   -44.3128 -42.7638 -35.7860 -35.7760 -35.7539 -35.7514 -35.7462 -35.7409
   -35.7308 -35.7257 -35.7198 -35.7179 -35.7168 -35.7160 -35.7138 -35.7026
   -35.6970 -35.6926 -35.6844 -35.6833 -35.6817 -35.6802 -35.6768 -35.6759
   -35.6738 -35.6660 -35.6602 -35.6572 -35.6547 -35.6512 -35.6460 -35.6444
   -35.6433 -35.6405 -35.6388 -35.6371 -35.6366 -35.6355 -35.6333 -35.6315
   -35.6303 -35.6275 -35.6266 -35.6259 -35.6249 -35.6228 -35.6212 -35.6194
   -35.6182 -35.6132 -35.6111 -35.6089 -35.6067 -35.6013 -35.5946 -35.5884
   -35.5777 -35.5718 -35.5694 -35.5650 -35.5637 -35.5588 -35.5565 -35.5543
   -35.5493 -35.5467 -35.5463 -35.5432 -35.5424 -35.5396 -35.5349 -35.5292
   -35.5197 -35.5182 -35.5152 -35.5129 -35.5109 -35.5043 -35.4982 -35.4960
   -35.4924 -35.4876 -35.4833 -35.4816 -35.4802 -35.4775 -35.4763 -35.4744
   -35.4730 -35.4709 -35.4698 -35.4673 -35.4641 -35.4624 -35.4607 -35.4600
   -35.4577 -35.4553 -35.4517 -35.4498 -35.4486 -35.4471 -35.4463 -35.4451
   -35.4440 -35.4432 -35.4411 -35.4399 -35.4379 -35.4361 -35.4349 -35.4312
   -35.4295 -35.4272 -35.4216 -35.4167 -35.4139 -35.4104 -35.4080 -35.4064
   -35.4047 -35.4039 -35.4025 -35.4004 -35.3995 -35.3986 -35.3967 -35.3954
   -35.3932 -35.3921 -35.3891 -35.3872 -35.3852 -35.3822 -35.3797 -35.3762
   -35.3745 -35.3721 -35.3712 -35.3696 -35.3681 -35.3668 -35.3661 -35.3654
   -35.3638 -35.3612 -35.3595 -35.3567 -35.3552 -35.3544 -35.3530 -35.3515
   -35.3496 -35.3490 -35.3484 -35.3471 -35.3431 -35.3411 -35.3383 -35.3369
   -35.3328 -35.3308 -35.3292 -35.3207 -35.3191 -35.3140 -35.3076 -35.3046
   -35.3013 -35.2994 -35.2924 -35.2879 -35.2851 -35.2797 -35.2784 -35.2752
   -35.2698 -35.2680 -35.2654 -35.2538 -35.2503 -35.2483 -35.2456 -35.2411
   -35.2387 -35.2341 -35.2286 -35.2246 -35.2239 -35.2224 -35.2200 -35.2160
   -35.2135 -35.2071 -35.2019 -35.1990 -35.1953 -35.1856 -35.1814 -35.1774
   -35.1731 -35.1705 -35.1689 -35.1654 -35.1628 -35.1584 -35.1511 -35.1457
   -35.1374 -35.1323 -35.1269 -35.1208 -35.1149 -35.1116 -35.1084 -35.0906
   -35.0784 -35.0705 -13.9358 -13.5924 -13.5848 -13.2540 -13.0705 -13.0549
   -13.0463 -12.7763 -12.7654 -12.7540 -12.7390 -12.5915 -12.5795 -12.4921
   -12.4475 -12.4081 -12.3970 -12.3577 -12.3494 -12.3418 -12.3279 -12.3172
   -12.3017 -12.2687 -12.2411 -12.2290 -12.2135 -12.1497 -12.1416 -12.1312
   -12.1272 -12.1176 -12.1058 -12.0470 -12.0150 -12.0115 -11.9924 -11.9890
   -11.9322 -11.8887 -11.8850 -11.8604 -11.7736 -11.6801 -11.6719 -11.6430
   -11.5848 -11.5249 -11.5018 -11.4892 -11.4874 -11.4720 -11.4704 -11.4675
   -11.4586 -11.3750 -11.3643 -11.3161 -11.3048 -11.2887 -11.2842 -11.2462
   -11.2204 -11.2156 -11.1915 -11.1616 -11.1394 -11.1027 -10.9902 -10.9823
   -10.8866 -10.8513  -8.0352  -4.7917  -4.6844  -4.6151  -4.5424  -4.3490
    -4.3365  -4.1875  -4.1675  -4.0749  -4.0675  -4.0027  -3.9783  -3.9520
    -3.8788  -3.8672  -3.8543  -3.7910  -3.6694  -3.6283  -3.6100  -3.5852
    -3.5796  -3.5693  -3.5571  -3.5508  -3.5408  -3.4234  -3.4178  -3.4139
    -3.3895  -3.3674  -3.3560  -3.3514  -3.3272  -3.3039  -3.2970  -3.2880
    -3.1985  -3.1879  -3.1678  -3.0824  -3.0749  -3.0357  -3.0339  -3.0154
    -3.0106  -2.9407  -2.9227  -2.9094  -2.8901  -2.8877  -2.7983  -2.7815
    -2.7299  -2.7159  -2.6353  -2.6239  -2.6170  -2.5991  -2.5443  -2.4810
    -2.4397  -2.4115  -2.3947  -2.3809  -2.3753  -2.3662  -2.3604  -2.3552
    -2.3470  -2.3440  -2.3169  -2.2791  -2.2721  -2.2673  -2.2570  -2.2469
    -2.2406  -2.2344  -2.2145  -2.2110  -2.1966  -2.1674  -2.1290  -2.1197
    -2.1157  -2.0882  -2.0749  -2.0568  -2.0426  -2.0339  -2.0239  -1.9808
    -1.9741  -1.9493  -1.9442  -1.9236  -1.9116  -1.9013  -1.8967  -1.8894
    -1.8795  -1.8624  -1.8510  -1.8401  -1.8279  -1.8166  -1.8126  -1.7979
    -1.7952  -1.7834  -1.7806  -1.7758  -1.7616  -1.7370  -1.7119  -1.7037
    -1.6982  -1.6685  -1.6481  -1.6390  -1.6348  -1.6206  -1.6051  -1.5869
    -1.5692  -1.5386  -1.5026  -1.4829  -1.4760  -1.4578  -1.4531  -1.4415
    -1.4303  -1.4152  -1.4101  -1.3987  -1.3886  -1.3748  -1.3575  -1.3514
    -1.3321  -1.3096  -1.2966  -1.2926  -1.2865  -1.2717  -1.2579  -1.2403
    -1.2316  -1.2204  -1.2075  -1.2013  -1.1817  -1.1452  -1.1184  -1.0994
    -1.0850  -1.0794  -1.0693  -1.0499  -1.0265  -1.0200  -1.0101  -0.9888
    -0.9766  -0.9473  -0.9225  -0.9200  -0.9030  -0.8970  -0.8879  -0.8737
    -0.8521  -0.8364  -0.8300  -0.8161  -0.7947  -0.7854  -0.7767  -0.7477
    -0.7244  -0.7080  -0.6960  -0.6755  -0.6601  -0.5869  -0.5616  -0.5381
    -0.5235  -0.5129  -0.4957  -0.4776  -0.4655  -0.4431  -0.4289  -0.4078
    -0.3913  -0.3374  -0.3061  -0.2937  -0.2642  -0.2318  -0.1943  -0.1408
    -0.0789  -0.0599  -0.0022   0.0348   0.1221   0.1522   0.2395   0.2589
     0.5753   0.7136   0.9178   0.9834   1.0264   1.0663   1.1372   1.1473
     1.1842   1.3932   1.4037   1.4523   1.6467   1.8441   1.9473   1.9870
     2.0027   2.0337   2.0580   2.1306   2.1827   2.2063   2.2816   2.2878
     2.3108   2.3562   2.3941   2.4190   2.4959   2.4985   2.6010   2.6507
     2.6695   2.6908   2.7230   2.7592   2.7822   2.8011   2.8211   2.8310
     2.8937   2.9172   2.9464   2.9757   2.9922   3.0414   3.0846   3.0985
     3.1134   3.1209   3.1418   3.1622   3.1876   3.2065   3.2111   3.2264
     3.2345   3.2517   3.2654   3.2834   3.2951   3.3240   3.3467   3.3823
     3.4019   3.4093   3.4294   3.4636   3.4867   3.5015   3.5098   3.5266
     3.5414   3.5567   3.5737   3.5792   3.5898   3.6040   3.6295   3.6439
     3.7098   3.7194   3.7439   3.7576   3.7723   3.7840   3.7871   3.8040
     3.8154   3.8494   3.8556   3.8885   3.9120   3.9173   3.9211   3.9305
     3.9404   3.9503   3.9798   4.0067   4.0180   4.0266   4.0418   4.0554
     4.0773   4.1045   4.1177   4.1286   4.1408   4.1570   4.1746   4.2004
     4.2101   4.2286   4.2419   4.2474   4.2563   4.2635   4.2749   4.2831
     4.2900   4.2978   4.3120   4.3280   4.3378   4.3555   4.3604   4.3732
     4.3786   4.3828   4.3910   4.3953   4.4071   4.4182   4.4197   4.4339
     4.4391   4.4459   4.4486   4.4605   4.4661   4.4712   4.4753   4.4835
     4.4920   4.4965   4.5049   4.5187   4.5374   4.5419   4.5479   4.5619
     4.5744   4.5768   4.5842   4.5958   4.6049   4.6151   4.6223   4.6462
     4.6530   4.6603   4.6678   4.6797   4.6899   4.7036   4.7082   4.7245
     4.7367   4.7449   4.7604   4.7797   4.7867   4.8170   4.8270   4.8418
     4.8480   4.8598   4.8698   4.8730   4.8763   4.8853   4.8915   4.8972
     4.9100   4.9157   4.9217   4.9266   4.9388   4.9491   4.9542   4.9604
     4.9697   4.9741   4.9827   4.9916   5.0035   5.0242   5.0274   5.0295
     5.0355   5.0384   5.0465   5.0521   5.0567   5.0666   5.0789   5.0843
     5.0986

          k =-0.5000 0.2500 0.0000 (135080 PWs)   bands (ev):

   -61.6905 -61.6716 -61.6700 -61.6613 -61.6609 -61.6490 -61.6472 -61.6410
   -61.6404 -61.6378 -61.6360 -61.6349 -61.6322 -61.6311 -61.6253 -61.6198
   -61.6162 -61.6118 -61.6029 -61.5980 -61.5961 -61.5926 -61.5889 -61.5852
   -61.5838 -61.5832 -61.5819 -61.5807 -61.5789 -61.5776 -61.5758 -61.5756
   -61.5729 -61.5703 -61.5679 -61.5666 -61.5662 -61.5640 -61.5590 -61.5584
   -61.5549 -61.5517 -61.5393 -61.5276 -61.5239 -61.5114 -61.5093 -61.5065
   -61.4984 -61.4924 -61.4832 -61.4774 -61.4592 -61.4549 -61.4486 -61.4438
   -61.4388 -61.4319 -61.4216 -61.4138 -61.4098 -61.4014 -61.3855 -61.3788
   -61.3758 -61.3703 -61.3698 -61.3682 -61.3654 -61.3600 -61.3534 -61.3204
   -44.3128 -42.7638 -35.7888 -35.7853 -35.7435 -35.7418 -35.7390 -35.7383
   -35.7348 -35.7324 -35.7252 -35.7220 -35.7201 -35.7176 -35.7024 -35.7000
   -35.6984 -35.6941 -35.6826 -35.6803 -35.6784 -35.6734 -35.6703 -35.6697
   -35.6683 -35.6657 -35.6630 -35.6621 -35.6586 -35.6547 -35.6539 -35.6519
   -35.6489 -35.6457 -35.6420 -35.6407 -35.6387 -35.6369 -35.6346 -35.6337
   -35.6311 -35.6296 -35.6283 -35.6250 -35.6235 -35.6219 -35.6194 -35.6164
   -35.6133 -35.6115 -35.6097 -35.6068 -35.6043 -35.6018 -35.5971 -35.5870
   -35.5849 -35.5787 -35.5746 -35.5684 -35.5639 -35.5598 -35.5561 -35.5491
   -35.5475 -35.5440 -35.5397 -35.5382 -35.5354 -35.5319 -35.5305 -35.5294
   -35.5265 -35.5206 -35.5168 -35.5081 -35.5072 -35.5020 -35.4988 -35.4931
   -35.4888 -35.4877 -35.4860 -35.4826 -35.4815 -35.4782 -35.4749 -35.4735
   -35.4724 -35.4689 -35.4680 -35.4661 -35.4641 -35.4633 -35.4624 -35.4619
   -35.4604 -35.4584 -35.4566 -35.4546 -35.4529 -35.4507 -35.4492 -35.4481
   -35.4456 -35.4426 -35.4400 -35.4372 -35.4358 -35.4332 -35.4306 -35.4294
   -35.4277 -35.4250 -35.4240 -35.4226 -35.4200 -35.4156 -35.4121 -35.4087
   -35.4077 -35.4055 -35.4034 -35.4020 -35.4001 -35.3962 -35.3937 -35.3920
   -35.3883 -35.3869 -35.3859 -35.3843 -35.3826 -35.3803 -35.3777 -35.3772
   -35.3755 -35.3741 -35.3726 -35.3705 -35.3688 -35.3663 -35.3645 -35.3630
   -35.3620 -35.3607 -35.3589 -35.3577 -35.3559 -35.3552 -35.3532 -35.3509
   -35.3489 -35.3470 -35.3460 -35.3441 -35.3425 -35.3388 -35.3374 -35.3365
   -35.3337 -35.3333 -35.3270 -35.3248 -35.3206 -35.3151 -35.3119 -35.3071
   -35.3017 -35.2984 -35.2958 -35.2890 -35.2846 -35.2818 -35.2770 -35.2749
   -35.2690 -35.2657 -35.2606 -35.2534 -35.2520 -35.2496 -35.2456 -35.2439
   -35.2357 -35.2332 -35.2282 -35.2273 -35.2250 -35.2212 -35.2196 -35.2150
   -35.2118 -35.2078 -35.2044 -35.1993 -35.1929 -35.1878 -35.1828 -35.1782
   -35.1741 -35.1711 -35.1690 -35.1639 -35.1605 -35.1588 -35.1485 -35.1464
   -35.1388 -35.1324 -35.1262 -35.1215 -35.1142 -35.1111 -35.1085 -35.0909
   -35.0786 -35.0707 -13.8039 -13.7950 -13.4613 -13.4527 -12.9565 -12.9471
   -12.9331 -12.9249 -12.8424 -12.7334 -12.6608 -12.6540 -12.5598 -12.4869
   -12.4759 -12.4505 -12.4176 -12.4051 -12.3325 -12.3194 -12.3069 -12.2999
   -12.2530 -12.2482 -12.2162 -12.1948 -12.1899 -12.1777 -12.1680 -12.1640
   -12.1566 -12.0784 -12.0736 -12.0621 -12.0394 -12.0221 -12.0144 -11.9959
   -11.9172 -11.9152 -11.8937 -11.8663 -11.7926 -11.7608 -11.5915 -11.5883
   -11.5490 -11.5455 -11.5406 -11.5404 -11.4714 -11.4357 -11.4339 -11.4330
   -11.4027 -11.3999 -11.3692 -11.3599 -11.3501 -11.3399 -11.2773 -11.2503
   -11.2291 -11.2006 -11.1434 -11.1396 -11.1256 -11.1067 -11.0171 -10.9996
   -10.8763 -10.8304  -8.0352  -4.8554  -4.7788  -4.6566  -4.6456  -4.3336
    -4.2535  -4.1585  -4.1330  -4.0514  -4.0411  -3.8828  -3.8775  -3.8560
    -3.8203  -3.7928  -3.7821  -3.7787  -3.7147  -3.7031  -3.6810  -3.6456
    -3.6367  -3.5907  -3.5858  -3.5783  -3.5605  -3.5516  -3.5212  -3.4293
    -3.4233  -3.3388  -3.3320  -3.3151  -3.3085  -3.2894  -3.2659  -3.2307
    -3.2213  -3.1435  -3.0963  -3.0942  -3.0919  -3.0685  -3.0346  -3.0252
    -3.0203  -2.9620  -2.9515  -2.9324  -2.8945  -2.7912  -2.7850  -2.7773
    -2.7622  -2.7390  -2.7289  -2.6639  -2.6460  -2.6317  -2.5598  -2.5317
    -2.5049  -2.4670  -2.4562  -2.4247  -2.3954  -2.3650  -2.3476  -2.3309
    -2.3200  -2.3032  -2.2824  -2.2735  -2.2686  -2.2522  -2.2451  -2.2405
    -2.2255  -2.2012  -2.1749  -2.1616  -2.1593  -2.1518  -2.1317  -2.1232
    -2.1157  -2.1111  -2.1009  -2.0819  -2.0584  -2.0433  -2.0350  -2.0245
    -2.0144  -1.9958  -1.9768  -1.9716  -1.9600  -1.9494  -1.9413  -1.9291
    -1.9092  -1.8941  -1.8735  -1.8709  -1.8638  -1.8503  -1.8396  -1.8338
    -1.8241  -1.8104  -1.7898  -1.7880  -1.7780  -1.7131  -1.6934  -1.6788
    -1.6730  -1.6605  -1.6467  -1.5724  -1.5380  -1.5291  -1.5188  -1.4961
    -1.4852  -1.4559  -1.4439  -1.4394  -1.4350  -1.4272  -1.4138  -1.4098
    -1.3867  -1.3699  -1.3598  -1.3372  -1.3266  -1.3245  -1.3091  -1.3007
    -1.2928  -1.2767  -1.2739  -1.2628  -1.2496  -1.2323  -1.2162  -1.2073
    -1.1946  -1.1808  -1.1677  -1.1580  -1.1426  -1.1313  -1.1213  -1.1085
    -1.0963  -1.0913  -1.0779  -1.0642  -1.0563  -1.0340  -1.0259  -1.0059
    -0.9900  -0.9857  -0.9349  -0.9112  -0.8937  -0.8664  -0.8590  -0.8547
    -0.8359  -0.8271  -0.8124  -0.8021  -0.7858  -0.7622  -0.7366  -0.7114
    -0.7000  -0.6832  -0.6448  -0.6323  -0.6278  -0.6138  -0.5735  -0.5540
    -0.5393  -0.5305  -0.5033  -0.4979  -0.4836  -0.4626  -0.4549  -0.4220
    -0.4185  -0.4030  -0.3486  -0.3082  -0.2639  -0.2534  -0.2083  -0.1238
    -0.1182  -0.0897  -0.0622   0.0436   0.0649   0.1140   0.1432   0.2850
     0.3044   0.4942   0.5068   1.0031   1.0743   1.1382   1.4093   1.4357
     1.4772   1.5341   1.5969   1.6112   1.6234   1.7124   1.7621   1.7972
     1.8179   1.8310   1.9524   2.0560   2.1435   2.1827   2.2084   2.2396
     2.2764   2.2984   2.3653   2.3799   2.4372   2.4805   2.5048   2.5622
     2.6474   2.6543   2.6779   2.7031   2.7199   2.7628   2.8098   2.8352
     2.8913   2.9081   2.9236   2.9393   2.9476   2.9650   2.9774   2.9996
     3.0094   3.0144   3.0785   3.0947   3.1229   3.1433   3.1704   3.2065
     3.2333   3.2448   3.2516   3.2839   3.3256   3.3410   3.3667   3.3763
     3.3900   3.4334   3.4439   3.4523   3.4662   3.4942   3.5288   3.5941
     3.6093   3.6191   3.6285   3.6390   3.6726   3.6834   3.7020   3.7188
     3.7271   3.7316   3.7600   3.7884   3.8047   3.8216   3.8345   3.8591
     3.8706   3.8869   3.8984   3.9167   3.9350   3.9560   4.0042   4.0098
     4.0209   4.0293   4.0383   4.0530   4.0698   4.0857   4.1023   4.1229
     4.1374   4.1482   4.1661   4.1725   4.1787   4.1951   4.2031   4.2124
     4.2210   4.2332   4.2421   4.2481   4.2582   4.2610   4.2701   4.2737
     4.2793   4.2843   4.2907   4.2982   4.3064   4.3121   4.3238   4.3272
     4.3401   4.3550   4.3658   4.3793   4.3876   4.3923   4.4022   4.4094
     4.4152   4.4175   4.4214   4.4270   4.4481   4.4595   4.4644   4.4702
     4.4806   4.4870   4.5020   4.5070   4.5385   4.5548   4.5676   4.5837
     4.6054   4.6117   4.6240   4.6417   4.6492   4.6631   4.6698   4.6772
     4.6884   4.6947   4.7031   4.7162   4.7312   4.7422   4.7505   4.7627
     4.7749   4.7847   4.8028   4.8128   4.8149   4.8234   4.8326   4.8397
     4.8513   4.8568   4.8647   4.8745   4.8851   4.8952   4.9023   4.9137
     4.9212   4.9227   4.9289   4.9362   4.9439   4.9463   4.9535   4.9602
     4.9621   4.9706   4.9761   4.9775   4.9872   4.9898   4.9989   5.0049
     5.0202   5.0273   5.0385   5.0500   5.0568   5.0644   5.0716   5.0822
     5.0879

     the Fermi energy is     3.6506 ev

!    total energy              =  -11961.41091468 Ry
     estimated scf accuracy    <          9.5E-09 Ry
     smearing contrib. (-TS)   =      -0.04513450 Ry
     internal energy E=F+TS    =  -11961.36578018 Ry

     The total energy is F=E-TS. E is the sum of the following terms:
     one-electron contribution = -159216.92704799 Ry
     hartree contribution      =   79710.15758006 Ry
     xc contribution           =   -1819.87468117 Ry
     ewald contribution        =   69368.78966083 Ry
     DFT-D3 Dispersion         =      -3.51129191 Ry

     convergence has been achieved in  28 iterations

     negative rho (up, down):  7.601E-02 0.000E+00

     Forces acting on atoms (cartesian axes, Ry/au):

     atom    1 type  1   force =     0.00140925    0.00184709    0.09160587
     atom    2 type  1   force =    -0.00158928    0.00572941   -0.02240356
     atom    3 type  1   force =     0.00563563   -0.00263955   -0.02210839
     atom    4 type  1   force =    -0.00114995   -0.00135488    0.09483404
     atom    5 type  1   force =     0.00021942    0.00043303    0.00043341
     atom    6 type  1   force =    -0.00008268   -0.00078356    0.00014453
     atom    7 type  1   force =    -0.00004058    0.00025055    0.00028206
     atom    8 type  1   force =    -0.00009452   -0.00016408   -0.00088936
     atom    9 type  1   force =     0.00105758   -0.00011451    0.09286374
     atom   10 type  1   force =    -0.00482101    0.00154096   -0.01985337
     atom   11 type  1   force =     0.00326375   -0.00140132   -0.01728872
     atom   12 type  1   force =    -0.00065056   -0.00123666    0.09434265
     atom   13 type  1   force =    -0.00012171   -0.00006809    0.00014386
     atom   14 type  1   force =    -0.00055382    0.00029276   -0.00027445
     atom   15 type  1   force =     0.00010517   -0.00023027    0.00000392
     atom   16 type  1   force =    -0.00015267   -0.00009521   -0.00082687
     atom   17 type  1   force =     0.00011804    0.00134074    0.09528545
     atom   18 type  1   force =    -0.00579093    0.00274602   -0.02085122
     atom   19 type  1   force =     0.00410784   -0.00463533   -0.01563245
     atom   20 type  1   force =    -0.00123094   -0.00003207    0.09370901
     atom   21 type  1   force =    -0.00006024    0.00017075   -0.00029606
     atom   22 type  1   force =     0.00055102    0.00042154   -0.00040219
     atom   23 type  1   force =     0.00012066   -0.00049039    0.00000441
     atom   24 type  1   force =    -0.00011833   -0.00061277   -0.00025314
     atom   25 type  1   force =     0.00034751    0.00164824    0.09142888
     atom   26 type  1   force =    -0.00322883    0.00213436   -0.02229692
     atom   27 type  1   force =     0.00066236   -0.00197147   -0.01780121
     atom   28 type  1   force =    -0.00099738   -0.00088620    0.09317921
     atom   29 type  1   force =     0.00003300    0.00003471    0.00029179
     atom   30 type  1   force =    -0.00025669   -0.00067219    0.00005208
     atom   31 type  1   force =    -0.00021773   -0.00087554   -0.00006955
     atom   32 type  1   force =     0.00018592   -0.00002142    0.00003917
     atom   33 type  1   force =     0.00044727   -0.00066422    0.09479210
     atom   34 type  1   force =    -0.00104753    0.00503372   -0.01711922
     atom   35 type  1   force =     0.00533136   -0.00099922   -0.00019466
     atom   36 type  1   force =    -0.00063926   -0.00049224    0.09545796
     atom   37 type  1   force =    -0.00020999    0.00021119    0.00019181
     atom   38 type  1   force =     0.00017666    0.00049627   -0.00009211
     atom   39 type  1   force =     0.00034361   -0.00099521   -0.00131282
     atom   40 type  1   force =    -0.00000590   -0.00005543    0.00002791
     atom   41 type  1   force =     0.00154954    0.00145818    0.09538281
     atom   42 type  1   force =    -0.00315189    0.00098585   -0.02105710
     atom   43 type  1   force =     0.00289883   -0.00443182   -0.01466468
     atom   44 type  1   force =    -0.00040300   -0.00067845    0.09329543
     atom   45 type  1   force =     0.00010588    0.00023034   -0.00018376
     atom   46 type  1   force =    -0.00055089    0.00027982    0.00004962
     atom   47 type  1   force =    -0.00031444    0.00022188    0.00001006
     atom   48 type  1   force =    -0.00028402   -0.00013711   -0.00031560
     atom   49 type  1   force =     0.00084945    0.00037462    0.09596972
     atom   50 type  1   force =    -0.00421873    0.00342500   -0.01668841
     atom   51 type  1   force =     0.00280367   -0.00430597   -0.01947497
     atom   52 type  1   force =    -0.00038137   -0.00063216    0.09319658
     atom   53 type  1   force =     0.00033072   -0.00013568   -0.00010310
     atom   54 type  1   force =     0.00006995    0.00021781    0.00010277
     atom   55 type  1   force =    -0.00000863   -0.00008671   -0.00010951
     atom   56 type  1   force =    -0.00002323    0.00016150    0.00000694
     atom   57 type  1   force =     0.00153969    0.00155908    0.09233235
     atom   58 type  1   force =    -0.00272177    0.00434146   -0.01893958
     atom   59 type  1   force =    -0.00099368   -0.00262435   -0.01875462
     atom   60 type  1   force =    -0.00011221   -0.00099683    0.09257424
     atom   61 type  1   force =     0.00048249   -0.00025782   -0.00057316
     atom   62 type  1   force =     0.00056444    0.00006139    0.00005032
     atom   63 type  1   force =     0.00016483   -0.00020922    0.00002677
     atom   64 type  1   force =     0.00002651   -0.00011827   -0.00005973
     atom   65 type  1   force =     0.00148404    0.00073029    0.09188772
     atom   66 type  1   force =    -0.00272253    0.00310494   -0.01996273
     atom   67 type  1   force =     0.00393102   -0.00249354   -0.01939135
     atom   68 type  1   force =    -0.00149145   -0.00140939    0.09262524
     atom   69 type  1   force =    -0.00004357    0.00024748    0.00029332
     atom   70 type  1   force =     0.00012375   -0.00007577    0.00001405
     atom   71 type  1   force =     0.00044348    0.00048139   -0.00013041
     atom   72 type  1   force =     0.00006803    0.00004765    0.00009404
     atom   73 type  2   force =    -0.00039377    0.00025874   -0.05344491
     atom   74 type  2   force =     0.00029776   -0.00038611   -0.05375437
     atom   75 type  2   force =     0.00103558    0.00117354   -0.01865719
     atom   76 type  2   force =    -0.00020585   -0.00119283   -0.02054993
     atom   77 type  2   force =    -0.00030817    0.00017951    0.00019747
     atom   78 type  2   force =     0.00002774   -0.00055012    0.00007151
     atom   79 type  2   force =     0.00016373   -0.00003939    0.00062892
     atom   80 type  2   force =     0.00024010    0.00027108    0.00185831
     atom   81 type  2   force =     0.00024700    0.00030669   -0.05337758
     atom   82 type  2   force =     0.00044024   -0.00013862   -0.05404923
     atom   83 type  2   force =     0.00063216    0.00018528   -0.02129938
     atom   84 type  2   force =     0.00062962    0.00036452   -0.02187564
     atom   85 type  2   force =    -0.00019296   -0.00020858    0.00004070
     atom   86 type  2   force =     0.00005421   -0.00010130   -0.00066822
     atom   87 type  2   force =     0.00029259    0.00011270    0.00031187
     atom   88 type  2   force =    -0.00035811    0.00050745   -0.00056810
     atom   89 type  2   force =    -0.00048010    0.00052078   -0.05328187
     atom   90 type  2   force =     0.00128372   -0.00090922   -0.05362506
     atom   91 type  2   force =    -0.00002859    0.00009386   -0.02629052
     atom   92 type  2   force =    -0.00032102   -0.00086961   -0.01937972
     atom   93 type  2   force =    -0.00000335    0.00040595    0.00004334
     atom   94 type  2   force =     0.00009137   -0.00031789   -0.00047478
     atom   95 type  2   force =     0.00012143   -0.00036190   -0.00006503
     atom   96 type  2   force =     0.00016678   -0.00047176    0.00038328
     atom   97 type  2   force =    -0.00046775    0.00028803   -0.05407368
     atom   98 type  2   force =     0.00039741   -0.00039293   -0.05376724
     atom   99 type  2   force =     0.00001373    0.00052326   -0.01984892
     atom  100 type  2   force =    -0.00044603   -0.00165695   -0.01663960
     atom  101 type  2   force =    -0.00001566    0.00002983   -0.00033600
     atom  102 type  2   force =    -0.00008541   -0.00014431    0.00014186
     atom  103 type  2   force =    -0.00024084    0.00048235    0.00043996
     atom  104 type  2   force =     0.00050291   -0.00024276    0.00026621
     atom  105 type  2   force =    -0.00087229    0.00047994   -0.05807129
     atom  106 type  2   force =     0.00022980   -0.00020173   -0.05464610
     atom  107 type  2   force =    -0.00033916    0.00226088   -0.02759977
     atom  108 type  2   force =    -0.00226386   -0.00014011   -0.02168196
     atom  109 type  2   force =     0.00007842   -0.00016923   -0.00060940
     atom  110 type  2   force =    -0.00018138   -0.00002768   -0.00014771
     atom  111 type  2   force =     0.00021214    0.00126784   -0.00024957
     atom  112 type  2   force =    -0.00068948   -0.00015649    0.00026662
     atom  113 type  2   force =    -0.00034240    0.00021309   -0.05272494
     atom  114 type  2   force =     0.00036915   -0.00058563   -0.05419193
     atom  115 type  2   force =     0.00007697   -0.00215811   -0.03070659
     atom  116 type  2   force =    -0.00089089    0.00035893   -0.01722384
     atom  117 type  2   force =    -0.00014493    0.00031491    0.00003856
     atom  118 type  2   force =     0.00002506   -0.00010777   -0.00001474
     atom  119 type  2   force =    -0.00010008   -0.00059779   -0.00022621
     atom  120 type  2   force =    -0.00022748    0.00001486   -0.00031959
     atom  121 type  2   force =    -0.00040541    0.00108648   -0.05324323
     atom  122 type  2   force =     0.00061928   -0.00042180   -0.05304883
     atom  123 type  2   force =     0.00058987    0.00005308   -0.02821831
     atom  124 type  2   force =    -0.00142759   -0.00077876   -0.02165848
     atom  125 type  2   force =    -0.00004258   -0.00022049   -0.00008536
     atom  126 type  2   force =     0.00043562    0.00014686    0.00008793
     atom  127 type  2   force =    -0.00013190    0.00013313    0.00001306
     atom  128 type  2   force =    -0.00051464    0.00016107    0.00005722
     atom  129 type  2   force =    -0.00061665    0.00050123   -0.05305503
     atom  130 type  2   force =     0.00020961   -0.00083584   -0.05323451
     atom  131 type  2   force =     0.00145519    0.00102087   -0.02119714
     atom  132 type  2   force =     0.00039258   -0.00048173   -0.01823338
     atom  133 type  2   force =     0.00003048   -0.00007297    0.00003264
     atom  134 type  2   force =     0.00036155    0.00002114   -0.00006398
     atom  135 type  2   force =    -0.00002297   -0.00008912   -0.00046539
     atom  136 type  2   force =    -0.00021739    0.00001775    0.00024796
     atom  137 type  2   force =    -0.00063237   -0.00028795   -0.05329234
     atom  138 type  2   force =    -0.00018419   -0.00020970   -0.05335720
     atom  139 type  2   force =     0.00199286    0.00100523   -0.01821305
     atom  140 type  2   force =    -0.00114915   -0.00087964   -0.02327549
     atom  141 type  2   force =     0.00001783    0.00023749   -0.00011181
     atom  142 type  2   force =     0.00000884    0.00000249    0.00003775
     atom  143 type  2   force =    -0.00020627    0.00004869   -0.00013381
     atom  144 type  2   force =     0.00024398   -0.00000798   -0.00015003
     atom  145 type  3   force =    -0.00026124   -0.00128872    0.00295167
     atom  146 type  4   force =    -0.00037739   -0.00031871   -0.00023269
     atom  147 type  4   force =     0.00073157    0.00079764    0.00094297

     Total force =     0.006150     Total SCF correction =     0.000409
     Energy error            =      6.3E-05 Ry
     Gradient error          =      3.0E-03 Ry/Bohr

     number of scf cycles    =  24
     number of bfgs steps    =  23

     energy             old  =  -11961.4108515878 Ry
     energy             new  =  -11961.4109146751 Ry

     CASE: energy            _new < energy            _old

     new trust radius        =       0.0112452401 bohr
     new conv_thr            =       0.0000000200 Ry


ATOMIC_POSITIONS (angstrom)
V                0.0000000000        0.0000000000       10.0000000000    0   0   0
V                2.0432625400        0.0000000000       12.0432625400    0   0   0
V                0.0000000000        2.0432625400       12.0432625400    0   0   0
V                2.0432625400        2.0432625400       10.0000000000    0   0   0
V                0.0761269309        0.0755724161       14.1600935566
V                2.0192452425       -0.1005463358       16.0103561654
V               -0.1119669330        2.0290360625       16.0053251913
V                1.9842046101        1.9843966239       14.1939513790
V                0.0000000000        4.0865250700       10.0000000000    0   0   0
V                2.0432625400        4.0865250700       12.0432625400    0   0   0
V                0.0000000000        6.1297876100       12.0432625400    0   0   0
V                2.0432625400        6.1297876100       10.0000000000    0   0   0
V                0.0639535581        4.1312749183       14.1527020853
V                2.0383075339        4.1728367787       15.9903864851
V                0.0064400712        6.0844554167       16.0020577966
V                2.0477166555        6.0731721233       14.1708082936
V                0.0000000000        8.1730501500       10.0000000000    0   0   0
V                2.0432625400        8.1730501500       12.0432625400    0   0   0
V                0.0000000000       10.2163126900       12.0432625400    0   0   0
V                2.0432625400       10.2163126900       10.0000000000    0   0   0
V                0.0808755767        8.2508804665       14.1430468116
V                2.0424773475        8.2381574012       16.0104751789
V               -0.0243516213       10.2732589480       16.0006809353
V                1.9627375536       10.1360597862       14.1499398649
V                4.0865250700        0.0000000000       10.0000000000    0   0   0
V                6.1297876100        0.0000000000       12.0432625400    0   0   0
V                4.0865250700        2.0432625400       12.0432625400    0   0   0
V                6.1297876100        2.0432625400       10.0000000000    0   0   0
V                4.1297104780        0.0503800797       14.1680511441
V                6.1110637937        0.0058355874       16.0084735691
V                4.2019473433        2.0343736673       15.9913675613
V                6.0754932813        1.9822298492       14.1529934828
V                4.0865250700        4.0865250700       10.0000000000    0   0   0
V                6.1297876100        4.0865250700       12.0432625400    0   0   0
V                4.0865250700        6.1297876100       12.0432625400    0   0   0
V                6.1297876100        6.1297876100       10.0000000000    0   0   0
V                4.1331475116        4.1832566735       14.1416550272
V                6.1272775743        3.9903113192       15.9908236434
V                3.9194884108        6.0649897334       16.4015276324
V                6.0206168213        6.0825894449       14.2054049397
V                4.0865250700        8.1730501500       10.0000000000    0   0   0
V                6.1297876100        8.1730501500       12.0432625400    0   0   0
V                4.0865250700       10.2163126900       12.0432625400    0   0   0
V                6.1297876100       10.2163126900       10.0000000000    0   0   0
V                4.1662963026        8.1830421633       14.1517410752
V                6.1392571680        8.2813705516       15.9944200371
V                4.1201345372       10.2608497599       16.0058681652
V                6.0573606289       10.1614075569       14.1594319943
V                8.1730501500        0.0000000000       10.0000000000    0   0   0
V               10.2163126900        0.0000000000       12.0432625400    0   0   0
V                8.1730501500        2.0432625400       12.0432625400    0   0   0
V               10.2163126900        2.0432625400       10.0000000000    0   0   0
V                8.2447258167        0.0704899185       14.1349662702
V               10.2580956266       -0.0120466298       15.9996831543
V                8.1701156658        2.0897644194       16.0054542959
V               10.1444310962        1.9692601673       14.1436148410
V                8.1730501500        4.0865250700       10.0000000000    0   0   0
V               10.2163126900        4.0865250700       12.0432625400    0   0   0
V                8.1730501500        6.1297876100       12.0432625400    0   0   0
V               10.2163126900        6.1297876100       10.0000000000    0   0   0
V                8.2364164468        4.1694111615       14.1576335910
V               10.2094628905        4.1006885515       16.0028689452
V                8.2929549633        6.1450270642       16.0019894217
V               10.1469032896        6.0669499498       14.1580568528
V                8.1730501500        8.1730501500       10.0000000000    0   0   0
V               10.2163126900        8.1730501500       12.0432625400    0   0   0
V                8.1730501500       10.2163126900       12.0432625400    0   0   0
V               10.2163126900       10.2163126900       10.0000000000    0   0   0
V                8.2386099745        8.2194610625       14.1688954111
V               10.1814540642        8.1896622848       16.0042336943
V                8.1717411087       10.1596000297       16.0037086049
V               10.1504779256       10.1492824777       14.1452277121
N                0.0000000000        2.0432625400       10.0000000000    0   0   0
N                2.0432625400        0.0000000000       10.0000000000    0   0   0
N                0.0000000000        0.0000000000       12.0432625400    0   0   0
N                2.0432625400        2.0432625400       12.0432625400    0   0   0
N               -0.0506528272        2.0861970451       14.1086763939
N                2.0875244652       -0.0529935719       14.1122493058
N                0.0096162755        0.0213941111       16.3144474241
N                2.0406262134        2.0395686976       16.2511511576
N                0.0000000000        6.1297876100       10.0000000000    0   0   0
N                2.0432625400        4.0865250700       10.0000000000    0   0   0
N                0.0000000000        4.0865250700       12.0432625400    0   0   0
N                2.0432625400        6.1297876100       12.0432625400    0   0   0
N               -0.0284211544        6.1684308838       14.1076504118
N                2.0862862383        4.0356708384       14.0995429920
N                0.0029270821        4.0534573315       16.2884074143
N                1.9767928982        6.1747670391       16.2610680382
N                0.0000000000       10.2163126900       10.0000000000    0   0   0
N                2.0432625400        8.1730501500       10.0000000000    0   0   0
N                0.0000000000        8.1730501500       12.0432625400    0   0   0
N                2.0432625400       10.2163126900       12.0432625400    0   0   0
N               -0.0595499356       10.2759961882       14.1034093908
N                2.1028590358        8.1239795690       14.1071832943
N               -0.0118565467        8.1986866039       16.2234785484
N                2.0462564416       10.2047994601       16.2858172458
N                4.0865250700        2.0432625400       10.0000000000    0   0   0
N                6.1297876100        0.0000000000       10.0000000000    0   0   0
N                4.0865250700        0.0000000000       12.0432625400    0   0   0
N                6.1297876100        2.0432625400       12.0432625400    0   0   0
N                4.0441342471        2.0814841646       14.1005717829
N                6.1714763797       -0.0428764421       14.1079903998
N                4.0620625237        0.0238686913       16.3061278070
N                6.1704640220        2.0109055248       16.3163023097
N                4.0865250700        6.1297876100       10.0000000000    0   0   0
N                6.1297876100        4.0865250700       10.0000000000    0   0   0
N                4.0865250700        4.0865250700       12.0432625400    0   0   0
N                6.1297876100        6.1297876100       12.0432625400    0   0   0
N                4.0491465274        6.1720537571       14.1637717529
N                6.1709423898        4.0527633861       14.1006635686
N                4.0836765301        4.0521395002       16.2132664966
N                6.1478703843        6.1197933334       16.2119460349
N                4.0865250700       10.2163126900       10.0000000000    0   0   0
N                6.1297876100        8.1730501500       10.0000000000    0   0   0
N                4.0865250700        8.1730501500       12.0432625400    0   0   0
N                6.1297876100       10.2163126900       12.0432625400    0   0   0
N                4.0324081493       10.2474590869       14.1089719674
N                6.1906644410        8.1315651324       14.1007722635
N                4.1091985929        8.1937236761       16.1950134830
N                6.1407910058       10.2608520695       16.3003191828
N                8.1730501500        2.0432625400       10.0000000000    0   0   0
N               10.2163126900        0.0000000000       10.0000000000    0   0   0
N                8.1730501500        0.0000000000       12.0432625400    0   0   0
N               10.2163126900        2.0432625400       12.0432625400    0   0   0
N                8.1241755409        2.1033733318       14.1067377118
N               10.2701894839       -0.0561548278       14.1036293692
N                8.1901021480       -0.0018432215       16.2106228713
N               10.1770288896        2.0454227124       16.2806763298
N                8.1730501500        6.1297876100       10.0000000000    0   0   0
N               10.2163126900        4.0865250700       10.0000000000    0   0   0
N                8.1730501500        4.0865250700       12.0432625400    0   0   0
N               10.2163126900        6.1297876100       12.0432625400    0   0   0
N                8.1174218506        6.1799712414       14.1045680482
N               10.2623888917        4.0365141154       14.1050802443
N                8.1724886390        4.1256354718       16.2939848358
N               10.2685111692        6.1384182585       16.2941086123
N                8.1730501500       10.2163126900       10.0000000000    0   0   0
N               10.2163126900        8.1730501500       10.0000000000    0   0   0
N                8.1730501500        8.1730501500       12.0432625400    0   0   0
N               10.2163126900       10.2163126900       12.0432625400    0   0   0
N                8.1224723662       10.2582624297       14.1071624966
N               10.2731858010        8.1226652865       14.1061048253
N                8.1601038538        8.1478286792       16.3236361084
N               10.2056185956       10.2169405047       16.2718372083
S                3.9233982571        6.0309753250       18.6117792306
Li               6.1060715381        6.1320165076       18.1394088208
Li               2.1171192616        2.1666765675       18.1053262274



     Writing config-only to output data dir ./tmp/VN_LiS_combi2_144.save/ :
     XML data file
     NEW-OLD atomic charge density approx. for the potential

     Check: negative core charge=   -0.000004

     negative rho (up, down):  7.606E-02 0.000E+00

     total cpu time spent up to now is    16175.0 secs

     per-process dynamical memory:   944.8 Mb

     Self-consistent Calculation

     iteration #  1     ecut=    45.00 Ry     beta= 0.20
     Davidson diagonalization with overlap
     ethr =  1.00E-06,  avg # of iterations =  4.0

     Threshold (ethr) on eigenvalues was too large:
     Diagonalizing with lowered threshold

     Davidson diagonalization with overlap
     ethr =  1.21E-08,  avg # of iterations =  5.0

     negative rho (up, down):  7.607E-02 0.000E+00

     total cpu time spent up to now is    16454.7 secs

     total energy              =  -11961.41093045 Ry
     estimated scf accuracy    <       0.00019688 Ry

     iteration #  2     ecut=    45.00 Ry     beta= 0.20
     Davidson diagonalization with overlap
     ethr =  1.51E-08,  avg # of iterations =  6.0

     negative rho (up, down):  7.606E-02 0.000E+00

     total cpu time spent up to now is    16594.2 secs

     total energy              =  -11961.41084977 Ry
     estimated scf accuracy    <       0.00409127 Ry

     iteration #  3     ecut=    45.00 Ry     beta= 0.20
     Davidson diagonalization with overlap
     ethr =  1.51E-08,  avg # of iterations =  6.0

     negative rho (up, down):  7.606E-02 0.000E+00

     total cpu time spent up to now is    16726.9 secs

     total energy              =  -11961.41092903 Ry
     estimated scf accuracy    <       0.00322947 Ry

     iteration #  4     ecut=    45.00 Ry     beta= 0.20
     Davidson diagonalization with overlap
     ethr =  1.51E-08,  avg # of iterations =  2.7

     negative rho (up, down):  7.606E-02 0.000E+00

     total cpu time spent up to now is    16829.9 secs

     total energy              =  -11961.41096431 Ry
     estimated scf accuracy    <       0.00056397 Ry

     iteration #  5     ecut=    45.00 Ry     beta= 0.20
     Davidson diagonalization with overlap
     ethr =  1.51E-08,  avg # of iterations =  1.8

     negative rho (up, down):  7.606E-02 0.000E+00

     total cpu time spent up to now is    16936.3 secs

     total energy              =  -11961.41097185 Ry
     estimated scf accuracy    <       0.00014203 Ry

     iteration #  6     ecut=    45.00 Ry     beta= 0.20
     Davidson diagonalization with overlap
     ethr =  1.09E-08,  avg # of iterations =  2.0

     negative rho (up, down):  7.606E-02 0.000E+00

     total cpu time spent up to now is    17039.4 secs

     total energy              =  -11961.41097337 Ry
     estimated scf accuracy    <       0.00010962 Ry

     iteration #  7     ecut=    45.00 Ry     beta= 0.20
     Davidson diagonalization with overlap
     ethr =  8.38E-09,  avg # of iterations =  1.2

     negative rho (up, down):  7.606E-02 0.000E+00

     total cpu time spent up to now is    17136.6 secs

     total energy              =  -11961.41097487 Ry
     estimated scf accuracy    <       0.00003082 Ry

     iteration #  8     ecut=    45.00 Ry     beta= 0.20
     Davidson diagonalization with overlap
     ethr =  2.36E-09,  avg # of iterations =  2.0

     negative rho (up, down):  7.606E-02 0.000E+00

     total cpu time spent up to now is    17243.5 secs

     total energy              =  -11961.41097555 Ry
     estimated scf accuracy    <       0.00001207 Ry

     iteration #  9     ecut=    45.00 Ry     beta= 0.20
     Davidson diagonalization with overlap
     ethr =  9.23E-10,  avg # of iterations =  4.5

     negative rho (up, down):  7.606E-02 0.000E+00

     total cpu time spent up to now is    17352.9 secs

     total energy              =  -11961.41097479 Ry
     estimated scf accuracy    <       0.00005888 Ry

     iteration # 10     ecut=    45.00 Ry     beta= 0.20
     Davidson diagonalization with overlap
     ethr =  9.23E-10,  avg # of iterations =  2.2

     negative rho (up, down):  7.606E-02 0.000E+00

     total cpu time spent up to now is    17460.6 secs

     total energy              =  -11961.41097570 Ry
     estimated scf accuracy    <       0.00002397 Ry

     iteration # 11     ecut=    45.00 Ry     beta= 0.20
     Davidson diagonalization with overlap
     ethr =  9.23E-10,  avg # of iterations =  1.1

     negative rho (up, down):  7.606E-02 0.000E+00

     total cpu time spent up to now is    17552.3 secs

     total energy              =  -11961.41097631 Ry
     estimated scf accuracy    <       0.00000348 Ry

     iteration # 12     ecut=    45.00 Ry     beta= 0.20
     Davidson diagonalization with overlap
     ethr =  2.66E-10,  avg # of iterations =  3.4

     negative rho (up, down):  7.606E-02 0.000E+00

     total cpu time spent up to now is    17658.0 secs

     total energy              =  -11961.41097636 Ry
     estimated scf accuracy    <       0.00000256 Ry

     iteration # 13     ecut=    45.00 Ry     beta= 0.20
     Davidson diagonalization with overlap
     ethr =  1.95E-10,  avg # of iterations =  2.2

     negative rho (up, down):  7.606E-02 0.000E+00

     total cpu time spent up to now is    17766.5 secs

     total energy              =  -11961.41097619 Ry
     estimated scf accuracy    <       0.00001688 Ry

     iteration # 14     ecut=    45.00 Ry     beta= 0.20
     Davidson diagonalization with overlap
     ethr =  1.95E-10,  avg # of iterations =  2.7

     negative rho (up, down):  7.606E-02 0.000E+00

     total cpu time spent up to now is    17870.5 secs

     total energy              =  -11961.41097643 Ry
     estimated scf accuracy    <       0.00000124 Ry

     iteration # 15     ecut=    45.00 Ry     beta= 0.20
     Davidson diagonalization with overlap
     ethr =  9.46E-11,  avg # of iterations =  6.5

     negative rho (up, down):  7.606E-02 0.000E+00

     total cpu time spent up to now is    17987.6 secs

     total energy              =  -11961.41097625 Ry
     estimated scf accuracy    <       0.00002154 Ry

     iteration # 16     ecut=    45.00 Ry     beta= 0.20
     Davidson diagonalization with overlap
     ethr =  9.46E-11,  avg # of iterations =  2.8

     negative rho (up, down):  7.606E-02 0.000E+00

     total cpu time spent up to now is    18091.7 secs

     total energy              =  -11961.41097651 Ry
     estimated scf accuracy    <       0.00000092 Ry

     iteration # 17     ecut=    45.00 Ry     beta= 0.20
     Davidson diagonalization with overlap
     ethr =  7.01E-11,  avg # of iterations =  2.0

     negative rho (up, down):  7.606E-02 0.000E+00

     total cpu time spent up to now is    18203.5 secs

     total energy              =  -11961.41097651 Ry
     estimated scf accuracy    <       0.00000075 Ry

     iteration # 18     ecut=    45.00 Ry     beta= 0.20
     Davidson diagonalization with overlap
     ethr =  5.73E-11,  avg # of iterations =  2.0

     negative rho (up, down):  7.606E-02 0.000E+00

     total cpu time spent up to now is    18305.7 secs

     total energy              =  -11961.41097651 Ry
     estimated scf accuracy    <       0.00000126 Ry

     iteration # 19     ecut=    45.00 Ry     beta= 0.20
     Davidson diagonalization with overlap
     ethr =  5.73E-11,  avg # of iterations =  1.3

     negative rho (up, down):  7.606E-02 0.000E+00

     total cpu time spent up to now is    18402.5 secs

     total energy              =  -11961.41097653 Ry
     estimated scf accuracy    <       0.00000074 Ry

     iteration # 20     ecut=    45.00 Ry     beta= 0.20
     Davidson diagonalization with overlap
     ethr =  5.65E-11,  avg # of iterations =  1.1

     negative rho (up, down):  7.606E-02 0.000E+00

     total cpu time spent up to now is    18490.1 secs

     total energy              =  -11961.41097653 Ry
     estimated scf accuracy    <       0.00000054 Ry

     iteration # 21     ecut=    45.00 Ry     beta= 0.20
     Davidson diagonalization with overlap
     ethr =  4.13E-11,  avg # of iterations =  1.0

     negative rho (up, down):  7.606E-02 0.000E+00

     total cpu time spent up to now is    18578.0 secs

     total energy              =  -11961.41097654 Ry
     estimated scf accuracy    <       0.00000046 Ry

     iteration # 22     ecut=    45.00 Ry     beta= 0.20
     Davidson diagonalization with overlap
     ethr =  3.53E-11,  avg # of iterations =  1.0

     negative rho (up, down):  7.606E-02 0.000E+00

     total cpu time spent up to now is    18665.8 secs

     total energy              =  -11961.41097655 Ry
     estimated scf accuracy    <       0.00000020 Ry

     iteration # 23     ecut=    45.00 Ry     beta= 0.20
     Davidson diagonalization with overlap
     ethr =  1.56E-11,  avg # of iterations =  2.0

     negative rho (up, down):  7.606E-02 0.000E+00

     total cpu time spent up to now is    18771.3 secs

     total energy              =  -11961.41097655 Ry
     estimated scf accuracy    <       0.00000048 Ry

     iteration # 24     ecut=    45.00 Ry     beta= 0.20
     Davidson diagonalization with overlap
     ethr =  1.56E-11,  avg # of iterations =  1.0

     negative rho (up, down):  7.606E-02 0.000E+00

     total cpu time spent up to now is    18858.1 secs

     total energy              =  -11961.41097656 Ry
     estimated scf accuracy    <       0.00000008 Ry

     iteration # 25     ecut=    45.00 Ry     beta= 0.20
     Davidson diagonalization with overlap
     ethr =  6.42E-12,  avg # of iterations =  1.9

     negative rho (up, down):  7.606E-02 0.000E+00

     total cpu time spent up to now is    18961.0 secs

     total energy              =  -11961.41097656 Ry
     estimated scf accuracy    <       0.00000015 Ry

     iteration # 26     ecut=    45.00 Ry     beta= 0.20
     Davidson diagonalization with overlap
     ethr =  6.42E-12,  avg # of iterations =  1.7

     negative rho (up, down):  7.606E-02 0.000E+00

     total cpu time spent up to now is    19063.6 secs

     total energy              =  -11961.41097656 Ry
     estimated scf accuracy    <       0.00000011 Ry

     iteration # 27     ecut=    45.00 Ry     beta= 0.20
     Davidson diagonalization with overlap
     ethr =  6.42E-12,  avg # of iterations =  1.4

     negative rho (up, down):  7.606E-02 0.000E+00

     total cpu time spent up to now is    19163.5 secs

     total energy              =  -11961.41097656 Ry
     estimated scf accuracy    <       0.00000023 Ry

     iteration # 28     ecut=    45.00 Ry     beta= 0.20
     Davidson diagonalization with overlap
     ethr =  6.42E-12,  avg # of iterations =  1.0

     negative rho (up, down):  7.606E-02 0.000E+00

     total cpu time spent up to now is    19251.3 secs

     End of self-consistent calculation

          k = 0.0000 0.0000 0.0000 (135157 PWs)   bands (ev):

   -61.6889 -61.6767 -61.6625 -61.6591 -61.6577 -61.6533 -61.6500 -61.6483
   -61.6445 -61.6407 -61.6316 -61.6308 -61.6277 -61.6268 -61.6250 -61.6229
   -61.6214 -61.6111 -61.6033 -61.5976 -61.5956 -61.5921 -61.5881 -61.5868
   -61.5862 -61.5838 -61.5833 -61.5829 -61.5777 -61.5757 -61.5741 -61.5732
   -61.5719 -61.5703 -61.5687 -61.5676 -61.5668 -61.5660 -61.5643 -61.5556
   -61.5548 -61.5522 -61.5393 -61.5260 -61.5252 -61.5139 -61.5106 -61.5037
   -61.4989 -61.4922 -61.4831 -61.4776 -61.4593 -61.4555 -61.4485 -61.4439
   -61.4377 -61.4314 -61.4208 -61.4136 -61.4089 -61.4002 -61.3852 -61.3785
   -61.3755 -61.3705 -61.3681 -61.3676 -61.3652 -61.3600 -61.3516 -61.3207
   -44.3160 -42.7600 -35.7725 -35.7712 -35.7694 -35.7653 -35.7310 -35.7291
   -35.7274 -35.7266 -35.7246 -35.7239 -35.7212 -35.7149 -35.7118 -35.7103
   -35.6985 -35.6942 -35.6906 -35.6866 -35.6787 -35.6780 -35.6767 -35.6749
   -35.6721 -35.6686 -35.6673 -35.6664 -35.6638 -35.6598 -35.6543 -35.6530
   -35.6514 -35.6476 -35.6453 -35.6416 -35.6345 -35.6284 -35.6277 -35.6256
   -35.6251 -35.6241 -35.6228 -35.6190 -35.6173 -35.6160 -35.6130 -35.6122
   -35.6064 -35.6013 -35.5980 -35.5968 -35.5930 -35.5923 -35.5847 -35.5837
   -35.5775 -35.5754 -35.5711 -35.5698 -35.5668 -35.5653 -35.5626 -35.5592
   -35.5570 -35.5551 -35.5511 -35.5503 -35.5473 -35.5449 -35.5358 -35.5341
   -35.5320 -35.5281 -35.5109 -35.5084 -35.5078 -35.5053 -35.5024 -35.4998
   -35.4977 -35.4971 -35.4945 -35.4895 -35.4860 -35.4825 -35.4753 -35.4730
   -35.4704 -35.4700 -35.4686 -35.4684 -35.4662 -35.4639 -35.4621 -35.4611
   -35.4592 -35.4576 -35.4543 -35.4520 -35.4472 -35.4452 -35.4401 -35.4394
   -35.4341 -35.4331 -35.4299 -35.4279 -35.4261 -35.4254 -35.4238 -35.4223
   -35.4186 -35.4173 -35.4161 -35.4150 -35.4112 -35.4105 -35.4076 -35.4060
   -35.4052 -35.4037 -35.4033 -35.4023 -35.3994 -35.3993 -35.3978 -35.3961
   -35.3938 -35.3931 -35.3895 -35.3878 -35.3870 -35.3863 -35.3844 -35.3830
   -35.3824 -35.3805 -35.3789 -35.3775 -35.3763 -35.3747 -35.3736 -35.3705
   -35.3684 -35.3663 -35.3650 -35.3621 -35.3598 -35.3569 -35.3545 -35.3506
   -35.3501 -35.3468 -35.3462 -35.3443 -35.3385 -35.3354 -35.3344 -35.3332
   -35.3324 -35.3307 -35.3244 -35.3188 -35.3162 -35.3146 -35.3055 -35.3054
   -35.3007 -35.2960 -35.2906 -35.2882 -35.2822 -35.2807 -35.2769 -35.2737
   -35.2699 -35.2664 -35.2624 -35.2544 -35.2508 -35.2482 -35.2427 -35.2425
   -35.2397 -35.2366 -35.2288 -35.2252 -35.2230 -35.2224 -35.2208 -35.2164
   -35.2121 -35.2076 -35.2038 -35.1997 -35.1931 -35.1853 -35.1813 -35.1767
   -35.1717 -35.1685 -35.1668 -35.1652 -35.1634 -35.1585 -35.1496 -35.1445
   -35.1371 -35.1318 -35.1276 -35.1188 -35.1154 -35.1131 -35.1088 -35.0904
   -35.0773 -35.0708 -14.0303 -13.3818 -13.3754 -13.3709 -13.3576 -13.1535
   -12.7822 -12.7779 -12.7691 -12.7484 -12.6110 -12.6089 -12.6025 -12.5903
   -12.4919 -12.4825 -12.4791 -12.4709 -12.4492 -12.3867 -12.3418 -12.2138
   -12.1936 -12.1794 -12.1722 -12.1663 -12.1620 -12.1552 -12.1459 -12.1359
   -12.1187 -12.1080 -12.0896 -12.0543 -12.0325 -12.0250 -12.0079 -12.0030
   -11.8753 -11.8722 -11.8704 -11.8644 -11.7731 -11.7276 -11.7096 -11.6872
   -11.6186 -11.4929 -11.4809 -11.4800 -11.4795 -11.4776 -11.4684 -11.4655
   -11.4595 -11.4295 -11.3142 -11.2966 -11.2836 -11.2640 -11.2397 -11.2360
   -11.2352 -11.2348 -11.2330 -11.1990 -11.1662 -11.1275 -11.0027 -10.9505
   -10.9099 -10.8563  -8.0302  -4.4919  -4.4760  -4.4621  -4.4424  -4.3131
    -4.3105  -4.2985  -4.2877  -4.1485  -4.1437  -4.1095  -4.0990  -4.0674
    -4.0613  -4.0462  -4.0414  -3.7489  -3.7421  -3.7111  -3.7069  -3.5362
    -3.5307  -3.5273  -3.5231  -3.4408  -3.4312  -3.4252  -3.4237  -3.4054
    -3.3978  -3.3875  -3.3758  -3.3206  -3.3058  -3.2904  -3.2804  -3.2747
    -3.0694  -3.0436  -3.0218  -3.0018  -2.9569  -2.9481  -2.9415  -2.9305
    -2.9231  -2.9132  -2.8836  -2.8776  -2.8670  -2.8627  -2.8236  -2.8187
    -2.8097  -2.8050  -2.8029  -2.7960  -2.7766  -2.7682  -2.4384  -2.4240
    -2.3893  -2.3787  -2.3572  -2.3507  -2.3052  -2.3009  -2.2886  -2.2620
    -2.2566  -2.2542  -2.2455  -2.2386  -2.2370  -2.2335  -2.2264  -2.2237
    -2.2211  -2.1792  -2.1658  -2.1598  -2.1533  -2.1415  -2.1018  -2.0878
    -2.0652  -2.0543  -2.0422  -2.0275  -2.0247  -2.0188  -2.0004  -1.9916
    -1.9862  -1.9627  -1.9567  -1.9459  -1.9430  -1.9357  -1.9103  -1.9034
    -1.8976  -1.8908  -1.8846  -1.8739  -1.8706  -1.8658  -1.8579  -1.8502
    -1.8398  -1.7777  -1.7672  -1.7616  -1.7528  -1.7407  -1.7285  -1.7178
    -1.7040  -1.6883  -1.6233  -1.6220  -1.6209  -1.6169  -1.6112  -1.6003
    -1.5987  -1.5832  -1.5756  -1.5431  -1.5307  -1.5146  -1.5064  -1.5019
    -1.4948  -1.4942  -1.4593  -1.4478  -1.4396  -1.4040  -1.3883  -1.3878
    -1.3725  -1.3689  -1.3561  -1.3555  -1.3543  -1.3537  -1.3486  -1.3361
    -1.2951  -1.2738  -1.2621  -1.2389  -1.2279  -1.2199  -1.2018  -1.1933
    -1.1798  -1.1728  -1.1669  -1.1511  -1.1411  -1.1250  -1.1107  -1.1040
    -1.0543  -1.0470  -1.0314  -1.0120  -0.9874  -0.9707  -0.9329  -0.9256
    -0.8887  -0.8607  -0.8087  -0.7713  -0.7613  -0.7341  -0.7126  -0.7075
    -0.6853  -0.6701  -0.6664  -0.6448  -0.6180  -0.5909  -0.5722  -0.5594
    -0.5189  -0.4876  -0.4723  -0.4667  -0.4581  -0.4542  -0.4317  -0.3641
    -0.2354  -0.2115  -0.1881  -0.1354  -0.1108  -0.0806  -0.0521  -0.0457
    -0.0032   0.0057   0.0414   0.0520   0.2139   0.2348   0.3497   0.5472
     0.5630   0.7597   0.7734   1.0418   1.0654   1.0856   1.0999   1.1061
     1.1217   1.1244   1.3359   1.3567   1.5258   1.6507   1.9053   2.0171
     2.0375   2.0779   2.1292   2.1629   2.5763   2.6003   2.6049   2.6341
     2.6559   2.6662   2.6751   2.6902   2.7074   2.7345   2.7477   2.7709
     2.7845   2.7915   2.7953   2.8114   2.8216   2.8371   2.8481   2.8602
     2.8650   2.8695   2.8716   2.8891   2.8936   2.9341   2.9575   2.9827
     3.1413   3.1554   3.2025   3.2359   3.2432   3.2498   3.2672   3.2838
     3.2913   3.3168   3.3303   3.3482   3.3540   3.4115   3.4257   3.4335
     3.4533   3.4576   3.4747   3.4809   3.4842   3.5157   3.5324   3.5447
     3.5585   3.5632   3.5798   3.5911   3.6027   3.6165   3.6258   3.6355
     3.6579   3.6633   3.6680   3.6770   3.6818   3.6895   3.6954   3.6957
     3.6969   3.6995   3.7081   3.7150   3.7243   3.7289   3.7455   3.7534
     3.7749   3.7922   3.8988   3.9398   3.9481   3.9609   3.9680   3.9760
     3.9837   3.9879   4.0034   4.0106   4.0205   4.0474   4.0560   4.0963
     4.1657   4.1700   4.1827   4.2145   4.2294   4.2343   4.2437   4.2484
     4.2678   4.2779   4.2829   4.2899   4.2982   4.3016   4.3205   4.3392
     4.3542   4.3694   4.3739   4.3847   4.3993   4.4072   4.4142   4.4174
     4.4302   4.4350   4.4377   4.4448   4.4467   4.4479   4.4525   4.4541
     4.4659   4.4910   4.5349   4.5434   4.5774   4.5775   4.5880   4.5902
     4.6116   4.6213   4.6304   4.6439   4.6515   4.6604   4.6646   4.6715
     4.6760   4.6844   4.7126   4.7138   4.7166   4.7177   4.7247   4.7317
     4.7384   4.7402   4.7606   4.7631   4.7767   4.7836   4.7919   4.7985
     4.8116   4.8180   4.8199   4.8379   4.8469   4.8553   4.8627   4.8664
     4.8776   4.8941   4.9008   4.9098   4.9148   4.9314   4.9448   4.9536
     4.9738   5.0032   5.0196   5.0301   5.0372   5.0438   5.0518   5.0598
     5.0728   5.0869   5.0874   5.1000   5.1056   5.1121   5.1194   5.1265
     5.1306

          k = 0.0000 0.2500 0.0000 (135097 PWs)   bands (ev):

   -61.6889 -61.6755 -61.6666 -61.6582 -61.6570 -61.6526 -61.6507 -61.6475
   -61.6417 -61.6392 -61.6332 -61.6325 -61.6313 -61.6259 -61.6246 -61.6219
   -61.6204 -61.6111 -61.6032 -61.5983 -61.5951 -61.5927 -61.5883 -61.5868
   -61.5852 -61.5837 -61.5824 -61.5820 -61.5792 -61.5764 -61.5745 -61.5739
   -61.5708 -61.5704 -61.5693 -61.5679 -61.5667 -61.5661 -61.5622 -61.5562
   -61.5553 -61.5519 -61.5393 -61.5261 -61.5252 -61.5138 -61.5101 -61.5036
   -61.4992 -61.4926 -61.4830 -61.4775 -61.4593 -61.4555 -61.4485 -61.4439
   -61.4377 -61.4314 -61.4208 -61.4136 -61.4089 -61.4002 -61.3853 -61.3784
   -61.3754 -61.3706 -61.3681 -61.3675 -61.3651 -61.3601 -61.3516 -61.3207
   -44.3160 -42.7600 -35.7762 -35.7739 -35.7558 -35.7535 -35.7517 -35.7499
   -35.7308 -35.7264 -35.7242 -35.7219 -35.7140 -35.7095 -35.7031 -35.7002
   -35.6986 -35.6951 -35.6945 -35.6914 -35.6903 -35.6893 -35.6759 -35.6683
   -35.6658 -35.6618 -35.6576 -35.6564 -35.6538 -35.6518 -35.6506 -35.6496
   -35.6469 -35.6450 -35.6398 -35.6371 -35.6354 -35.6330 -35.6319 -35.6306
   -35.6300 -35.6259 -35.6246 -35.6230 -35.6215 -35.6197 -35.6180 -35.6138
   -35.6128 -35.6098 -35.6073 -35.6030 -35.5989 -35.5959 -35.5948 -35.5897
   -35.5858 -35.5788 -35.5749 -35.5696 -35.5658 -35.5635 -35.5588 -35.5553
   -35.5544 -35.5503 -35.5479 -35.5467 -35.5423 -35.5375 -35.5354 -35.5226
   -35.5181 -35.5168 -35.5117 -35.5095 -35.5073 -35.5044 -35.5008 -35.4958
   -35.4948 -35.4923 -35.4900 -35.4881 -35.4847 -35.4816 -35.4778 -35.4766
   -35.4740 -35.4720 -35.4691 -35.4680 -35.4637 -35.4630 -35.4613 -35.4584
   -35.4568 -35.4564 -35.4506 -35.4479 -35.4466 -35.4444 -35.4426 -35.4409
   -35.4398 -35.4383 -35.4358 -35.4342 -35.4339 -35.4326 -35.4319 -35.4308
   -35.4283 -35.4261 -35.4249 -35.4231 -35.4206 -35.4185 -35.4167 -35.4129
   -35.4083 -35.4049 -35.4019 -35.3991 -35.3963 -35.3935 -35.3916 -35.3895
   -35.3882 -35.3863 -35.3850 -35.3834 -35.3825 -35.3817 -35.3797 -35.3788
   -35.3771 -35.3763 -35.3752 -35.3738 -35.3708 -35.3687 -35.3679 -35.3663
   -35.3655 -35.3641 -35.3621 -35.3609 -35.3597 -35.3566 -35.3537 -35.3531
   -35.3508 -35.3481 -35.3469 -35.3439 -35.3425 -35.3401 -35.3389 -35.3375
   -35.3356 -35.3308 -35.3239 -35.3175 -35.3147 -35.3130 -35.3107 -35.3048
   -35.2993 -35.2971 -35.2950 -35.2887 -35.2858 -35.2803 -35.2774 -35.2752
   -35.2722 -35.2654 -35.2603 -35.2537 -35.2506 -35.2471 -35.2455 -35.2426
   -35.2385 -35.2347 -35.2296 -35.2258 -35.2248 -35.2206 -35.2183 -35.2164
   -35.2120 -35.2075 -35.2019 -35.2000 -35.1931 -35.1840 -35.1802 -35.1779
   -35.1730 -35.1709 -35.1680 -35.1644 -35.1629 -35.1578 -35.1478 -35.1441
   -35.1380 -35.1324 -35.1265 -35.1198 -35.1157 -35.1125 -35.1086 -35.0907
   -35.0774 -35.0711 -13.9831 -13.6340 -13.3319 -13.3233 -13.1124 -13.0930
   -13.0101 -13.0007 -12.8093 -12.6232 -12.5709 -12.5670 -12.5322 -12.5180
   -12.4639 -12.4463 -12.4385 -12.4263 -12.3779 -12.3685 -12.3153 -12.3098
   -12.3030 -12.2400 -12.2263 -12.2138 -12.1791 -12.1664 -12.1590 -12.1575
   -12.1376 -12.1314 -12.0607 -12.0566 -12.0462 -11.9958 -11.9840 -11.9410
   -11.9346 -11.9094 -11.8385 -11.8375 -11.7211 -11.7028 -11.6712 -11.6169
   -11.6129 -11.6019 -11.5621 -11.5094 -11.4988 -11.4905 -11.4577 -11.4557
   -11.4071 -11.3468 -11.3297 -11.3176 -11.3101 -11.3066 -11.2975 -11.2398
   -11.2266 -11.2034 -11.1998 -11.1893 -11.1182 -11.0954 -11.0053 -10.9587
   -10.9072 -10.8614  -8.0302  -4.6337  -4.6075  -4.4505  -4.4410  -4.4221
    -4.3921  -4.3119  -4.3055  -4.2194  -4.1963  -4.0683  -4.0595  -3.8283
    -3.8094  -3.8010  -3.7916  -3.7650  -3.7265  -3.7041  -3.6359  -3.6317
    -3.5353  -3.5306  -3.5285  -3.5161  -3.4936  -3.4513  -3.4413  -3.4266
    -3.3973  -3.3650  -3.3516  -3.3432  -3.3320  -3.3235  -3.2862  -3.2180
    -3.1850  -3.1713  -3.1579  -3.1115  -3.0918  -3.0561  -3.0425  -3.0230
    -3.0035  -2.9683  -2.9582  -2.9263  -2.8632  -2.7812  -2.7751  -2.7017
    -2.6966  -2.6728  -2.6326  -2.6222  -2.6127  -2.6015  -2.5415  -2.5042
    -2.4393  -2.4045  -2.3740  -2.3674  -2.3564  -2.3513  -2.3284  -2.3065
    -2.2966  -2.2885  -2.2830  -2.2804  -2.2745  -2.2631  -2.2351  -2.2271
    -2.2108  -2.2088  -2.1947  -2.1756  -2.1600  -2.1508  -2.1415  -2.1129
    -2.0875  -2.0780  -2.0586  -2.0514  -2.0432  -2.0367  -2.0297  -2.0198
    -2.0114  -1.9995  -1.9939  -1.9860  -1.9801  -1.9610  -1.9212  -1.8858
    -1.8722  -1.8557  -1.8357  -1.8285  -1.8166  -1.8106  -1.8053  -1.7908
    -1.7801  -1.7700  -1.7480  -1.7334  -1.6899  -1.6859  -1.6799  -1.6786
    -1.6688  -1.6635  -1.6576  -1.6463  -1.6341  -1.6293  -1.6196  -1.6021
    -1.5951  -1.5774  -1.5608  -1.5478  -1.5471  -1.5312  -1.5231  -1.5004
    -1.4822  -1.4702  -1.4581  -1.4447  -1.4314  -1.4222  -1.3945  -1.3861
    -1.3609  -1.3472  -1.3272  -1.3195  -1.3130  -1.2961  -1.2872  -1.2792
    -1.2686  -1.2597  -1.2509  -1.2472  -1.2104  -1.1855  -1.1506  -1.1441
    -1.1249  -1.1116  -1.0845  -1.0799  -1.0571  -1.0440  -1.0340  -1.0058
    -0.9958  -0.9911  -0.9688  -0.9578  -0.9313  -0.8968  -0.8887  -0.8654
    -0.8585  -0.8483  -0.8381  -0.8151  -0.8038  -0.7967  -0.7680  -0.7237
    -0.6975  -0.6819  -0.6365  -0.6244  -0.6060  -0.5861  -0.5541  -0.5450
    -0.5391  -0.5186  -0.4990  -0.4834  -0.4768  -0.4398  -0.3904  -0.3506
    -0.3238  -0.3092  -0.2689  -0.2484  -0.2089  -0.1713  -0.1444  -0.1377
    -0.1189  -0.0958   0.0116   0.0854   0.1270   0.2740   0.3571   0.4287
     0.7632   0.7928   0.8472   0.9232   0.9459   0.9935   1.0536   1.1195
     1.2432   1.2909   1.3062   1.3355   1.6290   1.8563   1.8733   1.9245
     2.0332   2.0978   2.1671   2.2067   2.2281   2.2608   2.3031   2.3310
     2.4521   2.6129   2.6370   2.6622   2.6748   2.6814   2.7019   2.7280
     2.7434   2.7487   2.7927   2.8034   2.8236   2.8507   2.8636   2.8810
     2.8885   2.9070   2.9220   2.9588   2.9752   3.0017   3.0259   3.0596
     3.0663   3.1183   3.1482   3.1864   3.1981   3.2041   3.2274   3.2536
     3.2660   3.2805   3.2956   3.3023   3.3095   3.3302   3.3417   3.3512
     3.3695   3.3884   3.3992   3.4263   3.4694   3.4884   3.4945   3.5096
     3.5323   3.5474   3.5616   3.5865   3.5952   3.6146   3.6256   3.6465
     3.6584   3.6767   3.7027   3.7138   3.7331   3.7427   3.7555   3.7810
     3.7978   3.8183   3.8281   3.8394   3.8595   3.8736   3.8831   3.8993
     3.9154   3.9280   3.9399   3.9527   3.9580   3.9732   3.9925   4.0009
     4.0246   4.0300   4.0368   4.0623   4.0758   4.1073   4.1158   4.1410
     4.1483   4.1879   4.2098   4.2152   4.2350   4.2639   4.2842   4.3036
     4.3113   4.3155   4.3226   4.3357   4.3424   4.3459   4.3532   4.3603
     4.3738   4.3808   4.3839   4.3904   4.3991   4.4049   4.4196   4.4287
     4.4370   4.4479   4.4537   4.4637   4.4755   4.4874   4.4943   4.5046
     4.5077   4.5119   4.5205   4.5279   4.5344   4.5371   4.5418   4.5573
     4.5632   4.5771   4.5832   4.5964   4.6087   4.6364   4.6427   4.6506
     4.6532   4.6555   4.6614   4.6689   4.6840   4.6925   4.7048   4.7187
     4.7297   4.7522   4.7626   4.7737   4.7847   4.7906   4.7977   4.8085
     4.8111   4.8186   4.8367   4.8460   4.8614   4.8714   4.8813   4.8887
     4.8985   4.9191   4.9282   4.9356   4.9460   4.9528   4.9575   4.9708
     4.9747   4.9783   4.9951   5.0128   5.0205   5.0243   5.0279   5.0388
     5.0458   5.0498   5.0605   5.0738   5.0817   5.0902   5.0954   5.0984
     5.1003

          k = 0.0000-0.5000 0.0000 (135178 PWs)   bands (ev):

   -61.6889 -61.6725 -61.6713 -61.6572 -61.6562 -61.6540 -61.6526 -61.6410
   -61.6398 -61.6379 -61.6377 -61.6348 -61.6329 -61.6254 -61.6244 -61.6219
   -61.6193 -61.6110 -61.6031 -61.5989 -61.5945 -61.5934 -61.5884 -61.5870
   -61.5845 -61.5837 -61.5813 -61.5805 -61.5792 -61.5789 -61.5770 -61.5733
   -61.5702 -61.5694 -61.5692 -61.5690 -61.5667 -61.5664 -61.5598 -61.5574
   -61.5559 -61.5516 -61.5393 -61.5261 -61.5253 -61.5137 -61.5095 -61.5035
   -61.4996 -61.4929 -61.4830 -61.4775 -61.4592 -61.4556 -61.4485 -61.4439
   -61.4377 -61.4314 -61.4208 -61.4136 -61.4090 -61.4001 -61.3853 -61.3784
   -61.3753 -61.3707 -61.3682 -61.3674 -61.3649 -61.3601 -61.3517 -61.3207
   -44.3160 -42.7600 -35.7718 -35.7697 -35.7685 -35.7651 -35.7336 -35.7332
   -35.7303 -35.7294 -35.7270 -35.7256 -35.7199 -35.7182 -35.7145 -35.7132
   -35.7110 -35.7100 -35.6790 -35.6722 -35.6700 -35.6682 -35.6666 -35.6635
   -35.6622 -35.6581 -35.6569 -35.6535 -35.6522 -35.6495 -35.6482 -35.6450
   -35.6434 -35.6414 -35.6400 -35.6387 -35.6380 -35.6371 -35.6359 -35.6349
   -35.6335 -35.6333 -35.6320 -35.6286 -35.6276 -35.6216 -35.6190 -35.6176
   -35.6165 -35.6123 -35.6102 -35.6074 -35.6051 -35.6022 -35.5993 -35.5976
   -35.5916 -35.5902 -35.5855 -35.5694 -35.5649 -35.5633 -35.5501 -35.5474
   -35.5422 -35.5396 -35.5391 -35.5371 -35.5327 -35.5303 -35.5272 -35.5261
   -35.5237 -35.5201 -35.5167 -35.5164 -35.5101 -35.5072 -35.5008 -35.4964
   -35.4910 -35.4877 -35.4844 -35.4801 -35.4755 -35.4749 -35.4732 -35.4717
   -35.4689 -35.4652 -35.4641 -35.4626 -35.4617 -35.4608 -35.4590 -35.4580
   -35.4572 -35.4552 -35.4539 -35.4518 -35.4511 -35.4500 -35.4483 -35.4481
   -35.4478 -35.4465 -35.4452 -35.4445 -35.4426 -35.4401 -35.4377 -35.4362
   -35.4322 -35.4302 -35.4290 -35.4277 -35.4237 -35.4225 -35.4179 -35.4174
   -35.4105 -35.4055 -35.4021 -35.3996 -35.3963 -35.3931 -35.3881 -35.3869
   -35.3849 -35.3835 -35.3814 -35.3803 -35.3789 -35.3784 -35.3764 -35.3762
   -35.3738 -35.3719 -35.3691 -35.3675 -35.3661 -35.3638 -35.3632 -35.3617
   -35.3615 -35.3605 -35.3597 -35.3584 -35.3565 -35.3550 -35.3537 -35.3520
   -35.3515 -35.3509 -35.3488 -35.3477 -35.3473 -35.3465 -35.3452 -35.3396
   -35.3343 -35.3287 -35.3270 -35.3193 -35.3159 -35.3133 -35.3082 -35.3067
   -35.3025 -35.2965 -35.2933 -35.2917 -35.2863 -35.2827 -35.2798 -35.2759
   -35.2733 -35.2653 -35.2572 -35.2557 -35.2512 -35.2465 -35.2458 -35.2437
   -35.2382 -35.2312 -35.2290 -35.2278 -35.2242 -35.2209 -35.2189 -35.2150
   -35.2105 -35.2063 -35.2012 -35.2000 -35.1932 -35.1834 -35.1797 -35.1768
   -35.1743 -35.1731 -35.1694 -35.1641 -35.1626 -35.1580 -35.1446 -35.1431
   -35.1404 -35.1330 -35.1247 -35.1217 -35.1159 -35.1119 -35.1084 -35.0910
   -35.0774 -35.0714 -13.8526 -13.8394 -13.2115 -13.2048 -13.2019 -13.1847
   -12.9953 -12.9861 -12.8806 -12.7741 -12.4769 -12.4668 -12.4658 -12.4552
   -12.4417 -12.4215 -12.3711 -12.3638 -12.3585 -12.3524 -12.3407 -12.3253
   -12.3184 -12.3140 -12.2592 -12.2505 -12.2409 -12.2039 -12.2014 -12.1932
   -12.1157 -12.1126 -12.1055 -12.0933 -12.0816 -12.0443 -11.9406 -11.9351
   -11.9053 -11.8995 -11.7509 -11.7486 -11.7469 -11.7442 -11.6484 -11.6437
   -11.5826 -11.5740 -11.5694 -11.5593 -11.5582 -11.5288 -11.4033 -11.3985
   -11.3945 -11.3932 -11.3884 -11.3708 -11.3049 -11.2683 -11.2383 -11.2337
   -11.2306 -11.2270 -11.2105 -11.1727 -11.1025 -11.0827 -10.9955 -10.9450
   -10.8986 -10.8841  -8.0303  -4.6545  -4.6470  -4.5421  -4.5359  -4.4594
    -4.4533  -4.4388  -4.4322  -3.9676  -3.9555  -3.9479  -3.9095  -3.8007
    -3.7876  -3.7838  -3.7788  -3.7726  -3.6045  -3.5968  -3.5896  -3.5788
    -3.5761  -3.5721  -3.5670  -3.5631  -3.5620  -3.4679  -3.4210  -3.4001
    -3.3881  -3.3782  -3.3534  -3.3431  -3.3383  -3.3188  -3.3142  -3.3111
    -3.2999  -3.2645  -3.2387  -3.1595  -3.1546  -3.1510  -3.1462  -3.0597
    -2.9199  -2.9142  -2.9047  -2.8968  -2.8910  -2.8812  -2.8374  -2.8287
    -2.8036  -2.6298  -2.4526  -2.4499  -2.4452  -2.4358  -2.4274  -2.4147
    -2.4058  -2.3950  -2.3847  -2.3761  -2.3687  -2.3644  -2.3535  -2.3402
    -2.3361  -2.3298  -2.3233  -2.3104  -2.3017  -2.2916  -2.2857  -2.2550
    -2.2454  -2.2340  -2.2228  -2.2145  -2.2112  -2.2065  -2.1953  -2.1880
    -2.1728  -2.1676  -2.1558  -2.0909  -2.0772  -2.0723  -2.0632  -2.0549
    -2.0536  -2.0234  -2.0147  -1.9832  -1.9550  -1.9248  -1.8893  -1.8759
    -1.8532  -1.8475  -1.8342  -1.8247  -1.8085  -1.8028  -1.7916  -1.7758
    -1.7574  -1.7396  -1.7304  -1.7229  -1.7196  -1.7149  -1.7136  -1.6872
    -1.6750  -1.6566  -1.6554  -1.6541  -1.6512  -1.6357  -1.6313  -1.6201
    -1.5828  -1.5633  -1.5455  -1.4916  -1.4616  -1.4566  -1.4252  -1.4224
    -1.4094  -1.3983  -1.3891  -1.3867  -1.3758  -1.3721  -1.3581  -1.3398
    -1.3347  -1.3188  -1.3148  -1.3038  -1.2997  -1.2926  -1.2747  -1.2701
    -1.2173  -1.2103  -1.1855  -1.1759  -1.1713  -1.1521  -1.1440  -1.1146
    -1.0953  -1.0811  -1.0771  -1.0700  -1.0406  -1.0271  -1.0186  -0.9903
    -0.9737  -0.9488  -0.9389  -0.9251  -0.9060  -0.8334  -0.8246  -0.8172
    -0.7982  -0.7888  -0.7834  -0.7786  -0.7719  -0.7558  -0.7413  -0.6932
    -0.6841  -0.6713  -0.6641  -0.6520  -0.6500  -0.6176  -0.6032  -0.5878
    -0.5770  -0.5535  -0.5391  -0.4937  -0.4633  -0.4483  -0.4156  -0.4119
    -0.3903  -0.3755  -0.3538  -0.3241  -0.3113  -0.2994  -0.2300  -0.2168
    -0.2075   0.1268   0.1345   0.1456   0.1666   0.2500   0.2671   0.3498
     0.3791   0.5713   0.6026   0.8339   0.8403   1.0507   1.3854   1.3993
     1.4267   1.5500   1.6002   1.6114   1.6263   1.6616   1.7030   1.7346
     1.7591   1.7783   1.8778   2.0657   2.2856   2.3014   2.3853   2.4077
     2.4474   2.5063   2.5675   2.6203   2.6274   2.6529   2.6685   2.6855
     2.7083   2.7533   2.7639   2.7704   2.7934   2.8338   2.8603   2.8901
     2.9066   2.9118   2.9353   2.9392   2.9763   2.9895   2.9926   3.0151
     3.0171   3.0287   3.0371   3.0504   3.0617   3.0829   3.0993   3.1053
     3.1608   3.1892   3.2506   3.2654   3.3114   3.3269   3.3565   3.3675
     3.3735   3.4288   3.4448   3.4613   3.4781   3.4939   3.5006   3.5510
     3.5627   3.5708   3.5857   3.5933   3.6237   3.6276   3.6381   3.6603
     3.6749   3.6958   3.7050   3.7191   3.7298   3.7406   3.7574   3.7973
     3.8089   3.8852   3.8976   3.9152   3.9193   3.9383   3.9492   3.9908
     4.0204   4.0381   4.0576   4.0646   4.0736   4.0769   4.0854   4.0997
     4.1114   4.1158   4.1298   4.1428   4.1692   4.1880   4.1915   4.1992
     4.2122   4.2232   4.2425   4.2463   4.2506   4.2607   4.2734   4.2750
     4.2849   4.2882   4.2938   4.3004   4.3030   4.3064   4.3113   4.3214
     4.3419   4.3610   4.3736   4.3932   4.3996   4.4099   4.4237   4.4265
     4.4312   4.4499   4.4522   4.4636   4.4745   4.4768   4.4898   4.5029
     4.5093   4.5124   4.5177   4.5284   4.5374   4.5411   4.5512   4.5593
     4.5737   4.5824   4.5877   4.6072   4.6153   4.6181   4.6329   4.6490
     4.6519   4.6681   4.6999   4.7025   4.7128   4.7308   4.7348   4.7464
     4.7576   4.7687   4.7740   4.7750   4.7870   4.8129   4.8188   4.8382
     4.8491   4.8520   4.8580   4.8642   4.8664   4.8699   4.8714   4.8768
     4.8784   4.8836   4.8930   4.8987   4.9026   4.9163   4.9284   4.9451
     4.9608   4.9652   4.9705   4.9755   4.9913   4.9967   5.0027   5.0121
     5.0202   5.0327   5.0519   5.0547   5.0645   5.0689   5.0750   5.0795
     5.0879

          k = 0.2500 0.2500 0.0000 (135083 PWs)   bands (ev):

   -61.6889 -61.6743 -61.6670 -61.6626 -61.6573 -61.6515 -61.6472 -61.6460
   -61.6416 -61.6385 -61.6345 -61.6328 -61.6313 -61.6298 -61.6254 -61.6204
   -61.6183 -61.6114 -61.6032 -61.5982 -61.5957 -61.5928 -61.5887 -61.5855
   -61.5850 -61.5836 -61.5822 -61.5815 -61.5793 -61.5766 -61.5758 -61.5745
   -61.5722 -61.5706 -61.5688 -61.5682 -61.5664 -61.5639 -61.5618 -61.5567
   -61.5556 -61.5521 -61.5394 -61.5269 -61.5241 -61.5130 -61.5101 -61.5048
   -61.4988 -61.4925 -61.4831 -61.4774 -61.4593 -61.4556 -61.4486 -61.4439
   -61.4376 -61.4314 -61.4209 -61.4136 -61.4089 -61.4002 -61.3853 -61.3785
   -61.3755 -61.3702 -61.3686 -61.3672 -61.3652 -61.3599 -61.3517 -61.3207
   -44.3160 -42.7600 -35.7883 -35.7740 -35.7534 -35.7491 -35.7475 -35.7380
   -35.7334 -35.7294 -35.7217 -35.7178 -35.7161 -35.7139 -35.7109 -35.7057
   -35.6993 -35.6904 -35.6863 -35.6830 -35.6806 -35.6795 -35.6790 -35.6778
   -35.6704 -35.6684 -35.6639 -35.6562 -35.6529 -35.6518 -35.6478 -35.6452
   -35.6433 -35.6425 -35.6402 -35.6387 -35.6375 -35.6356 -35.6349 -35.6333
   -35.6316 -35.6302 -35.6268 -35.6248 -35.6227 -35.6214 -35.6183 -35.6163
   -35.6124 -35.6111 -35.6057 -35.6037 -35.6013 -35.5965 -35.5945 -35.5886
   -35.5866 -35.5832 -35.5788 -35.5762 -35.5663 -35.5598 -35.5540 -35.5526
   -35.5510 -35.5462 -35.5447 -35.5406 -35.5359 -35.5333 -35.5291 -35.5245
   -35.5197 -35.5151 -35.5143 -35.5124 -35.5097 -35.5078 -35.5021 -35.4989
   -35.4901 -35.4894 -35.4864 -35.4829 -35.4815 -35.4809 -35.4779 -35.4762
   -35.4730 -35.4712 -35.4681 -35.4666 -35.4648 -35.4629 -35.4609 -35.4586
   -35.4578 -35.4559 -35.4544 -35.4505 -35.4489 -35.4488 -35.4476 -35.4460
   -35.4436 -35.4432 -35.4406 -35.4390 -35.4376 -35.4364 -35.4348 -35.4330
   -35.4293 -35.4263 -35.4191 -35.4160 -35.4135 -35.4112 -35.4096 -35.4059
   -35.4049 -35.4035 -35.4018 -35.4009 -35.3995 -35.3988 -35.3972 -35.3954
   -35.3931 -35.3914 -35.3885 -35.3875 -35.3857 -35.3813 -35.3791 -35.3769
   -35.3739 -35.3724 -35.3704 -35.3684 -35.3679 -35.3668 -35.3659 -35.3651
   -35.3632 -35.3621 -35.3591 -35.3576 -35.3564 -35.3538 -35.3524 -35.3515
   -35.3508 -35.3495 -35.3486 -35.3469 -35.3458 -35.3405 -35.3390 -35.3370
   -35.3323 -35.3294 -35.3262 -35.3220 -35.3188 -35.3127 -35.3099 -35.3054
   -35.3015 -35.3003 -35.2945 -35.2922 -35.2866 -35.2814 -35.2777 -35.2724
   -35.2685 -35.2618 -35.2569 -35.2545 -35.2528 -35.2484 -35.2453 -35.2440
   -35.2381 -35.2347 -35.2288 -35.2260 -35.2238 -35.2226 -35.2198 -35.2158
   -35.2096 -35.2074 -35.2039 -35.1995 -35.1931 -35.1850 -35.1817 -35.1775
   -35.1740 -35.1714 -35.1688 -35.1638 -35.1607 -35.1572 -35.1462 -35.1427
   -35.1403 -35.1326 -35.1260 -35.1204 -35.1149 -35.1122 -35.1086 -35.0910
   -35.0776 -35.0712 -13.9361 -13.5903 -13.5863 -13.2555 -13.0706 -13.0537
   -13.0486 -12.7747 -12.7678 -12.7500 -12.7403 -12.5858 -12.5812 -12.4912
   -12.4453 -12.4065 -12.4006 -12.3572 -12.3470 -12.3408 -12.3348 -12.3252
   -12.3055 -12.2687 -12.2400 -12.2289 -12.2173 -12.1479 -12.1403 -12.1300
   -12.1240 -12.1138 -12.1032 -12.0342 -12.0158 -12.0107 -11.9986 -11.9885
   -11.9464 -11.8999 -11.8805 -11.8461 -11.7741 -11.6781 -11.6764 -11.6419
   -11.5850 -11.5438 -11.4900 -11.4880 -11.4801 -11.4723 -11.4691 -11.4646
   -11.4510 -11.3955 -11.3642 -11.3164 -11.3084 -11.2997 -11.2821 -11.2499
   -11.2264 -11.2104 -11.1864 -11.1515 -11.1389 -11.0841 -10.9992 -10.9817
   -10.9131 -10.8319  -8.0303  -4.8155  -4.6562  -4.6118  -4.5460  -4.3335
    -4.3202  -4.1898  -4.1771  -4.0962  -4.0950  -3.9973  -3.9840  -3.9701
    -3.8640  -3.8509  -3.8424  -3.7947  -3.6431  -3.6238  -3.6178  -3.5876
    -3.5847  -3.5768  -3.5726  -3.5628  -3.5459  -3.4313  -3.4194  -3.4152
    -3.3638  -3.3565  -3.3501  -3.3351  -3.3238  -3.3012  -3.2916  -3.2880
    -3.2170  -3.2053  -3.1869  -3.0891  -3.0812  -3.0364  -3.0325  -2.9968
    -2.9939  -2.9407  -2.9155  -2.9074  -2.8958  -2.8843  -2.7840  -2.7755
    -2.7664  -2.7489  -2.6331  -2.6211  -2.6011  -2.5884  -2.5494  -2.4748
    -2.4368  -2.4024  -2.3941  -2.3874  -2.3772  -2.3684  -2.3495  -2.3403
    -2.3348  -2.3238  -2.3085  -2.3027  -2.2780  -2.2732  -2.2578  -2.2490
    -2.2339  -2.2297  -2.2233  -2.2178  -2.2103  -2.2006  -2.1385  -2.1213
    -2.1183  -2.0902  -2.0734  -2.0668  -2.0479  -2.0218  -2.0071  -1.9841
    -1.9754  -1.9586  -1.9528  -1.9271  -1.9207  -1.9104  -1.9046  -1.8982
    -1.8855  -1.8566  -1.8457  -1.8331  -1.8166  -1.8092  -1.7929  -1.7863
    -1.7805  -1.7735  -1.7587  -1.7462  -1.7220  -1.7149  -1.7115  -1.7039
    -1.6943  -1.6857  -1.6728  -1.6495  -1.6393  -1.6201  -1.6004  -1.5902
    -1.5506  -1.5301  -1.5137  -1.5002  -1.4831  -1.4765  -1.4546  -1.4482
    -1.4409  -1.4156  -1.4040  -1.3993  -1.3931  -1.3841  -1.3750  -1.3326
    -1.3177  -1.3100  -1.3001  -1.2911  -1.2846  -1.2743  -1.2691  -1.2476
    -1.2397  -1.2307  -1.2146  -1.2007  -1.1755  -1.1443  -1.1234  -1.1060
    -1.0908  -1.0783  -1.0707  -1.0605  -1.0275  -1.0249  -1.0048  -0.9893
    -0.9728  -0.9636  -0.9333  -0.9185  -0.9107  -0.8945  -0.8904  -0.8563
    -0.8442  -0.8362  -0.8294  -0.8139  -0.7944  -0.7849  -0.7726  -0.7539
    -0.7305  -0.7089  -0.6887  -0.6634  -0.6509  -0.5872  -0.5621  -0.5438
    -0.5348  -0.5184  -0.5043  -0.4892  -0.4585  -0.4395  -0.4019  -0.3746
    -0.3665  -0.3456  -0.3234  -0.2886  -0.2575  -0.2196  -0.1931  -0.1572
    -0.0606  -0.0491  -0.0226   0.0347   0.1185   0.1535   0.2086   0.2713
     0.5624   0.7172   0.9346   0.9803   1.0117   1.0772   1.1263   1.1570
     1.1843   1.3592   1.3818   1.4643   1.6659   1.8394   1.9498   1.9987
     2.0208   2.0643   2.0945   2.1381   2.1727   2.1919   2.2519   2.3023
     2.3220   2.3500   2.4081   2.4146   2.4847   2.5043   2.5250   2.6536
     2.6739   2.6933   2.7274   2.7498   2.7840   2.7978   2.8145   2.8385
     2.8973   2.9193   2.9386   2.9749   3.0104   3.0280   3.0800   3.0915
     3.1114   3.1318   3.1436   3.1575   3.1777   3.1909   3.2082   3.2219
     3.2415   3.2560   3.2704   3.2896   3.3060   3.3232   3.3433   3.3797
     3.3989   3.4084   3.4398   3.4581   3.4738   3.5033   3.5143   3.5228
     3.5493   3.5618   3.5701   3.5834   3.5862   3.6139   3.6284   3.6629
     3.7018   3.7304   3.7466   3.7589   3.7742   3.7864   3.8000   3.8082
     3.8230   3.8521   3.8606   3.8871   3.8946   3.9141   3.9305   3.9338
     3.9402   3.9694   3.9796   4.0039   4.0188   4.0283   4.0551   4.0664
     4.0911   4.0961   4.1086   4.1245   4.1371   4.1526   4.1690   4.1915
     4.2075   4.2248   4.2339   4.2456   4.2576   4.2612   4.2667   4.2801
     4.2905   4.2951   4.3063   4.3270   4.3394   4.3519   4.3613   4.3690
     4.3788   4.3848   4.3872   4.3915   4.3980   4.4061   4.4167   4.4279
     4.4328   4.4439   4.4517   4.4548   4.4675   4.4711   4.4755   4.4813
     4.4846   4.4995   4.5074   4.5238   4.5319   4.5480   4.5541   4.5624
     4.5733   4.5793   4.5858   4.5933   4.6047   4.6227   4.6273   4.6460
     4.6553   4.6648   4.6734   4.6909   4.6987   4.7088   4.7218   4.7242
     4.7402   4.7556   4.7730   4.7865   4.7937   4.8010   4.8056   4.8218
     4.8449   4.8524   4.8591   4.8698   4.8761   4.8822   4.8929   4.8974
     4.9041   4.9113   4.9153   4.9278   4.9344   4.9550   4.9608   4.9677
     4.9801   4.9832   4.9951   5.0026   5.0099   5.0184   5.0224   5.0269
     5.0286   5.0338   5.0394   5.0492   5.0523   5.0620   5.0730   5.0911
     5.0941

          k = 0.2500-0.5000 0.0000 (135080 PWs)   bands (ev):

   -61.6889 -61.6716 -61.6703 -61.6619 -61.6607 -61.6497 -61.6467 -61.6409
   -61.6397 -61.6387 -61.6375 -61.6356 -61.6328 -61.6298 -61.6255 -61.6186
   -61.6183 -61.6116 -61.6030 -61.5987 -61.5949 -61.5938 -61.5886 -61.5858
   -61.5838 -61.5834 -61.5813 -61.5805 -61.5794 -61.5784 -61.5770 -61.5754
   -61.5725 -61.5699 -61.5691 -61.5671 -61.5668 -61.5638 -61.5602 -61.5581
   -61.5559 -61.5517 -61.5393 -61.5270 -61.5243 -61.5130 -61.5095 -61.5048
   -61.4991 -61.4929 -61.4831 -61.4773 -61.4593 -61.4555 -61.4486 -61.4438
   -61.4377 -61.4314 -61.4208 -61.4136 -61.4090 -61.4001 -61.3854 -61.3784
   -61.3754 -61.3703 -61.3686 -61.3672 -61.3650 -61.3600 -61.3518 -61.3207
   -44.3160 -42.7600 -35.7890 -35.7856 -35.7437 -35.7419 -35.7387 -35.7379
   -35.7355 -35.7328 -35.7260 -35.7225 -35.7202 -35.7175 -35.7029 -35.7007
   -35.6979 -35.6940 -35.6822 -35.6809 -35.6780 -35.6732 -35.6706 -35.6694
   -35.6691 -35.6650 -35.6630 -35.6622 -35.6583 -35.6568 -35.6535 -35.6525
   -35.6480 -35.6451 -35.6431 -35.6404 -35.6388 -35.6365 -35.6354 -35.6339
   -35.6318 -35.6294 -35.6273 -35.6258 -35.6236 -35.6215 -35.6203 -35.6161
   -35.6155 -35.6137 -35.6088 -35.6061 -35.6035 -35.6004 -35.5963 -35.5872
   -35.5828 -35.5811 -35.5752 -35.5694 -35.5625 -35.5589 -35.5539 -35.5528
   -35.5457 -35.5434 -35.5412 -35.5376 -35.5343 -35.5334 -35.5310 -35.5291
   -35.5277 -35.5207 -35.5188 -35.5093 -35.5058 -35.5034 -35.4961 -35.4912
   -35.4893 -35.4877 -35.4869 -35.4846 -35.4824 -35.4785 -35.4772 -35.4732
   -35.4717 -35.4688 -35.4674 -35.4655 -35.4648 -35.4640 -35.4628 -35.4619
   -35.4605 -35.4571 -35.4558 -35.4549 -35.4523 -35.4502 -35.4492 -35.4486
   -35.4464 -35.4437 -35.4404 -35.4380 -35.4350 -35.4340 -35.4334 -35.4282
   -35.4274 -35.4252 -35.4235 -35.4221 -35.4195 -35.4174 -35.4129 -35.4094
   -35.4073 -35.4061 -35.4041 -35.3996 -35.3978 -35.3953 -35.3932 -35.3908
   -35.3882 -35.3862 -35.3856 -35.3840 -35.3834 -35.3803 -35.3792 -35.3775
   -35.3760 -35.3749 -35.3718 -35.3707 -35.3696 -35.3668 -35.3644 -35.3640
   -35.3622 -35.3611 -35.3597 -35.3584 -35.3570 -35.3550 -35.3534 -35.3517
   -35.3488 -35.3476 -35.3462 -35.3451 -35.3442 -35.3408 -35.3376 -35.3367
   -35.3337 -35.3299 -35.3288 -35.3250 -35.3163 -35.3141 -35.3119 -35.3077
   -35.3023 -35.2975 -35.2947 -35.2911 -35.2848 -35.2825 -35.2760 -35.2729
   -35.2707 -35.2642 -35.2605 -35.2543 -35.2504 -35.2471 -35.2449 -35.2418
   -35.2389 -35.2339 -35.2285 -35.2272 -35.2236 -35.2213 -35.2192 -35.2140
   -35.2114 -35.2088 -35.2025 -35.2003 -35.1942 -35.1841 -35.1821 -35.1778
   -35.1734 -35.1702 -35.1696 -35.1644 -35.1609 -35.1570 -35.1479 -35.1441
   -35.1383 -35.1323 -35.1254 -35.1215 -35.1145 -35.1114 -35.1083 -35.0912
   -35.0776 -35.0714 -13.8063 -13.7929 -13.4638 -13.4504 -12.9569 -12.9458
   -12.9361 -12.9236 -12.8412 -12.7348 -12.6627 -12.6520 -12.5578 -12.4900
   -12.4742 -12.4511 -12.4228 -12.3976 -12.3384 -12.3126 -12.3086 -12.3021
   -12.2554 -12.2407 -12.2204 -12.1930 -12.1904 -12.1721 -12.1669 -12.1646
   -12.1581 -12.0859 -12.0769 -12.0529 -12.0453 -12.0293 -12.0129 -11.9854
   -11.9180 -11.9141 -11.9017 -11.8619 -11.7919 -11.7633 -11.5911 -11.5879
   -11.5490 -11.5459 -11.5410 -11.5401 -11.4581 -11.4436 -11.4343 -11.4330
   -11.4034 -11.3997 -11.3731 -11.3602 -11.3522 -11.3411 -11.2921 -11.2529
   -11.2269 -11.1806 -11.1444 -11.1399 -11.1283 -11.1090 -11.0143 -11.0005
   -10.8761 -10.8312  -8.0303  -4.8537  -4.7798  -4.6566  -4.6460  -4.3303
    -4.2533  -4.1571  -4.1349  -4.0569  -4.0401  -3.8828  -3.8787  -3.8516
    -3.8191  -3.7943  -3.7851  -3.7760  -3.7176  -3.7009  -3.6822  -3.6484
    -3.6363  -3.5951  -3.5850  -3.5775  -3.5632  -3.5502  -3.5207  -3.4316
    -3.4204  -3.3386  -3.3315  -3.3144  -3.3073  -3.2892  -3.2652  -3.2305
    -3.2249  -3.1404  -3.0967  -3.0932  -3.0822  -3.0701  -3.0383  -3.0258
    -3.0209  -2.9706  -2.9573  -2.9398  -2.8931  -2.7929  -2.7863  -2.7762
    -2.7608  -2.7410  -2.7266  -2.6620  -2.6438  -2.6256  -2.5580  -2.5355
    -2.5004  -2.4714  -2.4560  -2.4214  -2.3939  -2.3642  -2.3458  -2.3341
    -2.3258  -2.2969  -2.2833  -2.2761  -2.2667  -2.2547  -2.2490  -2.2344
    -2.2185  -2.2032  -2.1786  -2.1659  -2.1568  -2.1486  -2.1339  -2.1250
    -2.1142  -2.1122  -2.0977  -2.0809  -2.0563  -2.0412  -2.0347  -2.0272
    -2.0184  -2.0019  -1.9812  -1.9710  -1.9601  -1.9491  -1.9410  -1.9242
    -1.9074  -1.8908  -1.8706  -1.8668  -1.8582  -1.8508  -1.8407  -1.8346
    -1.8268  -1.8172  -1.7900  -1.7880  -1.7783  -1.7182  -1.6894  -1.6752
    -1.6728  -1.6606  -1.6383  -1.5800  -1.5441  -1.5236  -1.5155  -1.5093
    -1.4913  -1.4511  -1.4447  -1.4404  -1.4335  -1.4295  -1.4171  -1.4005
    -1.3848  -1.3698  -1.3591  -1.3532  -1.3309  -1.3177  -1.3114  -1.3052
    -1.2906  -1.2851  -1.2726  -1.2604  -1.2539  -1.2243  -1.2168  -1.2098
    -1.1932  -1.1894  -1.1630  -1.1529  -1.1440  -1.1367  -1.1208  -1.1091
    -1.0943  -1.0844  -1.0779  -1.0672  -1.0442  -1.0389  -1.0187  -1.0026
    -0.9839  -0.9750  -0.9332  -0.9091  -0.8947  -0.8736  -0.8670  -0.8623
    -0.8342  -0.8202  -0.8115  -0.7961  -0.7690  -0.7523  -0.7409  -0.7240
    -0.7100  -0.6904  -0.6477  -0.6343  -0.6227  -0.6025  -0.5808  -0.5505
    -0.5439  -0.5237  -0.5126  -0.4957  -0.4818  -0.4694  -0.4585  -0.4329
    -0.4182  -0.4133  -0.3422  -0.2810  -0.2599  -0.2467  -0.2275  -0.1329
    -0.1082  -0.0862  -0.0659   0.0424   0.0647   0.1049   0.1358   0.2879
     0.2994   0.4866   0.5150   0.9987   1.0798   1.1200   1.4282   1.4440
     1.4865   1.5584   1.5993   1.6174   1.6389   1.6825   1.7834   1.8017
     1.8095   1.8336   1.9269   2.0346   2.1488   2.1882   2.2015   2.2400
     2.2584   2.2945   2.3641   2.3767   2.4691   2.4805   2.4979   2.5649
     2.6502   2.6726   2.6821   2.7018   2.7190   2.7500   2.7983   2.8281
     2.8774   2.9008   2.9176   2.9306   2.9498   2.9628   2.9884   3.0003
     3.0237   3.0285   3.0609   3.0958   3.1177   3.1548   3.1919   3.2107
     3.2329   3.2469   3.2640   3.2799   3.3160   3.3430   3.3557   3.3748
     3.3823   3.4052   3.4479   3.4619   3.4767   3.4980   3.5376   3.5926
     3.6053   3.6194   3.6300   3.6395   3.6662   3.6842   3.7050   3.7161
     3.7270   3.7328   3.7761   3.7865   3.8056   3.8187   3.8361   3.8587
     3.8696   3.8870   3.9133   3.9261   3.9348   3.9613   3.9926   4.0024
     4.0243   4.0317   4.0435   4.0527   4.0634   4.0880   4.0937   4.1147
     4.1366   4.1498   4.1587   4.1690   4.1759   4.1912   4.2055   4.2105
     4.2189   4.2356   4.2381   4.2470   4.2584   4.2648   4.2677   4.2738
     4.2810   4.2845   4.2924   4.2954   4.3036   4.3129   4.3247   4.3301
     4.3374   4.3547   4.3638   4.3815   4.3867   4.3921   4.4061   4.4095
     4.4144   4.4172   4.4237   4.4298   4.4420   4.4532   4.4640   4.4689
     4.4829   4.4916   4.5010   4.5058   4.5351   4.5432   4.5692   4.5933
     4.5997   4.6110   4.6265   4.6395   4.6538   4.6696   4.6752   4.6857
     4.6886   4.6952   4.7024   4.7156   4.7332   4.7424   4.7533   4.7731
     4.7755   4.7836   4.7953   4.8001   4.8165   4.8255   4.8329   4.8420
     4.8496   4.8571   4.8600   4.8689   4.8806   4.8904   4.8993   4.9088
     4.9137   4.9227   4.9286   4.9337   4.9400   4.9445   4.9517   4.9607
     4.9643   4.9710   4.9770   4.9806   4.9868   4.9956   5.0012   5.0064
     5.0179   5.0309   5.0465   5.0520   5.0603   5.0639   5.0719   5.0807
     5.0899

          k =-0.5000-0.5000 0.0000 (135004 PWs)   bands (ev):

   -61.6888 -61.6702 -61.6687 -61.6648 -61.6643 -61.6463 -61.6419 -61.6407
   -61.6400 -61.6395 -61.6376 -61.6363 -61.6344 -61.6323 -61.6264 -61.6178
   -61.6162 -61.6125 -61.6030 -61.5985 -61.5953 -61.5941 -61.5888 -61.5844
   -61.5835 -61.5828 -61.5815 -61.5805 -61.5796 -61.5777 -61.5769 -61.5761
   -61.5757 -61.5697 -61.5690 -61.5674 -61.5653 -61.5613 -61.5606 -61.5597
   -61.5559 -61.5517 -61.5394 -61.5274 -61.5237 -61.5119 -61.5095 -61.5062
   -61.4988 -61.4928 -61.4832 -61.4772 -61.4593 -61.4555 -61.4487 -61.4438
   -61.4376 -61.4314 -61.4209 -61.4136 -61.4090 -61.4001 -61.3854 -61.3784
   -61.3755 -61.3698 -61.3691 -61.3669 -61.3652 -61.3598 -61.3519 -61.3207
   -44.3160 -42.7600 -35.7952 -35.7919 -35.7484 -35.7450 -35.7347 -35.7328
   -35.7312 -35.7272 -35.7086 -35.7068 -35.7043 -35.7029 -35.7025 -35.7011
   -35.7002 -35.6976 -35.6907 -35.6858 -35.6837 -35.6829 -35.6796 -35.6743
   -35.6702 -35.6679 -35.6669 -35.6636 -35.6611 -35.6606 -35.6597 -35.6581
   -35.6575 -35.6513 -35.6494 -35.6446 -35.6391 -35.6372 -35.6362 -35.6359
   -35.6335 -35.6315 -35.6297 -35.6285 -35.6229 -35.6179 -35.6156 -35.6118
   -35.6098 -35.6043 -35.6003 -35.5987 -35.5924 -35.5899 -35.5875 -35.5830
   -35.5801 -35.5775 -35.5767 -35.5744 -35.5679 -35.5673 -35.5656 -35.5529
   -35.5472 -35.5449 -35.5431 -35.5426 -35.5385 -35.5373 -35.5330 -35.5151
   -35.5142 -35.5120 -35.5108 -35.5105 -35.5090 -35.5005 -35.4997 -35.4965
   -35.4945 -35.4927 -35.4900 -35.4882 -35.4841 -35.4805 -35.4800 -35.4735
   -35.4708 -35.4700 -35.4682 -35.4677 -35.4665 -35.4644 -35.4629 -35.4625
   -35.4615 -35.4603 -35.4568 -35.4562 -35.4549 -35.4540 -35.4511 -35.4484
   -35.4470 -35.4453 -35.4438 -35.4373 -35.4326 -35.4311 -35.4273 -35.4259
   -35.4142 -35.4109 -35.4089 -35.4083 -35.4075 -35.4073 -35.4060 -35.4044
   -35.4031 -35.4025 -35.4018 -35.4010 -35.4001 -35.3990 -35.3985 -35.3975
   -35.3969 -35.3956 -35.3949 -35.3942 -35.3932 -35.3893 -35.3885 -35.3870
   -35.3855 -35.3715 -35.3700 -35.3678 -35.3656 -35.3648 -35.3638 -35.3628
   -35.3620 -35.3609 -35.3592 -35.3567 -35.3552 -35.3549 -35.3524 -35.3505
   -35.3485 -35.3464 -35.3449 -35.3429 -35.3415 -35.3406 -35.3380 -35.3344
   -35.3329 -35.3297 -35.3291 -35.3256 -35.3245 -35.3173 -35.3140 -35.3070
   -35.3034 -35.2957 -35.2944 -35.2882 -35.2861 -35.2784 -35.2749 -35.2712
   -35.2694 -35.2637 -35.2607 -35.2526 -35.2517 -35.2478 -35.2451 -35.2411
   -35.2379 -35.2357 -35.2275 -35.2251 -35.2233 -35.2221 -35.2208 -35.2153
   -35.2112 -35.2100 -35.2051 -35.2016 -35.1917 -35.1883 -35.1835 -35.1770
   -35.1727 -35.1700 -35.1668 -35.1647 -35.1602 -35.1569 -35.1498 -35.1449
   -35.1370 -35.1323 -35.1252 -35.1216 -35.1136 -35.1109 -35.1081 -35.0914
   -35.0779 -35.0714 -13.6788 -13.6648 -13.6604 -13.6562 -12.8442 -12.8337
   -12.8313 -12.8254 -12.7433 -12.7331 -12.7259 -12.7139 -12.6312 -12.6234
   -12.6186 -12.6033 -12.3817 -12.3593 -12.3478 -12.3379 -12.2787 -12.2714
   -12.2593 -12.2549 -12.1425 -12.1416 -12.1375 -12.1281 -12.1119 -12.1029
   -12.0890 -12.0856 -12.0682 -12.0645 -12.0631 -12.0621 -12.0558 -11.9830
   -11.9549 -11.9429 -11.9348 -11.9034 -11.8783 -11.8739 -11.4934 -11.4931
   -11.4921 -11.4912 -11.4867 -11.4760 -11.4725 -11.4693 -11.4674 -11.4656
   -11.4650 -11.4595 -11.3895 -11.3710 -11.3355 -11.3237 -11.2969 -11.2558
   -11.2438 -11.1774 -11.1688 -11.1152 -11.1052 -11.1035 -11.0439 -11.0381
   -10.8569 -10.8023  -8.0304  -4.9105  -4.8844  -4.7246  -4.7225  -4.0298
    -4.0196  -4.0129  -3.9996  -3.9722  -3.9645  -3.9610  -3.9533  -3.8947
    -3.8871  -3.8460  -3.8410  -3.8233  -3.8183  -3.8096  -3.8068  -3.7957
    -3.7905  -3.6579  -3.6510  -3.4293  -3.4193  -3.4141  -3.4069  -3.4025
    -3.3944  -3.3668  -3.3584  -3.3516  -3.3375  -3.3233  -3.3169  -3.1944
    -3.1795  -3.1752  -3.1598  -3.0683  -3.0644  -3.0601  -3.0577  -2.8931
    -2.8806  -2.8795  -2.8771  -2.8765  -2.8664  -2.8434  -2.8324  -2.8157
    -2.7934  -2.7879  -2.7830  -2.7605  -2.7557  -2.6641  -2.6519  -2.6368
    -2.6233  -2.5612  -2.5380  -2.4528  -2.4428  -2.3874  -2.3664  -2.3508
    -2.3096  -2.2580  -2.2505  -2.2445  -2.2344  -2.2192  -2.1982  -2.1972
    -2.1907  -2.1857  -2.1754  -2.1709  -2.1601  -2.1536  -2.1524  -2.1412
    -2.1391  -2.1301  -2.1218  -2.1152  -2.1121  -2.1114  -2.0830  -1.9348
    -1.9261  -1.9215  -1.9134  -1.9106  -1.9030  -1.8994  -1.8926  -1.8881
    -1.8832  -1.8780  -1.8762  -1.8683  -1.8611  -1.8553  -1.8418  -1.8345
    -1.8330  -1.8311  -1.8205  -1.7974  -1.7901  -1.7303  -1.7241  -1.7052
    -1.6882  -1.6649  -1.6485  -1.6277  -1.6121  -1.5737  -1.5421  -1.5367
    -1.5168  -1.4936  -1.4867  -1.4822  -1.4744  -1.3925  -1.3524  -1.3426
    -1.3255  -1.3086  -1.3043  -1.2986  -1.2913  -1.2857  -1.2612  -1.2585
    -1.2474  -1.2348  -1.2180  -1.1997  -1.1968  -1.1841  -1.1598  -1.1401
    -1.1325  -1.1267  -1.1060  -1.1000  -1.0906  -1.0851  -1.0738  -1.0648
    -1.0571  -1.0420  -1.0324  -1.0255  -1.0186  -0.9952  -0.9848  -0.9684
    -0.9611  -0.9289  -0.9112  -0.9057  -0.8955  -0.8837  -0.8697  -0.8611
    -0.8487  -0.8378  -0.8077  -0.7751  -0.7652  -0.7596  -0.7567  -0.7485
    -0.7060  -0.7005  -0.6990  -0.6908  -0.6759  -0.6632  -0.6528  -0.6221
    -0.5998  -0.5547  -0.4865  -0.4222  -0.4202  -0.4077  -0.4043  -0.3857
    -0.3632  -0.3552  -0.3369  -0.3284  -0.3003  -0.2696  -0.2492  -0.1637
    -0.1066  -0.0999  -0.0565  -0.0490  -0.0403  -0.0290  -0.0219   0.1723
     0.1936   0.2893   0.3228   1.0157   1.3449   1.4465   1.4769   1.5425
     1.6142   1.6434   1.6641   1.6871   1.7026   1.7209   1.7435   1.7641
     1.7865   1.8474   1.9401   1.9834   2.0047   2.0432   2.0528   2.0690
     2.0709   2.0959   2.1128   2.1341   2.2096   2.2765   2.5728   2.5868
     2.6112   2.6204   2.7778   2.7855   2.7895   2.7959   2.8183   2.8349
     2.8454   2.8519   2.8811   2.8922   2.8975   2.9114   2.9355   2.9482
     2.9592   2.9684   2.9886   3.0045   3.0271   3.0392   3.1124   3.1214
     3.1260   3.1471   3.1574   3.1990   3.2262   3.2871   3.5102   3.5145
     3.5276   3.5325   3.5612   3.5862   3.6104   3.6254   3.6367   3.6542
     3.6618   3.6713   3.6817   3.6996   3.7013   3.7237   3.7328   3.7761
     3.7895   3.7976   3.8024   3.8144   3.8269   3.9181   3.9217   3.9378
     3.9509   3.9534   3.9589   3.9654   3.9791   3.9866   4.0010   4.0039
     4.0176   4.0273   4.0386   4.0451   4.0585   4.0693   4.0829   4.0886
     4.1134   4.1238   4.1388   4.1509   4.1572   4.1746   4.1829   4.2016
     4.2101   4.2172   4.2227   4.2368   4.2399   4.2513   4.2598   4.2758
     4.2821   4.2855   4.2939   4.2963   4.3016   4.3076   4.3149   4.3168
     4.3216   4.3370   4.3451   4.3471   4.3632   4.3736   4.3801   4.3903
     4.3912   4.3951   4.4079   4.4129   4.4242   4.4381   4.4519   4.4561
     4.4585   4.4739   4.4858   4.5205   4.5351   4.5655   4.5810   4.5830
     4.6258   4.6478   4.6601   4.6740   4.6906   4.6938   4.7088   4.7095
     4.7221   4.7382   4.7540   4.7663   4.7722   4.7781   4.7892   4.7932
     4.8039   4.8058   4.8115   4.8201   4.8398   4.8457   4.8581   4.8667
     4.8769   4.8807   4.8866   4.8932   4.8954   4.8988   4.9005   4.9049
     4.9110   4.9141   4.9233   4.9271   4.9309   4.9366   4.9408   4.9434
     4.9454   4.9507   4.9520   4.9561   4.9696   4.9823   4.9878   5.0027
     5.0105   5.0167   5.0241   5.0456   5.0605   5.0743   5.1006   5.1035
     5.1077

          k = 0.2500 0.0000 0.0000 (135097 PWs)   bands (ev):

   -61.6889 -61.6755 -61.6665 -61.6586 -61.6562 -61.6529 -61.6516 -61.6465
   -61.6424 -61.6390 -61.6336 -61.6317 -61.6301 -61.6272 -61.6253 -61.6231
   -61.6185 -61.6113 -61.6033 -61.5976 -61.5962 -61.5920 -61.5881 -61.5873
   -61.5851 -61.5837 -61.5827 -61.5820 -61.5790 -61.5769 -61.5738 -61.5733
   -61.5717 -61.5710 -61.5694 -61.5673 -61.5669 -61.5663 -61.5617 -61.5560
   -61.5552 -61.5524 -61.5394 -61.5268 -61.5243 -61.5130 -61.5106 -61.5049
   -61.4986 -61.4921 -61.4831 -61.4776 -61.4593 -61.4555 -61.4486 -61.4439
   -61.4376 -61.4314 -61.4209 -61.4136 -61.4089 -61.4002 -61.3852 -61.3785
   -61.3755 -61.3701 -61.3685 -61.3674 -61.3653 -61.3599 -61.3517 -61.3207
   -44.3160 -42.7600 -35.7761 -35.7740 -35.7562 -35.7537 -35.7513 -35.7499
   -35.7305 -35.7263 -35.7240 -35.7221 -35.7142 -35.7096 -35.7030 -35.7002
   -35.6983 -35.6958 -35.6932 -35.6913 -35.6907 -35.6896 -35.6757 -35.6682
   -35.6662 -35.6614 -35.6584 -35.6562 -35.6540 -35.6522 -35.6519 -35.6501
   -35.6465 -35.6427 -35.6408 -35.6381 -35.6343 -35.6330 -35.6316 -35.6302
   -35.6288 -35.6269 -35.6249 -35.6229 -35.6206 -35.6187 -35.6172 -35.6147
   -35.6127 -35.6111 -35.6089 -35.6042 -35.5979 -35.5953 -35.5938 -35.5900
   -35.5851 -35.5822 -35.5723 -35.5695 -35.5662 -35.5639 -35.5592 -35.5551
   -35.5530 -35.5513 -35.5490 -35.5460 -35.5443 -35.5359 -35.5342 -35.5228
   -35.5200 -35.5166 -35.5119 -35.5088 -35.5065 -35.5051 -35.4985 -35.4948
   -35.4939 -35.4919 -35.4906 -35.4867 -35.4835 -35.4826 -35.4802 -35.4776
   -35.4739 -35.4716 -35.4698 -35.4683 -35.4664 -35.4631 -35.4613 -35.4586
   -35.4574 -35.4541 -35.4499 -35.4478 -35.4467 -35.4444 -35.4420 -35.4417
   -35.4393 -35.4373 -35.4365 -35.4350 -35.4337 -35.4326 -35.4317 -35.4298
   -35.4279 -35.4258 -35.4250 -35.4238 -35.4200 -35.4178 -35.4156 -35.4123
   -35.4114 -35.4058 -35.4042 -35.4005 -35.3960 -35.3939 -35.3925 -35.3910
   -35.3889 -35.3861 -35.3851 -35.3844 -35.3826 -35.3806 -35.3798 -35.3778
   -35.3775 -35.3758 -35.3737 -35.3716 -35.3699 -35.3689 -35.3677 -35.3669
   -35.3658 -35.3651 -35.3612 -35.3598 -35.3582 -35.3553 -35.3538 -35.3530
   -35.3516 -35.3489 -35.3471 -35.3443 -35.3429 -35.3400 -35.3378 -35.3358
   -35.3342 -35.3290 -35.3265 -35.3197 -35.3181 -35.3132 -35.3090 -35.3038
   -35.2993 -35.2979 -35.2926 -35.2891 -35.2844 -35.2827 -35.2779 -35.2729
   -35.2713 -35.2663 -35.2621 -35.2542 -35.2519 -35.2493 -35.2459 -35.2414
   -35.2370 -35.2336 -35.2284 -35.2261 -35.2243 -35.2217 -35.2197 -35.2152
   -35.2104 -35.2080 -35.2033 -35.1979 -35.1924 -35.1853 -35.1808 -35.1783
   -35.1732 -35.1712 -35.1673 -35.1633 -35.1626 -35.1587 -35.1482 -35.1451
   -35.1378 -35.1314 -35.1273 -35.1193 -35.1154 -35.1125 -35.1086 -35.0908
   -35.0776 -35.0710 -13.9831 -13.6339 -13.3374 -13.3176 -13.1119 -13.0938
   -13.0161 -12.9946 -12.8093 -12.6231 -12.5722 -12.5605 -12.5383 -12.5162
   -12.4672 -12.4514 -12.4356 -12.4231 -12.3757 -12.3692 -12.3166 -12.3077
   -12.2998 -12.2408 -12.2342 -12.2093 -12.1785 -12.1695 -12.1596 -12.1562
   -12.1427 -12.1252 -12.0690 -12.0537 -12.0424 -11.9962 -11.9710 -11.9519
   -11.9335 -11.9103 -11.8401 -11.8356 -11.7093 -11.6984 -11.6902 -11.6167
   -11.6137 -11.6020 -11.5598 -11.5096 -11.4970 -11.4797 -11.4579 -11.4558
   -11.4352 -11.3346 -11.3308 -11.3129 -11.3107 -11.3029 -11.2788 -11.2471
   -11.2323 -11.2038 -11.2003 -11.1905 -11.1319 -11.0916 -11.0016 -10.9516
   -10.9172 -10.8571  -8.0302  -4.6366  -4.6081  -4.4503  -4.4413  -4.4204
    -4.3918  -4.3113  -4.3061  -4.2204  -4.1962  -4.0674  -4.0597  -3.8261
    -3.8118  -3.8021  -3.7910  -3.7607  -3.7275  -3.7044  -3.6361  -3.6329
    -3.5353  -3.5332  -3.5269  -3.5162  -3.4903  -3.4522  -3.4405  -3.4291
    -3.4003  -3.3590  -3.3497  -3.3429  -3.3339  -3.3269  -3.2869  -3.2203
    -3.1852  -3.1784  -3.1580  -3.1025  -3.0877  -3.0553  -3.0389  -3.0226
    -3.0063  -2.9702  -2.9539  -2.9248  -2.8671  -2.7848  -2.7665  -2.7089
    -2.6925  -2.6753  -2.6322  -2.6206  -2.6150  -2.6029  -2.5405  -2.5032
    -2.4391  -2.4064  -2.3776  -2.3676  -2.3586  -2.3427  -2.3255  -2.3036
    -2.2959  -2.2899  -2.2881  -2.2815  -2.2714  -2.2636  -2.2444  -2.2271
    -2.2149  -2.2054  -2.1923  -2.1676  -2.1606  -2.1523  -2.1434  -2.1176
    -2.0933  -2.0776  -2.0591  -2.0476  -2.0413  -2.0357  -2.0256  -2.0171
    -2.0091  -2.0023  -1.9945  -1.9883  -1.9843  -1.9513  -1.9314  -1.8889
    -1.8680  -1.8626  -1.8321  -1.8221  -1.8195  -1.8060  -1.8048  -1.7957
    -1.7820  -1.7622  -1.7531  -1.7268  -1.7041  -1.6821  -1.6794  -1.6756
    -1.6740  -1.6645  -1.6599  -1.6490  -1.6378  -1.6276  -1.6162  -1.6036
    -1.5894  -1.5763  -1.5511  -1.5479  -1.5435  -1.5298  -1.5236  -1.4997
    -1.4785  -1.4669  -1.4607  -1.4442  -1.4368  -1.4256  -1.3987  -1.3874
    -1.3640  -1.3436  -1.3347  -1.3218  -1.3040  -1.2868  -1.2810  -1.2732
    -1.2712  -1.2640  -1.2588  -1.2424  -1.2128  -1.1923  -1.1582  -1.1488
    -1.1149  -1.0992  -1.0879  -1.0768  -1.0595  -1.0463  -1.0341  -1.0092
    -1.0018  -0.9941  -0.9812  -0.9522  -0.9193  -0.8994  -0.8817  -0.8690
    -0.8629  -0.8490  -0.8416  -0.8258  -0.8094  -0.7949  -0.7563  -0.7180
    -0.6949  -0.6749  -0.6372  -0.6273  -0.6065  -0.5910  -0.5670  -0.5546
    -0.5257  -0.5065  -0.4977  -0.4874  -0.4759  -0.4467  -0.3910  -0.3570
    -0.3195  -0.2975  -0.2618  -0.2224  -0.2038  -0.1836  -0.1737  -0.1461
    -0.1383  -0.0680   0.0135   0.0919   0.1258   0.2705   0.3555   0.4364
     0.7709   0.7938   0.8488   0.9248   0.9570   1.0004   1.0441   1.1179
     1.2408   1.2691   1.2994   1.3386   1.6565   1.7732   1.8578   1.9771
     2.0317   2.1278   2.1568   2.1858   2.2420   2.2658   2.3016   2.3415
     2.4591   2.6196   2.6323   2.6602   2.6705   2.6899   2.7136   2.7223
     2.7409   2.7551   2.7902   2.8027   2.8272   2.8578   2.8634   2.8817
     2.8886   2.9082   2.9180   2.9393   2.9643   2.9808   3.0233   3.0653
     3.0796   3.1224   3.1479   3.1790   3.1916   3.2104   3.2343   3.2478
     3.2622   3.2764   3.2959   3.3067   3.3132   3.3324   3.3444   3.3605
     3.3637   3.3942   3.4097   3.4190   3.4544   3.4865   3.5030   3.5070
     3.5312   3.5459   3.5612   3.5735   3.5909   3.6071   3.6236   3.6518
     3.6591   3.6946   3.7021   3.7146   3.7349   3.7412   3.7589   3.7657
     3.7933   3.8126   3.8271   3.8457   3.8584   3.8700   3.8820   3.8968
     3.9197   3.9308   3.9449   3.9571   3.9606   3.9722   3.9865   4.0028
     4.0130   4.0266   4.0499   4.0660   4.0795   4.1109   4.1243   4.1388
     4.1596   4.1841   4.1950   4.2253   4.2383   4.2722   4.2934   4.2964
     4.3059   4.3173   4.3235   4.3306   4.3415   4.3439   4.3507   4.3553
     4.3669   4.3806   4.3864   4.3892   4.3950   4.4018   4.4158   4.4242
     4.4314   4.4449   4.4549   4.4701   4.4791   4.4895   4.4947   4.5080
     4.5094   4.5121   4.5204   4.5291   4.5355   4.5383   4.5527   4.5591
     4.5605   4.5739   4.5905   4.6038   4.6150   4.6239   4.6364   4.6472
     4.6508   4.6555   4.6676   4.6777   4.6837   4.6910   4.7077   4.7107
     4.7391   4.7449   4.7538   4.7650   4.7821   4.7954   4.7980   4.8093
     4.8173   4.8296   4.8409   4.8483   4.8673   4.8733   4.8793   4.8925
     4.8990   4.9188   4.9248   4.9372   4.9435   4.9552   4.9633   4.9704
     4.9756   4.9854   4.9888   5.0000   5.0144   5.0218   5.0332   5.0373
     5.0451   5.0562   5.0654   5.0693   5.0876   5.0916   5.0937   5.0977
     5.0994

          k =-0.5000 0.0000 0.0000 (135178 PWs)   bands (ev):

   -61.6889 -61.6727 -61.6711 -61.6570 -61.6561 -61.6541 -61.6528 -61.6413
   -61.6406 -61.6378 -61.6359 -61.6348 -61.6323 -61.6269 -61.6249 -61.6232
   -61.6167 -61.6115 -61.6032 -61.5976 -61.5968 -61.5919 -61.5882 -61.5876
   -61.5840 -61.5834 -61.5823 -61.5809 -61.5795 -61.5780 -61.5757 -61.5737
   -61.5711 -61.5706 -61.5693 -61.5678 -61.5668 -61.5662 -61.5587 -61.5579
   -61.5553 -61.5526 -61.5395 -61.5272 -61.5238 -61.5119 -61.5107 -61.5063
   -61.4983 -61.4919 -61.4832 -61.4775 -61.4594 -61.4555 -61.4487 -61.4439
   -61.4376 -61.4313 -61.4209 -61.4136 -61.4089 -61.4002 -61.3852 -61.3785
   -61.3756 -61.3697 -61.3689 -61.3673 -61.3654 -61.3597 -61.3518 -61.3207
   -44.3160 -42.7600 -35.7716 -35.7699 -35.7672 -35.7668 -35.7334 -35.7325
   -35.7303 -35.7289 -35.7274 -35.7256 -35.7202 -35.7180 -35.7148 -35.7134
   -35.7110 -35.7098 -35.6798 -35.6728 -35.6691 -35.6676 -35.6674 -35.6638
   -35.6600 -35.6597 -35.6569 -35.6539 -35.6512 -35.6490 -35.6485 -35.6470
   -35.6434 -35.6419 -35.6401 -35.6391 -35.6381 -35.6371 -35.6355 -35.6354
   -35.6332 -35.6325 -35.6308 -35.6283 -35.6262 -35.6245 -35.6180 -35.6172
   -35.6144 -35.6129 -35.6109 -35.6082 -35.6031 -35.6023 -35.5996 -35.5974
   -35.5920 -35.5908 -35.5885 -35.5678 -35.5652 -35.5627 -35.5488 -35.5484
   -35.5454 -35.5396 -35.5387 -35.5377 -35.5325 -35.5310 -35.5285 -35.5227
   -35.5206 -35.5198 -35.5175 -35.5156 -35.5103 -35.5084 -35.5013 -35.4964
   -35.4896 -35.4863 -35.4816 -35.4795 -35.4775 -35.4733 -35.4717 -35.4706
   -35.4691 -35.4683 -35.4668 -35.4640 -35.4636 -35.4620 -35.4601 -35.4581
   -35.4562 -35.4555 -35.4549 -35.4514 -35.4505 -35.4493 -35.4489 -35.4474
   -35.4461 -35.4453 -35.4448 -35.4441 -35.4415 -35.4406 -35.4365 -35.4352
   -35.4340 -35.4318 -35.4290 -35.4268 -35.4224 -35.4219 -35.4209 -35.4156
   -35.4127 -35.4084 -35.4040 -35.3997 -35.3976 -35.3943 -35.3899 -35.3869
   -35.3850 -35.3840 -35.3824 -35.3789 -35.3785 -35.3774 -35.3761 -35.3755
   -35.3739 -35.3713 -35.3693 -35.3673 -35.3648 -35.3640 -35.3630 -35.3625
   -35.3607 -35.3597 -35.3589 -35.3573 -35.3565 -35.3551 -35.3538 -35.3528
   -35.3518 -35.3498 -35.3484 -35.3479 -35.3464 -35.3449 -35.3442 -35.3331
   -35.3316 -35.3312 -35.3273 -35.3233 -35.3188 -35.3146 -35.3129 -35.3018
   -35.2999 -35.2987 -35.2953 -35.2905 -35.2865 -35.2812 -35.2776 -35.2758
   -35.2717 -35.2684 -35.2611 -35.2547 -35.2513 -35.2508 -35.2454 -35.2439
   -35.2344 -35.2309 -35.2295 -35.2254 -35.2252 -35.2207 -35.2190 -35.2139
   -35.2129 -35.2026 -35.2019 -35.1976 -35.1940 -35.1851 -35.1806 -35.1788
   -35.1751 -35.1728 -35.1678 -35.1629 -35.1611 -35.1601 -35.1470 -35.1431
   -35.1403 -35.1314 -35.1264 -35.1205 -35.1152 -35.1115 -35.1084 -35.0912
   -35.0778 -35.0712 -13.8503 -13.8417 -13.2143 -13.2081 -13.1980 -13.1822
   -12.9936 -12.9878 -12.8819 -12.7727 -12.4758 -12.4659 -12.4619 -12.4545
   -12.4380 -12.4276 -12.3829 -12.3630 -12.3551 -12.3511 -12.3444 -12.3257
   -12.3173 -12.3125 -12.2637 -12.2529 -12.2300 -12.2030 -12.2003 -12.1953
   -12.1208 -12.1145 -12.1037 -12.0960 -12.0742 -12.0473 -11.9340 -11.9284
   -11.9158 -11.9001 -11.7515 -11.7490 -11.7477 -11.7417 -11.6522 -11.6236
   -11.5843 -11.5810 -11.5730 -11.5594 -11.5586 -11.5478 -11.3993 -11.3959
   -11.3940 -11.3938 -11.3873 -11.3612 -11.2884 -11.2648 -11.2423 -11.2351
   -11.2317 -11.2257 -11.2137 -11.1945 -11.0980 -11.0816 -10.9892 -10.9585
   -10.8897 -10.8836  -8.0303  -4.6581  -4.6517  -4.5390  -4.5341  -4.4584
    -4.4558  -4.4369  -4.4325  -3.9657  -3.9495  -3.9481  -3.9158  -3.8070
    -3.7882  -3.7864  -3.7757  -3.7685  -3.6051  -3.6001  -3.5889  -3.5760
    -3.5746  -3.5718  -3.5680  -3.5643  -3.5611  -3.4675  -3.4163  -3.3991
    -3.3881  -3.3765  -3.3500  -3.3444  -3.3367  -3.3301  -3.3126  -3.3088
    -3.3038  -3.2611  -3.2383  -3.1599  -3.1532  -3.1494  -3.1451  -3.0660
    -2.9175  -2.9128  -2.9010  -2.8891  -2.8860  -2.8837  -2.8407  -2.8286
    -2.8024  -2.6427  -2.4544  -2.4472  -2.4415  -2.4273  -2.4253  -2.4163
    -2.4099  -2.3981  -2.3845  -2.3770  -2.3668  -2.3650  -2.3495  -2.3429
    -2.3364  -2.3303  -2.3231  -2.3127  -2.2974  -2.2924  -2.2840  -2.2605
    -2.2486  -2.2345  -2.2300  -2.2133  -2.2095  -2.2016  -2.1961  -2.1879
    -2.1731  -2.1660  -2.1604  -2.0916  -2.0827  -2.0676  -2.0618  -2.0575
    -2.0439  -2.0283  -2.0224  -1.9835  -1.9402  -1.9227  -1.9099  -1.8765
    -1.8652  -1.8482  -1.8319  -1.8214  -1.8113  -1.8038  -1.7949  -1.7665
    -1.7604  -1.7429  -1.7309  -1.7235  -1.7146  -1.7106  -1.7012  -1.6904
    -1.6713  -1.6584  -1.6560  -1.6521  -1.6511  -1.6419  -1.6194  -1.6155
    -1.5749  -1.5634  -1.5303  -1.4981  -1.4793  -1.4460  -1.4349  -1.4282
    -1.4138  -1.3916  -1.3824  -1.3814  -1.3663  -1.3631  -1.3611  -1.3481
    -1.3324  -1.3212  -1.3178  -1.3032  -1.2917  -1.2882  -1.2848  -1.2731
    -1.2507  -1.2068  -1.1864  -1.1808  -1.1556  -1.1528  -1.1360  -1.1254
    -1.0922  -1.0826  -1.0778  -1.0506  -1.0405  -1.0296  -1.0125  -0.9959
    -0.9883  -0.9747  -0.9471  -0.9227  -0.8933  -0.8311  -0.8235  -0.8176
    -0.7973  -0.7944  -0.7817  -0.7796  -0.7625  -0.7498  -0.7438  -0.6935
    -0.6820  -0.6756  -0.6610  -0.6513  -0.6450  -0.6087  -0.5979  -0.5944
    -0.5764  -0.5547  -0.5490  -0.5127  -0.4669  -0.4550  -0.4284  -0.4216
    -0.3827  -0.3502  -0.3425  -0.3304  -0.3114  -0.2803  -0.2486  -0.2150
    -0.1982   0.1284   0.1326   0.1442   0.1628   0.2587   0.3032   0.3420
     0.3751   0.5697   0.6007   0.8330   0.8611   1.0482   1.3928   1.4121
     1.4276   1.4651   1.5479   1.6123   1.6306   1.6733   1.7062   1.7447
     1.7519   1.7710   1.9297   2.0611   2.2910   2.3082   2.4066   2.4229
     2.4438   2.5013   2.5708   2.5790   2.6353   2.6611   2.6812   2.7058
     2.7223   2.7318   2.7446   2.7755   2.8042   2.8355   2.8735   2.8884
     2.9026   2.9119   2.9275   2.9365   2.9638   2.9708   2.9841   2.9980
     3.0164   3.0231   3.0475   3.0580   3.0781   3.0889   3.1025   3.1388
     3.1494   3.1700   3.2517   3.2603   3.3175   3.3333   3.3524   3.3568
     3.3877   3.4130   3.4386   3.4520   3.4678   3.4797   3.5259   3.5436
     3.5536   3.5713   3.5868   3.5984   3.6261   3.6309   3.6431   3.6465
     3.6729   3.6791   3.7098   3.7242   3.7316   3.7524   3.7711   3.7757
     3.8020   3.8790   3.9029   3.9155   3.9188   3.9334   3.9518   3.9837
     4.0262   4.0298   4.0489   4.0731   4.0761   4.0851   4.0908   4.0987
     4.1097   4.1223   4.1412   4.1533   4.1637   4.1693   4.2054   4.2121
     4.2189   4.2267   4.2441   4.2463   4.2515   4.2582   4.2625   4.2757
     4.2807   4.2893   4.2927   4.2965   4.3011   4.3061   4.3188   4.3274
     4.3456   4.3683   4.3708   4.3849   4.3950   4.4077   4.4135   4.4253
     4.4447   4.4482   4.4560   4.4640   4.4688   4.4777   4.4861   4.5029
     4.5067   4.5142   4.5240   4.5405   4.5417   4.5441   4.5466   4.5650
     4.5741   4.5874   4.5932   4.6020   4.6118   4.6292   4.6335   4.6455
     4.6547   4.6671   4.6801   4.6883   4.7060   4.7129   4.7426   4.7437
     4.7562   4.7583   4.7763   4.7929   4.8050   4.8168   4.8341   4.8434
     4.8466   4.8541   4.8551   4.8586   4.8651   4.8667   4.8699   4.8768
     4.8838   4.8880   4.9010   4.9047   4.9104   4.9209   4.9269   4.9485
     4.9588   4.9641   4.9779   4.9835   4.9894   4.9965   5.0000   5.0053
     5.0143   5.0227   5.0379   5.0571   5.0662   5.0696   5.0751   5.0810
     5.0877

          k =-0.2500 0.2500 0.0000 (135083 PWs)   bands (ev):

   -61.6889 -61.6743 -61.6671 -61.6624 -61.6574 -61.6514 -61.6472 -61.6460
   -61.6421 -61.6377 -61.6343 -61.6332 -61.6319 -61.6294 -61.6253 -61.6206
   -61.6181 -61.6114 -61.6032 -61.5982 -61.5957 -61.5926 -61.5887 -61.5863
   -61.5844 -61.5836 -61.5822 -61.5811 -61.5797 -61.5770 -61.5756 -61.5743
   -61.5721 -61.5701 -61.5688 -61.5680 -61.5673 -61.5641 -61.5616 -61.5567
   -61.5555 -61.5519 -61.5393 -61.5268 -61.5244 -61.5130 -61.5101 -61.5049
   -61.4989 -61.4924 -61.4831 -61.4775 -61.4593 -61.4555 -61.4486 -61.4439
   -61.4376 -61.4314 -61.4209 -61.4136 -61.4089 -61.4002 -61.3853 -61.3784
   -61.3755 -61.3702 -61.3685 -61.3674 -61.3651 -61.3599 -61.3517 -61.3207
   -44.3160 -42.7600 -35.7861 -35.7763 -35.7541 -35.7516 -35.7463 -35.7409
   -35.7309 -35.7259 -35.7200 -35.7180 -35.7170 -35.7161 -35.7141 -35.7026
   -35.6971 -35.6926 -35.6846 -35.6834 -35.6818 -35.6803 -35.6770 -35.6760
   -35.6739 -35.6659 -35.6603 -35.6573 -35.6548 -35.6511 -35.6461 -35.6446
   -35.6434 -35.6407 -35.6390 -35.6373 -35.6368 -35.6356 -35.6334 -35.6317
   -35.6304 -35.6276 -35.6268 -35.6260 -35.6250 -35.6230 -35.6212 -35.6194
   -35.6183 -35.6133 -35.6110 -35.6089 -35.6067 -35.6012 -35.5943 -35.5885
   -35.5778 -35.5720 -35.5694 -35.5652 -35.5637 -35.5590 -35.5566 -35.5545
   -35.5495 -35.5468 -35.5463 -35.5431 -35.5425 -35.5396 -35.5349 -35.5293
   -35.5199 -35.5183 -35.5153 -35.5130 -35.5111 -35.5043 -35.4983 -35.4961
   -35.4925 -35.4877 -35.4835 -35.4817 -35.4803 -35.4777 -35.4765 -35.4746
   -35.4731 -35.4710 -35.4700 -35.4675 -35.4641 -35.4626 -35.4609 -35.4602
   -35.4579 -35.4554 -35.4518 -35.4500 -35.4488 -35.4473 -35.4465 -35.4452
   -35.4441 -35.4433 -35.4412 -35.4401 -35.4381 -35.4362 -35.4350 -35.4312
   -35.4295 -35.4272 -35.4217 -35.4169 -35.4139 -35.4105 -35.4081 -35.4065
   -35.4049 -35.4041 -35.4027 -35.4006 -35.3997 -35.3988 -35.3968 -35.3956
   -35.3933 -35.3922 -35.3893 -35.3872 -35.3853 -35.3821 -35.3799 -35.3763
   -35.3746 -35.3723 -35.3713 -35.3698 -35.3683 -35.3669 -35.3663 -35.3656
   -35.3639 -35.3614 -35.3597 -35.3568 -35.3554 -35.3546 -35.3532 -35.3517
   -35.3497 -35.3490 -35.3486 -35.3472 -35.3432 -35.3411 -35.3383 -35.3369
   -35.3328 -35.3310 -35.3290 -35.3205 -35.3192 -35.3140 -35.3072 -35.3045
   -35.3011 -35.2993 -35.2922 -35.2878 -35.2850 -35.2796 -35.2783 -35.2750
   -35.2698 -35.2678 -35.2652 -35.2534 -35.2501 -35.2479 -35.2453 -35.2409
   -35.2387 -35.2338 -35.2283 -35.2244 -35.2235 -35.2219 -35.2196 -35.2154
   -35.2130 -35.2066 -35.2015 -35.1985 -35.1947 -35.1852 -35.1808 -35.1770
   -35.1729 -35.1703 -35.1685 -35.1649 -35.1624 -35.1579 -35.1504 -35.1447
   -35.1370 -35.1315 -35.1266 -35.1206 -35.1146 -35.1118 -35.1082 -35.0910
   -35.0776 -35.0711 -13.9360 -13.5925 -13.5850 -13.2541 -13.0704 -13.0549
   -13.0466 -12.7760 -12.7655 -12.7542 -12.7392 -12.5916 -12.5796 -12.4920
   -12.4471 -12.4079 -12.3968 -12.3577 -12.3495 -12.3418 -12.3278 -12.3172
   -12.3018 -12.2689 -12.2409 -12.2290 -12.2135 -12.1499 -12.1416 -12.1312
   -12.1272 -12.1178 -12.1056 -12.0471 -12.0151 -12.0117 -11.9924 -11.9891
   -11.9325 -11.8887 -11.8847 -11.8609 -11.7738 -11.6799 -11.6721 -11.6423
   -11.5850 -11.5270 -11.5028 -11.4894 -11.4876 -11.4723 -11.4707 -11.4676
   -11.4588 -11.3740 -11.3645 -11.3175 -11.3051 -11.2891 -11.2856 -11.2468
   -11.2214 -11.2146 -11.1915 -11.1602 -11.1396 -11.1042 -10.9900 -10.9808
   -10.8855 -10.8515  -8.0303  -4.7917  -4.6844  -4.6154  -4.5425  -4.3493
    -4.3366  -4.1876  -4.1678  -4.0749  -4.0674  -4.0027  -3.9786  -3.9522
    -3.8791  -3.8676  -3.8547  -3.7910  -3.6696  -3.6284  -3.6103  -3.5851
    -3.5798  -3.5694  -3.5572  -3.5509  -3.5410  -3.4235  -3.4180  -3.4138
    -3.3897  -3.3676  -3.3560  -3.3518  -3.3276  -3.3040  -3.2971  -3.2882
    -3.1987  -3.1881  -3.1677  -3.0825  -3.0750  -3.0361  -3.0343  -3.0154
    -3.0106  -2.9408  -2.9230  -2.9094  -2.8904  -2.8881  -2.7985  -2.7822
    -2.7299  -2.7164  -2.6351  -2.6237  -2.6166  -2.5987  -2.5445  -2.4813
    -2.4394  -2.4113  -2.3952  -2.3809  -2.3755  -2.3661  -2.3602  -2.3552
    -2.3470  -2.3439  -2.3166  -2.2792  -2.2721  -2.2674  -2.2573  -2.2471
    -2.2407  -2.2350  -2.2143  -2.2109  -2.1965  -2.1670  -2.1290  -2.1195
    -2.1157  -2.0883  -2.0746  -2.0566  -2.0427  -2.0338  -2.0239  -1.9807
    -1.9741  -1.9495  -1.9443  -1.9236  -1.9118  -1.9016  -1.8966  -1.8896
    -1.8794  -1.8622  -1.8508  -1.8400  -1.8281  -1.8163  -1.8129  -1.7977
    -1.7954  -1.7836  -1.7807  -1.7760  -1.7618  -1.7373  -1.7121  -1.7037
    -1.6985  -1.6687  -1.6487  -1.6386  -1.6346  -1.6209  -1.6052  -1.5867
    -1.5694  -1.5385  -1.5026  -1.4830  -1.4762  -1.4577  -1.4524  -1.4415
    -1.4302  -1.4149  -1.4099  -1.3987  -1.3891  -1.3750  -1.3576  -1.3515
    -1.3314  -1.3099  -1.2967  -1.2925  -1.2867  -1.2715  -1.2581  -1.2398
    -1.2316  -1.2212  -1.2082  -1.2015  -1.1816  -1.1447  -1.1189  -1.0993
    -1.0853  -1.0796  -1.0695  -1.0510  -1.0269  -1.0200  -1.0102  -0.9888
    -0.9768  -0.9469  -0.9227  -0.9203  -0.9030  -0.8966  -0.8881  -0.8736
    -0.8525  -0.8361  -0.8299  -0.8162  -0.7947  -0.7855  -0.7768  -0.7477
    -0.7245  -0.7086  -0.6958  -0.6757  -0.6606  -0.5865  -0.5618  -0.5380
    -0.5237  -0.5130  -0.4952  -0.4776  -0.4657  -0.4432  -0.4287  -0.4080
    -0.3919  -0.3381  -0.3064  -0.2941  -0.2650  -0.2313  -0.1943  -0.1404
    -0.0790  -0.0598  -0.0024   0.0348   0.1221   0.1525   0.2393   0.2588
     0.5753   0.7133   0.9170   0.9852   1.0265   1.0676   1.1373   1.1470
     1.1850   1.3936   1.4047   1.4523   1.6486   1.8458   1.9474   1.9868
     2.0024   2.0339   2.0570   2.1306   2.1825   2.2068   2.2816   2.2876
     2.3101   2.3561   2.3941   2.4189   2.4959   2.4984   2.6010   2.6505
     2.6693   2.6910   2.7228   2.7593   2.7819   2.8010   2.8211   2.8311
     2.8936   2.9170   2.9460   2.9758   2.9923   3.0415   3.0844   3.0984
     3.1135   3.1208   3.1415   3.1621   3.1873   3.2067   3.2113   3.2267
     3.2343   3.2507   3.2652   3.2834   3.2953   3.3230   3.3466   3.3818
     3.4015   3.4089   3.4294   3.4633   3.4864   3.5016   3.5097   3.5266
     3.5406   3.5566   3.5738   3.5788   3.5900   3.6037   3.6291   3.6436
     3.7101   3.7186   3.7437   3.7574   3.7721   3.7836   3.7870   3.8037
     3.8155   3.8492   3.8557   3.8886   3.9119   3.9168   3.9210   3.9307
     3.9404   3.9496   3.9797   4.0066   4.0178   4.0265   4.0415   4.0550
     4.0773   4.1047   4.1179   4.1284   4.1406   4.1568   4.1747   4.2004
     4.2100   4.2288   4.2420   4.2473   4.2561   4.2632   4.2749   4.2829
     4.2900   4.2978   4.3123   4.3280   4.3380   4.3558   4.3605   4.3728
     4.3789   4.3827   4.3909   4.3952   4.4072   4.4184   4.4198   4.4338
     4.4393   4.4458   4.4486   4.4606   4.4660   4.4711   4.4751   4.4835
     4.4922   4.4966   4.5050   4.5189   4.5372   4.5418   4.5477   4.5620
     4.5742   4.5767   4.5841   4.5963   4.6051   4.6153   4.6228   4.6464
     4.6532   4.6604   4.6680   4.6799   4.6902   4.7038   4.7086   4.7247
     4.7369   4.7449   4.7606   4.7799   4.7869   4.8174   4.8271   4.8419
     4.8483   4.8601   4.8697   4.8730   4.8763   4.8854   4.8913   4.8969
     4.9099   4.9156   4.9215   4.9267   4.9388   4.9490   4.9540   4.9603
     4.9696   4.9741   4.9829   4.9915   5.0037   5.0240   5.0273   5.0294
     5.0355   5.0383   5.0466   5.0523   5.0572   5.0670   5.0789   5.0843
     5.0985

          k =-0.5000 0.2500 0.0000 (135080 PWs)   bands (ev):

   -61.6889 -61.6717 -61.6702 -61.6615 -61.6611 -61.6492 -61.6474 -61.6412
   -61.6405 -61.6381 -61.6362 -61.6352 -61.6324 -61.6314 -61.6256 -61.6200
   -61.6163 -61.6120 -61.6031 -61.5981 -61.5962 -61.5928 -61.5890 -61.5853
   -61.5838 -61.5833 -61.5821 -61.5810 -61.5791 -61.5778 -61.5760 -61.5757
   -61.5732 -61.5708 -61.5684 -61.5670 -61.5666 -61.5642 -61.5592 -61.5586
   -61.5556 -61.5521 -61.5394 -61.5273 -61.5237 -61.5119 -61.5101 -61.5063
   -61.4985 -61.4924 -61.4832 -61.4774 -61.4593 -61.4555 -61.4487 -61.4439
   -61.4376 -61.4313 -61.4209 -61.4136 -61.4089 -61.4002 -61.3853 -61.3785
   -61.3755 -61.3697 -61.3690 -61.3671 -61.3653 -61.3598 -61.3518 -61.3207
   -44.3160 -42.7600 -35.7890 -35.7855 -35.7436 -35.7420 -35.7392 -35.7384
   -35.7351 -35.7325 -35.7254 -35.7222 -35.7203 -35.7178 -35.7025 -35.7001
   -35.6985 -35.6942 -35.6827 -35.6805 -35.6785 -35.6734 -35.6705 -35.6698
   -35.6685 -35.6658 -35.6631 -35.6623 -35.6587 -35.6548 -35.6540 -35.6520
   -35.6490 -35.6459 -35.6420 -35.6408 -35.6388 -35.6370 -35.6347 -35.6338
   -35.6313 -35.6296 -35.6284 -35.6250 -35.6236 -35.6219 -35.6195 -35.6166
   -35.6134 -35.6116 -35.6097 -35.6068 -35.6043 -35.6019 -35.5968 -35.5870
   -35.5849 -35.5787 -35.5747 -35.5685 -35.5640 -35.5599 -35.5561 -35.5492
   -35.5475 -35.5442 -35.5399 -35.5383 -35.5355 -35.5319 -35.5307 -35.5295
   -35.5265 -35.5207 -35.5168 -35.5080 -35.5073 -35.5021 -35.4988 -35.4932
   -35.4890 -35.4878 -35.4862 -35.4826 -35.4816 -35.4783 -35.4751 -35.4737
   -35.4725 -35.4691 -35.4681 -35.4661 -35.4643 -35.4635 -35.4627 -35.4621
   -35.4605 -35.4585 -35.4567 -35.4548 -35.4530 -35.4509 -35.4494 -35.4483
   -35.4457 -35.4427 -35.4401 -35.4374 -35.4359 -35.4333 -35.4308 -35.4295
   -35.4278 -35.4252 -35.4242 -35.4228 -35.4200 -35.4157 -35.4122 -35.4087
   -35.4080 -35.4056 -35.4034 -35.4021 -35.4003 -35.3963 -35.3938 -35.3921
   -35.3884 -35.3870 -35.3861 -35.3845 -35.3827 -35.3805 -35.3778 -35.3773
   -35.3756 -35.3743 -35.3727 -35.3707 -35.3690 -35.3664 -35.3647 -35.3632
   -35.3622 -35.3607 -35.3591 -35.3578 -35.3561 -35.3553 -35.3534 -35.3510
   -35.3490 -35.3471 -35.3462 -35.3442 -35.3426 -35.3388 -35.3375 -35.3365
   -35.3338 -35.3334 -35.3269 -35.3249 -35.3204 -35.3146 -35.3118 -35.3068
   -35.3016 -35.2983 -35.2958 -35.2889 -35.2845 -35.2816 -35.2770 -35.2746
   -35.2687 -35.2654 -35.2605 -35.2531 -35.2517 -35.2494 -35.2451 -35.2437
   -35.2354 -35.2330 -35.2280 -35.2270 -35.2248 -35.2210 -35.2193 -35.2144
   -35.2112 -35.2074 -35.2039 -35.1987 -35.1923 -35.1873 -35.1824 -35.1778
   -35.1737 -35.1708 -35.1686 -35.1636 -35.1599 -35.1584 -35.1479 -35.1452
   -35.1381 -35.1317 -35.1259 -35.1212 -35.1140 -35.1113 -35.1083 -35.0913
   -35.0778 -35.0713 -13.8040 -13.7952 -13.4614 -13.4529 -12.9563 -12.9471
   -12.9332 -12.9251 -12.8426 -12.7335 -12.6607 -12.6539 -12.5599 -12.4868
   -12.4760 -12.4505 -12.4173 -12.4050 -12.3322 -12.3192 -12.3071 -12.3000
   -12.2529 -12.2479 -12.2160 -12.1949 -12.1901 -12.1777 -12.1681 -12.1644
   -12.1567 -12.0784 -12.0736 -12.0621 -12.0392 -12.0223 -12.0148 -11.9959
   -11.9174 -11.9154 -11.8938 -11.8664 -11.7919 -11.7611 -11.5918 -11.5885
   -11.5493 -11.5457 -11.5408 -11.5405 -11.4718 -11.4363 -11.4341 -11.4332
   -11.4030 -11.4001 -11.3699 -11.3601 -11.3507 -11.3406 -11.2781 -11.2511
   -11.2289 -11.2001 -11.1435 -11.1398 -11.1263 -11.1065 -11.0157 -10.9990
   -10.8764 -10.8299  -8.0304  -4.8554  -4.7788  -4.6568  -4.6458  -4.3336
    -4.2535  -4.1586  -4.1332  -4.0517  -4.0414  -3.8832  -3.8779  -3.8559
    -3.8204  -3.7928  -3.7823  -3.7787  -3.7147  -3.7035  -3.6811  -3.6458
    -3.6369  -3.5908  -3.5860  -3.5787  -3.5607  -3.5519  -3.5214  -3.4293
    -3.4233  -3.3389  -3.3322  -3.3151  -3.3085  -3.2896  -3.2664  -3.2309
    -3.2215  -3.1434  -3.0967  -3.0942  -3.0922  -3.0688  -3.0352  -3.0255
    -3.0206  -2.9627  -2.9518  -2.9328  -2.8943  -2.7914  -2.7851  -2.7771
    -2.7618  -2.7388  -2.7284  -2.6638  -2.6460  -2.6318  -2.5600  -2.5319
    -2.5048  -2.4672  -2.4556  -2.4246  -2.3951  -2.3651  -2.3477  -2.3309
    -2.3198  -2.3033  -2.2823  -2.2735  -2.2685  -2.2523  -2.2450  -2.2406
    -2.2254  -2.2011  -2.1750  -2.1617  -2.1591  -2.1519  -2.1318  -2.1233
    -2.1159  -2.1113  -2.1010  -2.0822  -2.0583  -2.0432  -2.0351  -2.0246
    -2.0145  -1.9955  -1.9767  -1.9713  -1.9601  -1.9497  -1.9413  -1.9290
    -1.9091  -1.8943  -1.8734  -1.8708  -1.8638  -1.8500  -1.8396  -1.8339
    -1.8239  -1.8109  -1.7899  -1.7882  -1.7774  -1.7132  -1.6935  -1.6793
    -1.6729  -1.6604  -1.6463  -1.5735  -1.5377  -1.5295  -1.5189  -1.4960
    -1.4852  -1.4560  -1.4440  -1.4398  -1.4353  -1.4270  -1.4135  -1.4100
    -1.3865  -1.3701  -1.3598  -1.3374  -1.3267  -1.3244  -1.3093  -1.3010
    -1.2929  -1.2770  -1.2738  -1.2627  -1.2498  -1.2332  -1.2164  -1.2073
    -1.1946  -1.1802  -1.1685  -1.1579  -1.1429  -1.1317  -1.1215  -1.1084
    -1.0966  -1.0911  -1.0779  -1.0640  -1.0562  -1.0342  -1.0256  -1.0059
    -0.9903  -0.9859  -0.9348  -0.9111  -0.8939  -0.8665  -0.8590  -0.8546
    -0.8362  -0.8271  -0.8126  -0.8025  -0.7859  -0.7623  -0.7365  -0.7112
    -0.7002  -0.6831  -0.6451  -0.6324  -0.6278  -0.6138  -0.5733  -0.5540
    -0.5395  -0.5307  -0.5035  -0.4980  -0.4836  -0.4628  -0.4549  -0.4218
    -0.4187  -0.4030  -0.3485  -0.3085  -0.2639  -0.2535  -0.2086  -0.1242
    -0.1183  -0.0899  -0.0618   0.0433   0.0650   0.1140   0.1428   0.2852
     0.3039   0.4936   0.5070   1.0063   1.0742   1.1389   1.4115   1.4359
     1.4772   1.5341   1.5967   1.6109   1.6236   1.7127   1.7624   1.7972
     1.8179   1.8310   1.9528   2.0569   2.1428   2.1825   2.2083   2.2394
     2.2766   2.2985   2.3652   2.3798   2.4370   2.4803   2.5045   2.5618
     2.6473   2.6540   2.6778   2.7032   2.7199   2.7629   2.8097   2.8355
     2.8912   2.9079   2.9234   2.9393   2.9476   2.9649   2.9775   2.9994
     3.0093   3.0142   3.0785   3.0946   3.1227   3.1426   3.1707   3.2068
     3.2337   3.2449   3.2519   3.2838   3.3252   3.3402   3.3664   3.3760
     3.3891   3.4329   3.4431   3.4521   3.4660   3.4935   3.5282   3.5942
     3.6091   3.6189   3.6285   3.6390   3.6724   3.6836   3.7020   3.7187
     3.7271   3.7314   3.7597   3.7883   3.8045   3.8217   3.8344   3.8593
     3.8704   3.8871   3.8980   3.9167   3.9344   3.9558   4.0039   4.0096
     4.0210   4.0289   4.0382   4.0529   4.0698   4.0858   4.1025   4.1229
     4.1374   4.1480   4.1660   4.1726   4.1786   4.1949   4.2033   4.2124
     4.2208   4.2329   4.2419   4.2477   4.2582   4.2611   4.2701   4.2736
     4.2793   4.2842   4.2905   4.2980   4.3062   4.3125   4.3239   4.3274
     4.3403   4.3547   4.3658   4.3796   4.3876   4.3922   4.4024   4.4094
     4.4151   4.4178   4.4213   4.4271   4.4482   4.4596   4.4645   4.4704
     4.4806   4.4869   4.5021   4.5072   4.5388   4.5547   4.5677   4.5838
     4.6053   4.6117   4.6245   4.6418   4.6494   4.6630   4.6701   4.6773
     4.6884   4.6947   4.7033   4.7163   4.7313   4.7421   4.7505   4.7628
     4.7750   4.7847   4.8034   4.8126   4.8147   4.8235   4.8327   4.8396
     4.8512   4.8566   4.8647   4.8745   4.8851   4.8953   4.9022   4.9137
     4.9213   4.9226   4.9287   4.9361   4.9437   4.9462   4.9534   4.9603
     4.9622   4.9706   4.9761   4.9773   4.9872   4.9899   4.9988   5.0049
     5.0206   5.0274   5.0384   5.0501   5.0569   5.0646   5.0716   5.0822
     5.0879

     the Fermi energy is     3.6504 ev

!    total energy              =  -11961.41097655 Ry
     estimated scf accuracy    <       0.00000002 Ry
     smearing contrib. (-TS)   =      -0.04508187 Ry
     internal energy E=F+TS    =  -11961.36589468 Ry

     The total energy is F=E-TS. E is the sum of the following terms:
     one-electron contribution = -159223.54140733 Ry
     hartree contribution      =   79713.46150668 Ry
     xc contribution           =   -1819.87892383 Ry
     ewald contribution        =   69372.10433170 Ry
     DFT-D3 Dispersion         =      -3.51140189 Ry

     convergence has been achieved in  28 iterations

     negative rho (up, down):  7.606E-02 0.000E+00

     Forces acting on atoms (cartesian axes, Ry/au):

     atom    1 type  1   force =     0.00140668    0.00185419    0.09161343
     atom    2 type  1   force =    -0.00159947    0.00575877   -0.02241525
     atom    3 type  1   force =     0.00562763   -0.00266592   -0.02206508
     atom    4 type  1   force =    -0.00114704   -0.00139848    0.09479105
     atom    5 type  1   force =     0.00014473    0.00031251    0.00049878
     atom    6 type  1   force =    -0.00006134   -0.00034947    0.00029521
     atom    7 type  1   force =     0.00030364    0.00029861    0.00040538
     atom    8 type  1   force =     0.00001007   -0.00011762   -0.00076411
     atom    9 type  1   force =     0.00104656   -0.00007498    0.09283785
     atom   10 type  1   force =    -0.00478482    0.00160194   -0.01979901
     atom   11 type  1   force =     0.00323479   -0.00142238   -0.01730654
     atom   12 type  1   force =    -0.00062581   -0.00124627    0.09437248
     atom   13 type  1   force =    -0.00009271   -0.00011907    0.00016861
     atom   14 type  1   force =    -0.00093097    0.00027220   -0.00006475
     atom   15 type  1   force =     0.00032276   -0.00029298   -0.00000187
     atom   16 type  1   force =    -0.00018993   -0.00010238   -0.00060352
     atom   17 type  1   force =     0.00014679    0.00134824    0.09525028
     atom   18 type  1   force =    -0.00584392    0.00277942   -0.02088241
     atom   19 type  1   force =     0.00408389   -0.00468524   -0.01564314
     atom   20 type  1   force =    -0.00126414   -0.00003253    0.09367480
     atom   21 type  1   force =    -0.00002514    0.00017363   -0.00036213
     atom   22 type  1   force =     0.00040753    0.00012265   -0.00023131
     atom   23 type  1   force =    -0.00006419   -0.00047639   -0.00002388
     atom   24 type  1   force =    -0.00012061   -0.00045988   -0.00032123
     atom   25 type  1   force =     0.00036578    0.00170335    0.09139468
     atom   26 type  1   force =    -0.00323818    0.00215598   -0.02233357
     atom   27 type  1   force =     0.00068433   -0.00193104   -0.01799066
     atom   28 type  1   force =    -0.00097966   -0.00090222    0.09318644
     atom   29 type  1   force =     0.00007041   -0.00008963    0.00019089
     atom   30 type  1   force =    -0.00011013   -0.00056404   -0.00003228
     atom   31 type  1   force =    -0.00059922   -0.00079126    0.00008097
     atom   32 type  1   force =     0.00012151    0.00007499   -0.00009753
     atom   33 type  1   force =     0.00045121   -0.00069401    0.09481003
     atom   34 type  1   force =    -0.00106457    0.00505128   -0.01712020
     atom   35 type  1   force =     0.00533856   -0.00103210   -0.00032071
     atom   36 type  1   force =    -0.00064202   -0.00050515    0.09544727
     atom   37 type  1   force =    -0.00011144    0.00039519   -0.00048728
     atom   38 type  1   force =     0.00035159    0.00067014   -0.00011032
     atom   39 type  1   force =     0.00029989   -0.00047132   -0.00091264
     atom   40 type  1   force =    -0.00000982   -0.00004396    0.00007061
     atom   41 type  1   force =     0.00154780    0.00141528    0.09541633
     atom   42 type  1   force =    -0.00312780    0.00094126   -0.02108623
     atom   43 type  1   force =     0.00295347   -0.00445727   -0.01449606
     atom   44 type  1   force =    -0.00040412   -0.00066352    0.09329983
     atom   45 type  1   force =     0.00010925    0.00036766   -0.00007008
     atom   46 type  1   force =    -0.00066113    0.00009546    0.00010853
     atom   47 type  1   force =    -0.00022529   -0.00006973   -0.00005624
     atom   48 type  1   force =    -0.00018979   -0.00012275   -0.00022404
     atom   49 type  1   force =     0.00084148    0.00038502    0.09592861
     atom   50 type  1   force =    -0.00421725    0.00340957   -0.01672561
     atom   51 type  1   force =     0.00279609   -0.00430624   -0.01956139
     atom   52 type  1   force =    -0.00039650   -0.00065878    0.09316195
     atom   53 type  1   force =     0.00030950   -0.00012081   -0.00012940
     atom   54 type  1   force =     0.00010911    0.00000539    0.00014483
     atom   55 type  1   force =    -0.00011685   -0.00010798   -0.00007049
     atom   56 type  1   force =    -0.00004586    0.00005420   -0.00004753
     atom   57 type  1   force =     0.00153068    0.00154359    0.09234789
     atom   58 type  1   force =    -0.00271022    0.00437639   -0.01898732
     atom   59 type  1   force =    -0.00101005   -0.00262164   -0.01866522
     atom   60 type  1   force =    -0.00011817   -0.00100522    0.09256850
     atom   61 type  1   force =     0.00044300   -0.00019481   -0.00057043
     atom   62 type  1   force =     0.00075206    0.00014207   -0.00007942
     atom   63 type  1   force =    -0.00003564   -0.00023170    0.00008208
     atom   64 type  1   force =     0.00002228   -0.00002492   -0.00001348
     atom   65 type  1   force =     0.00146969    0.00074651    0.09188337
     atom   66 type  1   force =    -0.00270674    0.00313989   -0.01979332
     atom   67 type  1   force =     0.00396276   -0.00250251   -0.01938385
     atom   68 type  1   force =    -0.00148392   -0.00138856    0.09262777
     atom   69 type  1   force =    -0.00005738    0.00014646    0.00029663
     atom   70 type  1   force =     0.00006281   -0.00007444   -0.00005711
     atom   71 type  1   force =     0.00045093    0.00035627   -0.00014120
     atom   72 type  1   force =     0.00011183    0.00006607   -0.00000591
     atom   73 type  2   force =    -0.00039558    0.00026079   -0.05346373
     atom   74 type  2   force =     0.00030100   -0.00038936   -0.05377282
     atom   75 type  2   force =     0.00103419    0.00118694   -0.01880588
     atom   76 type  2   force =    -0.00022211   -0.00122399   -0.02054743
     atom   77 type  2   force =    -0.00024726    0.00014251    0.00044998
     atom   78 type  2   force =    -0.00003982   -0.00048719    0.00033258
     atom   79 type  2   force =     0.00034610    0.00020694    0.00049871
     atom   80 type  2   force =     0.00020981    0.00019752    0.00146310
     atom   81 type  2   force =     0.00024359    0.00032123   -0.05336967
     atom   82 type  2   force =     0.00043637   -0.00015760   -0.05407741
     atom   83 type  2   force =     0.00059826    0.00021274   -0.02132687
     atom   84 type  2   force =     0.00059605    0.00037300   -0.02215187
     atom   85 type  2   force =    -0.00014903   -0.00023578    0.00010480
     atom   86 type  2   force =     0.00010061   -0.00022081   -0.00051552
     atom   87 type  2   force =     0.00043098   -0.00001755    0.00016294
     atom   88 type  2   force =    -0.00061005    0.00055275   -0.00074187
     atom   89 type  2   force =    -0.00048058    0.00052655   -0.05328611
     atom   90 type  2   force =     0.00127952   -0.00091050   -0.05365471
     atom   91 type  2   force =    -0.00004063    0.00009468   -0.02625310
     atom   92 type  2   force =    -0.00034824   -0.00090171   -0.01937214
     atom   93 type  2   force =     0.00001407    0.00039444    0.00000725
     atom   94 type  2   force =     0.00003282   -0.00024863   -0.00037862
     atom   95 type  2   force =     0.00000613   -0.00039475   -0.00021096
     atom   96 type  2   force =     0.00020412   -0.00038826    0.00062476
     atom   97 type  2   force =    -0.00046177    0.00028957   -0.05411766
     atom   98 type  2   force =     0.00039989   -0.00038589   -0.05375882
     atom   99 type  2   force =     0.00002841    0.00051403   -0.01981965
     atom  100 type  2   force =    -0.00043086   -0.00166202   -0.01667427
     atom  101 type  2   force =    -0.00008426    0.00015697   -0.00010668
     atom  102 type  2   force =    -0.00005829   -0.00018707    0.00008065
     atom  103 type  2   force =    -0.00022978    0.00046367    0.00039334
     atom  104 type  2   force =     0.00024901   -0.00019095    0.00032406
     atom  105 type  2   force =    -0.00086306    0.00047674   -0.05815873
     atom  106 type  2   force =     0.00023053   -0.00021008   -0.05465941
     atom  107 type  2   force =    -0.00032412    0.00223746   -0.02768932
     atom  108 type  2   force =    -0.00224084   -0.00014552   -0.02176404
     atom  109 type  2   force =    -0.00003911   -0.00024889   -0.00031845
     atom  110 type  2   force =    -0.00022332   -0.00010504   -0.00020817
     atom  111 type  2   force =     0.00042676    0.00048617    0.00055593
     atom  112 type  2   force =    -0.00042285   -0.00005906    0.00020233
     atom  113 type  2   force =    -0.00034796    0.00022803   -0.05272242
     atom  114 type  2   force =     0.00036555   -0.00058379   -0.05419536
     atom  115 type  2   force =     0.00010419   -0.00216671   -0.03076501
     atom  116 type  2   force =    -0.00089764    0.00035016   -0.01732776
     atom  117 type  2   force =    -0.00012509    0.00024278   -0.00008194
     atom  118 type  2   force =     0.00006305   -0.00003334    0.00005278
     atom  119 type  2   force =     0.00020845   -0.00030487   -0.00030973
     atom  120 type  2   force =    -0.00025379   -0.00014228   -0.00017179
     atom  121 type  2   force =    -0.00040972    0.00108232   -0.05325466
     atom  122 type  2   force =     0.00061419   -0.00042156   -0.05305802
     atom  123 type  2   force =     0.00056340    0.00004886   -0.02815049
     atom  124 type  2   force =    -0.00144049   -0.00076183   -0.02161196
     atom  125 type  2   force =     0.00000237   -0.00015867   -0.00004921
     atom  126 type  2   force =     0.00041476    0.00012570    0.00011868
     atom  127 type  2   force =    -0.00011528    0.00001054   -0.00007421
     atom  128 type  2   force =    -0.00045619    0.00015261    0.00022777
     atom  129 type  2   force =    -0.00062205    0.00050010   -0.05305594
     atom  130 type  2   force =     0.00019735   -0.00083910   -0.05321018
     atom  131 type  2   force =     0.00146632    0.00102404   -0.02121703
     atom  132 type  2   force =     0.00040906   -0.00050086   -0.01834557
     atom  133 type  2   force =     0.00002571   -0.00005247    0.00010706
     atom  134 type  2   force =     0.00037647    0.00001893   -0.00022096
     atom  135 type  2   force =    -0.00017691    0.00013400   -0.00047890
     atom  136 type  2   force =    -0.00018147   -0.00003331    0.00043606
     atom  137 type  2   force =    -0.00063459   -0.00027499   -0.05327825
     atom  138 type  2   force =    -0.00017829   -0.00021107   -0.05334814
     atom  139 type  2   force =     0.00200011    0.00102821   -0.01823705
     atom  140 type  2   force =    -0.00115251   -0.00088207   -0.02327467
     atom  141 type  2   force =     0.00005189    0.00017871   -0.00011240
     atom  142 type  2   force =     0.00002912    0.00001941   -0.00002682
     atom  143 type  2   force =    -0.00031966   -0.00002359   -0.00022962
     atom  144 type  2   force =     0.00021761   -0.00002844   -0.00008517
     atom  145 type  3   force =    -0.00034641   -0.00132108    0.00253662
     atom  146 type  4   force =    -0.00035187   -0.00024495   -0.00017978
     atom  147 type  4   force =     0.00076432    0.00077158    0.00069628

     Total force =     0.005533     Total SCF correction =     0.000564
     SCF correction compared to forces is large: reduce conv_thr to get better values
     Energy error            =      6.2E-05 Ry
     Gradient error          =      2.5E-03 Ry/Bohr

     number of scf cycles    =  25
     number of bfgs steps    =  24

     energy             old  =  -11961.4109146751 Ry
     energy             new  =  -11961.4109765464 Ry

     CASE: energy            _new < energy            _old

     new trust radius        =       0.0168678601 bohr
     new conv_thr            =       0.0000000200 Ry


ATOMIC_POSITIONS (angstrom)
V                0.0000000000        0.0000000000       10.0000000000    0   0   0
V                2.0432625400        0.0000000000       12.0432625400    0   0   0
V                0.0000000000        2.0432625400       12.0432625400    0   0   0
V                2.0432625400        2.0432625400       10.0000000000    0   0   0
V                0.0766176721        0.0773104476       14.1593930602
V                2.0193691433       -0.1015429139       16.0100473061
V               -0.1121679228        2.0296359142       16.0049678231
V                1.9835474278        1.9823314889       14.1935443490
V                0.0000000000        4.0865250700       10.0000000000    0   0   0
V                2.0432625400        4.0865250700       12.0432625400    0   0   0
V                0.0000000000        6.1297876100       12.0432625400    0   0   0
V                2.0432625400        6.1297876100       10.0000000000    0   0   0
V                0.0630852075        4.1333695861       14.1525790194
V                2.0364870915        4.1718432847       15.9887376234
V                0.0069203386        6.0858200189       16.0019016266
V                2.0479068712        6.0719981403       14.1687238608
V                0.0000000000        8.1730501500       10.0000000000    0   0   0
V                2.0432625400        8.1730501500       12.0432625400    0   0   0
V                0.0000000000       10.2163126900       12.0432625400    0   0   0
V                2.0432625400       10.2163126900       10.0000000000    0   0   0
V                0.0810451830        8.2516182925       14.1433131503
V                2.0455857360        8.2405127531       16.0093978953
V               -0.0234084360       10.2710251927       16.0003379792
V                1.9618998765       10.1344011252       14.1495206028
V                4.0865250700        0.0000000000       10.0000000000    0   0   0
V                6.1297876100        0.0000000000       12.0432625400    0   0   0
V                4.0865250700        2.0432625400       12.0432625400    0   0   0
V                6.1297876100        2.0432625400       10.0000000000    0   0   0
V                4.1295866307        0.0505203150       14.1684373046
V                6.1103613778        0.0047199202       16.0086449171
V                4.2025920918        2.0345894196       15.9907803447
V                6.0759801552        1.9820234533       14.1530576930
V                4.0865250700        4.0865250700       10.0000000000    0   0   0
V                6.1297876100        4.0865250700       12.0432625400    0   0   0
V                4.0865250700        6.1297876100       12.0432625400    0   0   0
V                6.1297876100        6.1297876100       10.0000000000    0   0   0
V                4.1321704953        4.1823827525       14.1417812217
V                6.1285501715        3.9898785601       15.9903592522
V                3.9203324776        6.0570583389       16.3994244657
V                6.0207363551        6.0825370250       14.2056256956
V                4.0865250700        8.1730501500       10.0000000000    0   0   0
V                6.1297876100        8.1730501500       12.0432625400    0   0   0
V                4.0865250700       10.2163126900       12.0432625400    0   0   0
V                6.1297876100       10.2163126900       10.0000000000    0   0   0
V                4.1667518684        8.1839129273       14.1512274161
V                6.1375481960        8.2825485154       15.9943727525
V                4.1180346573       10.2630790596       16.0055998616
V                6.0563209130       10.1606585293       14.1585728467
V                8.1730501500        0.0000000000       10.0000000000    0   0   0
V               10.2163126900        0.0000000000       12.0432625400    0   0   0
V                8.1730501500        2.0432625400       12.0432625400    0   0   0
V               10.2163126900        2.0432625400       10.0000000000    0   0   0
V                8.2447458830        0.0700912448       14.1350824761
V               10.2568348559       -0.0100643600       15.9992185553
V                8.1716237853        2.0882847616       16.0050909313
V               10.1449485025        1.9694123322       14.1437202665
V                8.1730501500        4.0865250700       10.0000000000    0   0   0
V               10.2163126900        4.0865250700       12.0432625400    0   0   0
V                8.1730501500        6.1297876100       12.0432625400    0   0   0
V               10.2163126900        6.1297876100       10.0000000000    0   0   0
V                8.2365977469        4.1696070340       14.1573338338
V               10.2092968553        4.0997745978       16.0032176695
V                8.2930543223        6.1459259765       16.0016634642
V               10.1472452436        6.0660360509       14.1574966290
V                8.1730501500        8.1730501500       10.0000000000    0   0   0
V               10.2163126900        8.1730501500       12.0432625400    0   0   0
V                8.1730501500       10.2163126900       12.0432625400    0   0   0
V               10.2163126900       10.2163126900       10.0000000000    0   0   0
V                8.2388145459        8.2207008527       14.1688841348
V               10.1813885686        8.1900314318       16.0041528045
V                8.1736172395       10.1609971897       16.0036003316
V               10.1499464491       10.1491746574       14.1454249233
N                0.0000000000        2.0432625400       10.0000000000    0   0   0
N                2.0432625400        0.0000000000       10.0000000000    0   0   0
N                0.0000000000        0.0000000000       12.0432625400    0   0   0
N                2.0432625400        2.0432625400       12.0432625400    0   0   0
N               -0.0509400469        2.0878026751       14.1082710856
N                2.0877089703       -0.0547149401       14.1118477235
N                0.0090717924        0.0206421732       16.3132996414
N                2.0401344758        2.0394267753       16.2532939518
N                0.0000000000        6.1297876100       10.0000000000    0   0   0
N                2.0432625400        4.0865250700       10.0000000000    0   0   0
N                0.0000000000        4.0865250700       12.0432625400    0   0   0
N                2.0432625400        6.1297876100       12.0432625400    0   0   0
N               -0.0284480642        6.1695903347       14.1075046264
N                2.0853797572        4.0342736181       14.0980729259
N                0.0024150748        4.0545822076       16.2887617816
N                1.9780074082        6.1747713642       16.2589780320
N                0.0000000000       10.2163126900       10.0000000000    0   0   0
N                2.0432625400        8.1730501500       10.0000000000    0   0   0
N                0.0000000000        8.1730501500       12.0432625400    0   0   0
N                2.0432625400       10.2163126900       12.0432625400    0   0   0
N               -0.0600727783       10.2769095117       14.1032473478
N                2.1032837653        8.1228663811       14.1062095829
N               -0.0108676656        8.1981715253       16.2242366295
N                2.0465027739       10.2048701627       16.2858775726
N                4.0865250700        2.0432625400       10.0000000000    0   0   0
N                6.1297876100        0.0000000000       10.0000000000    0   0   0
N                4.0865250700        0.0000000000       12.0432625400    0   0   0
N                6.1297876100        2.0432625400       12.0432625400    0   0   0
N                4.0440062389        2.0809344586       14.0998553915
N                6.1712042033       -0.0432233081       14.1083037807
N                4.0617341048        0.0254714625       16.3069418612
N                6.1717911256        2.0103210186       16.3158980740
N                4.0865250700        6.1297876100       10.0000000000    0   0   0
N                6.1297876100        4.0865250700       10.0000000000    0   0   0
N                4.0865250700        4.0865250700       12.0432625400    0   0   0
N                6.1297876100        6.1297876100       12.0432625400    0   0   0
N                4.0495363098        6.1718654474       14.1621010106
N                6.1707257520        4.0527561003       14.1003344428
N                4.0837407224        4.0522237466       16.2108046228
N                6.1464232653        6.1191132679       16.2117594581
N                4.0865250700       10.2163126900       10.0000000000    0   0   0
N                6.1297876100        8.1730501500       10.0000000000    0   0   0
N                4.0865250700        8.1730501500       12.0432625400    0   0   0
N                6.1297876100       10.2163126900       12.0432625400    0   0   0
N                4.0315049670       10.2480948661       14.1088605401
N                6.1909018035        8.1311578941       14.1005654230
N                4.1086619258        8.1931172742       16.1941063832
N                6.1399506907       10.2611513237       16.2988660736
N                8.1730501500        2.0432625400       10.0000000000    0   0   0
N               10.2163126900        0.0000000000       10.0000000000    0   0   0
N                8.1730501500        0.0000000000       12.0432625400    0   0   0
N               10.2163126900        2.0432625400       12.0432625400    0   0   0
N                8.1244716844        2.1030670399       14.1064263389
N               10.2705385903       -0.0560089745       14.1032308222
N                8.1896608482       -0.0017019788       16.2118913532
N               10.1770254116        2.0457672701       16.2811533062
N                8.1730501500        6.1297876100       10.0000000000    0   0   0
N               10.2163126900        4.0865250700       10.0000000000    0   0   0
N                8.1730501500        4.0865250700       12.0432625400    0   0   0
N               10.2163126900        6.1297876100       12.0432625400    0   0   0
N                8.1177936111        6.1804611822       14.1043812046
N               10.2623379397        4.0360968118       14.1053500918
N                8.1727596615        4.1252116453       16.2934071094
N               10.2680887513        6.1386516180       16.2929095741
N                8.1730501500       10.2163126900       10.0000000000    0   0   0
N               10.2163126900        8.1730501500       10.0000000000    0   0   0
N                8.1730501500        8.1730501500       12.0432625400    0   0   0
N               10.2163126900       10.2163126900       12.0432625400    0   0   0
N                8.1218732650       10.2589492217       14.1070255158
N               10.2733638514        8.1224759501       14.1061935244
N                8.1596026020        8.1488209790       16.3233083960
N               10.2065612004       10.2177405633       16.2712027661
S                3.9234990251        6.0222225903       18.6135269469
Li               6.1052295281        6.1289758755       18.1386773380
Li               2.1201156274        2.1719800264       18.1082603553



     Writing config-only to output data dir ./tmp/VN_LiS_combi2_144.save/ :
     XML data file
     NEW-OLD atomic charge density approx. for the potential

     Check: negative core charge=   -0.000004

     negative rho (up, down):  7.626E-02 0.000E+00

     total cpu time spent up to now is    19341.3 secs

     per-process dynamical memory:   944.8 Mb

     Self-consistent Calculation

     iteration #  1     ecut=    45.00 Ry     beta= 0.20
     Davidson diagonalization with overlap
     ethr =  1.00E-06,  avg # of iterations =  5.0

     Threshold (ethr) on eigenvalues was too large:
     Diagonalizing with lowered threshold

     Davidson diagonalization with overlap
     ethr =  2.46E-08,  avg # of iterations =  5.1

     negative rho (up, down):  7.626E-02 0.000E+00

     total cpu time spent up to now is    19635.4 secs

     total energy              =  -11961.41095355 Ry
     estimated scf accuracy    <       0.00038395 Ry

     iteration #  2     ecut=    45.00 Ry     beta= 0.20
     Davidson diagonalization with overlap
     ethr =  2.94E-08,  avg # of iterations =  6.0

     negative rho (up, down):  7.626E-02 0.000E+00

     total cpu time spent up to now is    19773.0 secs

     total energy              =  -11961.41079970 Ry
     estimated scf accuracy    <       0.00789941 Ry

     iteration #  3     ecut=    45.00 Ry     beta= 0.20
     Davidson diagonalization with overlap
     ethr =  2.94E-08,  avg # of iterations =  6.0

     negative rho (up, down):  7.626E-02 0.000E+00

     total cpu time spent up to now is    19901.5 secs

     total energy              =  -11961.41099482 Ry
     estimated scf accuracy    <       0.00204229 Ry

     iteration #  4     ecut=    45.00 Ry     beta= 0.20
     Davidson diagonalization with overlap
     ethr =  2.94E-08,  avg # of iterations =  2.1

     negative rho (up, down):  7.626E-02 0.000E+00

     total cpu time spent up to now is    20003.4 secs

     total energy              =  -11961.41102047 Ry
     estimated scf accuracy    <       0.00113871 Ry

     iteration #  5     ecut=    45.00 Ry     beta= 0.20
     Davidson diagonalization with overlap
     ethr =  2.94E-08,  avg # of iterations =  1.5

     negative rho (up, down):  7.626E-02 0.000E+00

     total cpu time spent up to now is    20105.5 secs

     total energy              =  -11961.41103056 Ry
     estimated scf accuracy    <       0.00069935 Ry

     iteration #  6     ecut=    45.00 Ry     beta= 0.20
     Davidson diagonalization with overlap
     ethr =  2.94E-08,  avg # of iterations =  1.1

     negative rho (up, down):  7.626E-02 0.000E+00

     total cpu time spent up to now is    20196.7 secs

     total energy              =  -11961.41103829 Ry
     estimated scf accuracy    <       0.00021390 Ry

     iteration #  7     ecut=    45.00 Ry     beta= 0.20
     Davidson diagonalization with overlap
     ethr =  1.64E-08,  avg # of iterations =  1.0

     negative rho (up, down):  7.626E-02 0.000E+00

     total cpu time spent up to now is    20284.8 secs

     total energy              =  -11961.41104111 Ry
     estimated scf accuracy    <       0.00005081 Ry

     iteration #  8     ecut=    45.00 Ry     beta= 0.20
     Davidson diagonalization with overlap
     ethr =  3.88E-09,  avg # of iterations =  2.0

     negative rho (up, down):  7.626E-02 0.000E+00

     total cpu time spent up to now is    20391.2 secs

     total energy              =  -11961.41104169 Ry
     estimated scf accuracy    <       0.00003583 Ry

     iteration #  9     ecut=    45.00 Ry     beta= 0.20
     Davidson diagonalization with overlap
     ethr =  2.74E-09,  avg # of iterations =  2.4

     negative rho (up, down):  7.626E-02 0.000E+00

     total cpu time spent up to now is    20494.6 secs

     total energy              =  -11961.41104040 Ry
     estimated scf accuracy    <       0.00013445 Ry

     iteration # 10     ecut=    45.00 Ry     beta= 0.20
     Davidson diagonalization with overlap
     ethr =  2.74E-09,  avg # of iterations =  1.5

     negative rho (up, down):  7.626E-02 0.000E+00

     total cpu time spent up to now is    20602.6 secs

     total energy              =  -11961.41104255 Ry
     estimated scf accuracy    <       0.00003327 Ry

     iteration # 11     ecut=    45.00 Ry     beta= 0.20
     Davidson diagonalization with overlap
     ethr =  2.54E-09,  avg # of iterations =  1.0

     negative rho (up, down):  7.626E-02 0.000E+00

     total cpu time spent up to now is    20691.3 secs

     total energy              =  -11961.41104355 Ry
     estimated scf accuracy    <       0.00000769 Ry

     iteration # 12     ecut=    45.00 Ry     beta= 0.20
     Davidson diagonalization with overlap
     ethr =  5.88E-10,  avg # of iterations =  2.1

     negative rho (up, down):  7.626E-02 0.000E+00

     total cpu time spent up to now is    20795.4 secs

     total energy              =  -11961.41104380 Ry
     estimated scf accuracy    <       0.00000357 Ry

     iteration # 13     ecut=    45.00 Ry     beta= 0.20
     Davidson diagonalization with overlap
     ethr =  2.73E-10,  avg # of iterations =  4.2

     negative rho (up, down):  7.626E-02 0.000E+00

     total cpu time spent up to now is    20903.8 secs

     total energy              =  -11961.41104394 Ry
     estimated scf accuracy    <       0.00000197 Ry

     iteration # 14     ecut=    45.00 Ry     beta= 0.20
     Davidson diagonalization with overlap
     ethr =  1.51E-10,  avg # of iterations =  6.1

     negative rho (up, down):  7.626E-02 0.000E+00

     total cpu time spent up to now is    21013.4 secs

     total energy              =  -11961.41104387 Ry
     estimated scf accuracy    <       0.00000811 Ry

     iteration # 15     ecut=    45.00 Ry     beta= 0.20
     Davidson diagonalization with overlap
     ethr =  1.51E-10,  avg # of iterations =  2.5

     negative rho (up, down):  7.626E-02 0.000E+00

     total cpu time spent up to now is    21116.8 secs

     total energy              =  -11961.41104387 Ry
     estimated scf accuracy    <       0.00001070 Ry

     iteration # 16     ecut=    45.00 Ry     beta= 0.20
     Davidson diagonalization with overlap
     ethr =  1.51E-10,  avg # of iterations =  2.0

     negative rho (up, down):  7.626E-02 0.000E+00

     total cpu time spent up to now is    21219.2 secs

     total energy              =  -11961.41104396 Ry
     estimated scf accuracy    <       0.00000728 Ry

     iteration # 17     ecut=    45.00 Ry     beta= 0.20
     Davidson diagonalization with overlap
     ethr =  1.51E-10,  avg # of iterations =  1.5

     negative rho (up, down):  7.626E-02 0.000E+00

     total cpu time spent up to now is    21321.5 secs

     total energy              =  -11961.41104406 Ry
     estimated scf accuracy    <       0.00000063 Ry

     iteration # 18     ecut=    45.00 Ry     beta= 0.20
     Davidson diagonalization with overlap
     ethr =  4.80E-11,  avg # of iterations =  3.8

     negative rho (up, down):  7.626E-02 0.000E+00

     total cpu time spent up to now is    21431.1 secs

     total energy              =  -11961.41104402 Ry
     estimated scf accuracy    <       0.00000352 Ry

     iteration # 19     ecut=    45.00 Ry     beta= 0.20
     Davidson diagonalization with overlap
     ethr =  4.80E-11,  avg # of iterations =  2.1

     negative rho (up, down):  7.626E-02 0.000E+00

     total cpu time spent up to now is    21534.5 secs

     total energy              =  -11961.41104407 Ry
     estimated scf accuracy    <       0.00000107 Ry

     iteration # 20     ecut=    45.00 Ry     beta= 0.20
     Davidson diagonalization with overlap
     ethr =  4.80E-11,  avg # of iterations =  2.0

     negative rho (up, down):  7.626E-02 0.000E+00

     total cpu time spent up to now is    21640.9 secs

     total energy              =  -11961.41104407 Ry
     estimated scf accuracy    <       0.00000103 Ry

     iteration # 21     ecut=    45.00 Ry     beta= 0.20
     Davidson diagonalization with overlap
     ethr =  4.80E-11,  avg # of iterations =  1.7

     negative rho (up, down):  7.626E-02 0.000E+00

     total cpu time spent up to now is    21743.9 secs

     total energy              =  -11961.41104409 Ry
     estimated scf accuracy    <       0.00000105 Ry

     iteration # 22     ecut=    45.00 Ry     beta= 0.20
     Davidson diagonalization with overlap
     ethr =  4.80E-11,  avg # of iterations =  1.4

     negative rho (up, down):  7.626E-02 0.000E+00

     total cpu time spent up to now is    21848.3 secs

     total energy              =  -11961.41104411 Ry
     estimated scf accuracy    <       0.00000024 Ry

     iteration # 23     ecut=    45.00 Ry     beta= 0.20
     Davidson diagonalization with overlap
     ethr =  1.81E-11,  avg # of iterations =  2.0

     negative rho (up, down):  7.626E-02 0.000E+00

     total cpu time spent up to now is    21952.5 secs

     total energy              =  -11961.41104411 Ry
     estimated scf accuracy    <       0.00000023 Ry

     iteration # 24     ecut=    45.00 Ry     beta= 0.20
     Davidson diagonalization with overlap
     ethr =  1.72E-11,  avg # of iterations =  1.1

     negative rho (up, down):  7.626E-02 0.000E+00

     total cpu time spent up to now is    22044.3 secs

     total energy              =  -11961.41104411 Ry
     estimated scf accuracy    <       0.00000032 Ry

     iteration # 25     ecut=    45.00 Ry     beta= 0.20
     Davidson diagonalization with overlap
     ethr =  1.72E-11,  avg # of iterations =  1.1

     negative rho (up, down):  7.626E-02 0.000E+00

     total cpu time spent up to now is    22137.9 secs

     total energy              =  -11961.41104411 Ry
     estimated scf accuracy    <       0.00000062 Ry

     iteration # 26     ecut=    45.00 Ry     beta= 0.20
     Davidson diagonalization with overlap
     ethr =  1.72E-11,  avg # of iterations =  1.0

     negative rho (up, down):  7.626E-02 0.000E+00

     total cpu time spent up to now is    22226.3 secs

     total energy              =  -11961.41104411 Ry
     estimated scf accuracy    <       0.00000056 Ry

     iteration # 27     ecut=    45.00 Ry     beta= 0.20
     Davidson diagonalization with overlap
     ethr =  1.72E-11,  avg # of iterations =  1.0

     negative rho (up, down):  7.626E-02 0.000E+00

     total cpu time spent up to now is    22314.5 secs

     total energy              =  -11961.41104412 Ry
     estimated scf accuracy    <       0.00000014 Ry

     iteration # 28     ecut=    45.00 Ry     beta= 0.20
     Davidson diagonalization with overlap
     ethr =  1.05E-11,  avg # of iterations =  1.0

     negative rho (up, down):  7.626E-02 0.000E+00

     total cpu time spent up to now is    22407.6 secs

     total energy              =  -11961.41104412 Ry
     estimated scf accuracy    <       0.00000011 Ry

     iteration # 29     ecut=    45.00 Ry     beta= 0.20
     Davidson diagonalization with overlap
     ethr =  8.40E-12,  avg # of iterations =  1.0

     negative rho (up, down):  7.626E-02 0.000E+00

     total cpu time spent up to now is    22495.8 secs

     total energy              =  -11961.41104412 Ry
     estimated scf accuracy    <       0.00000007 Ry

     iteration # 30     ecut=    45.00 Ry     beta= 0.20
     Davidson diagonalization with overlap
     ethr =  5.02E-12,  avg # of iterations =  1.1

     negative rho (up, down):  7.626E-02 0.000E+00

     total cpu time spent up to now is    22588.9 secs

     total energy              =  -11961.41104412 Ry
     estimated scf accuracy    <       0.00000007 Ry

     iteration # 31     ecut=    45.00 Ry     beta= 0.20
     Davidson diagonalization with overlap
     ethr =  5.02E-12,  avg # of iterations =  1.0

     negative rho (up, down):  7.626E-02 0.000E+00

     total cpu time spent up to now is    22682.7 secs

     total energy              =  -11961.41104412 Ry
     estimated scf accuracy    <       0.00000004 Ry

     iteration # 32     ecut=    45.00 Ry     beta= 0.20
     Davidson diagonalization with overlap
     ethr =  3.13E-12,  avg # of iterations =  1.0

     negative rho (up, down):  7.626E-02 0.000E+00

     total cpu time spent up to now is    22770.9 secs

     End of self-consistent calculation

          k = 0.0000 0.0000 0.0000 (135157 PWs)   bands (ev):

   -61.6872 -61.6776 -61.6633 -61.6601 -61.6586 -61.6543 -61.6509 -61.6491
   -61.6455 -61.6418 -61.6326 -61.6317 -61.6286 -61.6278 -61.6260 -61.6239
   -61.6222 -61.6120 -61.6043 -61.5985 -61.5965 -61.5930 -61.5889 -61.5877
   -61.5871 -61.5844 -61.5843 -61.5839 -61.5787 -61.5767 -61.5750 -61.5741
   -61.5731 -61.5713 -61.5698 -61.5690 -61.5678 -61.5670 -61.5654 -61.5570
   -61.5558 -61.5534 -61.5402 -61.5262 -61.5257 -61.5150 -61.5125 -61.5040
   -61.4997 -61.4927 -61.4837 -61.4783 -61.4604 -61.4573 -61.4494 -61.4449
   -61.4366 -61.4313 -61.4209 -61.4138 -61.4083 -61.3991 -61.3857 -61.3788
   -61.3757 -61.3705 -61.3676 -61.3665 -61.3655 -61.3602 -61.3499 -61.3216
   -44.3212 -42.7533 -35.7735 -35.7721 -35.7703 -35.7663 -35.7319 -35.7300
   -35.7284 -35.7274 -35.7254 -35.7248 -35.7221 -35.7158 -35.7126 -35.7110
   -35.6993 -35.6950 -35.6914 -35.6874 -35.6797 -35.6789 -35.6776 -35.6758
   -35.6727 -35.6695 -35.6681 -35.6672 -35.6647 -35.6603 -35.6550 -35.6538
   -35.6523 -35.6485 -35.6461 -35.6424 -35.6350 -35.6291 -35.6285 -35.6266
   -35.6258 -35.6248 -35.6237 -35.6196 -35.6180 -35.6169 -35.6133 -35.6129
   -35.6072 -35.6019 -35.5989 -35.5977 -35.5938 -35.5930 -35.5853 -35.5845
   -35.5782 -35.5763 -35.5718 -35.5703 -35.5677 -35.5662 -35.5635 -35.5598
   -35.5578 -35.5558 -35.5520 -35.5511 -35.5475 -35.5452 -35.5366 -35.5350
   -35.5329 -35.5291 -35.5117 -35.5091 -35.5085 -35.5061 -35.5033 -35.5006
   -35.4984 -35.4979 -35.4954 -35.4904 -35.4870 -35.4833 -35.4761 -35.4737
   -35.4713 -35.4708 -35.4695 -35.4693 -35.4671 -35.4648 -35.4630 -35.4621
   -35.4601 -35.4586 -35.4552 -35.4528 -35.4479 -35.4461 -35.4410 -35.4402
   -35.4350 -35.4340 -35.4309 -35.4287 -35.4270 -35.4262 -35.4247 -35.4230
   -35.4195 -35.4180 -35.4170 -35.4160 -35.4120 -35.4112 -35.4085 -35.4068
   -35.4062 -35.4046 -35.4041 -35.4031 -35.4003 -35.4002 -35.3987 -35.3970
   -35.3947 -35.3939 -35.3902 -35.3886 -35.3878 -35.3872 -35.3852 -35.3839
   -35.3833 -35.3814 -35.3798 -35.3784 -35.3771 -35.3757 -35.3743 -35.3714
   -35.3693 -35.3672 -35.3656 -35.3628 -35.3607 -35.3575 -35.3553 -35.3515
   -35.3509 -35.3475 -35.3469 -35.3451 -35.3394 -35.3360 -35.3353 -35.3341
   -35.3333 -35.3316 -35.3250 -35.3190 -35.3167 -35.3153 -35.3067 -35.3055
   -35.3012 -35.2968 -35.2911 -35.2886 -35.2821 -35.2814 -35.2773 -35.2742
   -35.2701 -35.2667 -35.2629 -35.2546 -35.2513 -35.2485 -35.2434 -35.2430
   -35.2401 -35.2367 -35.2297 -35.2250 -35.2231 -35.2227 -35.2212 -35.2162
   -35.2120 -35.2074 -35.2035 -35.1998 -35.1931 -35.1857 -35.1814 -35.1765
   -35.1718 -35.1686 -35.1666 -35.1653 -35.1635 -35.1582 -35.1496 -35.1436
   -35.1371 -35.1312 -35.1277 -35.1191 -35.1156 -35.1139 -35.1091 -35.0917
   -35.0774 -35.0722 -14.0312 -13.3826 -13.3762 -13.3719 -13.3585 -13.1540
   -12.7830 -12.7789 -12.7698 -12.7494 -12.6116 -12.6092 -12.6033 -12.5910
   -12.4922 -12.4824 -12.4796 -12.4714 -12.4496 -12.3878 -12.3427 -12.2144
   -12.1938 -12.1801 -12.1728 -12.1667 -12.1628 -12.1559 -12.1469 -12.1363
   -12.1192 -12.1085 -12.0899 -12.0547 -12.0334 -12.0263 -12.0089 -12.0041
   -11.8762 -11.8732 -11.8714 -11.8653 -11.7721 -11.7304 -11.7097 -11.6871
   -11.6194 -11.4941 -11.4818 -11.4809 -11.4804 -11.4784 -11.4693 -11.4666
   -11.4605 -11.4302 -11.3179 -11.2980 -11.2857 -11.2654 -11.2413 -11.2369
   -11.2361 -11.2357 -11.2338 -11.1979 -11.1641 -11.1268 -11.0051 -10.9508
   -10.9094 -10.8563  -8.0179  -4.4930  -4.4770  -4.4628  -4.4430  -4.3145
    -4.3114  -4.2993  -4.2888  -4.1488  -4.1448  -4.1100  -4.0994  -4.0683
    -4.0625  -4.0467  -4.0424  -3.7500  -3.7430  -3.7120  -3.7083  -3.5371
    -3.5314  -3.5280  -3.5238  -3.4416  -3.4321  -3.4260  -3.4248  -3.4061
    -3.3984  -3.3879  -3.3769  -3.3214  -3.3068  -3.2911  -3.2812  -3.2747
    -3.0702  -3.0444  -3.0225  -3.0022  -2.9578  -2.9492  -2.9424  -2.9315
    -2.9246  -2.9143  -2.8847  -2.8783  -2.8675  -2.8636  -2.8242  -2.8186
    -2.8109  -2.8061  -2.8037  -2.7967  -2.7773  -2.7695  -2.4387  -2.4246
    -2.3895  -2.3795  -2.3575  -2.3513  -2.3059  -2.3017  -2.2897  -2.2629
    -2.2578  -2.2553  -2.2466  -2.2394  -2.2377  -2.2349  -2.2275  -2.2245
    -2.2219  -2.1797  -2.1659  -2.1600  -2.1535  -2.1417  -2.1022  -2.0888
    -2.0657  -2.0542  -2.0431  -2.0277  -2.0250  -2.0192  -2.0009  -1.9925
    -1.9869  -1.9639  -1.9579  -1.9464  -1.9440  -1.9366  -1.9109  -1.9036
    -1.8983  -1.8916  -1.8849  -1.8738  -1.8702  -1.8662  -1.8581  -1.8509
    -1.8406  -1.7782  -1.7682  -1.7621  -1.7533  -1.7415  -1.7292  -1.7184
    -1.7051  -1.6891  -1.6241  -1.6228  -1.6217  -1.6178  -1.6118  -1.6011
    -1.5993  -1.5846  -1.5774  -1.5443  -1.5315  -1.5154  -1.5066  -1.5024
    -1.4956  -1.4948  -1.4602  -1.4481  -1.4387  -1.4047  -1.3892  -1.3883
    -1.3729  -1.3689  -1.3569  -1.3564  -1.3552  -1.3545  -1.3492  -1.3350
    -1.2957  -1.2728  -1.2643  -1.2395  -1.2291  -1.2208  -1.2027  -1.1928
    -1.1805  -1.1737  -1.1677  -1.1517  -1.1408  -1.1254  -1.1105  -1.1046
    -1.0548  -1.0465  -1.0329  -1.0130  -0.9885  -0.9718  -0.9348  -0.9261
    -0.8908  -0.8620  -0.8090  -0.7701  -0.7611  -0.7351  -0.7139  -0.7073
    -0.6861  -0.6708  -0.6674  -0.6457  -0.6183  -0.5921  -0.5728  -0.5613
    -0.5191  -0.4884  -0.4732  -0.4673  -0.4583  -0.4547  -0.4326  -0.3649
    -0.2364  -0.2130  -0.1882  -0.1363  -0.1116  -0.0818  -0.0525  -0.0468
    -0.0041   0.0056   0.0414   0.0517   0.2129   0.2340   0.3492   0.5463
     0.5618   0.7592   0.7730   1.0434   1.0673   1.0858   1.0989   1.1086
     1.1217   1.1253   1.3346   1.3568   1.5248   1.6571   1.9117   2.0159
     2.0368   2.0773   2.1292   2.1642   2.5754   2.6000   2.6042   2.6323
     2.6548   2.6659   2.6737   2.6886   2.7063   2.7327   2.7473   2.7689
     2.7832   2.7911   2.7944   2.8110   2.8207   2.8361   2.8472   2.8586
     2.8635   2.8688   2.8708   2.8877   2.8927   2.9332   2.9568   2.9821
     3.1406   3.1552   3.2011   3.2346   3.2414   3.2486   3.2664   3.2831
     3.2903   3.3162   3.3302   3.3471   3.3545   3.4105   3.4249   3.4328
     3.4524   3.4564   3.4739   3.4798   3.4836   3.5152   3.5314   3.5433
     3.5579   3.5625   3.5789   3.5909   3.6023   3.6163   3.6252   3.6344
     3.6574   3.6619   3.6674   3.6761   3.6808   3.6886   3.6942   3.6948
     3.6957   3.6986   3.7071   3.7138   3.7233   3.7282   3.7446   3.7532
     3.7743   3.7915   3.8980   3.9394   3.9472   3.9589   3.9670   3.9752
     3.9827   3.9868   4.0023   4.0105   4.0198   4.0463   4.0548   4.0950
     4.1649   4.1694   4.1816   4.2133   4.2284   4.2338   4.2433   4.2480
     4.2675   4.2776   4.2824   4.2890   4.2976   4.3007   4.3201   4.3383
     4.3541   4.3688   4.3735   4.3844   4.3989   4.4063   4.4134   4.4167
     4.4294   4.4344   4.4370   4.4439   4.4458   4.4471   4.4518   4.4533
     4.4648   4.4904   4.5357   4.5430   4.5766   4.5769   4.5875   4.5899
     4.6114   4.6210   4.6300   4.6438   4.6513   4.6600   4.6647   4.6708
     4.6756   4.6845   4.7121   4.7131   4.7158   4.7169   4.7242   4.7311
     4.7377   4.7394   4.7594   4.7626   4.7766   4.7839   4.7912   4.7979
     4.8113   4.8177   4.8192   4.8371   4.8465   4.8546   4.8624   4.8661
     4.8768   4.8935   4.9005   4.9093   4.9145   4.9317   4.9438   4.9526
     4.9728   5.0028   5.0189   5.0291   5.0359   5.0431   5.0512   5.0589
     5.0724   5.0859   5.0873   5.0992   5.1070   5.1117   5.1190   5.1258
     5.1297

          k = 0.0000 0.2500 0.0000 (135097 PWs)   bands (ev):

   -61.6871 -61.6764 -61.6674 -61.6591 -61.6580 -61.6535 -61.6516 -61.6484
   -61.6426 -61.6402 -61.6342 -61.6335 -61.6323 -61.6268 -61.6256 -61.6228
   -61.6213 -61.6120 -61.6042 -61.5992 -61.5959 -61.5936 -61.5892 -61.5879
   -61.5860 -61.5843 -61.5834 -61.5830 -61.5802 -61.5774 -61.5756 -61.5748
   -61.5719 -61.5715 -61.5705 -61.5690 -61.5680 -61.5671 -61.5631 -61.5575
   -61.5565 -61.5532 -61.5402 -61.5263 -61.5257 -61.5150 -61.5119 -61.5039
   -61.5001 -61.4930 -61.4836 -61.4782 -61.4603 -61.4574 -61.4494 -61.4449
   -61.4366 -61.4313 -61.4209 -61.4138 -61.4084 -61.3991 -61.3858 -61.3788
   -61.3756 -61.3706 -61.3677 -61.3664 -61.3653 -61.3602 -61.3500 -61.3216
   -44.3212 -42.7533 -35.7772 -35.7748 -35.7567 -35.7545 -35.7527 -35.7509
   -35.7315 -35.7273 -35.7250 -35.7228 -35.7148 -35.7103 -35.7040 -35.7011
   -35.6994 -35.6960 -35.6953 -35.6923 -35.6912 -35.6902 -35.6767 -35.6692
   -35.6662 -35.6626 -35.6585 -35.6572 -35.6547 -35.6527 -35.6515 -35.6504
   -35.6477 -35.6458 -35.6404 -35.6378 -35.6363 -35.6339 -35.6326 -35.6313
   -35.6308 -35.6266 -35.6254 -35.6236 -35.6224 -35.6205 -35.6186 -35.6145
   -35.6136 -35.6106 -35.6080 -35.6037 -35.5997 -35.5967 -35.5956 -35.5905
   -35.5861 -35.5794 -35.5756 -35.5704 -35.5665 -35.5644 -35.5593 -35.5562
   -35.5552 -35.5511 -35.5488 -35.5476 -35.5430 -35.5380 -35.5359 -35.5234
   -35.5189 -35.5175 -35.5124 -35.5103 -35.5081 -35.5053 -35.5015 -35.4966
   -35.4956 -35.4932 -35.4909 -35.4889 -35.4856 -35.4826 -35.4786 -35.4775
   -35.4748 -35.4729 -35.4700 -35.4689 -35.4647 -35.4638 -35.4622 -35.4593
   -35.4576 -35.4573 -35.4514 -35.4488 -35.4475 -35.4452 -35.4434 -35.4418
   -35.4407 -35.4392 -35.4367 -35.4351 -35.4348 -35.4335 -35.4328 -35.4316
   -35.4291 -35.4270 -35.4259 -35.4241 -35.4214 -35.4194 -35.4176 -35.4138
   -35.4090 -35.4058 -35.4024 -35.3999 -35.3971 -35.3944 -35.3924 -35.3905
   -35.3891 -35.3871 -35.3859 -35.3842 -35.3833 -35.3824 -35.3806 -35.3798
   -35.3780 -35.3772 -35.3760 -35.3746 -35.3717 -35.3696 -35.3688 -35.3671
   -35.3663 -35.3650 -35.3629 -35.3617 -35.3604 -35.3574 -35.3546 -35.3540
   -35.3517 -35.3491 -35.3476 -35.3448 -35.3432 -35.3409 -35.3398 -35.3384
   -35.3365 -35.3315 -35.3243 -35.3181 -35.3152 -35.3137 -35.3109 -35.3051
   -35.2997 -35.2977 -35.2954 -35.2892 -35.2861 -35.2809 -35.2778 -35.2756
   -35.2726 -35.2660 -35.2607 -35.2541 -35.2510 -35.2473 -35.2458 -35.2433
   -35.2391 -35.2349 -35.2302 -35.2263 -35.2245 -35.2210 -35.2183 -35.2164
   -35.2115 -35.2076 -35.2016 -35.2001 -35.1931 -35.1841 -35.1804 -35.1778
   -35.1731 -35.1709 -35.1679 -35.1643 -35.1632 -35.1576 -35.1478 -35.1433
   -35.1377 -35.1319 -35.1267 -35.1201 -35.1158 -35.1134 -35.1089 -35.0920
   -35.0774 -35.0726 -13.9840 -13.6348 -13.3327 -13.3243 -13.1129 -13.0939
   -13.0109 -13.0017 -12.8098 -12.6238 -12.5713 -12.5675 -12.5331 -12.5190
   -12.4639 -12.4469 -12.4390 -12.4268 -12.3783 -12.3695 -12.3157 -12.3104
   -12.3039 -12.2408 -12.2267 -12.2145 -12.1793 -12.1670 -12.1596 -12.1581
   -12.1383 -12.1321 -12.0616 -12.0574 -12.0471 -11.9965 -11.9846 -11.9419
   -11.9356 -11.9099 -11.8395 -11.8384 -11.7203 -11.7034 -11.6730 -11.6178
   -11.6139 -11.6028 -11.5615 -11.5103 -11.5006 -11.4927 -11.4586 -11.4566
   -11.4082 -11.3484 -11.3307 -11.3190 -11.3110 -11.3078 -11.2983 -11.2411
   -11.2268 -11.2042 -11.2006 -11.1890 -11.1200 -11.0948 -11.0057 -10.9587
   -10.9078 -10.8614  -8.0180  -4.6348  -4.6084  -4.4516  -4.4419  -4.4227
    -4.3923  -4.3129  -4.3063  -4.2204  -4.1970  -4.0693  -4.0605  -3.8290
    -3.8105  -3.8021  -3.7925  -3.7658  -3.7274  -3.7049  -3.6366  -3.6325
    -3.5362  -3.5316  -3.5293  -3.5170  -3.4942  -3.4524  -3.4421  -3.4273
    -3.3980  -3.3656  -3.3524  -3.3438  -3.3326  -3.3241  -3.2869  -3.2191
    -3.1858  -3.1722  -3.1584  -3.1123  -3.0924  -3.0569  -3.0433  -3.0242
    -3.0043  -2.9689  -2.9591  -2.9276  -2.8647  -2.7817  -2.7760  -2.7035
    -2.6977  -2.6736  -2.6336  -2.6226  -2.6127  -2.6018  -2.5418  -2.5050
    -2.4396  -2.4048  -2.3747  -2.3680  -2.3573  -2.3516  -2.3293  -2.3073
    -2.2971  -2.2895  -2.2839  -2.2816  -2.2755  -2.2638  -2.2358  -2.2278
    -2.2113  -2.2090  -2.1952  -2.1758  -2.1608  -2.1516  -2.1421  -2.1139
    -2.0882  -2.0784  -2.0593  -2.0520  -2.0439  -2.0370  -2.0304  -2.0201
    -2.0122  -1.9999  -1.9945  -1.9866  -1.9804  -1.9612  -1.9218  -1.8867
    -1.8727  -1.8571  -1.8364  -1.8293  -1.8171  -1.8113  -1.8059  -1.7917
    -1.7805  -1.7704  -1.7485  -1.7344  -1.6910  -1.6862  -1.6807  -1.6794
    -1.6696  -1.6641  -1.6584  -1.6469  -1.6344  -1.6296  -1.6202  -1.6029
    -1.5957  -1.5778  -1.5619  -1.5487  -1.5479  -1.5321  -1.5241  -1.5008
    -1.4822  -1.4708  -1.4586  -1.4450  -1.4315  -1.4230  -1.3953  -1.3869
    -1.3611  -1.3473  -1.3280  -1.3203  -1.3133  -1.2969  -1.2877  -1.2799
    -1.2690  -1.2607  -1.2519  -1.2476  -1.2100  -1.1861  -1.1513  -1.1452
    -1.1259  -1.1129  -1.0854  -1.0807  -1.0583  -1.0447  -1.0355  -1.0062
    -0.9965  -0.9916  -0.9695  -0.9584  -0.9322  -0.8966  -0.8893  -0.8661
    -0.8590  -0.8487  -0.8389  -0.8160  -0.8047  -0.7969  -0.7684  -0.7244
    -0.6983  -0.6827  -0.6373  -0.6253  -0.6070  -0.5859  -0.5546  -0.5459
    -0.5394  -0.5193  -0.4998  -0.4849  -0.4773  -0.4405  -0.3910  -0.3514
    -0.3244  -0.3099  -0.2699  -0.2496  -0.2101  -0.1716  -0.1450  -0.1389
    -0.1191  -0.0956   0.0108   0.0849   0.1265   0.2731   0.3560   0.4282
     0.7626   0.7921   0.8464   0.9228   0.9455   0.9930   1.0606   1.1199
     1.2434   1.2911   1.3059   1.3348   1.6343   1.8552   1.8739   1.9311
     2.0318   2.0972   2.1658   2.2059   2.2272   2.2599   2.3024   2.3308
     2.4519   2.6119   2.6360   2.6614   2.6743   2.6805   2.7015   2.7269
     2.7424   2.7477   2.7920   2.8027   2.8224   2.8498   2.8629   2.8802
     2.8878   2.9064   2.9213   2.9577   2.9738   3.0000   3.0248   3.0589
     3.0656   3.1177   3.1472   3.1848   3.1971   3.2033   3.2268   3.2526
     3.2651   3.2799   3.2945   3.3014   3.3085   3.3290   3.3404   3.3505
     3.3686   3.3879   3.3982   3.4254   3.4682   3.4876   3.4936   3.5092
     3.5317   3.5474   3.5614   3.5857   3.5946   3.6138   3.6248   3.6453
     3.6577   3.6751   3.7019   3.7129   3.7321   3.7418   3.7545   3.7798
     3.7970   3.8173   3.8273   3.8387   3.8583   3.8726   3.8821   3.8980
     3.9145   3.9267   3.9389   3.9518   3.9571   3.9721   3.9917   3.9997
     4.0240   4.0294   4.0361   4.0615   4.0749   4.1061   4.1150   4.1404
     4.1475   4.1871   4.2090   4.2145   4.2347   4.2633   4.2835   4.3029
     4.3104   4.3151   4.3220   4.3349   4.3414   4.3452   4.3526   4.3594
     4.3732   4.3801   4.3831   4.3896   4.3984   4.4044   4.4191   4.4280
     4.4362   4.4473   4.4531   4.4629   4.4754   4.4870   4.4938   4.5038
     4.5069   4.5114   4.5201   4.5273   4.5338   4.5366   4.5416   4.5567
     4.5630   4.5770   4.5831   4.5959   4.6086   4.6360   4.6423   4.6504
     4.6527   4.6549   4.6607   4.6683   4.6837   4.6922   4.7045   4.7185
     4.7290   4.7519   4.7624   4.7735   4.7840   4.7904   4.7974   4.8078
     4.8106   4.8179   4.8364   4.8454   4.8610   4.8707   4.8807   4.8879
     4.8978   4.9183   4.9273   4.9348   4.9454   4.9523   4.9570   4.9698
     4.9738   4.9776   4.9944   5.0121   5.0202   5.0237   5.0278   5.0382
     5.0451   5.0492   5.0597   5.0729   5.0814   5.0906   5.0945   5.0977
     5.0996

          k = 0.0000-0.5000 0.0000 (135178 PWs)   bands (ev):

   -61.6871 -61.6735 -61.6721 -61.6581 -61.6571 -61.6549 -61.6535 -61.6418
   -61.6407 -61.6390 -61.6386 -61.6359 -61.6339 -61.6263 -61.6254 -61.6228
   -61.6202 -61.6119 -61.6041 -61.5998 -61.5953 -61.5942 -61.5893 -61.5880
   -61.5852 -61.5842 -61.5822 -61.5815 -61.5802 -61.5798 -61.5780 -61.5742
   -61.5714 -61.5704 -61.5703 -61.5701 -61.5677 -61.5677 -61.5608 -61.5583
   -61.5573 -61.5529 -61.5402 -61.5263 -61.5257 -61.5150 -61.5112 -61.5038
   -61.5005 -61.4933 -61.4836 -61.4782 -61.4602 -61.4574 -61.4494 -61.4448
   -61.4366 -61.4313 -61.4209 -61.4138 -61.4084 -61.3990 -61.3859 -61.3788
   -61.3755 -61.3707 -61.3677 -61.3664 -61.3652 -61.3603 -61.3500 -61.3216
   -44.3212 -42.7533 -35.7728 -35.7707 -35.7695 -35.7661 -35.7345 -35.7340
   -35.7312 -35.7304 -35.7279 -35.7264 -35.7208 -35.7190 -35.7154 -35.7141
   -35.7119 -35.7110 -35.6795 -35.6730 -35.6708 -35.6690 -35.6674 -35.6643
   -35.6629 -35.6591 -35.6577 -35.6543 -35.6531 -35.6503 -35.6490 -35.6457
   -35.6442 -35.6422 -35.6409 -35.6396 -35.6389 -35.6379 -35.6368 -35.6357
   -35.6345 -35.6340 -35.6329 -35.6292 -35.6281 -35.6225 -35.6199 -35.6185
   -35.6172 -35.6130 -35.6108 -35.6079 -35.6057 -35.6027 -35.6002 -35.5985
   -35.5921 -35.5904 -35.5861 -35.5701 -35.5659 -35.5641 -35.5508 -35.5480
   -35.5430 -35.5402 -35.5399 -35.5380 -35.5335 -35.5313 -35.5279 -35.5269
   -35.5244 -35.5210 -35.5173 -35.5171 -35.5108 -35.5080 -35.5016 -35.4972
   -35.4918 -35.4887 -35.4850 -35.4810 -35.4762 -35.4757 -35.4741 -35.4725
   -35.4697 -35.4661 -35.4649 -35.4635 -35.4626 -35.4618 -35.4599 -35.4589
   -35.4581 -35.4561 -35.4548 -35.4527 -35.4520 -35.4510 -35.4493 -35.4490
   -35.4487 -35.4474 -35.4461 -35.4454 -35.4435 -35.4409 -35.4386 -35.4370
   -35.4331 -35.4310 -35.4299 -35.4287 -35.4247 -35.4235 -35.4187 -35.4181
   -35.4114 -35.4063 -35.4028 -35.4005 -35.3972 -35.3938 -35.3890 -35.3873
   -35.3860 -35.3844 -35.3823 -35.3812 -35.3798 -35.3793 -35.3773 -35.3770
   -35.3745 -35.3728 -35.3700 -35.3685 -35.3670 -35.3647 -35.3640 -35.3626
   -35.3623 -35.3611 -35.3605 -35.3591 -35.3574 -35.3559 -35.3546 -35.3530
   -35.3525 -35.3518 -35.3497 -35.3485 -35.3483 -35.3474 -35.3461 -35.3403
   -35.3348 -35.3296 -35.3274 -35.3194 -35.3162 -35.3139 -35.3085 -35.3073
   -35.3026 -35.2970 -35.2936 -35.2923 -35.2870 -35.2831 -35.2804 -35.2764
   -35.2737 -35.2659 -35.2577 -35.2561 -35.2516 -35.2466 -35.2460 -35.2440
   -35.2391 -35.2318 -35.2295 -35.2281 -35.2239 -35.2211 -35.2186 -35.2151
   -35.2106 -35.2063 -35.2012 -35.1997 -35.1933 -35.1834 -35.1797 -35.1766
   -35.1746 -35.1732 -35.1694 -35.1640 -35.1630 -35.1578 -35.1450 -35.1426
   -35.1394 -35.1326 -35.1250 -35.1219 -35.1160 -35.1127 -35.1088 -35.0923
   -35.0774 -35.0729 -13.8534 -13.8404 -13.2120 -13.2057 -13.2029 -13.1858
   -12.9957 -12.9866 -12.8818 -12.7743 -12.4771 -12.4673 -12.4664 -12.4559
   -12.4418 -12.4219 -12.3721 -12.3645 -12.3591 -12.3531 -12.3412 -12.3264
   -12.3193 -12.3152 -12.2593 -12.2512 -12.2416 -12.2046 -12.2022 -12.1939
   -12.1163 -12.1132 -12.1065 -12.0942 -12.0828 -12.0444 -11.9412 -11.9358
   -11.9062 -11.9002 -11.7518 -11.7495 -11.7478 -11.7452 -11.6465 -11.6426
   -11.5866 -11.5750 -11.5715 -11.5602 -11.5591 -11.5304 -11.4042 -11.3994
   -11.3954 -11.3941 -11.3895 -11.3722 -11.3060 -11.2677 -11.2392 -11.2347
   -11.2315 -11.2278 -11.2123 -11.1723 -11.1047 -11.0839 -10.9930 -10.9458
   -10.9001 -10.8835  -8.0181  -4.6559  -4.6482  -4.5423  -4.5360  -4.4605
    -4.4543  -4.4396  -4.4329  -3.9687  -3.9563  -3.9486  -3.9103  -3.8026
    -3.7883  -3.7846  -3.7800  -3.7740  -3.6054  -3.5975  -3.5898  -3.5796
    -3.5767  -3.5728  -3.5674  -3.5638  -3.5627  -3.4690  -3.4223  -3.4007
    -3.3886  -3.3789  -3.3545  -3.3440  -3.3391  -3.3194  -3.3148  -3.3116
    -3.3007  -3.2653  -3.2402  -3.1604  -3.1552  -3.1518  -3.1470  -3.0614
    -2.9209  -2.9153  -2.9056  -2.8970  -2.8922  -2.8820  -2.8381  -2.8292
    -2.8031  -2.6327  -2.4535  -2.4503  -2.4460  -2.4364  -2.4281  -2.4158
    -2.4059  -2.3954  -2.3857  -2.3763  -2.3696  -2.3648  -2.3539  -2.3408
    -2.3361  -2.3310  -2.3241  -2.3114  -2.3021  -2.2923  -2.2866  -2.2556
    -2.2460  -2.2346  -2.2231  -2.2155  -2.2116  -2.2074  -2.1952  -2.1887
    -2.1732  -2.1674  -2.1562  -2.0915  -2.0780  -2.0729  -2.0638  -2.0556
    -2.0541  -2.0242  -2.0154  -1.9847  -1.9554  -1.9255  -1.8901  -1.8768
    -1.8533  -1.8479  -1.8350  -1.8250  -1.8090  -1.8033  -1.7918  -1.7761
    -1.7582  -1.7404  -1.7312  -1.7236  -1.7205  -1.7155  -1.7146  -1.6875
    -1.6753  -1.6574  -1.6562  -1.6551  -1.6521  -1.6367  -1.6318  -1.6213
    -1.5832  -1.5645  -1.5461  -1.4921  -1.4622  -1.4569  -1.4268  -1.4229
    -1.4095  -1.3984  -1.3894  -1.3872  -1.3767  -1.3721  -1.3585  -1.3399
    -1.3357  -1.3197  -1.3156  -1.3047  -1.3005  -1.2935  -1.2754  -1.2707
    -1.2171  -1.2108  -1.1868  -1.1766  -1.1721  -1.1535  -1.1448  -1.1144
    -1.0960  -1.0819  -1.0783  -1.0719  -1.0427  -1.0275  -1.0187  -0.9912
    -0.9744  -0.9501  -0.9398  -0.9250  -0.9057  -0.8343  -0.8255  -0.8173
    -0.7992  -0.7896  -0.7835  -0.7792  -0.7725  -0.7565  -0.7418  -0.6943
    -0.6848  -0.6723  -0.6649  -0.6524  -0.6505  -0.6178  -0.6037  -0.5887
    -0.5770  -0.5542  -0.5377  -0.4946  -0.4639  -0.4503  -0.4156  -0.4132
    -0.3911  -0.3767  -0.3547  -0.3247  -0.3120  -0.2993  -0.2304  -0.2170
    -0.2088   0.1259   0.1338   0.1445   0.1656   0.2490   0.2665   0.3501
     0.3788   0.5700   0.6022   0.8328   0.8408   1.0601   1.3867   1.3990
     1.4258   1.5516   1.5996   1.6110   1.6253   1.6626   1.7027   1.7335
     1.7583   1.7771   1.8797   2.0720   2.2841   2.3011   2.3845   2.4060
     2.4459   2.5058   2.5677   2.6185   2.6272   2.6525   2.6679   2.6843
     2.7075   2.7521   2.7639   2.7688   2.7926   2.8332   2.8593   2.8893
     2.9061   2.9106   2.9343   2.9383   2.9752   2.9888   2.9918   3.0136
     3.0164   3.0278   3.0364   3.0495   3.0612   3.0824   3.0986   3.1041
     3.1607   3.1884   3.2502   3.2649   3.3104   3.3260   3.3558   3.3666
     3.3729   3.4265   3.4435   3.4601   3.4773   3.4932   3.5006   3.5498
     3.5612   3.5698   3.5848   3.5912   3.6228   3.6266   3.6379   3.6593
     3.6744   3.6947   3.7041   3.7181   3.7288   3.7389   3.7568   3.7970
     3.8077   3.8841   3.8967   3.9144   3.9177   3.9375   3.9484   3.9886
     4.0191   4.0373   4.0564   4.0636   4.0728   4.0760   4.0844   4.0986
     4.1105   4.1151   4.1294   4.1422   4.1681   4.1870   4.1907   4.1981
     4.2113   4.2221   4.2418   4.2452   4.2498   4.2598   4.2736   4.2741
     4.2842   4.2877   4.2929   4.2998   4.3022   4.3055   4.3106   4.3202
     4.3422   4.3606   4.3737   4.3927   4.3991   4.4094   4.4237   4.4260
     4.4312   4.4499   4.4515   4.4632   4.4741   4.4760   4.4894   4.5020
     4.5086   4.5129   4.5175   4.5280   4.5374   4.5405   4.5510   4.5584
     4.5729   4.5817   4.5869   4.6065   4.6148   4.6179   4.6327   4.6486
     4.6510   4.6676   4.6996   4.7029   4.7120   4.7303   4.7342   4.7456
     4.7566   4.7679   4.7735   4.7752   4.7868   4.8126   4.8188   4.8372
     4.8481   4.8516   4.8571   4.8634   4.8656   4.8691   4.8702   4.8764
     4.8774   4.8827   4.8924   4.8982   4.9024   4.9161   4.9277   4.9442
     4.9600   4.9644   4.9697   4.9745   4.9907   4.9960   5.0022   5.0113
     5.0197   5.0320   5.0509   5.0542   5.0656   5.0685   5.0748   5.0796
     5.0870

          k = 0.2500 0.2500 0.0000 (135083 PWs)   bands (ev):

   -61.6871 -61.6753 -61.6678 -61.6636 -61.6582 -61.6523 -61.6481 -61.6469
   -61.6426 -61.6394 -61.6355 -61.6337 -61.6323 -61.6307 -61.6265 -61.6213
   -61.6191 -61.6123 -61.6042 -61.5991 -61.5965 -61.5937 -61.5896 -61.5865
   -61.5859 -61.5841 -61.5832 -61.5825 -61.5803 -61.5776 -61.5767 -61.5755
   -61.5733 -61.5718 -61.5698 -61.5694 -61.5676 -61.5648 -61.5628 -61.5578
   -61.5570 -61.5534 -61.5402 -61.5272 -61.5244 -61.5143 -61.5119 -61.5051
   -61.4996 -61.4929 -61.4837 -61.4781 -61.4604 -61.4574 -61.4495 -61.4448
   -61.4366 -61.4313 -61.4209 -61.4138 -61.4083 -61.3991 -61.3859 -61.3788
   -61.3757 -61.3704 -61.3679 -61.3662 -61.3654 -61.3602 -61.3500 -61.3216
   -44.3212 -42.7533 -35.7893 -35.7750 -35.7542 -35.7501 -35.7485 -35.7387
   -35.7341 -35.7303 -35.7226 -35.7188 -35.7169 -35.7147 -35.7119 -35.7065
   -35.7001 -35.6912 -35.6872 -35.6840 -35.6814 -35.6804 -35.6799 -35.6787
   -35.6711 -35.6690 -35.6646 -35.6569 -35.6534 -35.6525 -35.6487 -35.6460
   -35.6442 -35.6433 -35.6410 -35.6396 -35.6383 -35.6365 -35.6357 -35.6340
   -35.6325 -35.6311 -35.6276 -35.6256 -35.6234 -35.6223 -35.6189 -35.6170
   -35.6132 -35.6114 -35.6064 -35.6046 -35.6017 -35.5972 -35.5952 -35.5892
   -35.5875 -35.5839 -35.5795 -35.5768 -35.5668 -35.5604 -35.5548 -35.5534
   -35.5518 -35.5470 -35.5456 -35.5413 -35.5368 -35.5340 -35.5298 -35.5252
   -35.5205 -35.5160 -35.5152 -35.5133 -35.5105 -35.5085 -35.5027 -35.4996
   -35.4909 -35.4902 -35.4871 -35.4838 -35.4823 -35.4818 -35.4787 -35.4770
   -35.4738 -35.4721 -35.4689 -35.4675 -35.4657 -35.4639 -35.4618 -35.4595
   -35.4587 -35.4567 -35.4552 -35.4514 -35.4498 -35.4496 -35.4485 -35.4469
   -35.4445 -35.4440 -35.4415 -35.4399 -35.4385 -35.4373 -35.4356 -35.4337
   -35.4301 -35.4271 -35.4199 -35.4170 -35.4144 -35.4120 -35.4105 -35.4069
   -35.4057 -35.4044 -35.4028 -35.4018 -35.4003 -35.3997 -35.3982 -35.3961
   -35.3939 -35.3923 -35.3895 -35.3883 -35.3865 -35.3822 -35.3800 -35.3777
   -35.3747 -35.3732 -35.3714 -35.3693 -35.3687 -35.3677 -35.3667 -35.3660
   -35.3640 -35.3628 -35.3601 -35.3584 -35.3572 -35.3547 -35.3533 -35.3524
   -35.3517 -35.3503 -35.3494 -35.3478 -35.3467 -35.3413 -35.3397 -35.3377
   -35.3332 -35.3301 -35.3267 -35.3224 -35.3193 -35.3130 -35.3100 -35.3060
   -35.3020 -35.3010 -35.2952 -35.2927 -35.2870 -35.2819 -35.2784 -35.2727
   -35.2689 -35.2623 -35.2574 -35.2547 -35.2534 -35.2485 -35.2457 -35.2442
   -35.2384 -35.2353 -35.2295 -35.2262 -35.2240 -35.2226 -35.2201 -35.2158
   -35.2097 -35.2070 -35.2037 -35.1994 -35.1930 -35.1851 -35.1818 -35.1775
   -35.1741 -35.1715 -35.1687 -35.1638 -35.1608 -35.1572 -35.1463 -35.1424
   -35.1393 -35.1322 -35.1263 -35.1205 -35.1151 -35.1131 -35.1090 -35.0923
   -35.0776 -35.0728 -13.9370 -13.5914 -13.5870 -13.2564 -13.0711 -13.0547
   -13.0494 -12.7752 -12.7681 -12.7509 -12.7412 -12.5863 -12.5820 -12.4917
   -12.4453 -12.4068 -12.4009 -12.3582 -12.3477 -12.3411 -12.3355 -12.3260
   -12.3064 -12.2697 -12.2402 -12.2298 -12.2182 -12.1486 -12.1411 -12.1306
   -12.1246 -12.1141 -12.1039 -12.0345 -12.0167 -12.0117 -11.9995 -11.9891
   -11.9476 -11.9008 -11.8813 -11.8460 -11.7751 -11.6789 -11.6773 -11.6419
   -11.5858 -11.5449 -11.4909 -11.4890 -11.4819 -11.4730 -11.4700 -11.4657
   -11.4515 -11.3977 -11.3650 -11.3178 -11.3093 -11.3009 -11.2831 -11.2522
   -11.2267 -11.2109 -11.1864 -11.1514 -11.1397 -11.0849 -10.9983 -10.9816
   -10.9148 -10.8315  -8.0181  -4.8164  -4.6564  -4.6127  -4.5469  -4.3341
    -4.3212  -4.1912  -4.1779  -4.0969  -4.0956  -3.9984  -3.9846  -3.9710
    -3.8650  -3.8519  -3.8435  -3.7954  -3.6437  -3.6247  -3.6187  -3.5881
    -3.5854  -3.5775  -3.5736  -3.5639  -3.5468  -3.4322  -3.4204  -3.4160
    -3.3643  -3.3572  -3.3510  -3.3361  -3.3248  -3.3021  -3.2923  -3.2889
    -3.2180  -3.2065  -3.1877  -3.0901  -3.0820  -3.0375  -3.0337  -2.9974
    -2.9944  -2.9411  -2.9162  -2.9082  -2.8971  -2.8849  -2.7850  -2.7768
    -2.7674  -2.7505  -2.6329  -2.6211  -2.6013  -2.5889  -2.5503  -2.4749
    -2.4374  -2.4034  -2.3947  -2.3884  -2.3781  -2.3693  -2.3506  -2.3409
    -2.3347  -2.3239  -2.3092  -2.3031  -2.2786  -2.2738  -2.2587  -2.2500
    -2.2339  -2.2301  -2.2239  -2.2187  -2.2111  -2.2013  -2.1393  -2.1221
    -2.1189  -2.0906  -2.0742  -2.0673  -2.0487  -2.0222  -2.0073  -1.9845
    -1.9759  -1.9596  -1.9535  -1.9278  -1.9213  -1.9107  -1.9053  -1.8991
    -1.8861  -1.8573  -1.8462  -1.8336  -1.8174  -1.8095  -1.7936  -1.7868
    -1.7813  -1.7740  -1.7594  -1.7466  -1.7230  -1.7158  -1.7123  -1.7047
    -1.6950  -1.6865  -1.6731  -1.6499  -1.6398  -1.6207  -1.6008  -1.5900
    -1.5515  -1.5306  -1.5152  -1.5013  -1.4840  -1.4774  -1.4553  -1.4491
    -1.4418  -1.4159  -1.4047  -1.3998  -1.3937  -1.3851  -1.3757  -1.3326
    -1.3182  -1.3100  -1.3004  -1.2921  -1.2858  -1.2747  -1.2698  -1.2479
    -1.2405  -1.2313  -1.2157  -1.2018  -1.1759  -1.1442  -1.1238  -1.1075
    -1.0917  -1.0791  -1.0716  -1.0613  -1.0281  -1.0258  -1.0059  -0.9899
    -0.9742  -0.9637  -0.9340  -0.9187  -0.9120  -0.8951  -0.8909  -0.8570
    -0.8445  -0.8368  -0.8300  -0.8148  -0.7951  -0.7857  -0.7736  -0.7548
    -0.7304  -0.7099  -0.6889  -0.6628  -0.6516  -0.5872  -0.5635  -0.5447
    -0.5356  -0.5192  -0.5053  -0.4898  -0.4595  -0.4400  -0.4025  -0.3755
    -0.3669  -0.3460  -0.3244  -0.2896  -0.2574  -0.2206  -0.1931  -0.1579
    -0.0612  -0.0503  -0.0232   0.0341   0.1176   0.1523   0.2074   0.2709
     0.5614   0.7166   0.9348   0.9810   1.0150   1.0787   1.1256   1.1573
     1.1855   1.3581   1.3831   1.4640   1.6708   1.8430   1.9492   1.9980
     2.0222   2.0634   2.0937   2.1373   2.1717   2.1918   2.2506   2.3017
     2.3212   2.3492   2.4070   2.4136   2.4841   2.5032   2.5243   2.6531
     2.6734   2.6925   2.7266   2.7488   2.7830   2.7975   2.8135   2.8379
     2.8966   2.9183   2.9379   2.9739   3.0097   3.0274   3.0794   3.0907
     3.1105   3.1314   3.1428   3.1568   3.1776   3.1897   3.2071   3.2208
     3.2396   3.2551   3.2699   3.2885   3.3057   3.3219   3.3425   3.3785
     3.3975   3.4070   3.4391   3.4573   3.4722   3.5024   3.5133   3.5220
     3.5487   3.5608   3.5690   3.5825   3.5848   3.6128   3.6274   3.6625
     3.7012   3.7293   3.7457   3.7581   3.7734   3.7854   3.7993   3.8076
     3.8226   3.8513   3.8598   3.8862   3.8937   3.9136   3.9296   3.9329
     3.9392   3.9689   3.9791   4.0033   4.0178   4.0272   4.0541   4.0655
     4.0902   4.0951   4.1074   4.1237   4.1362   4.1520   4.1678   4.1909
     4.2069   4.2239   4.2331   4.2452   4.2568   4.2606   4.2660   4.2794
     4.2900   4.2943   4.3055   4.3264   4.3387   4.3513   4.3608   4.3682
     4.3782   4.3841   4.3865   4.3907   4.3972   4.4054   4.4160   4.4274
     4.4321   4.4433   4.4514   4.4542   4.4670   4.4703   4.4749   4.4805
     4.4840   4.4992   4.5075   4.5232   4.5312   4.5476   4.5536   4.5620
     4.5725   4.5782   4.5852   4.5929   4.6043   4.6225   4.6271   4.6452
     4.6548   4.6641   4.6733   4.6906   4.6979   4.7081   4.7216   4.7235
     4.7397   4.7555   4.7732   4.7857   4.7932   4.8006   4.8051   4.8215
     4.8444   4.8521   4.8582   4.8693   4.8755   4.8815   4.8921   4.8967
     4.9031   4.9105   4.9147   4.9273   4.9334   4.9545   4.9602   4.9674
     4.9796   4.9824   4.9946   5.0016   5.0091   5.0175   5.0216   5.0261
     5.0278   5.0330   5.0387   5.0484   5.0517   5.0616   5.0725   5.0908
     5.0933

          k = 0.2500-0.5000 0.0000 (135080 PWs)   bands (ev):

   -61.6871 -61.6726 -61.6711 -61.6629 -61.6615 -61.6506 -61.6476 -61.6418
   -61.6405 -61.6397 -61.6385 -61.6366 -61.6338 -61.6307 -61.6266 -61.6195
   -61.6192 -61.6125 -61.6040 -61.5996 -61.5958 -61.5947 -61.5895 -61.5868
   -61.5845 -61.5841 -61.5822 -61.5814 -61.5804 -61.5793 -61.5780 -61.5764
   -61.5734 -61.5712 -61.5704 -61.5682 -61.5679 -61.5647 -61.5612 -61.5590
   -61.5574 -61.5530 -61.5402 -61.5273 -61.5246 -61.5143 -61.5112 -61.5051
   -61.4999 -61.4932 -61.4837 -61.4780 -61.4603 -61.4574 -61.4495 -61.4448
   -61.4366 -61.4313 -61.4209 -61.4138 -61.4084 -61.3990 -61.3860 -61.3788
   -61.3756 -61.3705 -61.3679 -61.3662 -61.3652 -61.3602 -61.3501 -61.3216
   -44.3212 -42.7533 -35.7899 -35.7865 -35.7444 -35.7428 -35.7395 -35.7388
   -35.7365 -35.7337 -35.7269 -35.7234 -35.7212 -35.7184 -35.7036 -35.7016
   -35.6987 -35.6948 -35.6831 -35.6817 -35.6788 -35.6739 -35.6715 -35.6703
   -35.6699 -35.6658 -35.6638 -35.6630 -35.6591 -35.6575 -35.6543 -35.6533
   -35.6488 -35.6457 -35.6439 -35.6413 -35.6396 -35.6374 -35.6362 -35.6348
   -35.6326 -35.6300 -35.6280 -35.6266 -35.6243 -35.6221 -35.6210 -35.6168
   -35.6162 -35.6144 -35.6095 -35.6068 -35.6043 -35.6012 -35.5964 -35.5878
   -35.5835 -35.5816 -35.5759 -35.5703 -35.5633 -35.5598 -35.5544 -35.5535
   -35.5464 -35.5443 -35.5420 -35.5386 -35.5352 -35.5341 -35.5319 -35.5298
   -35.5283 -35.5213 -35.5196 -35.5100 -35.5067 -35.5042 -35.4967 -35.4920
   -35.4901 -35.4886 -35.4877 -35.4854 -35.4831 -35.4793 -35.4781 -35.4741
   -35.4726 -35.4696 -35.4683 -35.4663 -35.4656 -35.4649 -35.4637 -35.4628
   -35.4614 -35.4580 -35.4566 -35.4557 -35.4533 -35.4511 -35.4501 -35.4496
   -35.4474 -35.4445 -35.4412 -35.4389 -35.4359 -35.4349 -35.4343 -35.4291
   -35.4283 -35.4261 -35.4244 -35.4230 -35.4203 -35.4182 -35.4136 -35.4103
   -35.4082 -35.4069 -35.4050 -35.4004 -35.3986 -35.3961 -35.3941 -35.3917
   -35.3889 -35.3870 -35.3866 -35.3848 -35.3843 -35.3813 -35.3800 -35.3782
   -35.3769 -35.3759 -35.3725 -35.3716 -35.3705 -35.3677 -35.3653 -35.3650
   -35.3632 -35.3621 -35.3607 -35.3592 -35.3578 -35.3558 -35.3541 -35.3525
   -35.3496 -35.3484 -35.3471 -35.3459 -35.3451 -35.3413 -35.3385 -35.3376
   -35.3346 -35.3308 -35.3290 -35.3255 -35.3165 -35.3143 -35.3126 -35.3079
   -35.3026 -35.2982 -35.2952 -35.2917 -35.2854 -35.2830 -35.2766 -35.2730
   -35.2714 -35.2648 -35.2610 -35.2546 -35.2508 -35.2472 -35.2450 -35.2424
   -35.2396 -35.2344 -35.2289 -35.2275 -35.2238 -35.2214 -35.2194 -35.2140
   -35.2113 -35.2089 -35.2024 -35.2001 -35.1941 -35.1841 -35.1820 -35.1779
   -35.1736 -35.1704 -35.1695 -35.1645 -35.1611 -35.1569 -35.1479 -35.1431
   -35.1382 -35.1319 -35.1256 -35.1217 -35.1148 -35.1122 -35.1086 -35.0925
   -35.0776 -35.0729 -13.8070 -13.7940 -13.4646 -13.4514 -12.9574 -12.9463
   -12.9368 -12.9246 -12.8424 -12.7351 -12.6632 -12.6526 -12.5590 -12.4906
   -12.4750 -12.4514 -12.4227 -12.3980 -12.3386 -12.3130 -12.3094 -12.3032
   -12.2561 -12.2414 -12.2211 -12.1938 -12.1913 -12.1727 -12.1677 -12.1655
   -12.1590 -12.0864 -12.0772 -12.0539 -12.0462 -12.0300 -12.0131 -11.9860
   -11.9189 -11.9152 -11.9025 -11.8627 -11.7929 -11.7628 -11.5922 -11.5889
   -11.5500 -11.5468 -11.5419 -11.5410 -11.4596 -11.4448 -11.4352 -11.4339
   -11.4043 -11.4007 -11.3739 -11.3619 -11.3531 -11.3419 -11.2936 -11.2531
   -11.2283 -11.1813 -11.1454 -11.1406 -11.1291 -11.1095 -11.0127 -11.0010
   -10.8769 -10.8312  -8.0181  -4.8546  -4.7799  -4.6576  -4.6469  -4.3317
    -4.2538  -4.1581  -4.1357  -4.0577  -4.0408  -3.8838  -3.8796  -3.8534
    -3.8199  -3.7950  -3.7857  -3.7766  -3.7187  -3.7018  -3.6825  -3.6492
    -3.6371  -3.5958  -3.5862  -3.5787  -3.5641  -3.5510  -3.5216  -3.4322
    -3.4211  -3.3397  -3.3326  -3.3151  -3.3082  -3.2901  -3.2664  -3.2312
    -3.2256  -3.1414  -3.0979  -3.0943  -3.0834  -3.0707  -3.0395  -3.0267
    -3.0220  -2.9716  -2.9579  -2.9401  -2.8933  -2.7938  -2.7873  -2.7767
    -2.7615  -2.7420  -2.7264  -2.6625  -2.6448  -2.6263  -2.5593  -2.5360
    -2.5017  -2.4718  -2.4561  -2.4217  -2.3939  -2.3652  -2.3467  -2.3348
    -2.3264  -2.2974  -2.2837  -2.2768  -2.2675  -2.2550  -2.2495  -2.2351
    -2.2191  -2.2036  -2.1796  -2.1669  -2.1576  -2.1490  -2.1347  -2.1256
    -2.1148  -2.1130  -2.0982  -2.0817  -2.0569  -2.0422  -2.0353  -2.0278
    -2.0191  -2.0028  -1.9819  -1.9714  -1.9607  -1.9496  -1.9415  -1.9243
    -1.9080  -1.8912  -1.8712  -1.8673  -1.8588  -1.8516  -1.8414  -1.8350
    -1.8273  -1.8176  -1.7909  -1.7889  -1.7782  -1.7191  -1.6903  -1.6759
    -1.6737  -1.6616  -1.6389  -1.5814  -1.5444  -1.5245  -1.5159  -1.5100
    -1.4921  -1.4516  -1.4454  -1.4411  -1.4344  -1.4300  -1.4176  -1.4016
    -1.3853  -1.3697  -1.3604  -1.3534  -1.3318  -1.3183  -1.3121  -1.3058
    -1.2910  -1.2854  -1.2731  -1.2615  -1.2542  -1.2250  -1.2178  -1.2100
    -1.1936  -1.1903  -1.1639  -1.1536  -1.1453  -1.1375  -1.1223  -1.1104
    -1.0950  -1.0854  -1.0788  -1.0679  -1.0449  -1.0395  -1.0194  -1.0024
    -0.9841  -0.9756  -0.9336  -0.9098  -0.8956  -0.8747  -0.8677  -0.8631
    -0.8352  -0.8211  -0.8122  -0.7965  -0.7690  -0.7526  -0.7410  -0.7245
    -0.7109  -0.6911  -0.6478  -0.6349  -0.6232  -0.6029  -0.5812  -0.5512
    -0.5449  -0.5245  -0.5138  -0.4962  -0.4823  -0.4700  -0.4592  -0.4341
    -0.4194  -0.4140  -0.3419  -0.2819  -0.2605  -0.2474  -0.2281  -0.1343
    -0.1093  -0.0865  -0.0665   0.0413   0.0642   0.1045   0.1355   0.2875
     0.2984   0.4857   0.5144   1.0054   1.0790   1.1235   1.4280   1.4460
     1.4857   1.5596   1.5980   1.6173   1.6383   1.6830   1.7833   1.8017
     1.8084   1.8333   1.9274   2.0387   2.1472   2.1876   2.2003   2.2390
     2.2574   2.2944   2.3628   2.3762   2.4686   2.4793   2.4971   2.5646
     2.6497   2.6720   2.6816   2.7004   2.7183   2.7490   2.7979   2.8279
     2.8766   2.9005   2.9169   2.9303   2.9488   2.9620   2.9874   2.9993
     3.0233   3.0278   3.0604   3.0951   3.1171   3.1536   3.1919   3.2107
     3.2318   3.2459   3.2634   3.2790   3.3140   3.3423   3.3552   3.3742
     3.3815   3.4043   3.4468   3.4612   3.4750   3.4947   3.5361   3.5916
     3.6041   3.6182   3.6292   3.6382   3.6653   3.6835   3.7044   3.7149
     3.7256   3.7317   3.7743   3.7846   3.8048   3.8181   3.8360   3.8575
     3.8683   3.8859   3.9123   3.9251   3.9345   3.9597   3.9923   4.0015
     4.0235   4.0309   4.0428   4.0523   4.0626   4.0874   4.0931   4.1136
     4.1359   4.1487   4.1578   4.1682   4.1749   4.1906   4.2051   4.2098
     4.2180   4.2353   4.2373   4.2463   4.2575   4.2640   4.2668   4.2731
     4.2805   4.2835   4.2921   4.2949   4.3031   4.3123   4.3241   4.3295
     4.3368   4.3541   4.3634   4.3809   4.3865   4.3914   4.4055   4.4090
     4.4137   4.4166   4.4233   4.4295   4.4418   4.4529   4.4635   4.4684
     4.4826   4.4908   4.5005   4.5051   4.5349   4.5426   4.5694   4.5930
     4.5990   4.6106   4.6261   4.6390   4.6532   4.6691   4.6746   4.6851
     4.6884   4.6946   4.7020   4.7149   4.7323   4.7421   4.7528   4.7725
     4.7754   4.7828   4.7944   4.7996   4.8159   4.8248   4.8322   4.8413
     4.8491   4.8566   4.8592   4.8682   4.8799   4.8898   4.8987   4.9080
     4.9129   4.9218   4.9275   4.9330   4.9392   4.9436   4.9509   4.9597
     4.9635   4.9704   4.9759   4.9801   4.9861   4.9949   5.0007   5.0062
     5.0179   5.0302   5.0458   5.0513   5.0602   5.0637   5.0720   5.0804
     5.0892

          k =-0.5000-0.5000 0.0000 (135004 PWs)   bands (ev):

   -61.6871 -61.6711 -61.6696 -61.6658 -61.6652 -61.6472 -61.6427 -61.6415
   -61.6409 -61.6405 -61.6386 -61.6373 -61.6354 -61.6332 -61.6274 -61.6187
   -61.6171 -61.6134 -61.6040 -61.5994 -61.5962 -61.5950 -61.5897 -61.5853
   -61.5842 -61.5836 -61.5826 -61.5814 -61.5806 -61.5786 -61.5779 -61.5771
   -61.5766 -61.5711 -61.5701 -61.5688 -61.5662 -61.5623 -61.5616 -61.5606
   -61.5574 -61.5530 -61.5403 -61.5277 -61.5240 -61.5135 -61.5112 -61.5064
   -61.4995 -61.4932 -61.4838 -61.4779 -61.4604 -61.4574 -61.4496 -61.4448
   -61.4366 -61.4313 -61.4209 -61.4138 -61.4084 -61.3990 -61.3860 -61.3788
   -61.3757 -61.3702 -61.3681 -61.3660 -61.3654 -61.3602 -61.3501 -61.3216
   -44.3212 -42.7533 -35.7962 -35.7929 -35.7491 -35.7458 -35.7356 -35.7337
   -35.7322 -35.7282 -35.7094 -35.7077 -35.7053 -35.7038 -35.7035 -35.7021
   -35.7011 -35.6985 -35.6914 -35.6867 -35.6845 -35.6838 -35.6804 -35.6751
   -35.6710 -35.6688 -35.6677 -35.6646 -35.6619 -35.6614 -35.6605 -35.6588
   -35.6583 -35.6519 -35.6499 -35.6454 -35.6398 -35.6381 -35.6371 -35.6368
   -35.6343 -35.6322 -35.6301 -35.6294 -35.6236 -35.6190 -35.6162 -35.6121
   -35.6105 -35.6050 -35.6011 -35.5996 -35.5932 -35.5905 -35.5882 -35.5837
   -35.5808 -35.5782 -35.5776 -35.5752 -35.5685 -35.5681 -35.5662 -35.5535
   -35.5481 -35.5458 -35.5438 -35.5433 -35.5393 -35.5378 -35.5333 -35.5160
   -35.5152 -35.5129 -35.5117 -35.5113 -35.5099 -35.5012 -35.5004 -35.4974
   -35.4954 -35.4937 -35.4909 -35.4890 -35.4851 -35.4813 -35.4806 -35.4743
   -35.4717 -35.4710 -35.4691 -35.4686 -35.4675 -35.4653 -35.4638 -35.4634
   -35.4624 -35.4612 -35.4576 -35.4570 -35.4558 -35.4548 -35.4520 -35.4495
   -35.4479 -35.4462 -35.4444 -35.4381 -35.4335 -35.4318 -35.4279 -35.4268
   -35.4150 -35.4117 -35.4097 -35.4091 -35.4085 -35.4082 -35.4069 -35.4053
   -35.4039 -35.4035 -35.4028 -35.4019 -35.4011 -35.3999 -35.3995 -35.3984
   -35.3977 -35.3965 -35.3959 -35.3949 -35.3941 -35.3902 -35.3894 -35.3877
   -35.3864 -35.3723 -35.3708 -35.3687 -35.3666 -35.3657 -35.3646 -35.3637
   -35.3629 -35.3618 -35.3601 -35.3576 -35.3559 -35.3557 -35.3533 -35.3511
   -35.3491 -35.3473 -35.3457 -35.3437 -35.3426 -35.3411 -35.3385 -35.3351
   -35.3338 -35.3303 -35.3298 -35.3264 -35.3250 -35.3172 -35.3147 -35.3074
   -35.3035 -35.2965 -35.2949 -35.2886 -35.2868 -35.2789 -35.2756 -35.2717
   -35.2697 -35.2640 -35.2613 -35.2533 -35.2517 -35.2477 -35.2450 -35.2418
   -35.2384 -35.2363 -35.2279 -35.2251 -35.2237 -35.2229 -35.2208 -35.2155
   -35.2113 -35.2097 -35.2048 -35.2014 -35.1916 -35.1882 -35.1836 -35.1771
   -35.1728 -35.1702 -35.1671 -35.1648 -35.1599 -35.1571 -35.1495 -35.1439
   -35.1370 -35.1320 -35.1252 -35.1218 -35.1140 -35.1118 -35.1083 -35.0927
   -35.0779 -35.0729 -13.6794 -13.6656 -13.6615 -13.6571 -12.8446 -12.8343
   -12.8316 -12.8259 -12.7441 -12.7341 -12.7272 -12.7148 -12.6318 -12.6243
   -12.6188 -12.6039 -12.3815 -12.3595 -12.3479 -12.3381 -12.2795 -12.2728
   -12.2603 -12.2560 -12.1430 -12.1424 -12.1379 -12.1289 -12.1120 -12.1036
   -12.0893 -12.0864 -12.0691 -12.0656 -12.0641 -12.0630 -12.0565 -11.9836
   -11.9564 -11.9422 -11.9360 -11.9043 -11.8794 -11.8740 -11.4942 -11.4940
   -11.4930 -11.4920 -11.4873 -11.4775 -11.4737 -11.4700 -11.4682 -11.4665
   -11.4659 -11.4604 -11.3896 -11.3730 -11.3359 -11.3265 -11.2970 -11.2577
   -11.2453 -11.1799 -11.1682 -11.1143 -11.1060 -11.1043 -11.0454 -11.0359
   -10.8576 -10.8025  -8.0182  -4.9111  -4.8848  -4.7256  -4.7234  -4.0308
    -4.0207  -4.0136  -4.0002  -3.9729  -3.9657  -3.9619  -3.9539  -3.8954
    -3.8878  -3.8468  -3.8417  -3.8241  -3.8194  -3.8110  -3.8075  -3.7965
    -3.7915  -3.6585  -3.6517  -3.4301  -3.4202  -3.4151  -3.4080  -3.4037
    -3.3956  -3.3681  -3.3596  -3.3524  -3.3384  -3.3239  -3.3176  -3.1957
    -3.1808  -3.1763  -3.1609  -3.0693  -3.0650  -3.0607  -3.0581  -2.8938
    -2.8815  -2.8806  -2.8781  -2.8775  -2.8673  -2.8439  -2.8324  -2.8163
    -2.7934  -2.7892  -2.7832  -2.7617  -2.7568  -2.6641  -2.6530  -2.6376
    -2.6240  -2.5614  -2.5385  -2.4524  -2.4428  -2.3885  -2.3669  -2.3517
    -2.3103  -2.2588  -2.2517  -2.2441  -2.2349  -2.2200  -2.1988  -2.1974
    -2.1916  -2.1858  -2.1760  -2.1717  -2.1607  -2.1543  -2.1531  -2.1417
    -2.1400  -2.1305  -2.1227  -2.1160  -2.1125  -2.1122  -2.0840  -1.9357
    -1.9266  -1.9223  -1.9141  -1.9115  -1.9035  -1.9004  -1.8932  -1.8885
    -1.8834  -1.8785  -1.8774  -1.8692  -1.8616  -1.8559  -1.8426  -1.8349
    -1.8339  -1.8320  -1.8208  -1.7972  -1.7912  -1.7302  -1.7244  -1.7057
    -1.6887  -1.6654  -1.6495  -1.6282  -1.6124  -1.5745  -1.5430  -1.5371
    -1.5183  -1.4938  -1.4872  -1.4831  -1.4754  -1.3931  -1.3528  -1.3427
    -1.3271  -1.3100  -1.3043  -1.2997  -1.2922  -1.2865  -1.2618  -1.2587
    -1.2484  -1.2354  -1.2198  -1.2004  -1.1970  -1.1838  -1.1604  -1.1417
    -1.1328  -1.1271  -1.1066  -1.1015  -1.0912  -1.0860  -1.0743  -1.0653
    -1.0576  -1.0425  -1.0328  -1.0260  -1.0201  -0.9958  -0.9859  -0.9686
    -0.9619  -0.9290  -0.9120  -0.9065  -0.8960  -0.8846  -0.8704  -0.8617
    -0.8489  -0.8393  -0.8076  -0.7761  -0.7652  -0.7604  -0.7573  -0.7492
    -0.7070  -0.7012  -0.6995  -0.6906  -0.6773  -0.6652  -0.6541  -0.6211
    -0.6001  -0.5546  -0.4877  -0.4230  -0.4208  -0.4085  -0.4050  -0.3865
    -0.3637  -0.3560  -0.3376  -0.3296  -0.3010  -0.2701  -0.2493  -0.1640
    -0.1070  -0.1000  -0.0575  -0.0497  -0.0411  -0.0299  -0.0232   0.1716
     0.1932   0.2888   0.3221   1.0250   1.3498   1.4471   1.4765   1.5421
     1.6128   1.6427   1.6635   1.6867   1.7023   1.7204   1.7421   1.7632
     1.7860   1.8497   1.9389   1.9833   2.0033   2.0424   2.0527   2.0679
     2.0706   2.0949   2.1126   2.1332   2.2097   2.2787   2.5719   2.5858
     2.6103   2.6199   2.7770   2.7845   2.7878   2.7952   2.8178   2.8344
     2.8450   2.8508   2.8803   2.8919   2.8966   2.9103   2.9346   2.9477
     2.9595   2.9677   2.9883   3.0045   3.0267   3.0384   3.1117   3.1211
     3.1255   3.1463   3.1564   3.1979   3.2262   3.2859   3.5087   3.5136
     3.5258   3.5317   3.5606   3.5839   3.6071   3.6239   3.6349   3.6531
     3.6608   3.6705   3.6803   3.6981   3.6999   3.7228   3.7323   3.7750
     3.7889   3.7968   3.8018   3.8130   3.8258   3.9178   3.9208   3.9369
     3.9497   3.9524   3.9576   3.9639   3.9784   3.9860   4.0003   4.0031
     4.0171   4.0265   4.0383   4.0445   4.0580   4.0690   4.0831   4.0877
     4.1126   4.1233   4.1381   4.1506   4.1568   4.1735   4.1809   4.2009
     4.2093   4.2172   4.2219   4.2360   4.2395   4.2510   4.2588   4.2752
     4.2818   4.2847   4.2932   4.2963   4.3012   4.3067   4.3143   4.3161
     4.3217   4.3362   4.3440   4.3465   4.3627   4.3734   4.3793   4.3893
     4.3900   4.3949   4.4076   4.4127   4.4240   4.4377   4.4515   4.4556
     4.4582   4.4732   4.4847   4.5199   4.5343   4.5654   4.5808   4.5831
     4.6254   4.6473   4.6591   4.6731   4.6898   4.6932   4.7079   4.7091
     4.7215   4.7380   4.7538   4.7657   4.7717   4.7775   4.7888   4.7924
     4.8029   4.8049   4.8104   4.8188   4.8393   4.8452   4.8574   4.8662
     4.8762   4.8797   4.8857   4.8921   4.8945   4.8980   4.8997   4.9046
     4.9101   4.9135   4.9228   4.9267   4.9299   4.9357   4.9399   4.9425
     4.9446   4.9498   4.9514   4.9553   4.9689   4.9815   4.9871   5.0032
     5.0104   5.0163   5.0237   5.0453   5.0602   5.0734   5.1007   5.1036
     5.1068

          k = 0.2500 0.0000 0.0000 (135097 PWs)   bands (ev):

   -61.6871 -61.6764 -61.6674 -61.6595 -61.6572 -61.6538 -61.6525 -61.6473
   -61.6434 -61.6400 -61.6346 -61.6327 -61.6309 -61.6281 -61.6263 -61.6241
   -61.6193 -61.6122 -61.6043 -61.5985 -61.5971 -61.5929 -61.5890 -61.5882
   -61.5861 -61.5842 -61.5836 -61.5829 -61.5800 -61.5778 -61.5749 -61.5743
   -61.5727 -61.5721 -61.5705 -61.5683 -61.5681 -61.5675 -61.5627 -61.5571
   -61.5565 -61.5536 -61.5403 -61.5271 -61.5246 -61.5142 -61.5126 -61.5052
   -61.4993 -61.4925 -61.4837 -61.4782 -61.4604 -61.4573 -61.4495 -61.4448
   -61.4366 -61.4313 -61.4209 -61.4138 -61.4083 -61.3991 -61.3858 -61.3789
   -61.3758 -61.3703 -61.3678 -61.3664 -61.3655 -61.3601 -61.3500 -61.3216
   -44.3212 -42.7533 -35.7771 -35.7749 -35.7571 -35.7546 -35.7523 -35.7509
   -35.7313 -35.7272 -35.7248 -35.7230 -35.7149 -35.7103 -35.7040 -35.7011
   -35.6992 -35.6967 -35.6940 -35.6922 -35.6917 -35.6905 -35.6765 -35.6691
   -35.6667 -35.6621 -35.6592 -35.6570 -35.6548 -35.6531 -35.6526 -35.6509
   -35.6472 -35.6434 -35.6416 -35.6388 -35.6352 -35.6339 -35.6325 -35.6310
   -35.6294 -35.6277 -35.6256 -35.6238 -35.6214 -35.6195 -35.6178 -35.6153
   -35.6135 -35.6117 -35.6096 -35.6050 -35.5987 -35.5960 -35.5945 -35.5908
   -35.5857 -35.5823 -35.5730 -35.5704 -35.5667 -35.5647 -35.5598 -35.5559
   -35.5538 -35.5521 -35.5498 -35.5468 -35.5452 -35.5365 -35.5348 -35.5236
   -35.5208 -35.5172 -35.5126 -35.5097 -35.5072 -35.5059 -35.4992 -35.4957
   -35.4948 -35.4928 -35.4914 -35.4874 -35.4844 -35.4834 -35.4811 -35.4784
   -35.4747 -35.4725 -35.4707 -35.4691 -35.4673 -35.4640 -35.4622 -35.4595
   -35.4583 -35.4549 -35.4507 -35.4487 -35.4476 -35.4452 -35.4429 -35.4425
   -35.4401 -35.4381 -35.4373 -35.4359 -35.4345 -35.4335 -35.4326 -35.4307
   -35.4287 -35.4267 -35.4260 -35.4247 -35.4209 -35.4187 -35.4164 -35.4131
   -35.4122 -35.4064 -35.4051 -35.4014 -35.3967 -35.3948 -35.3934 -35.3919
   -35.3897 -35.3870 -35.3860 -35.3853 -35.3835 -35.3815 -35.3806 -35.3787
   -35.3784 -35.3768 -35.3746 -35.3726 -35.3707 -35.3697 -35.3685 -35.3677
   -35.3666 -35.3660 -35.3621 -35.3605 -35.3591 -35.3561 -35.3546 -35.3539
   -35.3526 -35.3497 -35.3476 -35.3449 -35.3438 -35.3409 -35.3387 -35.3367
   -35.3351 -35.3296 -35.3271 -35.3203 -35.3186 -35.3137 -35.3092 -35.3044
   -35.2998 -35.2984 -35.2931 -35.2897 -35.2848 -35.2827 -35.2786 -35.2732
   -35.2716 -35.2669 -35.2625 -35.2544 -35.2526 -35.2495 -35.2464 -35.2417
   -35.2374 -35.2337 -35.2292 -35.2265 -35.2244 -35.2221 -35.2197 -35.2151
   -35.2102 -35.2081 -35.2031 -35.1980 -35.1924 -35.1853 -35.1809 -35.1781
   -35.1734 -35.1714 -35.1673 -35.1634 -35.1627 -35.1585 -35.1482 -35.1443
   -35.1374 -35.1309 -35.1275 -35.1197 -35.1155 -35.1133 -35.1089 -35.0921
   -35.0776 -35.0725 -13.9839 -13.6348 -13.3383 -13.3185 -13.1123 -13.0946
   -13.0170 -12.9955 -12.8098 -12.6238 -12.5730 -12.5611 -12.5392 -12.5170
   -12.4674 -12.4515 -12.4359 -12.4236 -12.3763 -12.3704 -12.3174 -12.3086
   -12.3006 -12.2415 -12.2344 -12.2095 -12.1792 -12.1702 -12.1601 -12.1569
   -12.1434 -12.1259 -12.0698 -12.0545 -12.0435 -11.9970 -11.9718 -11.9527
   -11.9343 -11.9108 -11.8411 -11.8365 -11.7094 -11.6983 -11.6917 -11.6176
   -11.6146 -11.6029 -11.5594 -11.5106 -11.4980 -11.4830 -11.4589 -11.4567
   -11.4360 -11.3358 -11.3318 -11.3141 -11.3116 -11.3041 -11.2799 -11.2486
   -11.2336 -11.2045 -11.2011 -11.1898 -11.1326 -11.0924 -11.0010 -10.9524
   -10.9175 -10.8570  -8.0180  -4.6375  -4.6086  -4.4513  -4.4422  -4.4211
    -4.3921  -4.3124  -4.3069  -4.2214  -4.1970  -4.0686  -4.0607  -3.8266
    -3.8130  -3.8025  -3.7921  -3.7619  -3.7286  -3.7053  -3.6368  -3.6336
    -3.5362  -3.5342  -3.5280  -3.5171  -3.4910  -3.4534  -3.4413  -3.4298
    -3.4007  -3.3597  -3.3506  -3.3437  -3.3346  -3.3272  -3.2876  -3.2211
    -3.1860  -3.1792  -3.1586  -3.1033  -3.0884  -3.0569  -3.0404  -3.0238
    -3.0072  -2.9711  -2.9548  -2.9259  -2.8681  -2.7855  -2.7673  -2.7097
    -2.6932  -2.6761  -2.6332  -2.6208  -2.6154  -2.6035  -2.5411  -2.5042
    -2.4393  -2.4068  -2.3782  -2.3680  -2.3593  -2.3430  -2.3262  -2.3040
    -2.2964  -2.2908  -2.2889  -2.2825  -2.2725  -2.2645  -2.2451  -2.2274
    -2.2151  -2.2059  -2.1928  -2.1683  -2.1612  -2.1533  -2.1441  -2.1184
    -2.0938  -2.0778  -2.0594  -2.0481  -2.0422  -2.0361  -2.0261  -2.0182
    -2.0095  -2.0028  -1.9949  -1.9889  -1.9849  -1.9521  -1.9317  -1.8899
    -1.8687  -1.8632  -1.8326  -1.8230  -1.8202  -1.8066  -1.8051  -1.7962
    -1.7826  -1.7632  -1.7541  -1.7277  -1.7052  -1.6827  -1.6802  -1.6764
    -1.6748  -1.6653  -1.6608  -1.6495  -1.6384  -1.6280  -1.6167  -1.6045
    -1.5903  -1.5766  -1.5520  -1.5488  -1.5441  -1.5305  -1.5248  -1.5002
    -1.4788  -1.4678  -1.4609  -1.4446  -1.4369  -1.4256  -1.3993  -1.3877
    -1.3653  -1.3438  -1.3351  -1.3227  -1.3052  -1.2876  -1.2818  -1.2735
    -1.2719  -1.2647  -1.2595  -1.2431  -1.2140  -1.1910  -1.1594  -1.1496
    -1.1150  -1.0993  -1.0886  -1.0778  -1.0598  -1.0470  -1.0359  -1.0102
    -1.0029  -0.9950  -0.9819  -0.9530  -0.9198  -0.8996  -0.8822  -0.8697
    -0.8635  -0.8499  -0.8425  -0.8257  -0.8103  -0.7953  -0.7569  -0.7186
    -0.6956  -0.6761  -0.6373  -0.6277  -0.6079  -0.5908  -0.5678  -0.5550
    -0.5263  -0.5078  -0.4983  -0.4886  -0.4763  -0.4472  -0.3920  -0.3581
    -0.3199  -0.2985  -0.2630  -0.2235  -0.2042  -0.1839  -0.1746  -0.1467
    -0.1391  -0.0678   0.0127   0.0912   0.1252   0.2699   0.3543   0.4356
     0.7702   0.7928   0.8480   0.9239   0.9563   1.0001   1.0507   1.1188
     1.2414   1.2703   1.2984   1.3387   1.6622   1.7752   1.8570   1.9808
     2.0310   2.1268   2.1560   2.1848   2.2417   2.2654   2.3011   2.3413
     2.4589   2.6182   2.6313   2.6585   2.6693   2.6893   2.7130   2.7213
     2.7397   2.7546   2.7889   2.8016   2.8263   2.8570   2.8624   2.8803
     2.8871   2.9071   2.9172   2.9383   2.9630   2.9800   3.0225   3.0645
     3.0790   3.1210   3.1472   3.1781   3.1908   3.2098   3.2334   3.2468
     3.2615   3.2760   3.2947   3.3059   3.3120   3.3314   3.3438   3.3595
     3.3633   3.3931   3.4093   3.4185   3.4535   3.4858   3.5019   3.5063
     3.5303   3.5453   3.5608   3.5730   3.5905   3.6066   3.6233   3.6508
     3.6583   3.6934   3.7012   3.7136   3.7339   3.7398   3.7577   3.7648
     3.7920   3.8111   3.8260   3.8450   3.8576   3.8689   3.8813   3.8965
     3.9184   3.9299   3.9443   3.9561   3.9599   3.9713   3.9859   4.0017
     4.0123   4.0256   4.0492   4.0653   4.0792   4.1101   4.1239   4.1379
     4.1590   4.1834   4.1943   4.2246   4.2379   4.2713   4.2926   4.2953
     4.3053   4.3169   4.3225   4.3299   4.3407   4.3432   4.3497   4.3545
     4.3660   4.3800   4.3856   4.3885   4.3940   4.4009   4.4149   4.4235
     4.4310   4.4442   4.4541   4.4701   4.4786   4.4897   4.4940   4.5073
     4.5091   4.5116   4.5197   4.5286   4.5344   4.5375   4.5521   4.5582
     4.5600   4.5735   4.5896   4.6031   4.6144   4.6233   4.6361   4.6468
     4.6503   4.6549   4.6670   4.6773   4.6838   4.6904   4.7074   4.7109
     4.7389   4.7450   4.7535   4.7646   4.7813   4.7948   4.7981   4.8092
     4.8166   4.8292   4.8405   4.8478   4.8667   4.8726   4.8788   4.8920
     4.8985   4.9181   4.9239   4.9365   4.9425   4.9546   4.9624   4.9694
     4.9745   4.9848   4.9881   4.9992   5.0140   5.0209   5.0325   5.0366
     5.0448   5.0555   5.0646   5.0683   5.0869   5.0908   5.0929   5.0968
     5.0989

          k =-0.5000 0.0000 0.0000 (135178 PWs)   bands (ev):

   -61.6871 -61.6736 -61.6720 -61.6579 -61.6570 -61.6550 -61.6538 -61.6423
   -61.6414 -61.6388 -61.6368 -61.6358 -61.6332 -61.6278 -61.6260 -61.6242
   -61.6175 -61.6125 -61.6042 -61.5985 -61.5977 -61.5928 -61.5890 -61.5885
   -61.5850 -61.5840 -61.5832 -61.5819 -61.5804 -61.5789 -61.5766 -61.5748
   -61.5722 -61.5715 -61.5704 -61.5688 -61.5680 -61.5675 -61.5596 -61.5588
   -61.5568 -61.5538 -61.5404 -61.5275 -61.5240 -61.5132 -61.5126 -61.5066
   -61.4990 -61.4924 -61.4838 -61.4782 -61.4604 -61.4573 -61.4496 -61.4448
   -61.4365 -61.4313 -61.4209 -61.4138 -61.4083 -61.3991 -61.3858 -61.3789
   -61.3758 -61.3701 -61.3679 -61.3664 -61.3655 -61.3601 -61.3501 -61.3216
   -44.3212 -42.7533 -35.7725 -35.7709 -35.7681 -35.7678 -35.7344 -35.7332
   -35.7312 -35.7298 -35.7283 -35.7266 -35.7209 -35.7188 -35.7157 -35.7143
   -35.7119 -35.7108 -35.6803 -35.6736 -35.6700 -35.6684 -35.6682 -35.6647
   -35.6610 -35.6603 -35.6576 -35.6548 -35.6520 -35.6498 -35.6492 -35.6478
   -35.6442 -35.6428 -35.6410 -35.6399 -35.6389 -35.6380 -35.6364 -35.6361
   -35.6341 -35.6334 -35.6317 -35.6290 -35.6267 -35.6253 -35.6187 -35.6181
   -35.6154 -35.6135 -35.6112 -35.6089 -35.6039 -35.6030 -35.6003 -35.5981
   -35.5928 -35.5914 -35.5883 -35.5686 -35.5661 -35.5635 -35.5495 -35.5491
   -35.5459 -35.5405 -35.5396 -35.5385 -35.5335 -35.5318 -35.5294 -35.5233
   -35.5213 -35.5205 -35.5183 -35.5162 -35.5108 -35.5091 -35.5020 -35.4973
   -35.4906 -35.4872 -35.4822 -35.4804 -35.4783 -35.4742 -35.4726 -35.4713
   -35.4701 -35.4692 -35.4677 -35.4649 -35.4645 -35.4628 -35.4610 -35.4590
   -35.4571 -35.4563 -35.4558 -35.4524 -35.4515 -35.4502 -35.4499 -35.4483
   -35.4470 -35.4462 -35.4456 -35.4450 -35.4424 -35.4415 -35.4374 -35.4359
   -35.4347 -35.4324 -35.4299 -35.4277 -35.4234 -35.4228 -35.4216 -35.4164
   -35.4137 -35.4091 -35.4049 -35.4007 -35.3984 -35.3951 -35.3909 -35.3876
   -35.3857 -35.3848 -35.3832 -35.3799 -35.3794 -35.3784 -35.3771 -35.3764
   -35.3749 -35.3720 -35.3702 -35.3681 -35.3656 -35.3648 -35.3640 -35.3634
   -35.3616 -35.3605 -35.3597 -35.3583 -35.3573 -35.3558 -35.3547 -35.3537
   -35.3527 -35.3505 -35.3493 -35.3488 -35.3474 -35.3458 -35.3448 -35.3342
   -35.3319 -35.3317 -35.3283 -35.3239 -35.3191 -35.3150 -35.3130 -35.3021
   -35.3004 -35.2993 -35.2954 -35.2910 -35.2870 -35.2815 -35.2780 -35.2762
   -35.2726 -35.2686 -35.2618 -35.2550 -35.2520 -35.2512 -35.2459 -35.2440
   -35.2346 -35.2313 -35.2301 -35.2256 -35.2254 -35.2217 -35.2188 -35.2136
   -35.2127 -35.2023 -35.2021 -35.1976 -35.1939 -35.1848 -35.1803 -35.1791
   -35.1754 -35.1729 -35.1678 -35.1631 -35.1612 -35.1599 -35.1469 -35.1429
   -35.1391 -35.1310 -35.1266 -35.1208 -35.1154 -35.1123 -35.1087 -35.0925
   -35.0778 -35.0727 -13.8511 -13.8426 -13.2153 -13.2089 -13.1988 -13.1832
   -12.9940 -12.9883 -12.8828 -12.7735 -12.4766 -12.4663 -12.4621 -12.4552
   -12.4385 -12.4278 -12.3829 -12.3634 -12.3558 -12.3516 -12.3449 -12.3261
   -12.3182 -12.3135 -12.2645 -12.2535 -12.2307 -12.2039 -12.2012 -12.1959
   -12.1214 -12.1153 -12.1047 -12.0967 -12.0746 -12.0482 -11.9347 -11.9293
   -11.9167 -11.9007 -11.7525 -11.7499 -11.7486 -11.7425 -11.6496 -11.6242
   -11.5884 -11.5821 -11.5741 -11.5603 -11.5595 -11.5485 -11.4005 -11.3967
   -11.3950 -11.3947 -11.3884 -11.3627 -11.2887 -11.2658 -11.2439 -11.2361
   -11.2325 -11.2264 -11.2151 -11.1939 -11.1003 -11.0821 -10.9864 -10.9604
   -10.8902 -10.8834  -8.0181  -4.6587  -4.6523  -4.5397  -4.5343  -4.4594
    -4.4567  -4.4380  -4.4334  -3.9667  -3.9504  -3.9489  -3.9171  -3.8077
    -3.7893  -3.7877  -3.7770  -3.7695  -3.6059  -3.6008  -3.5895  -3.5768
    -3.5751  -3.5725  -3.5690  -3.5650  -3.5617  -3.4681  -3.4171  -3.4001
    -3.3886  -3.3780  -3.3515  -3.3456  -3.3377  -3.3309  -3.3134  -3.3097
    -3.3045  -3.2620  -3.2397  -3.1607  -3.1540  -3.1503  -3.1461  -3.0668
    -2.9183  -2.9138  -2.9017  -2.8900  -2.8867  -2.8848  -2.8411  -2.8295
    -2.8028  -2.6435  -2.4555  -2.4474  -2.4421  -2.4276  -2.4259  -2.4167
    -2.4105  -2.3987  -2.3855  -2.3778  -2.3674  -2.3657  -2.3498  -2.3443
    -2.3367  -2.3307  -2.3239  -2.3134  -2.2980  -2.2930  -2.2850  -2.2607
    -2.2489  -2.2351  -2.2305  -2.2140  -2.2104  -2.2019  -2.1960  -2.1883
    -2.1733  -2.1663  -2.1603  -2.0922  -2.0832  -2.0681  -2.0627  -2.0587
    -2.0445  -2.0291  -2.0231  -1.9843  -1.9407  -1.9232  -1.9102  -1.8776
    -1.8661  -1.8495  -1.8326  -1.8222  -1.8117  -1.8043  -1.7957  -1.7673
    -1.7609  -1.7433  -1.7317  -1.7243  -1.7151  -1.7112  -1.7018  -1.6906
    -1.6709  -1.6596  -1.6569  -1.6531  -1.6520  -1.6446  -1.6206  -1.6157
    -1.5745  -1.5638  -1.5314  -1.4990  -1.4799  -1.4458  -1.4358  -1.4282
    -1.4147  -1.3919  -1.3826  -1.3819  -1.3676  -1.3638  -1.3617  -1.3492
    -1.3334  -1.3216  -1.3190  -1.3042  -1.2924  -1.2888  -1.2850  -1.2736
    -1.2516  -1.2080  -1.1873  -1.1816  -1.1566  -1.1530  -1.1368  -1.1262
    -1.0925  -1.0832  -1.0787  -1.0510  -1.0404  -1.0300  -1.0130  -0.9961
    -0.9894  -0.9763  -0.9476  -0.9230  -0.8930  -0.8318  -0.8244  -0.8187
    -0.7978  -0.7953  -0.7825  -0.7802  -0.7625  -0.7510  -0.7445  -0.6945
    -0.6826  -0.6762  -0.6619  -0.6518  -0.6458  -0.6086  -0.5982  -0.5954
    -0.5769  -0.5551  -0.5499  -0.5145  -0.4671  -0.4557  -0.4283  -0.4225
    -0.3839  -0.3512  -0.3431  -0.3308  -0.3121  -0.2803  -0.2490  -0.2161
    -0.1988   0.1275   0.1317   0.1433   0.1619   0.2581   0.3022   0.3421
     0.3728   0.5688   0.6001   0.8320   0.8610   1.0576   1.3919   1.4123
     1.4333   1.4647   1.5479   1.6126   1.6294   1.6723   1.7053   1.7445
     1.7514   1.7703   1.9311   2.0663   2.2904   2.3075   2.4062   2.4227
     2.4429   2.5000   2.5703   2.5785   2.6342   2.6605   2.6800   2.7037
     2.7204   2.7307   2.7426   2.7756   2.8031   2.8344   2.8723   2.8883
     2.9016   2.9107   2.9260   2.9359   2.9627   2.9699   2.9833   2.9971
     3.0154   3.0228   3.0466   3.0578   3.0774   3.0881   3.1002   3.1379
     3.1491   3.1693   3.2515   3.2596   3.3162   3.3326   3.3515   3.3562
     3.3878   3.4122   3.4375   3.4507   3.4671   3.4788   3.5255   3.5431
     3.5529   3.5706   3.5864   3.5977   3.6246   3.6297   3.6423   3.6461
     3.6727   3.6782   3.7093   3.7225   3.7307   3.7520   3.7706   3.7741
     3.8009   3.8775   3.9015   3.9146   3.9183   3.9320   3.9515   3.9827
     4.0253   4.0287   4.0480   4.0722   4.0755   4.0844   4.0904   4.0979
     4.1094   4.1214   4.1410   4.1534   4.1625   4.1686   4.2046   4.2113
     4.2184   4.2259   4.2432   4.2455   4.2503   4.2575   4.2616   4.2748
     4.2804   4.2884   4.2919   4.2957   4.3001   4.3054   4.3184   4.3268
     4.3441   4.3677   4.3711   4.3839   4.3944   4.4074   4.4124   4.4244
     4.4438   4.4481   4.4550   4.4636   4.4684   4.4768   4.4852   4.5026
     4.5060   4.5141   4.5233   4.5396   4.5414   4.5436   4.5461   4.5643
     4.5734   4.5861   4.5918   4.6016   4.6114   4.6289   4.6327   4.6451
     4.6541   4.6666   4.6806   4.6882   4.7058   4.7137   4.7420   4.7431
     4.7553   4.7574   4.7758   4.7921   4.8045   4.8165   4.8334   4.8433
     4.8459   4.8535   4.8541   4.8580   4.8642   4.8661   4.8689   4.8760
     4.8831   4.8872   4.9007   4.9037   4.9102   4.9206   4.9261   4.9477
     4.9581   4.9633   4.9774   4.9828   4.9884   4.9961   4.9991   5.0041
     5.0133   5.0221   5.0384   5.0563   5.0656   5.0689   5.0748   5.0803
     5.0868

          k =-0.2500 0.2500 0.0000 (135083 PWs)   bands (ev):

   -61.6871 -61.6752 -61.6680 -61.6633 -61.6583 -61.6524 -61.6480 -61.6468
   -61.6430 -61.6387 -61.6353 -61.6342 -61.6328 -61.6303 -61.6263 -61.6216
   -61.6190 -61.6123 -61.6042 -61.5991 -61.5965 -61.5935 -61.5895 -61.5873
   -61.5853 -61.5842 -61.5832 -61.5821 -61.5807 -61.5780 -61.5765 -61.5753
   -61.5731 -61.5713 -61.5698 -61.5693 -61.5685 -61.5651 -61.5626 -61.5578
   -61.5570 -61.5532 -61.5402 -61.5272 -61.5247 -61.5143 -61.5119 -61.5052
   -61.4996 -61.4928 -61.4837 -61.4782 -61.4603 -61.4573 -61.4495 -61.4448
   -61.4366 -61.4313 -61.4209 -61.4138 -61.4084 -61.3991 -61.3859 -61.3788
   -61.3757 -61.3704 -61.3678 -61.3664 -61.3653 -61.3602 -61.3500 -61.3216
   -44.3212 -42.7533 -35.7871 -35.7772 -35.7551 -35.7526 -35.7473 -35.7416
   -35.7317 -35.7268 -35.7209 -35.7190 -35.7180 -35.7170 -35.7150 -35.7033
   -35.6979 -35.6934 -35.6855 -35.6843 -35.6826 -35.6812 -35.6779 -35.6769
   -35.6748 -35.6663 -35.6611 -35.6581 -35.6555 -35.6517 -35.6470 -35.6455
   -35.6442 -35.6416 -35.6399 -35.6383 -35.6377 -35.6363 -35.6342 -35.6325
   -35.6311 -35.6285 -35.6276 -35.6269 -35.6258 -35.6239 -35.6218 -35.6201
   -35.6190 -35.6140 -35.6115 -35.6097 -35.6073 -35.6017 -35.5943 -35.5892
   -35.5787 -35.5728 -35.5701 -35.5660 -35.5644 -35.5599 -35.5574 -35.5553
   -35.5503 -35.5475 -35.5471 -35.5437 -35.5431 -35.5402 -35.5355 -35.5300
   -35.5207 -35.5191 -35.5161 -35.5138 -35.5119 -35.5049 -35.4991 -35.4969
   -35.4933 -35.4885 -35.4845 -35.4824 -35.4811 -35.4785 -35.4773 -35.4755
   -35.4740 -35.4720 -35.4709 -35.4684 -35.4649 -35.4635 -35.4618 -35.4611
   -35.4588 -35.4564 -35.4527 -35.4509 -35.4498 -35.4482 -35.4475 -35.4461
   -35.4450 -35.4442 -35.4421 -35.4409 -35.4390 -35.4372 -35.4359 -35.4320
   -35.4303 -35.4279 -35.4225 -35.4179 -35.4146 -35.4112 -35.4090 -35.4073
   -35.4057 -35.4050 -35.4036 -35.4015 -35.4005 -35.3997 -35.3977 -35.3965
   -35.3942 -35.3930 -35.3903 -35.3879 -35.3859 -35.3828 -35.3808 -35.3772
   -35.3754 -35.3733 -35.3720 -35.3707 -35.3692 -35.3678 -35.3671 -35.3666
   -35.3648 -35.3623 -35.3606 -35.3577 -35.3562 -35.3555 -35.3541 -35.3526
   -35.3506 -35.3497 -35.3495 -35.3479 -35.3439 -35.3418 -35.3391 -35.3377
   -35.3334 -35.3319 -35.3295 -35.3209 -35.3200 -35.3147 -35.3072 -35.3049
   -35.3013 -35.2999 -35.2925 -35.2884 -35.2856 -35.2800 -35.2788 -35.2753
   -35.2705 -35.2683 -35.2657 -35.2536 -35.2507 -35.2480 -35.2457 -35.2414
   -35.2393 -35.2342 -35.2286 -35.2250 -35.2236 -35.2220 -35.2195 -35.2153
   -35.2129 -35.2066 -35.2017 -35.1984 -35.1946 -35.1852 -35.1806 -35.1770
   -35.1733 -35.1704 -35.1685 -35.1649 -35.1625 -35.1578 -35.1501 -35.1438
   -35.1370 -35.1310 -35.1267 -35.1209 -35.1148 -35.1127 -35.1085 -35.0923
   -35.0776 -35.0726 -13.9368 -13.5934 -13.5859 -13.2550 -13.0709 -13.0557
   -13.0475 -12.7764 -12.7661 -12.7551 -12.7401 -12.5924 -12.5802 -12.4925
   -12.4471 -12.4084 -12.3969 -12.3586 -12.3503 -12.3425 -12.3282 -12.3178
   -12.3025 -12.2699 -12.2412 -12.2298 -12.2142 -12.1508 -12.1422 -12.1318
   -12.1279 -12.1187 -12.1060 -12.0478 -12.0161 -12.0127 -11.9930 -11.9899
   -11.9335 -11.8891 -11.8849 -11.8621 -11.7747 -11.6804 -11.6730 -11.6418
   -11.5859 -11.5300 -11.5042 -11.4904 -11.4884 -11.4733 -11.4717 -11.4684
   -11.4598 -11.3730 -11.3653 -11.3198 -11.3060 -11.2903 -11.2874 -11.2486
   -11.2232 -11.2138 -11.1919 -11.1592 -11.1404 -11.1063 -10.9912 -10.9789
   -10.8853 -10.8524  -8.0181  -4.7924  -4.6849  -4.6164  -4.5434  -4.3503
    -4.3374  -4.1885  -4.1689  -4.0755  -4.0678  -4.0036  -3.9796  -3.9531
    -3.8800  -3.8688  -3.8559  -3.7917  -3.6705  -3.6292  -3.6114  -3.5856
    -3.5805  -3.5702  -3.5580  -3.5517  -3.5419  -3.4243  -3.4189  -3.4144
    -3.3906  -3.3684  -3.3567  -3.3531  -3.3287  -3.3049  -3.2978  -3.2892
    -3.1996  -3.1889  -3.1682  -3.0832  -3.0758  -3.0374  -3.0354  -3.0160
    -3.0112  -2.9414  -2.9238  -2.9100  -2.8914  -2.8892  -2.7996  -2.7837
    -2.7306  -2.7178  -2.6355  -2.6239  -2.6167  -2.5987  -2.5454  -2.4824
    -2.4395  -2.4117  -2.3965  -2.3816  -2.3763  -2.3666  -2.3607  -2.3559
    -2.3475  -2.3444  -2.3166  -2.2801  -2.2726  -2.2682  -2.2583  -2.2480
    -2.2414  -2.2363  -2.2147  -2.2115  -2.1970  -2.1670  -2.1297  -2.1200
    -2.1164  -2.0891  -2.0749  -2.0568  -2.0435  -2.0344  -2.0243  -1.9812
    -1.9747  -1.9504  -1.9452  -1.9243  -1.9127  -1.9024  -1.8971  -1.8904
    -1.8798  -1.8626  -1.8511  -1.8404  -1.8290  -1.8165  -1.8138  -1.7981
    -1.7964  -1.7847  -1.7816  -1.7768  -1.7625  -1.7381  -1.7130  -1.7044
    -1.6993  -1.6695  -1.6498  -1.6389  -1.6348  -1.6218  -1.6060  -1.5872
    -1.5702  -1.5391  -1.5032  -1.4838  -1.4770  -1.4583  -1.4520  -1.4420
    -1.4307  -1.4153  -1.4103  -1.3994  -1.3903  -1.3758  -1.3582  -1.3522
    -1.3310  -1.3110  -1.2975  -1.2931  -1.2876  -1.2717  -1.2590  -1.2398
    -1.2320  -1.2227  -1.2096  -1.2023  -1.1819  -1.1445  -1.1201  -1.0996
    -1.0864  -1.0806  -1.0702  -1.0526  -1.0280  -1.0206  -1.0107  -0.9893
    -0.9774  -0.9466  -0.9235  -0.9212  -0.9036  -0.8968  -0.8889  -0.8742
    -0.8535  -0.8363  -0.8304  -0.8169  -0.7953  -0.7862  -0.7773  -0.7483
    -0.7253  -0.7098  -0.6961  -0.6765  -0.6616  -0.5867  -0.5627  -0.5386
    -0.5245  -0.5136  -0.4951  -0.4783  -0.4666  -0.4439  -0.4290  -0.4088
    -0.3933  -0.3393  -0.3075  -0.2952  -0.2665  -0.2312  -0.1947  -0.1407
    -0.0798  -0.0602  -0.0031   0.0342   0.1215   0.1522   0.2385   0.2582
     0.5747   0.7122   0.9156   0.9889   1.0261   1.0706   1.1375   1.1462
     1.1863   1.3936   1.4066   1.4518   1.6530   1.8498   1.9471   1.9858
     2.0020   2.0334   2.0549   2.1306   2.1817   2.2071   2.2811   2.2867
     2.3085   2.3552   2.3936   2.4182   2.4954   2.4978   2.6004   2.6495
     2.6683   2.6908   2.7219   2.7586   2.7809   2.8003   2.8204   2.8304
     2.8927   2.9163   2.9447   2.9752   2.9917   3.0409   3.0835   3.0977
     3.1128   3.1199   3.1402   3.1613   3.1863   3.2062   3.2108   3.2263
     3.2333   3.2487   3.2644   3.2825   3.2949   3.3210   3.3457   3.3805
     3.4003   3.4076   3.4287   3.4621   3.4853   3.5009   3.5089   3.5258
     3.5389   3.5558   3.5733   3.5777   3.5895   3.6026   3.6280   3.6425
     3.7097   3.7169   3.7427   3.7565   3.7712   3.7824   3.7861   3.8028
     3.8151   3.8484   3.8551   3.8881   3.9111   3.9154   3.9201   3.9302
     3.9398   3.9479   3.9790   4.0057   4.0170   4.0258   4.0405   4.0536
     4.0768   4.1042   4.1174   4.1275   4.1397   4.1560   4.1742   4.1995
     4.2090   4.2284   4.2414   4.2465   4.2553   4.2621   4.2742   4.2821
     4.2892   4.2969   4.3121   4.3274   4.3377   4.3556   4.3599   4.3717
     4.3785   4.3819   4.3901   4.3943   4.4067   4.4178   4.4194   4.4330
     4.4389   4.4451   4.4481   4.4602   4.4653   4.4703   4.4741   4.4830
     4.4918   4.4963   4.5047   4.5184   4.5363   4.5409   4.5468   4.5615
     4.5734   4.5759   4.5834   4.5965   4.6048   4.6148   4.6228   4.6459
     4.6529   4.6599   4.6676   4.6795   4.6900   4.7035   4.7085   4.7244
     4.7366   4.7443   4.7602   4.7795   4.7865   4.8174   4.8267   4.8414
     4.8480   4.8599   4.8688   4.8725   4.8755   4.8848   4.8904   4.8960
     4.9091   4.9146   4.9206   4.9262   4.9381   4.9481   4.9530   4.9596
     4.9688   4.9734   4.9824   4.9907   5.0034   5.0229   5.0265   5.0287
     5.0349   5.0376   5.0461   5.0518   5.0571   5.0670   5.0782   5.0837
     5.0978

          k =-0.5000 0.2500 0.0000 (135080 PWs)   bands (ev):

   -61.6871 -61.6726 -61.6711 -61.6624 -61.6620 -61.6501 -61.6483 -61.6422
   -61.6414 -61.6390 -61.6371 -61.6361 -61.6333 -61.6324 -61.6266 -61.6210
   -61.6171 -61.6129 -61.6041 -61.5990 -61.5971 -61.5937 -61.5898 -61.5862
   -61.5846 -61.5840 -61.5831 -61.5820 -61.5800 -61.5788 -61.5770 -61.5766
   -61.5742 -61.5720 -61.5696 -61.5682 -61.5677 -61.5652 -61.5601 -61.5596
   -61.5571 -61.5534 -61.5403 -61.5276 -61.5240 -61.5134 -61.5119 -61.5065
   -61.4992 -61.4928 -61.4838 -61.4780 -61.4604 -61.4573 -61.4496 -61.4448
   -61.4366 -61.4313 -61.4209 -61.4138 -61.4084 -61.3991 -61.3859 -61.3788
   -61.3758 -61.3702 -61.3680 -61.3662 -61.3654 -61.3601 -61.3501 -61.3216
   -44.3212 -42.7533 -35.7899 -35.7865 -35.7443 -35.7429 -35.7400 -35.7392
   -35.7361 -35.7335 -35.7263 -35.7231 -35.7213 -35.7187 -35.7033 -35.7010
   -35.6994 -35.6950 -35.6834 -35.6814 -35.6793 -35.6742 -35.6714 -35.6707
   -35.6694 -35.6666 -35.6639 -35.6632 -35.6594 -35.6556 -35.6548 -35.6528
   -35.6496 -35.6467 -35.6428 -35.6417 -35.6396 -35.6378 -35.6355 -35.6346
   -35.6323 -35.6303 -35.6292 -35.6256 -35.6243 -35.6226 -35.6202 -35.6174
   -35.6141 -35.6123 -35.6104 -35.6074 -35.6050 -35.6025 -35.5969 -35.5875
   -35.5855 -35.5793 -35.5754 -35.5693 -35.5649 -35.5606 -35.5566 -35.5498
   -35.5482 -35.5450 -35.5408 -35.5392 -35.5363 -35.5326 -35.5316 -35.5302
   -35.5272 -35.5215 -35.5175 -35.5086 -35.5080 -35.5029 -35.4995 -35.4941
   -35.4899 -35.4887 -35.4871 -35.4834 -35.4824 -35.4792 -35.4759 -35.4746
   -35.4733 -35.4699 -35.4689 -35.4669 -35.4652 -35.4644 -35.4636 -35.4629
   -35.4614 -35.4594 -35.4576 -35.4558 -35.4538 -35.4518 -35.4503 -35.4491
   -35.4466 -35.4435 -35.4409 -35.4383 -35.4366 -35.4342 -35.4316 -35.4304
   -35.4288 -35.4262 -35.4251 -35.4236 -35.4207 -35.4164 -35.4131 -35.4093
   -35.4089 -35.4064 -35.4042 -35.4030 -35.4011 -35.3972 -35.3947 -35.3930
   -35.3892 -35.3878 -35.3870 -35.3854 -35.3836 -35.3815 -35.3787 -35.3782
   -35.3764 -35.3752 -35.3736 -35.3716 -35.3699 -35.3673 -35.3656 -35.3640
   -35.3632 -35.3615 -35.3599 -35.3586 -35.3571 -35.3561 -35.3542 -35.3517
   -35.3497 -35.3479 -35.3470 -35.3451 -35.3435 -35.3395 -35.3384 -35.3371
   -35.3347 -35.3341 -35.3277 -35.3256 -35.3208 -35.3145 -35.3122 -35.3069
   -35.3022 -35.2988 -35.2964 -35.2894 -35.2850 -35.2821 -35.2777 -35.2749
   -35.2691 -35.2658 -35.2611 -35.2534 -35.2521 -35.2499 -35.2453 -35.2442
   -35.2358 -35.2335 -35.2285 -35.2270 -35.2251 -35.2217 -35.2193 -35.2141
   -35.2110 -35.2075 -35.2037 -35.1985 -35.1922 -35.1871 -35.1824 -35.1779
   -35.1739 -35.1709 -35.1686 -35.1638 -35.1598 -35.1585 -35.1479 -35.1442
   -35.1378 -35.1313 -35.1260 -35.1215 -35.1143 -35.1122 -35.1085 -35.0926
   -35.0778 -35.0728 -13.8048 -13.7962 -13.4622 -13.4538 -12.9568 -12.9476
   -12.9339 -12.9261 -12.8434 -12.7343 -12.6612 -12.6545 -12.5607 -12.4874
   -12.4767 -12.4512 -12.4174 -12.4053 -12.3324 -12.3195 -12.3080 -12.3010
   -12.2534 -12.2482 -12.2166 -12.1957 -12.1912 -12.1784 -12.1690 -12.1655
   -12.1575 -12.0791 -12.0742 -12.0627 -12.0395 -12.0232 -12.0158 -11.9965
   -11.9183 -11.9165 -11.8947 -11.8673 -11.7918 -11.7617 -11.5929 -11.5895
   -11.5503 -11.5466 -11.5416 -11.5414 -11.4728 -11.4374 -11.4350 -11.4340
   -11.4041 -11.4010 -11.3712 -11.3609 -11.3519 -11.3417 -11.2793 -11.2529
   -11.2294 -11.2001 -11.1443 -11.1408 -11.1278 -11.1067 -11.0152 -10.9985
   -10.8772 -10.8299  -8.0181  -4.8560  -4.7792  -4.6577  -4.6468  -4.3342
    -4.2540  -4.1595  -4.1341  -4.0528  -4.0423  -3.8844  -3.8792  -3.8566
    -3.8211  -3.7935  -3.7831  -3.7794  -3.7155  -3.7046  -3.6817  -3.6468
    -3.6380  -3.5915  -3.5869  -3.5800  -3.5616  -3.5527  -3.5223  -3.4300
    -3.4240  -3.3398  -3.3332  -3.3158  -3.3092  -3.2905  -3.2676  -3.2320
    -3.2225  -3.1439  -3.0978  -3.0948  -3.0931  -3.0698  -3.0366  -3.0265
    -3.0217  -2.9644  -2.9530  -2.9340  -2.8948  -2.7924  -2.7860  -2.7775
    -2.7618  -2.7390  -2.7284  -2.6642  -2.6466  -2.6325  -2.5611  -2.5327
    -2.5052  -2.4681  -2.4554  -2.4251  -2.3953  -2.3659  -2.3487  -2.3316
    -2.3201  -2.3040  -2.2828  -2.2742  -2.2689  -2.2528  -2.2455  -2.2412
    -2.2258  -2.2016  -2.1759  -2.1625  -2.1598  -2.1527  -2.1326  -2.1242
    -2.1168  -2.1121  -2.1017  -2.0833  -2.0588  -2.0436  -2.0358  -2.0252
    -2.0153  -1.9956  -1.9772  -1.9714  -1.9607  -1.9506  -1.9419  -1.9295
    -1.9094  -1.8951  -1.8738  -1.8713  -1.8644  -1.8504  -1.8402  -1.8345
    -1.8242  -1.8119  -1.7908  -1.7891  -1.7772  -1.7140  -1.6942  -1.6806
    -1.6735  -1.6608  -1.6465  -1.5750  -1.5380  -1.5305  -1.5197  -1.4966
    -1.4858  -1.4567  -1.4448  -1.4407  -1.4363  -1.4274  -1.4138  -1.4108
    -1.3870  -1.3710  -1.3603  -1.3384  -1.3272  -1.3250  -1.3102  -1.3019
    -1.2936  -1.2780  -1.2743  -1.2630  -1.2507  -1.2348  -1.2174  -1.2080
    -1.1950  -1.1799  -1.1700  -1.1584  -1.1438  -1.1326  -1.1222  -1.1089
    -1.0977  -1.0915  -1.0785  -1.0645  -1.0564  -1.0348  -1.0258  -1.0064
    -0.9910  -0.9866  -0.9352  -0.9115  -0.8947  -0.8673  -0.8596  -0.8548
    -0.8370  -0.8278  -0.8135  -0.8035  -0.7863  -0.7628  -0.7369  -0.7118
    -0.7010  -0.6836  -0.6461  -0.6331  -0.6284  -0.6142  -0.5735  -0.5546
    -0.5404  -0.5316  -0.5043  -0.4987  -0.4841  -0.4636  -0.4554  -0.4222
    -0.4194  -0.4036  -0.3490  -0.3093  -0.2644  -0.2542  -0.2095  -0.1253
    -0.1192  -0.0905  -0.0620   0.0422   0.0643   0.1135   0.1420   0.2847
     0.3028   0.4924   0.5067   1.0137   1.0736   1.1406   1.4155   1.4367
     1.4767   1.5341   1.5959   1.6099   1.6235   1.7128   1.7627   1.7966
     1.8174   1.8305   1.9532   2.0599   2.1412   2.1815   2.2075   2.2385
     2.2766   2.2981   2.3644   2.3791   2.4360   2.4794   2.5036   2.5607
     2.6463   2.6530   2.6770   2.7027   2.7193   2.7623   2.8088   2.8353
     2.8905   2.9071   2.9226   2.9386   2.9469   2.9644   2.9771   2.9984
     3.0086   3.0132   3.0778   3.0937   3.1217   3.1410   3.1705   3.2064
     3.2336   3.2443   3.2516   3.2831   3.3241   3.3383   3.3652   3.3750
     3.3871   3.4313   3.4412   3.4512   3.4650   3.4919   3.5268   3.5937
     3.6083   3.6179   3.6278   3.6383   3.6713   3.6832   3.7013   3.7179
     3.7264   3.7304   3.7585   3.7874   3.8036   3.8213   3.8335   3.8589
     3.8695   3.8866   3.8968   3.9161   3.9329   3.9547   4.0030   4.0086
     4.0206   4.0277   4.0374   4.0522   4.0691   4.0854   4.1020   4.1222
     4.1368   4.1472   4.1653   4.1718   4.1778   4.1939   4.2030   4.2118
     4.2200   4.2319   4.2409   4.2466   4.2576   4.2605   4.2694   4.2727
     4.2785   4.2836   4.2897   4.2972   4.3053   4.3124   4.3233   4.3270
     4.3399   4.3538   4.3653   4.3794   4.3869   4.3915   4.4020   4.4088
     4.4142   4.4176   4.4204   4.4265   4.4477   4.4589   4.4639   4.4700
     4.4798   4.4861   4.5016   4.5069   4.5385   4.5539   4.5673   4.5835
     4.6046   4.6108   4.6246   4.6413   4.6490   4.6621   4.6699   4.6768
     4.6878   4.6940   4.7029   4.7157   4.7308   4.7415   4.7497   4.7624
     4.7746   4.7841   4.8036   4.8116   4.8137   4.8229   4.8322   4.8389
     4.8503   4.8558   4.8641   4.8738   4.8844   4.8949   4.9013   4.9129
     4.9207   4.9217   4.9279   4.9353   4.9429   4.9454   4.9524   4.9597
     4.9618   4.9699   4.9754   4.9763   4.9865   4.9897   4.9980   5.0044
     5.0206   5.0268   5.0378   5.0495   5.0564   5.0642   5.0710   5.0814
     5.0873

     the Fermi energy is     3.6495 ev

!    total energy              =  -11961.41104412 Ry
     estimated scf accuracy    <       0.00000001 Ry
     smearing contrib. (-TS)   =      -0.04499015 Ry
     internal energy E=F+TS    =  -11961.36605397 Ry

     The total energy is F=E-TS. E is the sum of the following terms:
     one-electron contribution = -159231.90398784 Ry
     hartree contribution      =   79717.61230824 Ry
     xc contribution           =   -1819.88290867 Ry
     ewald contribution        =   69376.32007164 Ry
     DFT-D3 Dispersion         =      -3.51153733 Ry

     convergence has been achieved in  32 iterations

     negative rho (up, down):  7.626E-02 0.000E+00

     Forces acting on atoms (cartesian axes, Ry/au):

     atom    1 type  1   force =     0.00140836    0.00186591    0.09162198
     atom    2 type  1   force =    -0.00162226    0.00580742   -0.02239230
     atom    3 type  1   force =     0.00561388   -0.00271603   -0.02197292
     atom    4 type  1   force =    -0.00114386   -0.00145983    0.09472710
     atom    5 type  1   force =     0.00004962    0.00014688    0.00054132
     atom    6 type  1   force =    -0.00000661    0.00018525    0.00043597
     atom    7 type  1   force =     0.00064721    0.00032053    0.00049227
     atom    8 type  1   force =     0.00012131   -0.00010176   -0.00051763
     atom    9 type  1   force =     0.00103043   -0.00002404    0.09278847
     atom   10 type  1   force =    -0.00474954    0.00169245   -0.01973998
     atom   11 type  1   force =     0.00318819   -0.00146049   -0.01732494
     atom   12 type  1   force =    -0.00059368   -0.00126368    0.09441130
     atom   13 type  1   force =     0.00000312   -0.00018695    0.00014555
     atom   14 type  1   force =    -0.00111310    0.00022406    0.00014889
     atom   15 type  1   force =     0.00043911   -0.00029799   -0.00003588
     atom   16 type  1   force =    -0.00019705   -0.00013460   -0.00025736
     atom   17 type  1   force =     0.00018706    0.00135975    0.09521231
     atom   18 type  1   force =    -0.00591847    0.00282555   -0.02093588
     atom   19 type  1   force =     0.00404799   -0.00474128   -0.01564371
     atom   20 type  1   force =    -0.00131152   -0.00003637    0.09362292
     atom   21 type  1   force =     0.00003404    0.00017977   -0.00041162
     atom   22 type  1   force =     0.00019896   -0.00026384   -0.00002291
     atom   23 type  1   force =    -0.00025588   -0.00041163   -0.00001800
     atom   24 type  1   force =    -0.00011542   -0.00018813   -0.00030305
     atom   25 type  1   force =     0.00038559    0.00177047    0.09134385
     atom   26 type  1   force =    -0.00325469    0.00219307   -0.02235475
     atom   27 type  1   force =     0.00072578   -0.00190913   -0.01822488
     atom   28 type  1   force =    -0.00095911   -0.00092322    0.09318910
     atom   29 type  1   force =     0.00007994   -0.00017648    0.00003725
     atom   30 type  1   force =     0.00005533   -0.00030078   -0.00012165
     atom   31 type  1   force =    -0.00085371   -0.00038410    0.00022864
     atom   32 type  1   force =    -0.00002560    0.00014638   -0.00019310
     atom   33 type  1   force =     0.00044158   -0.00073895    0.09484008
     atom   34 type  1   force =    -0.00108039    0.00507978   -0.01708825
     atom   35 type  1   force =     0.00535530   -0.00106576   -0.00049243
     atom   36 type  1   force =    -0.00064063   -0.00052234    0.09542057
     atom   37 type  1   force =     0.00004430    0.00052713   -0.00101980
     atom   38 type  1   force =     0.00047675    0.00069102   -0.00011715
     atom   39 type  1   force =     0.00014875    0.00014956    0.00018914
     atom   40 type  1   force =    -0.00004823   -0.00004439    0.00008950
     atom   41 type  1   force =     0.00154286    0.00137368    0.09545755
     atom   42 type  1   force =    -0.00308508    0.00087743   -0.02114566
     atom   43 type  1   force =     0.00303546   -0.00449672   -0.01429384
     atom   44 type  1   force =    -0.00040584   -0.00064463    0.09330645
     atom   45 type  1   force =     0.00009873    0.00047235    0.00004990
     atom   46 type  1   force =    -0.00069322   -0.00012645    0.00014960
     atom   47 type  1   force =    -0.00013224   -0.00037987   -0.00011988
     atom   48 type  1   force =    -0.00004187   -0.00009892   -0.00009664
     atom   49 type  1   force =     0.00083352    0.00039536    0.09587460
     atom   50 type  1   force =    -0.00420415    0.00338930   -0.01675964
     atom   51 type  1   force =     0.00278797   -0.00431539   -0.01966149
     atom   52 type  1   force =    -0.00041840   -0.00069043    0.09311762
     atom   53 type  1   force =     0.00025035   -0.00007240   -0.00014894
     atom   54 type  1   force =     0.00017936   -0.00024090    0.00020672
     atom   55 type  1   force =    -0.00032862   -0.00008345   -0.00001965
     atom   56 type  1   force =    -0.00005843   -0.00009833   -0.00006500
     atom   57 type  1   force =     0.00153473    0.00152011    0.09236729
     atom   58 type  1   force =    -0.00269553    0.00441796   -0.01909597
     atom   59 type  1   force =    -0.00103699   -0.00260154   -0.01852824
     atom   60 type  1   force =    -0.00012968   -0.00101682    0.09255830
     atom   61 type  1   force =     0.00030697   -0.00008403   -0.00051336
     atom   62 type  1   force =     0.00083751    0.00021795   -0.00021346
     atom   63 type  1   force =    -0.00027782   -0.00022758    0.00012191
     atom   64 type  1   force =    -0.00000462    0.00011282    0.00007279
     atom   65 type  1   force =     0.00145033    0.00077379    0.09187421
     atom   66 type  1   force =    -0.00270148    0.00318614   -0.01956383
     atom   67 type  1   force =     0.00400493   -0.00252490   -0.01937861
     atom   68 type  1   force =    -0.00147593   -0.00136463    0.09263327
     atom   69 type  1   force =    -0.00005833   -0.00000982    0.00025502
     atom   70 type  1   force =    -0.00006460   -0.00008225   -0.00013174
     atom   71 type  1   force =     0.00043980    0.00013217   -0.00012449
     atom   72 type  1   force =     0.00016635    0.00009895   -0.00014907
     atom   73 type  2   force =    -0.00039418    0.00026129   -0.05347356
     atom   74 type  2   force =     0.00030775   -0.00039280   -0.05378159
     atom   75 type  2   force =     0.00104230    0.00121498   -0.01896685
     atom   76 type  2   force =    -0.00024410   -0.00128165   -0.02053305
     atom   77 type  2   force =    -0.00010157    0.00005772    0.00065136
     atom   78 type  2   force =    -0.00009202   -0.00034012    0.00058041
     atom   79 type  2   force =     0.00049018    0.00041780    0.00030821
     atom   80 type  2   force =     0.00014860    0.00010141    0.00092051
     atom   81 type  2   force =     0.00023932    0.00033880   -0.05336453
     atom   82 type  2   force =     0.00042979   -0.00018479   -0.05412410
     atom   83 type  2   force =     0.00056028    0.00024718   -0.02133576
     atom   84 type  2   force =     0.00055288    0.00038094   -0.02257895
     atom   85 type  2   force =    -0.00006853   -0.00018126    0.00013458
     atom   86 type  2   force =     0.00011332   -0.00032728   -0.00016810
     atom   87 type  2   force =     0.00047136   -0.00015313    0.00006357
     atom   88 type  2   force =    -0.00062918    0.00045979   -0.00079872
     atom   89 type  2   force =    -0.00047696    0.00053728   -0.05329712
     atom   90 type  2   force =     0.00128035   -0.00091189   -0.05370546
     atom   91 type  2   force =    -0.00005322    0.00008884   -0.02622226
     atom   92 type  2   force =    -0.00038291   -0.00093865   -0.01936891
     atom   93 type  2   force =     0.00003835    0.00030575   -0.00002763
     atom   94 type  2   force =    -0.00003307   -0.00015274   -0.00016404
     atom   95 type  2   force =    -0.00011074   -0.00037103   -0.00043128
     atom   96 type  2   force =     0.00016420   -0.00018094    0.00082863
     atom   97 type  2   force =    -0.00045347    0.00028452   -0.05417165
     atom   98 type  2   force =     0.00039882   -0.00037748   -0.05374568
     atom   99 type  2   force =     0.00004388    0.00050974   -0.01974685
     atom  100 type  2   force =    -0.00042179   -0.00167242   -0.01673541
     atom  101 type  2   force =    -0.00012262    0.00024998    0.00020310
     atom  102 type  2   force =     0.00001801   -0.00018935   -0.00002783
     atom  103 type  2   force =    -0.00016733    0.00022595    0.00030855
     atom  104 type  2   force =    -0.00022305   -0.00005435    0.00024968
     atom  105 type  2   force =    -0.00084930    0.00048419   -0.05827161
     atom  106 type  2   force =     0.00023311   -0.00021914   -0.05467715
     atom  107 type  2   force =    -0.00030376    0.00219107   -0.02787334
     atom  108 type  2   force =    -0.00220529   -0.00014565   -0.02186531
     atom  109 type  2   force =    -0.00018672   -0.00018119    0.00009049
     atom  110 type  2   force =    -0.00018650   -0.00016687   -0.00020351
     atom  111 type  2   force =     0.00051954   -0.00069017    0.00127231
     atom  112 type  2   force =    -0.00005540    0.00007135    0.00011136
     atom  113 type  2   force =    -0.00035583    0.00024804   -0.05272118
     atom  114 type  2   force =     0.00035943   -0.00058049   -0.05419520
     atom  115 type  2   force =     0.00014536   -0.00218478   -0.03086141
     atom  116 type  2   force =    -0.00090856    0.00033242   -0.01748887
     atom  117 type  2   force =    -0.00009491    0.00010047   -0.00019193
     atom  118 type  2   force =     0.00009607    0.00004038    0.00014783
     atom  119 type  2   force =     0.00048026    0.00012976   -0.00030649
     atom  120 type  2   force =    -0.00021449   -0.00033039    0.00002249
     atom  121 type  2   force =    -0.00041502    0.00107483   -0.05327167
     atom  122 type  2   force =     0.00061044   -0.00042224   -0.05307319
     atom  123 type  2   force =     0.00052358    0.00004993   -0.02806411
     atom  124 type  2   force =    -0.00145052   -0.00073832   -0.02155683
     atom  125 type  2   force =     0.00003270   -0.00006171   -0.00000188
     atom  126 type  2   force =     0.00031881    0.00008278    0.00015994
     atom  127 type  2   force =    -0.00006800   -0.00016140   -0.00018325
     atom  128 type  2   force =    -0.00019721    0.00010546    0.00039854
     atom  129 type  2   force =    -0.00063124    0.00050375   -0.05305451
     atom  130 type  2   force =     0.00018497   -0.00084276   -0.05318861
     atom  131 type  2   force =     0.00147364    0.00102672   -0.02128494
     atom  132 type  2   force =     0.00042828   -0.00052278   -0.01848965
     atom  133 type  2   force =     0.00000242   -0.00002254    0.00017149
     atom  134 type  2   force =     0.00033320    0.00001972   -0.00033168
     atom  135 type  2   force =    -0.00020873    0.00034808   -0.00047835
     atom  136 type  2   force =    -0.00010627   -0.00007639    0.00061200
     atom  137 type  2   force =    -0.00064100   -0.00026210   -0.05326381
     atom  138 type  2   force =    -0.00017515   -0.00021173   -0.05334278
     atom  139 type  2   force =     0.00200384    0.00105748   -0.01827071
     atom  140 type  2   force =    -0.00115628   -0.00088431   -0.02327079
     atom  141 type  2   force =     0.00008881    0.00005438   -0.00009493
     atom  142 type  2   force =     0.00003809    0.00004053   -0.00009932
     atom  143 type  2   force =    -0.00041095   -0.00009427   -0.00034065
     atom  144 type  2   force =     0.00016486   -0.00006984    0.00002887
     atom  145 type  3   force =    -0.00037803   -0.00130567    0.00111622
     atom  146 type  4   force =    -0.00043523   -0.00014381   -0.00000121
     atom  147 type  4   force =     0.00082345    0.00076294    0.00037436

     Total force =     0.005066     Total SCF correction =     0.000483
     Energy error            =      6.8E-05 Ry
     Gradient error          =      1.3E-03 Ry/Bohr

     bfgs converged in  26 scf cycles and  25 bfgs steps
     (criteria: energy <  1.0E-04 Ry, force <  1.6E-03 Ry/Bohr)

     End of BFGS Geometry Optimization

     Final energy             =  -11961.4110441150 Ry

     File ./tmp/VN_LiS_combi2_144.bfgs deleted, as requested
Begin final coordinates

ATOMIC_POSITIONS (angstrom)
V                0.0000000000        0.0000000000       10.0000000000    0   0   0
V                2.0432625400        0.0000000000       12.0432625400    0   0   0
V                0.0000000000        2.0432625400       12.0432625400    0   0   0
V                2.0432625400        2.0432625400       10.0000000000    0   0   0
V                0.0766176721        0.0773104476       14.1593930602
V                2.0193691433       -0.1015429139       16.0100473061
V               -0.1121679228        2.0296359142       16.0049678231
V                1.9835474278        1.9823314889       14.1935443490
V                0.0000000000        4.0865250700       10.0000000000    0   0   0
V                2.0432625400        4.0865250700       12.0432625400    0   0   0
V                0.0000000000        6.1297876100       12.0432625400    0   0   0
V                2.0432625400        6.1297876100       10.0000000000    0   0   0
V                0.0630852075        4.1333695861       14.1525790194
V                2.0364870915        4.1718432847       15.9887376234
V                0.0069203386        6.0858200189       16.0019016266
V                2.0479068712        6.0719981403       14.1687238608
V                0.0000000000        8.1730501500       10.0000000000    0   0   0
V                2.0432625400        8.1730501500       12.0432625400    0   0   0
V                0.0000000000       10.2163126900       12.0432625400    0   0   0
V                2.0432625400       10.2163126900       10.0000000000    0   0   0
V                0.0810451830        8.2516182925       14.1433131503
V                2.0455857360        8.2405127531       16.0093978953
V               -0.0234084360       10.2710251927       16.0003379792
V                1.9618998765       10.1344011252       14.1495206028
V                4.0865250700        0.0000000000       10.0000000000    0   0   0
V                6.1297876100        0.0000000000       12.0432625400    0   0   0
V                4.0865250700        2.0432625400       12.0432625400    0   0   0
V                6.1297876100        2.0432625400       10.0000000000    0   0   0
V                4.1295866307        0.0505203150       14.1684373046
V                6.1103613778        0.0047199202       16.0086449171
V                4.2025920918        2.0345894196       15.9907803447
V                6.0759801552        1.9820234533       14.1530576930
V                4.0865250700        4.0865250700       10.0000000000    0   0   0
V                6.1297876100        4.0865250700       12.0432625400    0   0   0
V                4.0865250700        6.1297876100       12.0432625400    0   0   0
V                6.1297876100        6.1297876100       10.0000000000    0   0   0
V                4.1321704953        4.1823827525       14.1417812217
V                6.1285501715        3.9898785601       15.9903592522
V                3.9203324776        6.0570583389       16.3994244657
V                6.0207363551        6.0825370250       14.2056256956
V                4.0865250700        8.1730501500       10.0000000000    0   0   0
V                6.1297876100        8.1730501500       12.0432625400    0   0   0
V                4.0865250700       10.2163126900       12.0432625400    0   0   0
V                6.1297876100       10.2163126900       10.0000000000    0   0   0
V                4.1667518684        8.1839129273       14.1512274161
V                6.1375481960        8.2825485154       15.9943727525
V                4.1180346573       10.2630790596       16.0055998616
V                6.0563209130       10.1606585293       14.1585728467
V                8.1730501500        0.0000000000       10.0000000000    0   0   0
V               10.2163126900        0.0000000000       12.0432625400    0   0   0
V                8.1730501500        2.0432625400       12.0432625400    0   0   0
V               10.2163126900        2.0432625400       10.0000000000    0   0   0
V                8.2447458830        0.0700912448       14.1350824761
V               10.2568348559       -0.0100643600       15.9992185553
V                8.1716237853        2.0882847616       16.0050909313
V               10.1449485025        1.9694123322       14.1437202665
V                8.1730501500        4.0865250700       10.0000000000    0   0   0
V               10.2163126900        4.0865250700       12.0432625400    0   0   0
V                8.1730501500        6.1297876100       12.0432625400    0   0   0
V               10.2163126900        6.1297876100       10.0000000000    0   0   0
V                8.2365977469        4.1696070340       14.1573338338
V               10.2092968553        4.0997745978       16.0032176695
V                8.2930543223        6.1459259765       16.0016634642
V               10.1472452436        6.0660360509       14.1574966290
V                8.1730501500        8.1730501500       10.0000000000    0   0   0
V               10.2163126900        8.1730501500       12.0432625400    0   0   0
V                8.1730501500       10.2163126900       12.0432625400    0   0   0
V               10.2163126900       10.2163126900       10.0000000000    0   0   0
V                8.2388145459        8.2207008527       14.1688841348
V               10.1813885686        8.1900314318       16.0041528045
V                8.1736172395       10.1609971897       16.0036003316
V               10.1499464491       10.1491746574       14.1454249233
N                0.0000000000        2.0432625400       10.0000000000    0   0   0
N                2.0432625400        0.0000000000       10.0000000000    0   0   0
N                0.0000000000        0.0000000000       12.0432625400    0   0   0
N                2.0432625400        2.0432625400       12.0432625400    0   0   0
N               -0.0509400469        2.0878026751       14.1082710856
N                2.0877089703       -0.0547149401       14.1118477235
N                0.0090717924        0.0206421732       16.3132996414
N                2.0401344758        2.0394267753       16.2532939518
N                0.0000000000        6.1297876100       10.0000000000    0   0   0
N                2.0432625400        4.0865250700       10.0000000000    0   0   0
N                0.0000000000        4.0865250700       12.0432625400    0   0   0
N                2.0432625400        6.1297876100       12.0432625400    0   0   0
N               -0.0284480642        6.1695903347       14.1075046264
N                2.0853797572        4.0342736181       14.0980729259
N                0.0024150748        4.0545822076       16.2887617816
N                1.9780074082        6.1747713642       16.2589780320
N                0.0000000000       10.2163126900       10.0000000000    0   0   0
N                2.0432625400        8.1730501500       10.0000000000    0   0   0
N                0.0000000000        8.1730501500       12.0432625400    0   0   0
N                2.0432625400       10.2163126900       12.0432625400    0   0   0
N               -0.0600727783       10.2769095117       14.1032473478
N                2.1032837653        8.1228663811       14.1062095829
N               -0.0108676656        8.1981715253       16.2242366295
N                2.0465027739       10.2048701627       16.2858775726
N                4.0865250700        2.0432625400       10.0000000000    0   0   0
N                6.1297876100        0.0000000000       10.0000000000    0   0   0
N                4.0865250700        0.0000000000       12.0432625400    0   0   0
N                6.1297876100        2.0432625400       12.0432625400    0   0   0
N                4.0440062389        2.0809344586       14.0998553915
N                6.1712042033       -0.0432233081       14.1083037807
N                4.0617341048        0.0254714625       16.3069418612
N                6.1717911256        2.0103210186       16.3158980740
N                4.0865250700        6.1297876100       10.0000000000    0   0   0
N                6.1297876100        4.0865250700       10.0000000000    0   0   0
N                4.0865250700        4.0865250700       12.0432625400    0   0   0
N                6.1297876100        6.1297876100       12.0432625400    0   0   0
N                4.0495363098        6.1718654474       14.1621010106
N                6.1707257520        4.0527561003       14.1003344428
N                4.0837407224        4.0522237466       16.2108046228
N                6.1464232653        6.1191132679       16.2117594581
N                4.0865250700       10.2163126900       10.0000000000    0   0   0
N                6.1297876100        8.1730501500       10.0000000000    0   0   0
N                4.0865250700        8.1730501500       12.0432625400    0   0   0
N                6.1297876100       10.2163126900       12.0432625400    0   0   0
N                4.0315049670       10.2480948661       14.1088605401
N                6.1909018035        8.1311578941       14.1005654230
N                4.1086619258        8.1931172742       16.1941063832
N                6.1399506907       10.2611513237       16.2988660736
N                8.1730501500        2.0432625400       10.0000000000    0   0   0
N               10.2163126900        0.0000000000       10.0000000000    0   0   0
N                8.1730501500        0.0000000000       12.0432625400    0   0   0
N               10.2163126900        2.0432625400       12.0432625400    0   0   0
N                8.1244716844        2.1030670399       14.1064263389
N               10.2705385903       -0.0560089745       14.1032308222
N                8.1896608482       -0.0017019788       16.2118913532
N               10.1770254116        2.0457672701       16.2811533062
N                8.1730501500        6.1297876100       10.0000000000    0   0   0
N               10.2163126900        4.0865250700       10.0000000000    0   0   0
N                8.1730501500        4.0865250700       12.0432625400    0   0   0
N               10.2163126900        6.1297876100       12.0432625400    0   0   0
N                8.1177936111        6.1804611822       14.1043812046
N               10.2623379397        4.0360968118       14.1053500918
N                8.1727596615        4.1252116453       16.2934071094
N               10.2680887513        6.1386516180       16.2929095741
N                8.1730501500       10.2163126900       10.0000000000    0   0   0
N               10.2163126900        8.1730501500       10.0000000000    0   0   0
N                8.1730501500        8.1730501500       12.0432625400    0   0   0
N               10.2163126900       10.2163126900       12.0432625400    0   0   0
N                8.1218732650       10.2589492217       14.1070255158
N               10.2733638514        8.1224759501       14.1061935244
N                8.1596026020        8.1488209790       16.3233083960
N               10.2065612004       10.2177405633       16.2712027661
S                3.9234990251        6.0222225903       18.6135269469
Li               6.1052295281        6.1289758755       18.1386773380
Li               2.1201156274        2.1719800264       18.1082603553
End final coordinates



     Writing all to output data dir ./tmp/VN_LiS_combi2_144.save/ :
     XML data file, charge density, pseudopotentials, collected wavefunctions

     init_run     :     54.79s CPU     58.16s WALL (       1 calls)
     electrons    :  21754.99s CPU  22526.51s WALL (       6 calls)
     update_pot   :      3.59s CPU      3.93s WALL (       5 calls)
     forces       :    203.39s CPU    208.88s WALL (       6 calls)
     force_dftd3  :      1.67s CPU      1.90s WALL (       6 calls)

     Called by init_run:
     wfcinit      :     41.64s CPU     43.80s WALL (       1 calls)
     potinit      :      0.92s CPU      1.75s WALL (       1 calls)
     hinit0       :      3.51s CPU      3.62s WALL (       1 calls)

     Called by electrons:
     c_bands      :  19417.93s CPU  19942.39s WALL (     213 calls)
     sum_band     :   2129.20s CPU   2248.65s WALL (     213 calls)
     v_of_rho     :     88.54s CPU    100.64s WALL (     215 calls)
     newd         :    101.23s CPU    136.94s WALL (     215 calls)
     mix_rho      :      7.99s CPU      9.01s WALL (     213 calls)
     energy_dftd3 :      0.71s CPU      0.72s WALL (       6 calls)

     Called by c_bands:
     init_us_2    :    198.69s CPU    201.23s WALL (    1299 calls)
     cegterg      :  18815.87s CPU  19328.36s WALL (     643 calls)

     Called by *egterg:
     cdiaghg      :    697.55s CPU    733.30s WALL (    2261 calls)
     h_psi        :   7840.67s CPU   8170.42s WALL (    2295 calls)
     s_psi        :   2829.79s CPU   2854.52s WALL (    2295 calls)
     g_psi        :     15.40s CPU     15.59s WALL (    1649 calls)

     Called by h_psi:
     h_psi:calbec :   2953.82s CPU   2991.25s WALL (    2295 calls)
     vloc_psi     :   2028.77s CPU   2265.91s WALL (    2295 calls)
                                        0.00s GPU  (    2295 calls)
     add_vuspsi   :   2831.09s CPU   2856.17s WALL (    2295 calls)

     General routines
     calbec       :   4483.38s CPU   4539.41s WALL (    3006 calls)
     fft          :     68.27s CPU     77.97s WALL (    2858 calls)
     ffts         :      1.75s CPU      2.03s WALL (     428 calls)
     fftw         :   2332.52s CPU   2604.91s WALL ( 2645977 calls)
     interpolate  :      6.07s CPU      6.69s WALL (     215 calls)

     Parallel routines

     PWSCF        :  22048.26s CPU  22843.55s WALL


   This run was terminated on:   5:26:14   4Apr2026            

=------------------------------------------------------------------------------=
   JOB DONE.
=------------------------------------------------------------------------------=
