64
Lattice="8.766421499259819 0.0 0.0 0.0 8.766421499259819 0.0 0.0 0.0 21.574816119629908" Properties=species:S:1:pos:R:3:move_mask:L:1:tags:I:1:forces:R:3 energy=-58572.770667228026 free_energy=-58572.770667228026 pbc="T T F"
Nb       0.00000000       0.00000000       7.50000000  F        2       0.00000000       0.00000000       3.88597560
Nb       2.19160537       0.00000000       9.69160537  F        2      -0.00976839       0.00000000      -1.19646466
Nb       0.00000000       2.19160537       9.69160537  F        2       0.00000000      -0.00976839      -1.19646466
Nb       2.19160537       2.19160537       7.50000000  F        2      -0.01135965      -0.01135965       3.86076799
N        0.00000000       2.19160537       7.50000000  F        2       0.00000000       0.04519382      -1.37855378
N        2.19160537       0.00000000       7.50000000  F        2       0.04519382       0.00000000      -1.37855378
N        0.00000000       0.00000000       9.69160537  F        2       0.00000000       0.00000000      -1.28312035
N        2.19160537       2.19160537       9.69160537  F        2       0.03187037       0.03187037      -1.28335869
Nb       0.00000000       0.00000000      11.88321075  T        1       0.00000000       0.00000000       0.00576441
Nb       2.19160537       0.00000000      14.07481612  T        1      -0.00013575       0.00000000       0.00020723
Nb       0.00000000       2.19160537      14.07481612  T        1       0.00000000      -0.00013575       0.00020723
Nb       2.19160537       2.19160537      11.88321075  T        1       0.00055022       0.00055022       0.00419475
N        0.00000000       2.19160537      11.88321075  T        1       0.00000000       0.00128041      -0.00620947
N        2.19160537       0.00000000      11.88321075  T        1       0.00128041       0.00000000      -0.00620947
N        0.00000000       0.00000000      14.07481612  T        1       0.00000000       0.00000000       0.01038880
N        2.19160537       2.19160537      14.07481612  T        1       0.00046228       0.00046228      -0.00037358
Nb       0.00000000       4.38321075       7.50000000  F        2       0.00000000       0.00000000       3.85979920
Nb       2.19160537       4.38321075       9.69160537  F        2      -0.01387136       0.00000000      -1.19412984
Nb       0.00000000       6.57481612       9.69160537  F        2       0.00000000       0.00976839      -1.19646466
Nb       2.19160537       6.57481612       7.50000000  F        2      -0.01135965       0.01135965       3.86076799
N        0.00000000       6.57481612       7.50000000  F        2       0.00000000      -0.04519382      -1.37855378
N        2.19160537       4.38321075       7.50000000  F        2       0.01979852       0.00000000      -1.39092079
N        0.00000000       4.38321075       9.69160537  F        2       0.00000000       0.00000000      -1.28008747
N        2.19160537       6.57481612       9.69160537  F        2       0.03187037      -0.03187037      -1.28335869
Nb       0.00000000       4.38321075      11.88321075  T        1       0.00000000       0.00000000       0.00418653
Nb       2.19160537       4.38321075      14.07481612  T        1      -0.00022909       0.00000000       0.00239987
Nb       0.00000000       6.57481612      14.07481612  T        1       0.00000000       0.00013575       0.00020723
Nb       2.19160537       6.57481612      11.88321075  T        1       0.00055022      -0.00055022       0.00419475
N        0.00000000       6.57481612      11.88321075  T        1       0.00000000      -0.00128041      -0.00620947
N        2.19160537       4.38321075      11.88321075  T        1      -0.00004654       0.00000000      -0.00331441
N        0.00000000       4.38321075      14.07481612  T        1       0.00000000       0.00000000      -0.00088292
N        2.19160537       6.57481612      14.07481612  T        1       0.00046228      -0.00046228      -0.00037358
Nb       4.38321075       0.00000000       7.50000000  F        2       0.00000000       0.00000000       3.85979920
Nb       6.57481612       0.00000000       9.69160537  F        2       0.00976839       0.00000000      -1.19646466
Nb       4.38321075       2.19160537       9.69160537  F        2       0.00000000      -0.01387136      -1.19412984
Nb       6.57481612       2.19160537       7.50000000  F        2       0.01135965      -0.01135965       3.86076799
N        4.38321075       2.19160537       7.50000000  F        2       0.00000000       0.01979852      -1.39092079
N        6.57481612       0.00000000       7.50000000  F        2      -0.04519382       0.00000000      -1.37855378
N        4.38321075       0.00000000       9.69160537  F        2       0.00000000       0.00000000      -1.28008747
N        6.57481612       2.19160537       9.69160537  F        2      -0.03187037       0.03187037      -1.28335869
Nb       4.38321075       0.00000000      11.88321075  T        1       0.00000000       0.00000000       0.00418653
Nb       6.57481612       0.00000000      14.07481612  T        1       0.00013575       0.00000000       0.00020723
Nb       4.38321075       2.19160537      14.07481612  T        1       0.00000000      -0.00022909       0.00239987
Nb       6.57481612       2.19160537      11.88321075  T        1      -0.00055022       0.00055022       0.00419475
N        4.38321075       2.19160537      11.88321075  T        1       0.00000000      -0.00004654      -0.00331441
N        6.57481612       0.00000000      11.88321075  T        1      -0.00128041       0.00000000      -0.00620947
N        4.38321075       0.00000000      14.07481612  T        1       0.00000000       0.00000000      -0.00088292
N        6.57481612       2.19160537      14.07481612  T        1      -0.00046228       0.00046228      -0.00037358
Nb       4.38321075       4.38321075       7.50000000  F        2       0.00000000       0.00000000       3.85784131
Nb       6.57481612       4.38321075       9.69160537  F        2       0.01387136       0.00000000      -1.19412984
Nb       4.38321075       6.57481612       9.69160537  F        2       0.00000000       0.01387136      -1.19412984
Nb       6.57481612       6.57481612       7.50000000  F        2       0.01135965       0.01135965       3.86076799
N        4.38321075       6.57481612       7.50000000  F        2       0.00000000      -0.01979852      -1.39092079
N        6.57481612       4.38321075       7.50000000  F        2      -0.01979852       0.00000000      -1.39092079
N        4.38321075       4.38321075       9.69160537  F        2       0.00000000       0.00000000      -1.29316102
N        6.57481612       6.57481612       9.69160537  F        2      -0.03187037      -0.03187037      -1.28335869
Nb       4.38321075       4.38321075      11.88321075  T        1       0.00000000       0.00000000       0.00047154
Nb       6.57481612       4.38321075      14.07481612  T        1       0.00022909       0.00000000       0.00239987
Nb       4.38321075       6.57481612      14.07481612  T        1       0.00000000       0.00022909       0.00239987
Nb       6.57481612       6.57481612      11.88321075  T        1      -0.00055022      -0.00055022       0.00419475
N        4.38321075       6.57481612      11.88321075  T        1       0.00000000       0.00004654      -0.00331441
N        6.57481612       4.38321075      11.88321075  T        1       0.00004654       0.00000000      -0.00331441
N        4.38321075       4.38321075      14.07481612  T        1       0.00000000       0.00000000      -0.00717132
N        6.57481612       6.57481612      14.07481612  T        1      -0.00046228      -0.00046228      -0.00037358
