64
Lattice="8.261866000000001 0.0 0.0 0.0 8.261866000000001 0.0 0.0 0.0 21.196399497722997" Properties=species:S:1:pos:R:3:spacegroup_kinds:I:1:tags:I:1 spacegroup="P 1" unit_cell=conventional occupancy="_JSON {\"0\": {\"V\": 1.0}, \"1\": {\"V\": 1.0}, \"2\": {\"V\": 1.0}, \"3\": {\"V\": 1.0}, \"4\": {\"N\": 1.0}, \"5\": {\"N\": 1.0}, \"6\": {\"N\": 1.0}, \"7\": {\"N\": 1.0}}" pbc="T T F"
V        0.00000000       0.00000000       7.50000000        0        2
V        2.06546650       0.00000000       9.56546650        1        2
V        0.00000000       2.06546650       9.56546650        2        2
V        2.06546650       2.06546650       7.50000000        3        2
N        0.00000000       2.06546650       7.50000000        4        2
N        2.06546650       0.00000000       7.50000000        5        2
N        0.00000000       0.00000000       9.56546650        6        2
N        2.06546650       2.06546650       9.56546650        7        2
V        0.00000000       0.00000000      11.63093300        0        1
V        2.06546650       0.00000000      13.69639950        1        1
V        0.00000000       2.06546650      13.69639950        2        1
V        2.06546650       2.06546650      11.63093300        3        1
N        0.00000000       2.06546650      11.63093300        4        1
N        2.06546650       0.00000000      11.63093300        5        1
N        0.00000000       0.00000000      13.69639950        6        1
N        2.06546650       2.06546650      13.69639950        7        1
V        0.00000000       4.13093300       7.50000000        0        2
V        2.06546650       4.13093300       9.56546650        1        2
V        0.00000000       6.19639950       9.56546650        2        2
V        2.06546650       6.19639950       7.50000000        3        2
N        0.00000000       6.19639950       7.50000000        4        2
N        2.06546650       4.13093300       7.50000000        5        2
N        0.00000000       4.13093300       9.56546650        6        2
N        2.06546650       6.19639950       9.56546650        7        2
V        0.00000000       4.13093300      11.63093300        0        1
V        2.06546650       4.13093300      13.69639950        1        1
V        0.00000000       6.19639950      13.69639950        2        1
V        2.06546650       6.19639950      11.63093300        3        1
N        0.00000000       6.19639950      11.63093300        4        1
N        2.06546650       4.13093300      11.63093300        5        1
N        0.00000000       4.13093300      13.69639950        6        1
N        2.06546650       6.19639950      13.69639950        7        1
V        4.13093300       0.00000000       7.50000000        0        2
V        6.19639950       0.00000000       9.56546650        1        2
V        4.13093300       2.06546650       9.56546650        2        2
V        6.19639950       2.06546650       7.50000000        3        2
N        4.13093300       2.06546650       7.50000000        4        2
N        6.19639950       0.00000000       7.50000000        5        2
N        4.13093300       0.00000000       9.56546650        6        2
N        6.19639950       2.06546650       9.56546650        7        2
V        4.13093300       0.00000000      11.63093300        0        1
V        6.19639950       0.00000000      13.69639950        1        1
V        4.13093300       2.06546650      13.69639950        2        1
V        6.19639950       2.06546650      11.63093300        3        1
N        4.13093300       2.06546650      11.63093300        4        1
N        6.19639950       0.00000000      11.63093300        5        1
N        4.13093300       0.00000000      13.69639950        6        1
N        6.19639950       2.06546650      13.69639950        7        1
V        4.13093300       4.13093300       7.50000000        0        2
V        6.19639950       4.13093300       9.56546650        1        2
V        4.13093300       6.19639950       9.56546650        2        2
V        6.19639950       6.19639950       7.50000000        3        2
N        4.13093300       6.19639950       7.50000000        4        2
N        6.19639950       4.13093300       7.50000000        5        2
N        4.13093300       4.13093300       9.56546650        6        2
N        6.19639950       6.19639950       9.56546650        7        2
V        4.13093300       4.13093300      11.63093300        0        1
V        6.19639950       4.13093300      13.69639950        1        1
V        4.13093300       6.19639950      13.69639950        2        1
V        6.19639950       6.19639950      11.63093300        3        1
N        4.13093300       6.19639950      11.63093300        4        1
N        6.19639950       4.13093300      11.63093300        5        1
N        4.13093300       4.13093300      13.69639950        6        1
N        6.19639950       6.19639950      13.69639950        7        1
