64
Lattice="9.116905394770201 0.0 0.0 0.0 9.116905394770201 0.0 0.0 0.0 21.8376790473851" Properties=species:S:1:pos:R:3:move_mask:L:1:tags:I:1:forces:R:3 energy=-50222.38639541851 free_energy=-50222.38639541851 pbc="T T F"
Zr       0.00000000       0.00000000       7.50000000  F        2       0.00000000       0.00000000       3.27501053
Zr       2.27922635       0.00000000       9.77922635  F        2      -0.00001363       0.00000000      -0.33719349
Zr       0.00000000       2.27922635       9.77922635  F        2       0.00000000      -0.00001363      -0.33719349
Zr       2.27922635       2.27922635       7.50000000  F        2      -0.00002957      -0.00002957       3.27518614
N        0.00000000       2.27922635       7.50000000  F        2       0.00000000      -0.00001028      -1.03618620
N        2.27922635       0.00000000       7.50000000  F        2      -0.00001028       0.00000000      -1.03618620
N        0.00000000       0.00000000       9.77922635  F        2       0.00000000       0.00000000      -1.90807993
N        2.27922635       2.27922635       9.77922635  F        2      -0.00000823      -0.00000823      -1.88083292
Zr       0.00000000       0.00000000      12.05845270  T        1       0.00000000       0.00000000      -0.02182224
Zr       2.27922635       0.00000000      14.33767905  T        1       0.00017484       0.00000000       0.00462310
Zr       0.00000000       2.27922635      14.33767905  T        1       0.00000000       0.00017484       0.00462310
Zr       2.27922635       2.27922635      12.05845270  T        1       0.00004988       0.00004988      -0.02137101
N        0.00000000       2.27922635      12.05845270  T        1       0.00000000       0.00004757       0.00636297
N        2.27922635       0.00000000      12.05845270  T        1       0.00004757       0.00000000       0.00636297
N        0.00000000       0.00000000      14.33767905  T        1       0.00000000       0.00000000       0.00166325
N        2.27922635       2.27922635      14.33767905  T        1       0.00005271       0.00005271       0.00487327
Zr       0.00000000       4.55845270       7.50000000  F        2       0.00000000       0.00000000       3.27499973
Zr       2.27922635       4.55845270       9.77922635  F        2      -0.00002365       0.00000000      -0.33715159
Zr       0.00000000       6.83767905       9.77922635  F        2       0.00000000       0.00001363      -0.33719349
Zr       2.27922635       6.83767905       7.50000000  F        2      -0.00002957       0.00002957       3.27518614
N        0.00000000       6.83767905       7.50000000  F        2       0.00000000       0.00001028      -1.03618620
N        2.27922635       4.55845270       7.50000000  F        2      -0.00000463       0.00000000      -1.03619083
N        0.00000000       4.55845270       9.77922635  F        2       0.00000000       0.00000000      -1.90808456
N        2.27922635       6.83767905       9.77922635  F        2      -0.00000823       0.00000823      -1.88083292
Zr       0.00000000       4.55845270      12.05845270  T        1       0.00000000       0.00000000      -0.02164303
Zr       2.27922635       4.55845270      14.33767905  T        1       0.00009410       0.00000000       0.00474420
Zr       0.00000000       6.83767905      14.33767905  T        1       0.00000000      -0.00017484       0.00462310
Zr       2.27922635       6.83767905      12.05845270  T        1       0.00004988      -0.00004988      -0.02137101
N        0.00000000       6.83767905      12.05845270  T        1       0.00000000      -0.00004757       0.00636297
N        2.27922635       4.55845270      12.05845270  T        1       0.00006016       0.00000000       0.00635757
N        0.00000000       4.55845270      14.33767905  T        1       0.00000000       0.00000000       0.00150101
N        2.27922635       6.83767905      14.33767905  T        1       0.00005271      -0.00005271       0.00487327
Zr       4.55845270       0.00000000       7.50000000  F        2       0.00000000       0.00000000       3.27499973
Zr       6.83767905       0.00000000       9.77922635  F        2       0.00001363       0.00000000      -0.33719349
Zr       4.55845270       2.27922635       9.77922635  F        2       0.00000000      -0.00002365      -0.33715159
Zr       6.83767905       2.27922635       7.50000000  F        2       0.00002957      -0.00002957       3.27518614
N        4.55845270       2.27922635       7.50000000  F        2       0.00000000      -0.00000463      -1.03619083
N        6.83767905       0.00000000       7.50000000  F        2       0.00001028       0.00000000      -1.03618620
N        4.55845270       0.00000000       9.77922635  F        2       0.00000000       0.00000000      -1.90808456
N        6.83767905       2.27922635       9.77922635  F        2       0.00000823      -0.00000823      -1.88083292
Zr       4.55845270       0.00000000      12.05845270  T        1       0.00000000       0.00000000      -0.02164303
Zr       6.83767905       0.00000000      14.33767905  T        1      -0.00017484       0.00000000       0.00462310
Zr       4.55845270       2.27922635      14.33767905  T        1       0.00000000       0.00009410       0.00474420
Zr       6.83767905       2.27922635      12.05845270  T        1      -0.00004988       0.00004988      -0.02137101
N        4.55845270       2.27922635      12.05845270  T        1       0.00000000       0.00006016       0.00635757
N        6.83767905       0.00000000      12.05845270  T        1      -0.00004757       0.00000000       0.00636297
N        4.55845270       0.00000000      14.33767905  T        1       0.00000000       0.00000000       0.00150101
N        6.83767905       2.27922635      14.33767905  T        1      -0.00005271       0.00005271       0.00487327
Zr       4.55845270       4.55845270       7.50000000  F        2       0.00000000       0.00000000       3.27499305
Zr       6.83767905       4.55845270       9.77922635  F        2       0.00002365       0.00000000      -0.33715159
Zr       4.55845270       6.83767905       9.77922635  F        2       0.00000000       0.00002365      -0.33715159
Zr       6.83767905       6.83767905       7.50000000  F        2       0.00002957       0.00002957       3.27518614
N        4.55845270       6.83767905       7.50000000  F        2       0.00000000       0.00000463      -1.03619083
N        6.83767905       4.55845270       7.50000000  F        2       0.00000463       0.00000000      -1.03619083
N        4.55845270       4.55845270       9.77922635  F        2       0.00000000       0.00000000      -1.90812981
N        6.83767905       6.83767905       9.77922635  F        2       0.00000823       0.00000823      -1.88083292
Zr       4.55845270       4.55845270      12.05845270  T        1       0.00000000       0.00000000      -0.02148594
Zr       6.83767905       4.55845270      14.33767905  T        1      -0.00009410       0.00000000       0.00474420
Zr       4.55845270       6.83767905      14.33767905  T        1       0.00000000      -0.00009410       0.00474420
Zr       6.83767905       6.83767905      12.05845270  T        1      -0.00004988      -0.00004988      -0.02137101
N        4.55845270       6.83767905      12.05845270  T        1       0.00000000      -0.00006016       0.00635757
N        6.83767905       4.55845270      12.05845270  T        1      -0.00006016       0.00000000       0.00635757
N        4.55845270       4.55845270      14.33767905  T        1       0.00000000       0.00000000       0.00142079
N        6.83767905       6.83767905      14.33767905  T        1      -0.00005271      -0.00005271       0.00487327
