 ANIMSTEPS   5
 CRYSTAL 
 PRIMVEC 
 13.4292962070  0.0000000000  0.0000000000
  0.0000000000 13.4292962070  0.0000000000
  0.0000000000  0.0000000000 26.7146437880
 PRIMCOORD   1
  147  1
Sc    0.0000000000    0.0000000000   10.0000000000    0.0000000000   -0.0000000000    0.0000000000
Sc    2.2382160900    0.0000000000   12.2382160900    0.0000000000   -0.0000000000   -0.0000000000
Sc    0.0000000000    2.2382160900   12.2382160900    0.0000000000   -0.0000000000   -0.0000000000
Sc    2.2382160900    2.2382160900   10.0000000000    0.0000000000    0.0000000000    0.0000000000
Sc    0.0029776300   -0.0018341400   14.4744166100    0.0001421235    0.0001069383    0.0002940470
Sc    2.2370348200   -0.0055741300   16.6615072600    0.0003309731    0.0003324000    0.0008633523
Sc    0.0007128100    2.2324616100   16.6609857700    0.0004361147    0.0007215881    0.0007510639
Sc    2.2391579100    2.2367755700   14.4730435000    0.0002144873    0.0005269560    0.0003730327
Sc    0.0000000000    4.4764321800   10.0000000000    0.0000000000    0.0000000000    0.0000000000
Sc    2.2382160900    4.4764321800   12.2382160900    0.0000000000    0.0000000000   -0.0000000000
Sc    0.0000000000    6.7146482700   12.2382160900    0.0000000000    0.0000000000   -0.0000000000
Sc    2.2382160900    6.7146482700   10.0000000000    0.0000000000    0.0000000000    0.0000000000
Sc   -0.0001520600    4.4803055800   14.4712646100    0.0004828201    0.0004211139    0.0005743508
Sc    2.2059654000    4.4753912800   16.6497501200    0.0026383213    0.0024021445    0.0035187033
Sc    0.0094606700    6.7216520000   16.6617943000    0.0025535844   -0.0001945386    0.0011220169
Sc    2.2633753700    6.7214207100   14.4954801400    0.0009767556   -0.0003059766    0.0018320046
Sc    0.0000000000    8.9528643500   10.0000000000    0.0000000000   -0.0000000000    0.0000000000
Sc    2.2382160900    8.9528643500   12.2382160900    0.0000000000   -0.0000000000   -0.0000000000
Sc    0.0000000000   11.1910804400   12.2382160900    0.0000000000   -0.0000000000   -0.0000000000
Sc    2.2382160900   11.1910804400   10.0000000000    0.0000000000   -0.0000000000    0.0000000000
Sc    0.0072700500    8.9526171900   14.4755653500    0.0005927362   -0.0005840891    0.0003825017
Sc    2.2320607600    8.9641776000   16.6787330900    0.0023275222   -0.0025857352    0.0023178949
Sc    0.0016757600   11.1935717200   16.6625844100    0.0005005665   -0.0005450193    0.0007183938
Sc    2.2412899700   11.1871129900   14.4754877500    0.0005242485   -0.0006286540    0.0003385058
Sc    4.4764321800    0.0000000000   10.0000000000   -0.0000000000   -0.0000000000    0.0000000000
Sc    6.7146482700    0.0000000000   12.2382160900   -0.0000000000   -0.0000000000   -0.0000000000
Sc    4.4764321800    2.2382160900   12.2382160900   -0.0000000000    0.0000000000   -0.0000000000
Sc    6.7146482700    2.2382160900   10.0000000000   -0.0000000000    0.0000000000    0.0000000000
Sc    4.4755533200   -0.0099269000   14.4713023000    0.0000011886    0.0001510704    0.0003726971
Sc    6.7188731100   -0.0051483500   16.6622784700   -0.0003804744    0.0003191834    0.0008251338
Sc    4.4725893700    2.2095878900   16.6322830800    0.0001228011    0.0026521554    0.0011927870
Sc    6.7157648900    2.2316024400   14.4713348100   -0.0002813607    0.0005700878    0.0005726393
Sc    4.4764321800    4.4764321800   10.0000000000   -0.0000000000    0.0000000000    0.0000000000
Sc    6.7146482700    4.4764321800   12.2382160900   -0.0000000000    0.0000000000   -0.0000000000
Sc    4.4764321800    6.7146482700   12.2382160900   -0.0000000000    0.0000000000    0.0000000000
Sc    6.7146482700    6.7146482700   10.0000000000   -0.0000000000    0.0000000000    0.0000000000
Sc    4.4743841500    4.5061189700   14.5001739500    0.0003507961    0.0008521095    0.0036037131
Sc    6.7479135200    4.4487720500   16.6423253500   -0.0025747599    0.0024974150    0.0052837977
Sc    4.4329350400    6.7661593100   16.9185715100    0.0025396366   -0.0022500270    0.0166864830
Sc    6.6876779000    6.7195525200   14.4999904200   -0.0008055413   -0.0002984419    0.0032630761
Sc    4.4764321800    8.9528643500   10.0000000000   -0.0000000000   -0.0000000000    0.0000000000
Sc    6.7146482700    8.9528643500   12.2382160900   -0.0000000000   -0.0000000000   -0.0000000000
Sc    4.4764321800   11.1910804400   12.2382160900   -0.0000000000   -0.0000000000   -0.0000000000
Sc    6.7146482700   11.1910804400   10.0000000000   -0.0000000000   -0.0000000000    0.0000000000
Sc    4.4720144400    8.9316853900   14.4942813200    0.0003598964   -0.0010802150    0.0017296920
Sc    6.7197861400    8.9918603100   16.6451351300   -0.0022468798   -0.0028166244    0.0040953899
Sc    4.4733721500   11.1865665700   16.6615408200    0.0001315164   -0.0025564317    0.0010578606
Sc    6.7134056000   11.1955640000   14.4703281400   -0.0005243828   -0.0006991724    0.0005678276
Sc    8.9528643500    0.0000000000   10.0000000000    0.0000000000   -0.0000000000    0.0000000000
Sc   11.1910804400    0.0000000000   12.2382160900    0.0000000000   -0.0000000000   -0.0000000000
Sc    8.9528643500    2.2382160900   12.2382160900    0.0000000000   -0.0000000000   -0.0000000000
Sc   11.1910804400    2.2382160900   10.0000000000    0.0000000000   -0.0000000000    0.0000000000
Sc    8.9576086900   -0.0012805900   14.4756716500   -0.0004309404    0.0000893619    0.0001834483
Sc   11.1972844700   -0.0018434000   16.6628816700   -0.0002256093    0.0001108939    0.0003554859
Sc    8.9648155000    2.2304047900   16.6617305600   -0.0008588201    0.0008031239    0.0005326970
Sc   11.1957390800    2.2360535300   14.4758189100   -0.0002069002    0.0004545042    0.0001249074
Sc    8.9528643500    4.4764321800   10.0000000000   -0.0000000000    0.0000000000    0.0000000000
Sc   11.1910804400    4.4764321800   12.2382160900    0.0000000000    0.0000000000   -0.0000000000
Sc    8.9528643500    6.7146482700   12.2382160900   -0.0000000000    0.0000000000   -0.0000000000
Sc   11.1910804400    6.7146482700   10.0000000000    0.0000000000    0.0000000000    0.0000000000
Sc    8.9633568500    4.4766314800   14.4700149500   -0.0007578551    0.0004961246    0.0007281154
Sc   11.2010998400    4.4758390500   16.6624747100   -0.0004191289    0.0004393278    0.0007628159
Sc    8.9892882700    6.7231503900   16.6242905900   -0.0030501896   -0.0002351344    0.0018733576
Sc   11.2056628400    6.7181234300   14.4698728300   -0.0003538220   -0.0000960281    0.0004749939
Sc    8.9528643500    8.9528643500   10.0000000000   -0.0000000000   -0.0000000000    0.0000000000
Sc   11.1910804400    8.9528643500   12.2382160900    0.0000000000    0.0000000000   -0.0000000000
Sc    8.9528643500   11.1910804400   12.2382160900    0.0000000000    0.0000000000   -0.0000000000
Sc   11.1910804400   11.1910804400   10.0000000000    0.0000000000   -0.0000000000    0.0000000000
Sc    8.9585550500    8.9567366400   14.4711985200   -0.0008639509   -0.0006516909    0.0005353701
Sc   11.2014763500    8.9583677100   16.6616366400   -0.0004488468   -0.0004712152    0.0007241772
Sc    8.9629597900   11.1951973100   16.6611642600   -0.0008424915   -0.0006058217    0.0006704439
Sc   11.1961653600   11.1913046100   14.4743418600   -0.0002275316   -0.0002416480    0.0003326515
 N    0.0000000000    2.2382160900   10.0000000000   -0.0000000000   -0.0000000000    0.0000000000
 N    2.2382160900    0.0000000000   10.0000000000   -0.0000000000    0.0000000000    0.0000000000
 N    0.0000000000    0.0000000000   12.2382160900   -0.0000000000    0.0000000000   -0.0000000000
 N    2.2382160900    2.2382160900   12.2382160900   -0.0000000000   -0.0000000000   -0.0000000000
 N    0.0019989500    2.2379315000   14.4838081600   -0.0002844162   -0.0002065124   -0.0004728220
 N    2.2392622700    0.0000509100   14.4849210800   -0.0002440551    0.0000452507   -0.0005626472
 N    0.0014698400   -0.0000424600   16.6756343800   -0.0005024783   -0.0001262861   -0.0007535390
 N    2.2337564300    2.2329544800   16.6761725600   -0.0011650578   -0.0013900379   -0.0010490549
 N    0.0000000000    6.7146482700   10.0000000000   -0.0000000000   -0.0000000000    0.0000000000
 N    2.2382160900    4.4764321800   10.0000000000   -0.0000000000   -0.0000000000    0.0000000000
 N    0.0000000000    4.4764321800   12.2382160900   -0.0000000000   -0.0000000000   -0.0000000000
 N    2.2382160900    6.7146482700   12.2382160900   -0.0000000000   -0.0000000000   -0.0000000000
 N   -0.0015102200    6.7148391200   14.4804933400   -0.0008168631    0.0000573470   -0.0009975760
 N    2.2470251700    4.4763125700   14.4959477000   -0.0011508670   -0.0005157003   -0.0017409387
 N    0.0011489400    4.4726617300   16.6728905500   -0.0013768603   -0.0007400233   -0.0013771715
 N    2.2125614500    6.7203871000   16.6570260400   -0.0052642676    0.0005790352   -0.0036767406
 N    0.0000000000   11.1910804400   10.0000000000   -0.0000000000    0.0000000000    0.0000000000
 N    2.2382160900    8.9528643500   10.0000000000   -0.0000000000    0.0000000000    0.0000000000
 N    0.0000000000    8.9528643500   12.2382160900   -0.0000000000    0.0000000000   -0.0000000000
 N    2.2382160900   11.1910804400   12.2382160900   -0.0000000000    0.0000000000   -0.0000000000
 N    0.0014754400   11.1925651100   14.4841125300   -0.0002011764    0.0002269876   -0.0003618378
 N    2.2387675300    8.9554914200   14.4883799900   -0.0004095921    0.0002710643   -0.0014129986
 N    0.0013770900    8.9595122100   16.6756477900   -0.0011300635    0.0008688613   -0.0012648536
 N    2.2363080100   11.1951025500   16.6754500300   -0.0009180655    0.0009851593   -0.0012021153
 N    4.4764321800    2.2382160900   10.0000000000    0.0000000000   -0.0000000000    0.0000000000
 N    6.7146482700    0.0000000000   10.0000000000    0.0000000000    0.0000000000    0.0000000000
 N    4.4764321800    0.0000000000   12.2382160900    0.0000000000    0.0000000000   -0.0000000000
 N    6.7146482700    2.2382160900   12.2382160900    0.0000000000    0.0000000000   -0.0000000000
 N    4.4790893100    2.2384890600   14.4832759200   -0.0001113872   -0.0014317095   -0.0011201597
 N    6.7181083000    0.0007778000   14.4861363900    0.0001122557    0.0000215517   -0.0007041503
 N    4.4801785400   -0.0030175400   16.6743758400   -0.0002925248   -0.0001687130   -0.0007791646
 N    6.7244612400    2.2371421300   16.6752773700    0.0006494922   -0.0016098096   -0.0012676384
 N    4.4764321800    6.7146482700   10.0000000000    0.0000000000   -0.0000000000   -0.0000000000
 N    6.7146482700    4.4764321800   10.0000000000    0.0000000000   -0.0000000000    0.0000000000
 N    4.4764321800    4.4764321800   12.2382160900    0.0000000000   -0.0000000000   -0.0000000000
 N    6.7146482700    6.7146482700   12.2382160900    0.0000000000   -0.0000000000   -0.0000000000
 N    4.4908486200    6.7025523000   14.4760552900    0.0000212743    0.0002584104   -0.0043455978
 N    6.7095998100    4.4833685900   14.5064754100    0.0008714178   -0.0006035017   -0.0018241661
 N    4.4682094400    4.4155410900   16.7727926800   -0.0009622874   -0.0048150224   -0.0065043191
 N    6.7845214200    6.7290087800   16.7574814900    0.0049791031    0.0008147072   -0.0065542067
 N    4.4764321800   11.1910804400   10.0000000000    0.0000000000    0.0000000000    0.0000000000
 N    6.7146482700    8.9528643500   10.0000000000    0.0000000000    0.0000000000    0.0000000000
 N    4.4764321800    8.9528643500   12.2382160900    0.0000000000    0.0000000000   -0.0000000000
 N    6.7146482700   11.1910804400   12.2382160900    0.0000000000    0.0000000000   -0.0000000000
 N    4.4787908900   11.1970594400   14.4801279000   -0.0001127696    0.0007749741   -0.0010066078
 N    6.7184374000    8.9501009700   14.4930998500    0.0002969499    0.0004485933   -0.0014469764
 N    4.4758002800    8.9864362600   16.6533882300   -0.0007699567    0.0049229855   -0.0036650801
 N    6.7235255500   11.1963047200   16.6715289800    0.0005157906    0.0010736667   -0.0013736257
 N    8.9528643500    2.2382160900   10.0000000000   -0.0000000000    0.0000000000    0.0000000000
 N   11.1910804400    0.0000000000   10.0000000000   -0.0000000000    0.0000000000    0.0000000000
 N    8.9528643500    0.0000000000   12.2382160900    0.0000000000    0.0000000000   -0.0000000000
 N   11.1910804400    2.2382160900   12.2382160900   -0.0000000000   -0.0000000000   -0.0000000000
 N    8.9557223400    2.2388657100   14.4845808700    0.0001353758   -0.0003072149   -0.0006306389
 N   11.1936418400    0.0004095000   14.4851677000   -0.0000419120    0.0000514352   -0.0003485190
 N    8.9589231300    0.0009744400   16.6762934100    0.0003156434   -0.0001476216   -0.0008016632
 N   11.1954492100    2.2370685800   16.6760699100   -0.0000445282   -0.0004473954   -0.0007160670
 N    8.9528643500    6.7146482700   10.0000000000    0.0000000000   -0.0000000000    0.0000000000
 N   11.1910804400    4.4764321800   10.0000000000   -0.0000000000   -0.0000000000    0.0000000000
 N    8.9528643500    4.4764321800   12.2382160900   -0.0000000000   -0.0000000000   -0.0000000000
 N   11.1910804400    6.7146482700   12.2382160900   -0.0000000000   -0.0000000000   -0.0000000000
 N    8.9595041600    6.7150271800   14.4794697600    0.0006796282    0.0000110237   -0.0007538081
 N   11.1940118900    4.4753781300   14.4862423900   -0.0000202484   -0.0001503060   -0.0007463443
 N    8.9594544900    4.4723986500   16.6760441200    0.0015432514   -0.0009070578   -0.0016346457
 N   11.2014204900    6.7155951300   16.6729867100   -0.0002478271    0.0002064815   -0.0008240921
 N    8.9528643500   11.1910804400   10.0000000000    0.0000000000    0.0000000000    0.0000000000
 N   11.1910804400    8.9528643500   10.0000000000   -0.0000000000    0.0000000000    0.0000000000
 N    8.9528643500    8.9528643500   12.2382160900    0.0000000000    0.0000000000   -0.0000000000
 N   11.1910804400   11.1910804400   12.2382160900   -0.0000000000    0.0000000000   -0.0000000000
 N    8.9567568400   11.1925474400   14.4836016600    0.0000453192    0.0002593468   -0.0004742289
 N   11.1945245500    8.9550763500   14.4847587800   -0.0000473800    0.0002054046   -0.0006273898
 N    8.9635595600    8.9623090900   16.6764066300    0.0012235407    0.0010819217   -0.0014338735
 N   11.1962519900   11.1945602000   16.6753715100   -0.0000408687    0.0003767936   -0.0006538443
 S    4.6502724900    6.5941740900   19.4724120300    0.0022593384   -0.0026804449   -0.0097805486
Li    6.6821572800    6.7439683700   18.7142749300   -0.0055435538   -0.0001433895    0.0039236820
Li    4.4715735900    4.5535139300   18.7417267100   -0.0004784753    0.0042914589    0.0015536072
 PRIMCOORD   2
  147  1
Sc    0.0000000000    0.0000000000   10.0000000000    0.0000000000   -0.0000000000    0.0000000000
Sc    2.2382160900    0.0000000000   12.2382160900   -0.0000000000   -0.0000000000   -0.0000000000
Sc    0.0000000000    2.2382160900   12.2382160900   -0.0000000000   -0.0000000000   -0.0000000000
Sc    2.2382160900    2.2382160900   10.0000000000    0.0000000000    0.0000000000    0.0000000000
Sc   -0.0006797179   -0.0018009210   14.4788267672   -0.0001344267   -0.0002144728   -0.0002578527
Sc    2.2338515320   -0.0096463444   16.6683956327   -0.0003492426   -0.0001321895   -0.0005428287
Sc   -0.0087358320    2.2353608663   16.6677032657   -0.0000798686   -0.0005292845   -0.0004816971
Sc    2.2293523241    2.2320996903   14.4620807599   -0.0002111597   -0.0003241598    0.0002212166
Sc    0.0000000000    4.4764321800   10.0000000000    0.0000000000    0.0000000000    0.0000000000
Sc    2.2382160900    4.4764321800   12.2382160900    0.0000000000    0.0000000000   -0.0000000000
Sc    0.0000000000    6.7146482700   12.2382160900    0.0000000000    0.0000000000   -0.0000000000
Sc    2.2382160900    6.7146482700   10.0000000000    0.0000000000    0.0000000000    0.0000000000
Sc   -0.0128430784    4.4808993308   14.4651152794   -0.0001115908   -0.0001058091   -0.0002333652
Sc    2.1836692847    4.4776562668   16.6072814034   -0.0006157076   -0.0009920938    0.0002239500
Sc   -0.0019804126    6.7218569985   16.6570502826    0.0002113462   -0.0001389925    0.0000976405
Sc    2.2562397603    6.7223101987   14.4846647713    0.0002628903   -0.0002701373    0.0004469689
Sc    0.0000000000    8.9528643500   10.0000000000    0.0000000000   -0.0000000000    0.0000000000
Sc    2.2382160900    8.9528643500   12.2382160900    0.0000000000   -0.0000000000   -0.0000000000
Sc    0.0000000000   11.1910804400   12.2382160900    0.0000000000   -0.0000000000   -0.0000000000
Sc    2.2382160900   11.1910804400   10.0000000000    0.0000000000   -0.0000000000    0.0000000000
Sc    0.0001520136    8.9513681015   14.4750140794    0.0000995254   -0.0001425753    0.0000663511
Sc    2.2277580776    8.9537375365   16.6763977193   -0.0000398767   -0.0004234972    0.0000470481
Sc   -0.0032476630   11.1906047610   16.6626691902   -0.0000896082   -0.0002248276    0.0000135065
Sc    2.2386756167   11.1834518880   14.4776854600   -0.0000466844   -0.0001639550   -0.0000853146
Sc    4.4764321800    0.0000000000   10.0000000000   -0.0000000000    0.0000000000    0.0000000000
Sc    6.7146482700    0.0000000000   12.2382160900    0.0000000000   -0.0000000000   -0.0000000000
Sc    4.4764321800    2.2382160900   12.2382160900   -0.0000000000    0.0000000000   -0.0000000000
Sc    6.7146482700    2.2382160900   10.0000000000   -0.0000000000    0.0000000000    0.0000000000
Sc    4.4728807272   -0.0178713222   14.4659054425   -0.0000651420   -0.0002288380   -0.0002581888
Sc    6.7130810066   -0.0101717640   16.6609025171   -0.0001081981   -0.0000226484   -0.0000055616
Sc    4.4670569927    2.1932852261   16.5860064132   -0.0006490761   -0.0006606575   -0.0001437455
Sc    6.7170012732    2.2318226361   14.4674584299   -0.0001960473   -0.0000507660    0.0001449654
Sc    4.4764321800    4.4764321800   10.0000000000   -0.0000000000    0.0000000000    0.0000000000
Sc    6.7146482700    4.4764321800   12.2382160900   -0.0000000000    0.0000000000   -0.0000000000
Sc    4.4764321800    6.7146482700   12.2382160900    0.0000000000   -0.0000000000   -0.0000000000
Sc    6.7146482700    6.7146482700   10.0000000000   -0.0000000000    0.0000000000    0.0000000000
Sc    4.4711902896    4.5012800878   14.4955835292   -0.0001362204   -0.0001097005    0.0005732076
Sc    6.7029389885    4.4307976649   16.6876117376    0.0003125974   -0.0003806605   -0.0002205828
Sc    4.3933898398    6.6912061180   16.9390165420   -0.0001867367   -0.0004208710    0.0018873093
Sc    6.6772132468    6.7082512563   14.5117942703   -0.0003858042   -0.0002493323    0.0002091778
Sc    4.4764321800    8.9528643500   10.0000000000   -0.0000000000   -0.0000000000    0.0000000000
Sc    6.7146482700    8.9528643500   12.2382160900   -0.0000000000   -0.0000000000   -0.0000000000
Sc    4.4764321800   11.1910804400   12.2382160900   -0.0000000000   -0.0000000000   -0.0000000000
Sc    6.7146482700   11.1910804400   10.0000000000   -0.0000000000   -0.0000000000    0.0000000000
Sc    4.4698087815    8.9197601148   14.5035704960   -0.0001568511   -0.0004174185    0.0001414856
Sc    6.7050311445    8.9711976602   16.6599943930   -0.0002355476   -0.0001800583    0.0000409750
Sc    4.4690902242   11.1790749008   16.6647183581   -0.0001789024   -0.0002493773   -0.0000037773
Sc    6.7089838274   11.1880232782   14.4744301140   -0.0001273869   -0.0001258126   -0.0000001101
Sc    8.9528643500    0.0000000000   10.0000000000   -0.0000000000   -0.0000000000    0.0000000000
Sc   11.1910804400    0.0000000000   12.2382160900    0.0000000000   -0.0000000000   -0.0000000000
Sc    8.9528643500    2.2382160900   12.2382160900    0.0000000000    0.0000000000   -0.0000000000
Sc   11.1910804400    2.2382160900   10.0000000000    0.0000000000    0.0000000000    0.0000000000
Sc    8.9526214789   -0.0035185906   14.4766986749   -0.0001217171   -0.0000189398   -0.0000195020
Sc   11.1899823583   -0.0027109247   16.6630628140   -0.0001160584   -0.0002685392   -0.0000111610
Sc    8.9544989495    2.2312717990   16.6645898964   -0.0002308654   -0.0002728555   -0.0000867337
Sc   11.1883352042    2.2373475794   14.4773983179   -0.0001115695   -0.0001526170   -0.0001547357
Sc    8.9528643500    4.4764321800   10.0000000000   -0.0000000000    0.0000000000    0.0000000000
Sc   11.1910804400    4.4764321800   12.2382160900   -0.0000000000    0.0000000000   -0.0000000000
Sc    8.9528643500    6.7146482700   12.2382160900   -0.0000000000   -0.0000000000   -0.0000000000
Sc   11.1910804400    6.7146482700   10.0000000000    0.0000000000    0.0000000000    0.0000000000
Sc    8.9457350366    4.4786318966   14.4823760189   -0.0001238371   -0.0001810242   -0.0001030550
Sc   11.1883419659    4.4768671403   16.6626488054   -0.0000918141   -0.0001688932    0.0000229123
Sc    8.9673608168    6.7168567017   16.6487893716   -0.0000773273   -0.0001504663   -0.0001338315
Sc   11.1930075406    6.7169869400   14.4735271055   -0.0000553897   -0.0000810257    0.0000093020
Sc    8.9528643500    8.9528643500   10.0000000000   -0.0000000000   -0.0000000000    0.0000000000
Sc   11.1910804400    8.9528643500   12.2382160900    0.0000000000   -0.0000000000   -0.0000000000
Sc    8.9528643500   11.1910804400   12.2382160900   -0.0000000000   -0.0000000000   -0.0000000000
Sc   11.1910804400   11.1910804400   10.0000000000    0.0000000000   -0.0000000000    0.0000000000
Sc    8.9489460264    8.9500439674   14.4775396367   -0.0001213160   -0.0001266337   -0.0000208353
Sc   11.1904414819    8.9558246503   16.6628011261    0.0000257644   -0.0001118003    0.0000114203
Sc    8.9533003859   11.1898757527   16.6620762784   -0.0000831971   -0.0001008511    0.0000034207
Sc   11.1905339618   11.1897863747   14.4758860524   -0.0000435403   -0.0000949193    0.0000122377
 N    0.0000000000    2.2382160900   10.0000000000   -0.0000000000   -0.0000000000    0.0000000000
 N    2.2382160900    0.0000000000   10.0000000000   -0.0000000000    0.0000000000    0.0000000000
 N    0.0000000000    0.0000000000   12.2382160900   -0.0000000000    0.0000000000   -0.0000000000
 N    2.2382160900    2.2382160900   12.2382160900   -0.0000000000   -0.0000000000   -0.0000000000
 N    0.0004261876    2.2360430905   14.4871906239   -0.0004947560   -0.0001330458   -0.0003339751
 N    2.2340293876    0.0022404487   14.4884545826   -0.0001053005   -0.0005209944   -0.0003740160
 N   -0.0052368697   -0.0011237827   16.6763060211   -0.0002939183   -0.0002821963   -0.0000494731
 N    2.2286367140    2.2352610186   16.7149857309   -0.0011034998   -0.0013186386   -0.0041585924
 N    0.0000000000    6.7146482700   10.0000000000   -0.0000000000   -0.0000000000    0.0000000000
 N    2.2382160900    4.4764321800   10.0000000000   -0.0000000000   -0.0000000000    0.0000000000
 N    0.0000000000    4.4764321800   12.2382160900   -0.0000000000   -0.0000000000   -0.0000000000
 N    2.2382160900    6.7146482700   12.2382160900   -0.0000000000    0.0000000000   -0.0000000000
 N   -0.0129636656    6.7169053010   14.4765122501   -0.0001563790   -0.0001873426   -0.0000158443
 N    2.2248367311    4.4719168267   14.4746997334   -0.0000997259   -0.0001145479    0.0000106934
 N   -0.0181361928    4.4725998575   16.6618245653   -0.0004283111   -0.0004554286   -0.0000237475
 N    2.1932602914    6.7158926208   16.6424727574   -0.0004169514   -0.0004795122    0.0001994525
 N    0.0000000000   11.1910804400   10.0000000000   -0.0000000000    0.0000000000    0.0000000000
 N    2.2382160900    8.9528643500   10.0000000000   -0.0000000000    0.0000000000    0.0000000000
 N    0.0000000000    8.9528643500   12.2382160900   -0.0000000000    0.0000000000   -0.0000000000
 N    2.2382160900   11.1910804400   12.2382160900   -0.0000000000    0.0000000000   -0.0000000000
 N   -0.0021122624   11.1913703030   14.4844030242   -0.0001243778   -0.0001552244   -0.0000264109
 N    2.2370255742    8.9532681238   14.4888786051   -0.0000865769   -0.0001790871   -0.0000317556
 N   -0.0079915108    8.9571000516   16.6732251110   -0.0001877972   -0.0001706687   -0.0000030140
 N    2.2293823241   11.1917007677   16.6758480532   -0.0001662727   -0.0002701239   -0.0001316219
 N    4.4764321800    2.2382160900   10.0000000000    0.0000000000   -0.0000000000   -0.0000000000
 N    6.7146482700    0.0000000000   10.0000000000    0.0000000000    0.0000000000    0.0000000000
 N    4.4764321800    0.0000000000   12.2382160900   -0.0000000000   -0.0000000000   -0.0000000000
 N    6.7146482700    2.2382160900   12.2382160900    0.0000000000    0.0000000000   -0.0000000000
 N    4.4713995471    2.2175676857   14.4611891839    0.0000388239   -0.0000849291   -0.0000543081
 N    6.7155430151   -0.0043599055   14.4841030218   -0.0001012572   -0.0001781114    0.0000159095
 N    4.4730055852   -0.0204411274   16.6667371967   -0.0002698103   -0.0002634722   -0.0000011530
 N    6.7126464075    2.2263250005   16.6722069285   -0.0002067368   -0.0002419792    0.0000974800
 N    4.4764321800    6.7146482700   10.0000000000    0.0000000000   -0.0000000000   -0.0000000000
 N    6.7146482700    4.4764321800   10.0000000000    0.0000000000   -0.0000000000    0.0000000000
 N    4.4764321800    4.4764321800   12.2382160900    0.0000000000   -0.0000000000   -0.0000000000
 N    6.7146482700    6.7146482700   12.2382160900    0.0000000000   -0.0000000000   -0.0000000000
 N    4.4825260522    6.6977748295   14.4700184938    0.0000093420   -0.0004025291   -0.0001885567
 N    6.7033926868    4.4813257597   14.5140448349   -0.0002411262   -0.0001839229    0.0002358032
 N    4.4173020757    4.3556574501   16.6761188150   -0.0007903014   -0.0005189407    0.0026245141
 N    6.7487093404    6.7210360523   16.8040311442    0.0003420824   -0.0002198225   -0.0005471195
 N    4.4764321800   11.1910804400   10.0000000000    0.0000000000    0.0000000000    0.0000000000
 N    6.7146482700    8.9528643500   10.0000000000    0.0000000000    0.0000000000    0.0000000000
 N    4.4764321800    8.9528643500   12.2382160900    0.0000000000    0.0000000000   -0.0000000000
 N    6.7146482700   11.1910804400   12.2382160900    0.0000000000   -0.0000000000   -0.0000000000
 N    4.4747821439   11.1859972047   14.4836365453   -0.0000123624   -0.0000395891   -0.0000182447
 N    6.7086313476    8.9406542768   14.5023032147   -0.0000205765   -0.0000489102    0.0000477337
 N    4.4643292861    8.9595457768   16.6877562821   -0.0000557783    0.0002282565   -0.0001644551
 N    6.7149905128   11.1883109453   16.6749784119   -0.0001018730   -0.0001629326   -0.0000387173
 N    8.9528643500    2.2382160900   10.0000000000   -0.0000000000   -0.0000000000    0.0000000000
 N   11.1910804400    0.0000000000   10.0000000000   -0.0000000000    0.0000000000    0.0000000000
 N    8.9528643500    0.0000000000   12.2382160900   -0.0000000000    0.0000000000   -0.0000000000
 N   11.1910804400    2.2382160900   12.2382160900   -0.0000000000   -0.0000000000   -0.0000000000
 N    8.9492108697    2.2375610590   14.4859271506   -0.0000515905   -0.0001079368   -0.0000350248
 N   11.1890707142    0.0004376178   14.4854155689   -0.0001082501   -0.0001620868   -0.0000161965
 N    8.9515966412   -0.0023147975   16.6753252525   -0.0001375046   -0.0001827327   -0.0000226716
 N   11.1869242242    2.2360929370   16.6772903965   -0.0002615683   -0.0001827714   -0.0001508512
 N    8.9528643500    6.7146482700   10.0000000000    0.0000000000   -0.0000000000    0.0000000000
 N   11.1910804400    4.4764321800   10.0000000000   -0.0000000000   -0.0000000000    0.0000000000
 N    8.9528643500    4.4764321800   12.2382160900   -0.0000000000   -0.0000000000   -0.0000000000
 N   11.1910804400    6.7146482700   12.2382160900   -0.0000000000   -0.0000000000   -0.0000000000
 N    8.9440608984    6.7122804693   14.4925129539    0.0000664128   -0.0000771687   -0.0000362682
 N   11.1831892723    4.4753250105   14.4855744266   -0.0000587072   -0.0000564951    0.0000593774
 N    8.9403600891    4.4666603619   16.6833810140   -0.0000884918   -0.0001649159    0.0000145910
 N   11.1843506949    6.7139932151   16.6765878391   -0.0001313343   -0.0002180499   -0.0000413004
 N    8.9528643500   11.1910804400   10.0000000000    0.0000000000    0.0000000000    0.0000000000
 N   11.1910804400    8.9528643500   10.0000000000   -0.0000000000    0.0000000000    0.0000000000
 N    8.9528643500    8.9528643500   12.2382160900   -0.0000000000   -0.0000000000   -0.0000000000
 N   11.1910804400   11.1910804400   12.2382160900   -0.0000000000    0.0000000000   -0.0000000000
 N    8.9504526231   11.1892437485   14.4845412782   -0.0000727201   -0.0001333788    0.0000078498
 N   11.1871022952    8.9535292900   14.4851458310   -0.0000801274   -0.0001075986    0.0000054924
 N    8.9540815298    8.9579869834   16.6780497263   -0.0001284449   -0.0001614680    0.0000169809
 N   11.1886454312   11.1926495284   16.6749404896   -0.0001559147   -0.0001586782   -0.0000138515
 S    4.5251754542    6.0253476572   19.4128090158    0.0024021850    0.0106077347    0.0037400868
Li    6.5200034947    6.6108597513   18.7844600051    0.0025996634    0.0008923746   -0.0001859982
Li    3.9645202551    4.0412900595   18.7301288721    0.0186483705    0.0145793188   -0.0039445855
 PRIMCOORD   3
  147  1
Sc    0.0000000000    0.0000000000   10.0000000000   -0.0000000000   -0.0000000000    0.0000000000
Sc    2.2382160900    0.0000000000   12.2382160900   -0.0000000000   -0.0000000000   -0.0000000000
Sc    0.0000000000    2.2382160900   12.2382160900   -0.0000000000   -0.0000000000   -0.0000000000
Sc    2.2382160900    2.2382160900   10.0000000000    0.0000000000    0.0000000000    0.0000000000
Sc    0.0040124488    0.0047380851   14.4866225170    0.0001045092    0.0000914367    0.0000050366
Sc    2.2439395722   -0.0063562270   16.6848052771   -0.0000130880    0.0007173194    0.0000689653
Sc   -0.0053285321    2.2496775628   16.6836506541    0.0007714485   -0.0001151621    0.0001422781
Sc    2.2364619106    2.2399781321   14.4511261083   -0.0002988911   -0.0004012102    0.0006070848
Sc    0.0000000000    4.4764321800   10.0000000000    0.0000000000    0.0000000000    0.0000000000
Sc    2.2382160900    4.4764321800   12.2382160900    0.0000000000    0.0000000000   -0.0000000000
Sc    0.0000000000    6.7146482700   12.2382160900    0.0000000000    0.0000000000   -0.0000000000
Sc    2.2382160900    6.7146482700   10.0000000000    0.0000000000    0.0000000000    0.0000000000
Sc   -0.0088853766    4.4825523542   14.4696846486   -0.0004415597   -0.0002828201   -0.0002467065
Sc    2.2116701494    4.5141411134   16.5976396034   -0.0003835338   -0.0012617956   -0.0003528207
Sc   -0.0048031657    6.7271591104   16.6546409792   -0.0001556284   -0.0000694906    0.0000310007
Sc    2.2488617908    6.7312415771   14.4724172616   -0.0000473451    0.0002196814   -0.0002743178
Sc    0.0000000000    8.9528643500   10.0000000000    0.0000000000   -0.0000000000    0.0000000000
Sc    2.2382160900    8.9528643500   12.2382160900    0.0000000000    0.0000000000   -0.0000000000
Sc    0.0000000000   11.1910804400   12.2382160900    0.0000000000    0.0000000000   -0.0000000000
Sc    2.2382160900   11.1910804400   10.0000000000    0.0000000000   -0.0000000000    0.0000000000
Sc   -0.0014516060    8.9563943770   14.4743836321    0.0000084031    0.0000610000   -0.0000576996
Sc    2.2258963671    8.9614180753   16.6713701525   -0.0002048638   -0.0001246437   -0.0002579956
Sc   -0.0026947175   11.1961264066   16.6631575583   -0.0000786724    0.0000632146   -0.0000300410
Sc    2.2395834753   11.1882269660   14.4792856581   -0.0000151837    0.0000866357   -0.0001600814
Sc    4.4764321800    0.0000000000   10.0000000000    0.0000000000   -0.0000000000    0.0000000000
Sc    6.7146482700    0.0000000000   12.2382160900    0.0000000000   -0.0000000000   -0.0000000000
Sc    4.4764321800    2.2382160900   12.2382160900    0.0000000000    0.0000000000   -0.0000000000
Sc    6.7146482700    2.2382160900   10.0000000000   -0.0000000000    0.0000000000    0.0000000000
Sc    4.4751591514   -0.0110287758   14.4702896439   -0.0001636479   -0.0003584653   -0.0001536831
Sc    6.7181878485   -0.0062930113   16.6597653552   -0.0000418806    0.0000559611    0.0000342159
Sc    4.4945091115    2.2150627474   16.5826349347   -0.0007625337   -0.0003963144   -0.0001619529
Sc    6.7243714249    2.2344033525   14.4635472821    0.0002003512    0.0000315229    0.0000795316
Sc    4.4764321800    4.4764321800   10.0000000000   -0.0000000000    0.0000000000    0.0000000000
Sc    6.7146482700    4.4764321800   12.2382160900   -0.0000000000    0.0000000000   -0.0000000000
Sc    4.4764321800    6.7146482700   12.2382160900    0.0000000000    0.0000000000   -0.0000000000
Sc    6.7146482700    6.7146482700   10.0000000000   -0.0000000000    0.0000000000    0.0000000000
Sc    4.4790358764    4.5029974150   14.4740704978    0.0002140568   -0.0001651436    0.0002511027
Sc    6.6880871017    4.4333147171   16.6894204511   -0.0005016493   -0.0007290886   -0.0001678880
Sc    4.3965772177    6.6995229562   16.8520975593   -0.0005019250   -0.0008540054   -0.0013200536
Sc    6.6877846670    6.7108223585   14.5013216517   -0.0000864402   -0.0002706157   -0.0001147005
Sc    4.4764321800    8.9528643500   10.0000000000   -0.0000000000   -0.0000000000    0.0000000000
Sc    6.7146482700    8.9528643500   12.2382160900   -0.0000000000   -0.0000000000   -0.0000000000
Sc    4.4764321800   11.1910804400   12.2382160900   -0.0000000000   -0.0000000000   -0.0000000000
Sc    6.7146482700   11.1910804400   10.0000000000   -0.0000000000   -0.0000000000    0.0000000000
Sc    4.4728679657    8.9305118051   14.4978186557   -0.0001144056   -0.0000502975   -0.0002556503
Sc    6.7120978977    8.9748115013   16.6581585181   -0.0000696863   -0.0001743594    0.0000587571
Sc    4.4745426422   11.1863959809   16.6639675369   -0.0000106003    0.0001790554   -0.0001186433
Sc    6.7122244302   11.1920668188   14.4736744971   -0.0000383172   -0.0000958778    0.0000014604
Sc    8.9528643500    0.0000000000   10.0000000000   -0.0000000000   -0.0000000000    0.0000000000
Sc   11.1910804400    0.0000000000   12.2382160900    0.0000000000   -0.0000000000   -0.0000000000
Sc    8.9528643500    2.2382160900   12.2382160900    0.0000000000    0.0000000000   -0.0000000000
Sc   11.1910804400    2.2382160900   10.0000000000   -0.0000000000    0.0000000000    0.0000000000
Sc    8.9555407223   -0.0012560111   14.4770539367   -0.0000041421    0.0000288809    0.0000365710
Sc   11.1925788095    0.0025294493   16.6637865692   -0.0000086268   -0.0000911014   -0.0000302919
Sc    8.9555128372    2.2372666425   16.6658630725   -0.0002996035   -0.0002280298   -0.0001566446
Sc   11.1900428078    2.2403570155   14.4796472353    0.0000211286   -0.0000509421   -0.0001199446
Sc    8.9528643500    4.4764321800   10.0000000000   -0.0000000000    0.0000000000    0.0000000000
Sc   11.1910804400    4.4764321800   12.2382160900   -0.0000000000    0.0000000000   -0.0000000000
Sc    8.9528643500    6.7146482700   12.2382160900   -0.0000000000   -0.0000000000   -0.0000000000
Sc   11.1910804400    6.7146482700   10.0000000000    0.0000000000    0.0000000000    0.0000000000
Sc    8.9453290526    4.4807042405   14.4848104339   -0.0001648081   -0.0001763076   -0.0000626835
Sc   11.1888665382    4.4810538739   16.6619673917    0.0000113266   -0.0000910021   -0.0001377122
Sc    8.9682711218    6.7173366325   16.6547500673   -0.0001570068   -0.0001462661    0.0001684818
Sc   11.1933532332    6.7182322996   14.4730148667   -0.0001790366   -0.0000649907   -0.0000100061
Sc    8.9528643500    8.9528643500   10.0000000000   -0.0000000000   -0.0000000000    0.0000000000
Sc   11.1910804400    8.9528643500   12.2382160900    0.0000000000    0.0000000000   -0.0000000000
Sc    8.9528643500   11.1910804400   12.2382160900    0.0000000000   -0.0000000000   -0.0000000000
Sc   11.1910804400   11.1910804400   10.0000000000    0.0000000000   -0.0000000000    0.0000000000
Sc    8.9518258997    8.9527132548   14.4777156402   -0.0000782995   -0.0000674413   -0.0000010992
Sc   11.1909019636    8.9596344167   16.6618418939   -0.0000326827   -0.0000454929    0.0000099714
Sc    8.9567628573   11.1939288081   16.6612017577   -0.0000668303    0.0000272655   -0.0000037021
Sc   11.1924626253   11.1936079456   14.4758309343   -0.0000355031   -0.0000127505   -0.0000448470
 N    0.0000000000    2.2382160900   10.0000000000    0.0000000000   -0.0000000000    0.0000000000
 N    2.2382160900    0.0000000000   10.0000000000   -0.0000000000    0.0000000000    0.0000000000
 N    0.0000000000    0.0000000000   12.2382160900    0.0000000000    0.0000000000   -0.0000000000
 N    2.2382160900    2.2382160900   12.2382160900   -0.0000000000   -0.0000000000   -0.0000000000
 N    0.0163963928    2.2409683273   14.5016006200   -0.0001669757    0.0000263442   -0.0001327784
 N    2.2373164024    0.0188080966   14.5030037876    0.0000071156   -0.0002002918   -0.0001616612
 N    0.0047167567    0.0082923442   16.6801962750   -0.0001226681   -0.0001625427    0.0000699784
 N    2.2639085020    2.2763844485   16.8591344359    0.0000783357    0.0001533533   -0.0024002536
 N    0.0000000000    6.7146482700   10.0000000000   -0.0000000000   -0.0000000000    0.0000000000
 N    2.2382160900    4.4764321800   10.0000000000   -0.0000000000   -0.0000000000    0.0000000000
 N    0.0000000000    4.4764321800   12.2382160900   -0.0000000000   -0.0000000000   -0.0000000000
 N    2.2382160900    6.7146482700   12.2382160900   -0.0000000000    0.0000000000   -0.0000000000
 N   -0.0105084834    6.7211396795   14.4771779830   -0.0000664037   -0.0000751457    0.0000459037
 N    2.2239871779    4.4721149316   14.4710560216   -0.0002582394    0.0001405405   -0.0007373469
 N   -0.0073848826    4.4840385606   16.6646344170   -0.0005095487    0.0000716245   -0.0002662205
 N    2.2046642762    6.7297223349   16.6341801783   -0.0000625356    0.0000440305   -0.0000499404
 N    0.0000000000   11.1910804400   10.0000000000   -0.0000000000    0.0000000000    0.0000000000
 N    2.2382160900    8.9528643500   10.0000000000   -0.0000000000    0.0000000000    0.0000000000
 N    0.0000000000    8.9528643500   12.2382160900   -0.0000000000    0.0000000000   -0.0000000000
 N    2.2382160900   11.1910804400   12.2382160900   -0.0000000000    0.0000000000   -0.0000000000
 N    0.0012699695   11.1958042079   14.4866313752   -0.0000976949   -0.0001179922    0.0000589532
 N    2.2376433673    8.9602451438   14.4881729006   -0.0000869864   -0.0001383648    0.0000767423
 N   -0.0035217416    8.9613850818   16.6744956092    0.0000044639   -0.0001550841    0.0000333088
 N    2.2357310833   11.2007736467   16.6826572548    0.0000083547   -0.0003198279    0.0000329585
 N    4.4764321800    2.2382160900   10.0000000000   -0.0000000000   -0.0000000000    0.0000000000
 N    6.7146482700    0.0000000000   10.0000000000    0.0000000000    0.0000000000    0.0000000000
 N    4.4764321800    0.0000000000   12.2382160900   -0.0000000000   -0.0000000000   -0.0000000000
 N    6.7146482700    2.2382160900   12.2382160900    0.0000000000    0.0000000000   -0.0000000000
 N    4.4675647064    2.2163591251   14.4597556525    0.0001112960   -0.0002561177   -0.0008799600
 N    6.7182660675   -0.0016771799   14.4841976309   -0.0000394198   -0.0001569309   -0.0000516738
 N    4.4801440919   -0.0161511056   16.6681351719    0.0000320564   -0.0006617666   -0.0002039244
 N    6.7194190540    2.2304287034   16.6694558495    0.0002164009   -0.0002936156   -0.0001134270
 N    4.4764321800    6.7146482700   10.0000000000    0.0000000000   -0.0000000000   -0.0000000000
 N    6.7146482700    4.4764321800   10.0000000000    0.0000000000   -0.0000000000    0.0000000000
 N    4.4764321800    4.4764321800   12.2382160900   -0.0000000000   -0.0000000000   -0.0000000000
 N    6.7146482700    6.7146482700   12.2382160900    0.0000000000    0.0000000000   -0.0000000000
 N    4.4831680499    6.7100705089   14.4793782175   -0.0001527167   -0.0002576308    0.0004221085
 N    6.7129394768    4.4866314629   14.5026738523   -0.0001639894   -0.0000797212    0.0000009162
 N    4.4427196508    4.3695340332   16.5847621169   -0.0004846021   -0.0005833709   -0.0002971668
 N    6.7368001588    6.7262634344   16.8249829394   -0.0005688248   -0.0003229695    0.0008044139
 N    4.4764321800   11.1910804400   10.0000000000    0.0000000000    0.0000000000    0.0000000000
 N    6.7146482700    8.9528643500   10.0000000000    0.0000000000    0.0000000000    0.0000000000
 N    4.4764321800    8.9528643500   12.2382160900    0.0000000000    0.0000000000   -0.0000000000
 N    6.7146482700   11.1910804400   12.2382160900    0.0000000000   -0.0000000000   -0.0000000000
 N    4.4753059531   11.1878427689   14.4858289449    0.0000114134   -0.0001372609    0.0001298982
 N    6.7108559977    8.9427481000   14.5021069245   -0.0000272569   -0.0001300151    0.0001843545
 N    4.4683563207    8.9511635785   16.6928272039   -0.0001470965   -0.0004764717    0.0002994549
 N    6.7173051632   11.1900264483   16.6774172237   -0.0001643119   -0.0003082357    0.0000863700
 N    8.9528643500    2.2382160900   10.0000000000    0.0000000000   -0.0000000000    0.0000000000
 N   11.1910804400    0.0000000000   10.0000000000    0.0000000000    0.0000000000    0.0000000000
 N    8.9528643500    0.0000000000   12.2382160900    0.0000000000    0.0000000000   -0.0000000000
 N   11.1910804400    2.2382160900   12.2382160900    0.0000000000    0.0000000000   -0.0000000000
 N    8.9531912244    2.2395276180   14.4876342113   -0.0000425264   -0.0000871312    0.0000361435
 N   11.1927076604    0.0051133494   14.4875481278   -0.0000727520   -0.0001153941    0.0000602024
 N    8.9562381088    0.0012499317   16.6759267163    0.0000042150   -0.0001151371    0.0000336406
 N   11.1973612440    2.2421735663   16.6836746987   -0.0001754790   -0.0000088779    0.0000454224
 N    8.9528643500    6.7146482700   10.0000000000    0.0000000000   -0.0000000000    0.0000000000
 N   11.1910804400    4.4764321800   10.0000000000   -0.0000000000   -0.0000000000    0.0000000000
 N    8.9528643500    4.4764321800   12.2382160900   -0.0000000000    0.0000000000   -0.0000000000
 N   11.1910804400    6.7146482700   12.2382160900   -0.0000000000    0.0000000000   -0.0000000000
 N    8.9426868719    6.7152096296   14.4962119904   -0.0001325411   -0.0000249174    0.0002408214
 N   11.1871046696    4.4769000368   14.4862930334   -0.0000277357    0.0000134098    0.0001091108
 N    8.9458641843    4.4717703801   16.6832751432   -0.0000856215   -0.0001009377    0.0001151704
 N   11.1869405404    6.7184894298   16.6779087753   -0.0001655726   -0.0001900086    0.0000841637
 N    8.9528643500   11.1910804400   10.0000000000   -0.0000000000    0.0000000000    0.0000000000
 N   11.1910804400    8.9528643500   10.0000000000   -0.0000000000    0.0000000000    0.0000000000
 N    8.9528643500    8.9528643500   12.2382160900   -0.0000000000   -0.0000000000   -0.0000000000
 N   11.1910804400   11.1910804400   12.2382160900    0.0000000000    0.0000000000   -0.0000000000
 N    8.9524433292   11.1919000689   14.4852346524   -0.0000394340   -0.0001332202    0.0000491816
 N   11.1888715773    8.9559808132   14.4856799403   -0.0000848494   -0.0000803030    0.0000521405
 N    8.9563899037    8.9601639592   16.6779806817   -0.0002006192   -0.0002630983    0.0000773218
 N   11.1931532158   11.1967856182   16.6767421443   -0.0000322140   -0.0001042359    0.0000406504
 S    4.4420906665    5.6372595258   19.2852629198   -0.0014228879   -0.0062984027   -0.0002419458
Li    6.4217724062    6.5626477563   18.7917357736   -0.0023905181   -0.0020643689    0.0004800162
Li    3.3132019306    3.4996730970   18.8591357201    0.0154204362    0.0159891354    0.0019250423
 PRIMCOORD   4
  147  1
Sc    0.0000000000    0.0000000000   10.0000000000   -0.0000000000   -0.0000000000    0.0000000000
Sc    2.2382160900    0.0000000000   12.2382160900    0.0000000000   -0.0000000000   -0.0000000000
Sc    0.0000000000    2.2382160900   12.2382160900   -0.0000000000    0.0000000000   -0.0000000000
Sc    2.2382160900    2.2382160900   10.0000000000    0.0000000000    0.0000000000    0.0000000000
Sc    0.0041871836    0.0039959304   14.4865641373    0.0001187289    0.0001463878   -0.0000052229
Sc    2.2443600701   -0.0177425008   16.6805049129    0.0001793052    0.0005877797    0.0002703629
Sc   -0.0171126576    2.2498932096   16.6765781722    0.0006663309    0.0001829073    0.0002559450
Sc    2.2414183427    2.2453550857   14.4397917022   -0.0002852623   -0.0002440059    0.0003316436
Sc    0.0000000000    4.4764321800   10.0000000000   -0.0000000000    0.0000000000    0.0000000000
Sc    2.2382160900    4.4764321800   12.2382160900    0.0000000000    0.0000000000   -0.0000000000
Sc    0.0000000000    6.7146482700   12.2382160900    0.0000000000    0.0000000000   -0.0000000000
Sc    2.2382160900    6.7146482700   10.0000000000    0.0000000000    0.0000000000    0.0000000000
Sc    0.0000586520    4.4853743595   14.4775419237   -0.0002539886   -0.0001715305    0.0000926812
Sc    2.2420626837    4.5433621711   16.6318868497    0.0000995612   -0.0004773739    0.0003122742
Sc   -0.0007919580    6.7299253865   16.6554544960   -0.0001874262    0.0000320567    0.0000669363
Sc    2.2564856993    6.7332622457   14.4761037082   -0.0001171755    0.0003327480   -0.0002892997
Sc    0.0000000000    8.9528643500   10.0000000000    0.0000000000   -0.0000000000    0.0000000000
Sc    2.2382160900    8.9528643500   12.2382160900    0.0000000000   -0.0000000000   -0.0000000000
Sc    0.0000000000   11.1910804400   12.2382160900    0.0000000000    0.0000000000   -0.0000000000
Sc    2.2382160900   11.1910804400   10.0000000000    0.0000000000   -0.0000000000    0.0000000000
Sc    0.0005838206    8.9558190641   14.4742949951    0.0000031596    0.0000867787   -0.0000257898
Sc    2.2293350641    8.9622701767   16.6742700597   -0.0000901354    0.0000560580   -0.0001401030
Sc   -0.0036249625   11.1942721929   16.6618287539   -0.0000655568   -0.0000326710    0.0000123975
Sc    2.2417549014   11.1857142215   14.4775264989    0.0000312728    0.0000542212   -0.0000983598
Sc    4.4764321800    0.0000000000   10.0000000000    0.0000000000   -0.0000000000    0.0000000000
Sc    6.7146482700    0.0000000000   12.2382160900    0.0000000000   -0.0000000000   -0.0000000000
Sc    4.4764321800    2.2382160900   12.2382160900    0.0000000000    0.0000000000   -0.0000000000
Sc    6.7146482700    2.2382160900   10.0000000000   -0.0000000000    0.0000000000    0.0000000000
Sc    4.4767383915   -0.0054756498   14.4761301251   -0.0001290301   -0.0002730485    0.0001017323
Sc    6.7206253160   -0.0045888418   16.6597902741    0.0000139243   -0.0001545255    0.0001155381
Sc    4.5173190218    2.2374929426   16.6047519876   -0.0004668575   -0.0000762197    0.0002958842
Sc    6.7256958203    2.2389019543   14.4643198355    0.0003503979    0.0000770526   -0.0000498849
Sc    4.4764321800    4.4764321800   10.0000000000    0.0000000000    0.0000000000    0.0000000000
Sc    6.7146482700    4.4764321800   12.2382160900   -0.0000000000    0.0000000000   -0.0000000000
Sc    4.4764321800    6.7146482700   12.2382160900    0.0000000000    0.0000000000   -0.0000000000
Sc    6.7146482700    6.7146482700   10.0000000000   -0.0000000000    0.0000000000    0.0000000000
Sc    4.4818822093    4.5115781274   14.4766437545    0.0002568448    0.0000116020    0.0002004394
Sc    6.6943050727    4.4501914628   16.6868501061   -0.0004164997   -0.0000120850    0.0001838681
Sc    4.4171219960    6.7190819900   16.8776220303   -0.0000245061   -0.0000551190   -0.0010090959
Sc    6.6883736155    6.7147977572   14.4995068557    0.0000658588   -0.0001134424    0.0000162463
Sc    4.4764321800    8.9528643500   10.0000000000    0.0000000000   -0.0000000000    0.0000000000
Sc    6.7146482700    8.9528643500   12.2382160900   -0.0000000000   -0.0000000000   -0.0000000000
Sc    4.4764321800   11.1910804400   12.2382160900   -0.0000000000   -0.0000000000   -0.0000000000
Sc    6.7146482700   11.1910804400   10.0000000000   -0.0000000000   -0.0000000000    0.0000000000
Sc    4.4748612682    8.9295129137   14.4964529477   -0.0000831253    0.0001561447   -0.0000853725
Sc    6.7174017885    8.9813603069   16.6522478272    0.0000162233   -0.0000368940    0.0001570686
Sc    4.4780070246   11.1855774293   16.6625867493    0.0001491646    0.0001153383    0.0000210591
Sc    6.7122135352   11.1940790867   14.4716126369    0.0000137342   -0.0000007574    0.0000597158
Sc    8.9528643500    0.0000000000   10.0000000000   -0.0000000000   -0.0000000000    0.0000000000
Sc   11.1910804400    0.0000000000   12.2382160900    0.0000000000   -0.0000000000   -0.0000000000
Sc    8.9528643500    2.2382160900   12.2382160900    0.0000000000    0.0000000000   -0.0000000000
Sc   11.1910804400    2.2382160900   10.0000000000   -0.0000000000    0.0000000000    0.0000000000
Sc    8.9554867275   -0.0003792006   14.4766838716    0.0000521069    0.0000411611    0.0000206935
Sc   11.1912910493    0.0012389466   16.6620543740   -0.0000523278   -0.0000713900    0.0000074032
Sc    8.9558832955    2.2407155936   16.6660634535   -0.0000896123   -0.0001258173   -0.0000652826
Sc   11.1882550794    2.2423500980   14.4774728168    0.0000347052    0.0000891960   -0.0001312947
Sc    8.9528643500    4.4764321800   10.0000000000   -0.0000000000    0.0000000000    0.0000000000
Sc   11.1910804400    4.4764321800   12.2382160900   -0.0000000000    0.0000000000   -0.0000000000
Sc    8.9528643500    6.7146482700   12.2382160900   -0.0000000000   -0.0000000000   -0.0000000000
Sc   11.1910804400    6.7146482700   10.0000000000    0.0000000000    0.0000000000    0.0000000000
Sc    8.9468085193    4.4829062107   14.4824791363   -0.0000323822   -0.0000739472   -0.0000630384
Sc   11.1895201333    4.4850068741   16.6614352679    0.0002119354    0.0001472101   -0.0000429798
Sc    8.9736103904    6.7217250164   16.6452182023   -0.0000885842    0.0000960226    0.0003036012
Sc   11.1967272080    6.7184053509   14.4711779016   -0.0000427876   -0.0000337895    0.0000196709
Sc    8.9528643500    8.9528643500   10.0000000000   -0.0000000000   -0.0000000000    0.0000000000
Sc   11.1910804400    8.9528643500   12.2382160900    0.0000000000    0.0000000000   -0.0000000000
Sc    8.9528643500   11.1910804400   12.2382160900    0.0000000000    0.0000000000   -0.0000000000
Sc   11.1910804400   11.1910804400   10.0000000000   -0.0000000000   -0.0000000000    0.0000000000
Sc    8.9537606822    8.9545037291   14.4743834031    0.0000469054    0.0000281020   -0.0000125637
Sc   11.1923816628    8.9599944953   16.6606235829    0.0000450698   -0.0000082431    0.0000592177
Sc    8.9581643666   11.1948344958   16.6599428354   -0.0000365117    0.0000512992    0.0000616623
Sc   11.1928985019   11.1933890644   14.4746848078   -0.0000208188   -0.0000011782   -0.0000494088
 N    0.0000000000    2.2382160900   10.0000000000    0.0000000000   -0.0000000000    0.0000000000
 N    2.2382160900    0.0000000000   10.0000000000   -0.0000000000    0.0000000000    0.0000000000
 N    0.0000000000    0.0000000000   12.2382160900    0.0000000000    0.0000000000   -0.0000000000
 N    2.2382160900    2.2382160900   12.2382160900   -0.0000000000   -0.0000000000    0.0000000000
 N    0.0231928522    2.2427526599   14.5062637919   -0.0000147861    0.0000195682   -0.0000300048
 N    2.2387225335    0.0255393702   14.5075068972   -0.0000013865   -0.0000301502   -0.0000676005
 N    0.0049775341    0.0091620309   16.6786752532   -0.0001193775   -0.0001286729   -0.0000316246
 N    2.2579743625    2.2676485518   16.9596133973    0.0000629942    0.0000348798    0.0000737373
 N    0.0000000000    6.7146482700   10.0000000000   -0.0000000000   -0.0000000000    0.0000000000
 N    2.2382160900    4.4764321800   10.0000000000   -0.0000000000   -0.0000000000    0.0000000000
 N    0.0000000000    4.4764321800   12.2382160900    0.0000000000   -0.0000000000   -0.0000000000
 N    2.2382160900    6.7146482700   12.2382160900   -0.0000000000   -0.0000000000   -0.0000000000
 N   -0.0070407567    6.7204074344   14.4782480292    0.0000373845    0.0000014196   -0.0000060376
 N    2.2309792892    4.4685643278   14.4868433814   -0.0000193608    0.0001373058   -0.0003355797
 N    0.0033633972    4.4830602346   16.6743117102   -0.0000625115    0.0001298255   -0.0000589913
 N    2.2059047873    6.7326609544   16.6370209193    0.0000588473    0.0002230172   -0.0003164088
 N    0.0000000000   11.1910804400   10.0000000000    0.0000000000    0.0000000000    0.0000000000
 N    2.2382160900    8.9528643500   10.0000000000   -0.0000000000    0.0000000000    0.0000000000
 N    0.0000000000    8.9528643500   12.2382160900   -0.0000000000    0.0000000000   -0.0000000000
 N    2.2382160900   11.1910804400   12.2382160900   -0.0000000000    0.0000000000   -0.0000000000
 N    0.0028216819   11.1965023536   14.4861947193   -0.0000395281   -0.0000091553    0.0000360994
 N    2.2387097537    8.9617354759   14.4898867443   -0.0000301473   -0.0000146179    0.0000336239
 N   -0.0008701385    8.9636720707   16.6745570391    0.0000901314   -0.0000002188   -0.0000150570
 N    2.2366480470   11.2059217895   16.6843981017   -0.0000145999   -0.0001216518    0.0000163131
 N    4.4764321800    2.2382160900   10.0000000000   -0.0000000000   -0.0000000000    0.0000000000
 N    6.7146482700    0.0000000000   10.0000000000    0.0000000000    0.0000000000    0.0000000000
 N    4.4764321800    0.0000000000   12.2382160900   -0.0000000000   -0.0000000000   -0.0000000000
 N    6.7146482700    2.2382160900   12.2382160900   -0.0000000000    0.0000000000   -0.0000000000
 N    4.4633247301    2.2229854140   14.4732766979    0.0000803130   -0.0000953776   -0.0004814406
 N    6.7181251816    0.0021010123   14.4850603764    0.0000219699    0.0000088473   -0.0000626038
 N    4.4805794596   -0.0043200994   16.6738578665    0.0001035873   -0.0002681214   -0.0001574282
 N    6.7200652244    2.2375377860   16.6718095572    0.0001908026   -0.0000415457   -0.0000203386
 N    4.4764321800    6.7146482700   10.0000000000   -0.0000000000   -0.0000000000   -0.0000000000
 N    6.7146482700    4.4764321800   10.0000000000    0.0000000000   -0.0000000000    0.0000000000
 N    4.4764321800    4.4764321800   12.2382160900   -0.0000000000   -0.0000000000   -0.0000000000
 N    6.7146482700    6.7146482700   12.2382160900    0.0000000000    0.0000000000   -0.0000000000
 N    4.4856921717    6.7170425839   14.4639868896   -0.0001062152   -0.0000963225    0.0003614121
 N    6.7181448606    4.4883985405   14.4984535913   -0.0000224269   -0.0000153528   -0.0000719866
 N    4.4671215969    4.3998352923   16.5806136096    0.0000858423   -0.0002533096   -0.0010793050
 N    6.7571276694    6.7380088830   16.7993359466   -0.0003035746    0.0000581483    0.0003768173
 N    4.4764321800   11.1910804400   10.0000000000   -0.0000000000    0.0000000000    0.0000000000
 N    6.7146482700    8.9528643500   10.0000000000    0.0000000000    0.0000000000    0.0000000000
 N    4.4764321800    8.9528643500   12.2382160900    0.0000000000    0.0000000000   -0.0000000000
 N    6.7146482700   11.1910804400   12.2382160900    0.0000000000    0.0000000000   -0.0000000000
 N    4.4752708603   11.1934305186   14.4851714810    0.0000138363   -0.0000752549    0.0000167132
 N    6.7136738821    8.9480206948   14.4988701414    0.0000390084   -0.0000282497   -0.0000075349
 N    4.4724881231    8.9674320671   16.6857596958   -0.0000635845   -0.0003178741    0.0001330643
 N    6.7195291295   11.1963944522   16.6760510452   -0.0000050568   -0.0000572672    0.0000033296
 N    8.9528643500    2.2382160900   10.0000000000    0.0000000000   -0.0000000000    0.0000000000
 N   11.1910804400    0.0000000000   10.0000000000    0.0000000000    0.0000000000    0.0000000000
 N    8.9528643500    0.0000000000   12.2382160900    0.0000000000    0.0000000000   -0.0000000000
 N   11.1910804400    2.2382160900   12.2382160900    0.0000000000    0.0000000000   -0.0000000000
 N    8.9545786726    2.2408852759   14.4885620045   -0.0000222250   -0.0000053420    0.0001127646
 N   11.1935014503    0.0064888956   14.4869483527   -0.0000101476   -0.0000134634    0.0000461993
 N    8.9572193133    0.0048232483   16.6755402422    0.0000796610    0.0000759259    0.0000172189
 N   11.2015983246    2.2433826606   16.6848853976   -0.0000802087    0.0000009683    0.0000789427
 N    8.9528643500    6.7146482700   10.0000000000    0.0000000000   -0.0000000000    0.0000000000
 N   11.1910804400    4.4764321800   10.0000000000    0.0000000000   -0.0000000000    0.0000000000
 N    8.9528643500    4.4764321800   12.2382160900    0.0000000000   -0.0000000000   -0.0000000000
 N   11.1910804400    6.7146482700   12.2382160900   -0.0000000000   -0.0000000000   -0.0000000000
 N    8.9490035816    6.7170561929   14.4910549476   -0.0000917912    0.0000243118    0.0001588267
 N   11.1914819268    4.4765582903   14.4872614897   -0.0000109309    0.0000157194    0.0000671391
 N    8.9532706604    4.4746079810   16.6820300947   -0.0000328380   -0.0000677572    0.0001150729
 N   11.1928220876    6.7198714839   16.6767268817   -0.0000493030   -0.0000458184    0.0000406484
 N    8.9528643500   11.1910804400   10.0000000000    0.0000000000    0.0000000000    0.0000000000
 N   11.1910804400    8.9528643500   10.0000000000   -0.0000000000    0.0000000000    0.0000000000
 N    8.9528643500    8.9528643500   12.2382160900   -0.0000000000    0.0000000000   -0.0000000000
 N   11.1910804400   11.1910804400   12.2382160900    0.0000000000    0.0000000000   -0.0000000000
 N    8.9537880965   11.1938009611   14.4845028378    0.0000262725   -0.0000375279   -0.0000010985
 N   11.1910077453    8.9571164182   14.4851483267   -0.0000268334    0.0000119907    0.0000152418
 N    8.9606131615    8.9649851844   16.6768065118    0.0000208009   -0.0000587166   -0.0000400091
 N   11.1948022534   11.1989989458   16.6765819950    0.0000726384    0.0000452033    0.0000252926
 S    4.4937875508    5.8270815421   19.2769771866   -0.0017852480   -0.0094746580   -0.0028286813
Li    6.5010675829    6.6174225625   18.7712054987   -0.0022140975   -0.0016903694    0.0004558992
Li    2.6663639739    2.8042074081   18.7861946314    0.0015149394    0.0021158579    0.0000445064
 PRIMCOORD   5
  147  1
Sc    0.0000000000    0.0000000000   10.0000000000   -0.0000000000   -0.0000000000    0.0000000000
Sc    2.2382160900    0.0000000000   12.2382160900    0.0000000000   -0.0000000000   -0.0000000000
Sc    0.0000000000    2.2382160900   12.2382160900   -0.0000000000    0.0000000000   -0.0000000000
Sc    2.2382160900    2.2382160900   10.0000000000    0.0000000000    0.0000000000    0.0000000000
Sc   -0.0007178100   -0.0049637300   14.4796339500    0.0002636651    0.0004502462    0.0004091892
Sc    2.2398890800   -0.0352150200   16.6576827200   -0.0000338488   -0.0004053519   -0.0003501972
Sc   -0.0350438700    2.2410469000   16.6521948600   -0.0004080537    0.0000630133   -0.0003527995
Sc    2.2433980300    2.2454942900   14.4463855200   -0.0001795666   -0.0003699580   -0.0009714748
Sc    0.0000000000    4.4764321800   10.0000000000    0.0000000000    0.0000000000    0.0000000000
Sc    2.2382160900    4.4764321800   12.2382160900    0.0000000000    0.0000000000   -0.0000000000
Sc    0.0000000000    6.7146482700   12.2382160900    0.0000000000    0.0000000000   -0.0000000000
Sc    2.2382160900    6.7146482700   10.0000000000    0.0000000000    0.0000000000    0.0000000000
Sc    0.0008628100    4.4879022500   14.4776224100    0.0001524504   -0.0003516965    0.0003077441
Sc    2.2395394500    4.5350514000   16.6503308500    0.0002809363    0.0003943421   -0.0001443063
Sc    0.0038152700    6.7251502000   16.6617165600   -0.0001681128    0.0001682430   -0.0003274020
Sc    2.2711304000    6.7309276400   14.4909221000   -0.0001394902   -0.0001847119    0.0002838594
Sc    0.0000000000    8.9528643500   10.0000000000    0.0000000000   -0.0000000000    0.0000000000
Sc    2.2382160900    8.9528643500   12.2382160900    0.0000000000   -0.0000000000   -0.0000000000
Sc    0.0000000000   11.1910804400   12.2382160900    0.0000000000   -0.0000000000   -0.0000000000
Sc    2.2382160900   11.1910804400   10.0000000000    0.0000000000   -0.0000000000    0.0000000000
Sc    0.0050549800    8.9491273400   14.4782921900   -0.0001342724    0.0001708417   -0.0003772417
Sc    2.2386507200    8.9513975400   16.6924342500   -0.0000491681    0.0002530399   -0.0008949386
Sc   -0.0044587100   11.1838490200   16.6618997100   -0.0001054961    0.0001667631   -0.0003649273
Sc    2.2442806700   11.1736171100   14.4755746400   -0.0001192587    0.0006305854    0.0002741664
Sc    4.4764321800    0.0000000000   10.0000000000    0.0000000000   -0.0000000000    0.0000000000
Sc    6.7146482700    0.0000000000   12.2382160900   -0.0000000000   -0.0000000000   -0.0000000000
Sc    4.4764321800    2.2382160900   12.2382160900    0.0000000000    0.0000000000   -0.0000000000
Sc    6.7146482700    2.2382160900   10.0000000000   -0.0000000000    0.0000000000    0.0000000000
Sc    4.4779101100   -0.0070805700   14.4785574600   -0.0002840169    0.0001900494    0.0002691046
Sc    6.7164668900   -0.0053766700   16.6620629900    0.0003409271   -0.0002862995   -0.0001777324
Sc    4.5158887300    2.2467395300   16.6282964500    0.0004298404    0.0000848237    0.0000570227
Sc    6.7201856600    2.2400224400   14.4662095700   -0.0000210050   -0.0004128300    0.0003728785
Sc    4.4764321800    4.4764321800   10.0000000000    0.0000000000    0.0000000000    0.0000000000
Sc    6.7146482700    4.4764321800   12.2382160900   -0.0000000000    0.0000000000   -0.0000000000
Sc    4.4764321800    6.7146482700   12.2382160900    0.0000000000    0.0000000000   -0.0000000000
Sc    6.7146482700    6.7146482700   10.0000000000   -0.0000000000    0.0000000000    0.0000000000
Sc    4.4800676600    4.5232552900   14.4958203300   -0.0003207001   -0.0004716080    0.0011700478
Sc    6.7121339800    4.4598700800   16.6683097300   -0.0002487896   -0.0001007527    0.0003156718
Sc    4.4387970900    6.7233353800   17.0050017200    0.0001522703    0.0001158988   -0.0002356107
Sc    6.6782403100    6.7173095400   14.5028370800    0.0001602216    0.0001302002    0.0003068817
Sc    4.4764321800    8.9528643500   10.0000000000    0.0000000000   -0.0000000000    0.0000000000
Sc    6.7146482700    8.9528643500   12.2382160900   -0.0000000000   -0.0000000000   -0.0000000000
Sc    4.4764321800   11.1910804400   12.2382160900    0.0000000000   -0.0000000000   -0.0000000000
Sc    6.7146482700   11.1910804400   10.0000000000   -0.0000000000   -0.0000000000    0.0000000000
Sc    4.4741105600    8.9155994800   14.5030021800    0.0000945722    0.0002037630   -0.0005478843
Sc    6.7101490100    8.9823037200   16.6564320000    0.0002947448    0.0002458010    0.0002091411
Sc    4.4760426600   11.1773816200   16.6646717300    0.0001881436    0.0002369730   -0.0004516962
Sc    6.7075370400   11.1902840300   14.4722419700    0.0001396257    0.0002121559   -0.0000767054
Sc    8.9528643500    0.0000000000   10.0000000000   -0.0000000000   -0.0000000000    0.0000000000
Sc   11.1910804400    0.0000000000   12.2382160900   -0.0000000000   -0.0000000000   -0.0000000000
Sc    8.9528643500    2.2382160900   12.2382160900    0.0000000000    0.0000000000   -0.0000000000
Sc   11.1910804400    2.2382160900   10.0000000000   -0.0000000000    0.0000000000    0.0000000000
Sc    8.9513191700   -0.0033328100   14.4771138800    0.0001616736    0.0000397965   -0.0003767059
Sc   11.1858248800   -0.0064752500   16.6603583300    0.0000340505    0.0000598500   -0.0004070046
Sc    8.9535861200    2.2382514200   16.6639618400    0.0002337349   -0.0000471099   -0.0004073484
Sc   11.1819308700    2.2401209000   14.4719920500    0.0004334376   -0.0000312437    0.0004197018
Sc    8.9528643500    4.4764321800   10.0000000000   -0.0000000000    0.0000000000    0.0000000000
Sc   11.1910804400    4.4764321800   12.2382160900   -0.0000000000    0.0000000000   -0.0000000000
Sc    8.9528643500    6.7146482700   12.2382160900   -0.0000000000    0.0000000000   -0.0000000000
Sc   11.1910804400    6.7146482700   10.0000000000   -0.0000000000    0.0000000000    0.0000000000
Sc    8.9491618200    4.4817502600   14.4754441800    0.0002577471    0.0001029828   -0.0002494467
Sc   11.1880608000    4.4840837200   16.6607019100    0.0000352453    0.0001067422   -0.0001717171
Sc    8.9780552000    6.7199467400   16.6250233800   -0.0000000778    0.0001781306    0.0005388471
Sc   11.1994365400    6.7177066700   14.4689915900    0.0000224472    0.0000024053    0.0001010481
Sc    8.9528643500    8.9528643500   10.0000000000   -0.0000000000   -0.0000000000    0.0000000000
Sc   11.1910804400    8.9528643500   12.2382160900    0.0000000000   -0.0000000000   -0.0000000000
Sc    8.9528643500   11.1910804400   12.2382160900   -0.0000000000   -0.0000000000   -0.0000000000
Sc   11.1910804400   11.1910804400   10.0000000000   -0.0000000000   -0.0000000000    0.0000000000
Sc    8.9504529300    8.9529294500   14.4728564700    0.0002196047    0.0000992099   -0.0003170569
Sc   11.1920993800    8.9545486400   16.6600227200   -0.0000173163    0.0001277379    0.0001850201
Sc    8.9537600300   11.1900943000   16.6595599300    0.0001644881   -0.0000070188    0.0001901671
Sc   11.1908706800   11.1875348400   14.4739397700    0.0000574425    0.0002335561    0.0002536423
 N    0.0000000000    2.2382160900   10.0000000000    0.0000000000   -0.0000000000    0.0000000000
 N    2.2382160900    0.0000000000   10.0000000000   -0.0000000000    0.0000000000    0.0000000000
 N    0.0000000000    0.0000000000   12.2382160900    0.0000000000    0.0000000000   -0.0000000000
 N    2.2382160900    2.2382160900   12.2382160900   -0.0000000000   -0.0000000000    0.0000000000
 N    0.0170143100    2.2393598200   14.4985031900    0.0004794639   -0.0000290743    0.0008999961
 N    2.2378211800    0.0187262100   14.5011781700   -0.0001690190    0.0004903013    0.0008837280
 N   -0.0012736600    0.0026075200   16.6792358400    0.0002511253    0.0003620504   -0.0004497081
 N    2.2377232700    2.2442712200   16.9299318100   -0.0004879813   -0.0006313887   -0.0009638276
 N    0.0000000000    6.7146482700   10.0000000000   -0.0000000000   -0.0000000000    0.0000000000
 N    2.2382160900    4.4764321800   10.0000000000   -0.0000000000   -0.0000000000    0.0000000000
 N    0.0000000000    4.4764321800   12.2382160900    0.0000000000   -0.0000000000   -0.0000000000
 N    2.2382160900    6.7146482700   12.2382160900   -0.0000000000   -0.0000000000   -0.0000000000
 N   -0.0045447000    6.7151799300   14.4804472300    0.0001457929    0.0001211763   -0.0000873478
 N    2.2370108800    4.4646602000   14.4998989700   -0.0001773636   -0.0003948311    0.0003020861
 N   -0.0008485100    4.4731135600   16.6805271900    0.0001051767   -0.0004655873   -0.0004633943
 N    2.1991863800    6.7184240700   16.6581302800    0.0000356092   -0.0002443306    0.0002220170
 N    0.0000000000   11.1910804400   10.0000000000   -0.0000000000    0.0000000000    0.0000000000
 N    2.2382160900    8.9528643500   10.0000000000   -0.0000000000    0.0000000000    0.0000000000
 N    0.0000000000    8.9528643500   12.2382160900   -0.0000000000    0.0000000000   -0.0000000000
 N    2.2382160900   11.1910804400   12.2382160900   -0.0000000000    0.0000000000   -0.0000000000
 N    0.0022398300   11.1922121300   14.4854307400    0.0000002115    0.0001459689   -0.0001034662
 N    2.2383631100    8.9537320000   14.4944491500    0.0000406111    0.0001012285    0.0001268734
 N   -0.0039671100    8.9599456000   16.6750360300    0.0002507779    0.0001611800    0.0001763566
 N    2.2325074800   11.1987295200   16.6828222800   -0.0001641749    0.0008862500   -0.0003701437
 N    4.4764321800    2.2382160900   10.0000000000   -0.0000000000   -0.0000000000    0.0000000000
 N    6.7146482700    0.0000000000   10.0000000000    0.0000000000    0.0000000000    0.0000000000
 N    4.4764321800    0.0000000000   12.2382160900   -0.0000000000    0.0000000000   -0.0000000000
 N    6.7146482700    2.2382160900   12.2382160900   -0.0000000000    0.0000000000   -0.0000000000
 N    4.4617487200    2.2328729700   14.4881537300   -0.0003851490   -0.0003196160    0.0002514292
 N    6.7136470100    0.0022511300   14.4865658700    0.0002652342    0.0001024688   -0.0001226626
 N    4.4760292200    0.0042399600   16.6837347300   -0.0003621640   -0.0000126329   -0.0004493456
 N    6.7180105500    2.2400649900   16.6715184600   -0.0002128348   -0.0006517886    0.0004400355
 N    4.4764321800    6.7146482700   10.0000000000   -0.0000000000   -0.0000000000   -0.0000000000
 N    6.7146482700    4.4764321800   10.0000000000    0.0000000000   -0.0000000000    0.0000000000
 N    4.4764321800    4.4764321800   12.2382160900   -0.0000000000   -0.0000000000   -0.0000000000
 N    6.7146482700    6.7146482700   12.2382160900    0.0000000000   -0.0000000000   -0.0000000000
 N    4.4865022600    6.7145702900   14.4362791000   -0.0000220898    0.0001912362   -0.0006454816
 N    6.7133910100    4.4837168800   14.4996027500    0.0003044930   -0.0000891100   -0.0001398679
 N    4.4693219800    4.4343082700   16.6556538800   -0.0003556842   -0.0003882208   -0.0002812944
 N    6.7841771500    6.7226429300   16.7560326400    0.0002772337    0.0004277604    0.0003447072
 N    4.4764321800   11.1910804400   10.0000000000   -0.0000000000    0.0000000000   -0.0000000000
 N    6.7146482700    8.9528643500   10.0000000000    0.0000000000    0.0000000000    0.0000000000
 N    4.4764321800    8.9528643500   12.2382160900    0.0000000000    0.0000000000   -0.0000000000
 N    6.7146482700   11.1910804400   12.2382160900    0.0000000000    0.0000000000   -0.0000000000
 N    4.4741107000   11.1979500400   14.4836814500   -0.0001064225    0.0001047404   -0.0003175033
 N    6.7133204100    8.9483454500   14.4980929600    0.0001080186    0.0000725412    0.0001194229
 N    4.4705970400    8.9893760000   16.6666419600   -0.0002683319    0.0000932556    0.0000918833
 N    6.7176707600   11.1964134300   16.6737943500    0.0002640024    0.0001261253   -0.0002314198
 N    8.9528643500    2.2382160900   10.0000000000    0.0000000000   -0.0000000000    0.0000000000
 N   11.1910804400    0.0000000000   10.0000000000    0.0000000000    0.0000000000    0.0000000000
 N    8.9528643500    0.0000000000   12.2382160900    0.0000000000    0.0000000000   -0.0000000000
 N   11.1910804400    2.2382160900   12.2382160900    0.0000000000   -0.0000000000   -0.0000000000
 N    8.9525539800    2.2390549900   14.4855449200    0.0000610332    0.0000131755    0.0002537883
 N   11.1914352800    0.0025437500   14.4852212300    0.0000356637    0.0001137546   -0.0000890645
 N    8.9529383400    0.0020528400   16.6735842500    0.0002064619    0.0002395508    0.0002839975
 N   11.1934606100    2.2380561200   16.6799368500    0.0007943027   -0.0001639723   -0.0001892901
 N    8.9528643500    6.7146482700   10.0000000000    0.0000000000   -0.0000000000    0.0000000000
 N   11.1910804400    4.4764321800   10.0000000000    0.0000000000   -0.0000000000    0.0000000000
 N    8.9528643500    4.4764321800   12.2382160900    0.0000000000   -0.0000000000   -0.0000000000
 N   11.1910804400    6.7146482700   12.2382160900    0.0000000000   -0.0000000000   -0.0000000000
 N    8.9563436000    6.7151923600   14.4794239000    0.0000422776    0.0001087676    0.0002967389
 N   11.1921116000    4.4742081200   14.4858027000    0.0000532287   -0.0001628732   -0.0002071594
 N    8.9561394200    4.4709766900   16.6749365200    0.0004847300   -0.0003926534    0.0004012124
 N   11.1949114700    6.7151524900   16.6734010700    0.0000862360    0.0001926896   -0.0000379360
 N    8.9528643500   11.1910804400   10.0000000000    0.0000000000    0.0000000000    0.0000000000
 N   11.1910804400    8.9528643500   10.0000000000   -0.0000000000    0.0000000000    0.0000000000
 N    8.9528643500    8.9528643500   12.2382160900    0.0000000000    0.0000000000   -0.0000000000
 N   11.1910804400   11.1910804400   12.2382160900    0.0000000000    0.0000000000   -0.0000000000
 N    8.9515379500   11.1914776400   14.4832775700    0.0002003058    0.0001208921    0.0000662086
 N   11.1906603700    8.9541168800   14.4840409500    0.0001091160    0.0002365997    0.0001318396
 N    8.9576794500    8.9623465500   16.6779170300    0.0002139184    0.0001571217   -0.0007298393
 N   11.1911768300   11.1950385000   16.6713771100    0.0000607078    0.0001434539    0.0010103375
 S    4.6502724900    6.5941740900   19.4724120300   -0.0032430620   -0.0053105444   -0.0081024514
Li    6.6821572800    6.7439683700   18.7142749300   -0.0021920027   -0.0014506136    0.0052355495
Li    2.3658572700    2.4260720200   18.7808902000    0.0003858620    0.0006887418   -0.0011263005
