  147

Sc    0.0000000000    0.0000000000   10.0000000000
Sc    2.2382160900    0.0000000000   12.2382160900
Sc    0.0000000000    2.2382160900   12.2382160900
Sc    2.2382160900    2.2382160900   10.0000000000
Sc    0.0029776300   -0.0018341400   14.4744166100
Sc    2.2370348200   -0.0055741300   16.6615072600
Sc    0.0007128100    2.2324616100   16.6609857700
Sc    2.2391579100    2.2367755700   14.4730435000
Sc    0.0000000000    4.4764321800   10.0000000000
Sc    2.2382160900    4.4764321800   12.2382160900
Sc    0.0000000000    6.7146482700   12.2382160900
Sc    2.2382160900    6.7146482700   10.0000000000
Sc   -0.0001520600    4.4803055800   14.4712646100
Sc    2.2059654000    4.4753912800   16.6497501200
Sc    0.0094606700    6.7216520000   16.6617943000
Sc    2.2633753700    6.7214207100   14.4954801400
Sc    0.0000000000    8.9528643500   10.0000000000
Sc    2.2382160900    8.9528643500   12.2382160900
Sc    0.0000000000   11.1910804400   12.2382160900
Sc    2.2382160900   11.1910804400   10.0000000000
Sc    0.0072700500    8.9526171900   14.4755653500
Sc    2.2320607600    8.9641776000   16.6787330900
Sc    0.0016757600   11.1935717200   16.6625844100
Sc    2.2412899700   11.1871129900   14.4754877500
Sc    4.4764321800    0.0000000000   10.0000000000
Sc    6.7146482700    0.0000000000   12.2382160900
Sc    4.4764321800    2.2382160900   12.2382160900
Sc    6.7146482700    2.2382160900   10.0000000000
Sc    4.4755533200   -0.0099269000   14.4713023000
Sc    6.7188731100   -0.0051483500   16.6622784700
Sc    4.4725893700    2.2095878900   16.6322830800
Sc    6.7157648900    2.2316024400   14.4713348100
Sc    4.4764321800    4.4764321800   10.0000000000
Sc    6.7146482700    4.4764321800   12.2382160900
Sc    4.4764321800    6.7146482700   12.2382160900
Sc    6.7146482700    6.7146482700   10.0000000000
Sc    4.4743841500    4.5061189700   14.5001739500
Sc    6.7479135200    4.4487720500   16.6423253500
Sc    4.4329350400    6.7661593100   16.9185715100
Sc    6.6876779000    6.7195525200   14.4999904200
Sc    4.4764321800    8.9528643500   10.0000000000
Sc    6.7146482700    8.9528643500   12.2382160900
Sc    4.4764321800   11.1910804400   12.2382160900
Sc    6.7146482700   11.1910804400   10.0000000000
Sc    4.4720144400    8.9316853900   14.4942813200
Sc    6.7197861400    8.9918603100   16.6451351300
Sc    4.4733721500   11.1865665700   16.6615408200
Sc    6.7134056000   11.1955640000   14.4703281400
Sc    8.9528643500    0.0000000000   10.0000000000
Sc   11.1910804400    0.0000000000   12.2382160900
Sc    8.9528643500    2.2382160900   12.2382160900
Sc   11.1910804400    2.2382160900   10.0000000000
Sc    8.9576086900   -0.0012805900   14.4756716500
Sc   11.1972844700   -0.0018434000   16.6628816700
Sc    8.9648155000    2.2304047900   16.6617305600
Sc   11.1957390800    2.2360535300   14.4758189100
Sc    8.9528643500    4.4764321800   10.0000000000
Sc   11.1910804400    4.4764321800   12.2382160900
Sc    8.9528643500    6.7146482700   12.2382160900
Sc   11.1910804400    6.7146482700   10.0000000000
Sc    8.9633568500    4.4766314800   14.4700149500
Sc   11.2010998400    4.4758390500   16.6624747100
Sc    8.9892882700    6.7231503900   16.6242905900
Sc   11.2056628400    6.7181234300   14.4698728300
Sc    8.9528643500    8.9528643500   10.0000000000
Sc   11.1910804400    8.9528643500   12.2382160900
Sc    8.9528643500   11.1910804400   12.2382160900
Sc   11.1910804400   11.1910804400   10.0000000000
Sc    8.9585550500    8.9567366400   14.4711985200
Sc   11.2014763500    8.9583677100   16.6616366400
Sc    8.9629597900   11.1951973100   16.6611642600
Sc   11.1961653600   11.1913046100   14.4743418600
 N    0.0000000000    2.2382160900   10.0000000000
 N    2.2382160900    0.0000000000   10.0000000000
 N    0.0000000000    0.0000000000   12.2382160900
 N    2.2382160900    2.2382160900   12.2382160900
 N    0.0019989500    2.2379315000   14.4838081600
 N    2.2392622700    0.0000509100   14.4849210800
 N    0.0014698400   -0.0000424600   16.6756343800
 N    2.2337564300    2.2329544800   16.6761725600
 N    0.0000000000    6.7146482700   10.0000000000
 N    2.2382160900    4.4764321800   10.0000000000
 N    0.0000000000    4.4764321800   12.2382160900
 N    2.2382160900    6.7146482700   12.2382160900
 N   -0.0015102200    6.7148391200   14.4804933400
 N    2.2470251700    4.4763125700   14.4959477000
 N    0.0011489400    4.4726617300   16.6728905500
 N    2.2125614500    6.7203871000   16.6570260400
 N    0.0000000000   11.1910804400   10.0000000000
 N    2.2382160900    8.9528643500   10.0000000000
 N    0.0000000000    8.9528643500   12.2382160900
 N    2.2382160900   11.1910804400   12.2382160900
 N    0.0014754400   11.1925651100   14.4841125300
 N    2.2387675300    8.9554914200   14.4883799900
 N    0.0013770900    8.9595122100   16.6756477900
 N    2.2363080100   11.1951025500   16.6754500300
 N    4.4764321800    2.2382160900   10.0000000000
 N    6.7146482700    0.0000000000   10.0000000000
 N    4.4764321800    0.0000000000   12.2382160900
 N    6.7146482700    2.2382160900   12.2382160900
 N    4.4790893100    2.2384890600   14.4832759200
 N    6.7181083000    0.0007778000   14.4861363900
 N    4.4801785400   -0.0030175400   16.6743758400
 N    6.7244612400    2.2371421300   16.6752773700
 N    4.4764321800    6.7146482700   10.0000000000
 N    6.7146482700    4.4764321800   10.0000000000
 N    4.4764321800    4.4764321800   12.2382160900
 N    6.7146482700    6.7146482700   12.2382160900
 N    4.4908486200    6.7025523000   14.4760552900
 N    6.7095998100    4.4833685900   14.5064754100
 N    4.4682094400    4.4155410900   16.7727926800
 N    6.7845214200    6.7290087800   16.7574814900
 N    4.4764321800   11.1910804400   10.0000000000
 N    6.7146482700    8.9528643500   10.0000000000
 N    4.4764321800    8.9528643500   12.2382160900
 N    6.7146482700   11.1910804400   12.2382160900
 N    4.4787908900   11.1970594400   14.4801279000
 N    6.7184374000    8.9501009700   14.4930998500
 N    4.4758002800    8.9864362600   16.6533882300
 N    6.7235255500   11.1963047200   16.6715289800
 N    8.9528643500    2.2382160900   10.0000000000
 N   11.1910804400    0.0000000000   10.0000000000
 N    8.9528643500    0.0000000000   12.2382160900
 N   11.1910804400    2.2382160900   12.2382160900
 N    8.9557223400    2.2388657100   14.4845808700
 N   11.1936418400    0.0004095000   14.4851677000
 N    8.9589231300    0.0009744400   16.6762934100
 N   11.1954492100    2.2370685800   16.6760699100
 N    8.9528643500    6.7146482700   10.0000000000
 N   11.1910804400    4.4764321800   10.0000000000
 N    8.9528643500    4.4764321800   12.2382160900
 N   11.1910804400    6.7146482700   12.2382160900
 N    8.9595041600    6.7150271800   14.4794697600
 N   11.1940118900    4.4753781300   14.4862423900
 N    8.9594544900    4.4723986500   16.6760441200
 N   11.2014204900    6.7155951300   16.6729867100
 N    8.9528643500   11.1910804400   10.0000000000
 N   11.1910804400    8.9528643500   10.0000000000
 N    8.9528643500    8.9528643500   12.2382160900
 N   11.1910804400   11.1910804400   12.2382160900
 N    8.9567568400   11.1925474400   14.4836016600
 N   11.1945245500    8.9550763500   14.4847587800
 N    8.9635595600    8.9623090900   16.6764066300
 N   11.1962519900   11.1945602000   16.6753715100
 S    4.6502724900    6.5941740900   19.4724120300
Li    6.6821572800    6.7439683700   18.7142749300
Li    4.4715735900    4.5535139300   18.7417267100
  147

Sc    0.0000000000    0.0000000000   10.0000000000
Sc    2.2382160900    0.0000000000   12.2382160900
Sc    0.0000000000    2.2382160900   12.2382160900
Sc    2.2382160900    2.2382160900   10.0000000000
Sc   -0.0006797179   -0.0018009210   14.4788267672
Sc    2.2338515320   -0.0096463444   16.6683956327
Sc   -0.0087358320    2.2353608663   16.6677032657
Sc    2.2293523241    2.2320996903   14.4620807599
Sc    0.0000000000    4.4764321800   10.0000000000
Sc    2.2382160900    4.4764321800   12.2382160900
Sc    0.0000000000    6.7146482700   12.2382160900
Sc    2.2382160900    6.7146482700   10.0000000000
Sc   -0.0128430784    4.4808993308   14.4651152794
Sc    2.1836692847    4.4776562668   16.6072814034
Sc   -0.0019804126    6.7218569985   16.6570502826
Sc    2.2562397603    6.7223101987   14.4846647713
Sc    0.0000000000    8.9528643500   10.0000000000
Sc    2.2382160900    8.9528643500   12.2382160900
Sc    0.0000000000   11.1910804400   12.2382160900
Sc    2.2382160900   11.1910804400   10.0000000000
Sc    0.0001520136    8.9513681015   14.4750140794
Sc    2.2277580776    8.9537375365   16.6763977193
Sc   -0.0032476630   11.1906047610   16.6626691902
Sc    2.2386756167   11.1834518880   14.4776854600
Sc    4.4764321800    0.0000000000   10.0000000000
Sc    6.7146482700    0.0000000000   12.2382160900
Sc    4.4764321800    2.2382160900   12.2382160900
Sc    6.7146482700    2.2382160900   10.0000000000
Sc    4.4728807272   -0.0178713222   14.4659054425
Sc    6.7130810066   -0.0101717640   16.6609025171
Sc    4.4670569927    2.1932852261   16.5860064132
Sc    6.7170012732    2.2318226361   14.4674584299
Sc    4.4764321800    4.4764321800   10.0000000000
Sc    6.7146482700    4.4764321800   12.2382160900
Sc    4.4764321800    6.7146482700   12.2382160900
Sc    6.7146482700    6.7146482700   10.0000000000
Sc    4.4711902896    4.5012800878   14.4955835292
Sc    6.7029389885    4.4307976649   16.6876117376
Sc    4.3933898398    6.6912061180   16.9390165420
Sc    6.6772132468    6.7082512563   14.5117942703
Sc    4.4764321800    8.9528643500   10.0000000000
Sc    6.7146482700    8.9528643500   12.2382160900
Sc    4.4764321800   11.1910804400   12.2382160900
Sc    6.7146482700   11.1910804400   10.0000000000
Sc    4.4698087815    8.9197601148   14.5035704960
Sc    6.7050311445    8.9711976602   16.6599943930
Sc    4.4690902242   11.1790749008   16.6647183581
Sc    6.7089838274   11.1880232782   14.4744301140
Sc    8.9528643500    0.0000000000   10.0000000000
Sc   11.1910804400    0.0000000000   12.2382160900
Sc    8.9528643500    2.2382160900   12.2382160900
Sc   11.1910804400    2.2382160900   10.0000000000
Sc    8.9526214789   -0.0035185906   14.4766986749
Sc   11.1899823583   -0.0027109247   16.6630628140
Sc    8.9544989495    2.2312717990   16.6645898964
Sc   11.1883352042    2.2373475794   14.4773983179
Sc    8.9528643500    4.4764321800   10.0000000000
Sc   11.1910804400    4.4764321800   12.2382160900
Sc    8.9528643500    6.7146482700   12.2382160900
Sc   11.1910804400    6.7146482700   10.0000000000
Sc    8.9457350366    4.4786318966   14.4823760189
Sc   11.1883419659    4.4768671403   16.6626488054
Sc    8.9673608168    6.7168567017   16.6487893716
Sc   11.1930075406    6.7169869400   14.4735271055
Sc    8.9528643500    8.9528643500   10.0000000000
Sc   11.1910804400    8.9528643500   12.2382160900
Sc    8.9528643500   11.1910804400   12.2382160900
Sc   11.1910804400   11.1910804400   10.0000000000
Sc    8.9489460264    8.9500439674   14.4775396367
Sc   11.1904414819    8.9558246503   16.6628011261
Sc    8.9533003859   11.1898757527   16.6620762784
Sc   11.1905339618   11.1897863747   14.4758860524
 N    0.0000000000    2.2382160900   10.0000000000
 N    2.2382160900    0.0000000000   10.0000000000
 N    0.0000000000    0.0000000000   12.2382160900
 N    2.2382160900    2.2382160900   12.2382160900
 N    0.0004261876    2.2360430905   14.4871906239
 N    2.2340293876    0.0022404487   14.4884545826
 N   -0.0052368697   -0.0011237827   16.6763060211
 N    2.2286367140    2.2352610186   16.7149857309
 N    0.0000000000    6.7146482700   10.0000000000
 N    2.2382160900    4.4764321800   10.0000000000
 N    0.0000000000    4.4764321800   12.2382160900
 N    2.2382160900    6.7146482700   12.2382160900
 N   -0.0129636656    6.7169053010   14.4765122501
 N    2.2248367311    4.4719168267   14.4746997334
 N   -0.0181361928    4.4725998575   16.6618245653
 N    2.1932602914    6.7158926208   16.6424727574
 N    0.0000000000   11.1910804400   10.0000000000
 N    2.2382160900    8.9528643500   10.0000000000
 N    0.0000000000    8.9528643500   12.2382160900
 N    2.2382160900   11.1910804400   12.2382160900
 N   -0.0021122624   11.1913703030   14.4844030242
 N    2.2370255742    8.9532681238   14.4888786051
 N   -0.0079915108    8.9571000516   16.6732251110
 N    2.2293823241   11.1917007677   16.6758480532
 N    4.4764321800    2.2382160900   10.0000000000
 N    6.7146482700    0.0000000000   10.0000000000
 N    4.4764321800    0.0000000000   12.2382160900
 N    6.7146482700    2.2382160900   12.2382160900
 N    4.4713995471    2.2175676857   14.4611891839
 N    6.7155430151   -0.0043599055   14.4841030218
 N    4.4730055852   -0.0204411274   16.6667371967
 N    6.7126464075    2.2263250005   16.6722069285
 N    4.4764321800    6.7146482700   10.0000000000
 N    6.7146482700    4.4764321800   10.0000000000
 N    4.4764321800    4.4764321800   12.2382160900
 N    6.7146482700    6.7146482700   12.2382160900
 N    4.4825260522    6.6977748295   14.4700184938
 N    6.7033926868    4.4813257597   14.5140448349
 N    4.4173020757    4.3556574501   16.6761188150
 N    6.7487093404    6.7210360523   16.8040311442
 N    4.4764321800   11.1910804400   10.0000000000
 N    6.7146482700    8.9528643500   10.0000000000
 N    4.4764321800    8.9528643500   12.2382160900
 N    6.7146482700   11.1910804400   12.2382160900
 N    4.4747821439   11.1859972047   14.4836365453
 N    6.7086313476    8.9406542768   14.5023032147
 N    4.4643292861    8.9595457768   16.6877562821
 N    6.7149905128   11.1883109453   16.6749784119
 N    8.9528643500    2.2382160900   10.0000000000
 N   11.1910804400    0.0000000000   10.0000000000
 N    8.9528643500    0.0000000000   12.2382160900
 N   11.1910804400    2.2382160900   12.2382160900
 N    8.9492108697    2.2375610590   14.4859271506
 N   11.1890707142    0.0004376178   14.4854155689
 N    8.9515966412   -0.0023147975   16.6753252525
 N   11.1869242242    2.2360929370   16.6772903965
 N    8.9528643500    6.7146482700   10.0000000000
 N   11.1910804400    4.4764321800   10.0000000000
 N    8.9528643500    4.4764321800   12.2382160900
 N   11.1910804400    6.7146482700   12.2382160900
 N    8.9440608984    6.7122804693   14.4925129539
 N   11.1831892723    4.4753250105   14.4855744266
 N    8.9403600891    4.4666603619   16.6833810140
 N   11.1843506949    6.7139932151   16.6765878391
 N    8.9528643500   11.1910804400   10.0000000000
 N   11.1910804400    8.9528643500   10.0000000000
 N    8.9528643500    8.9528643500   12.2382160900
 N   11.1910804400   11.1910804400   12.2382160900
 N    8.9504526231   11.1892437485   14.4845412782
 N   11.1871022952    8.9535292900   14.4851458310
 N    8.9540815298    8.9579869834   16.6780497263
 N   11.1886454312   11.1926495284   16.6749404896
 S    4.5251754542    6.0253476572   19.4128090158
Li    6.5200034947    6.6108597513   18.7844600051
Li    3.9645202551    4.0412900595   18.7301288721
  147

Sc    0.0000000000    0.0000000000   10.0000000000
Sc    2.2382160900    0.0000000000   12.2382160900
Sc    0.0000000000    2.2382160900   12.2382160900
Sc    2.2382160900    2.2382160900   10.0000000000
Sc    0.0040124488    0.0047380851   14.4866225170
Sc    2.2439395722   -0.0063562270   16.6848052771
Sc   -0.0053285321    2.2496775628   16.6836506541
Sc    2.2364619106    2.2399781321   14.4511261083
Sc    0.0000000000    4.4764321800   10.0000000000
Sc    2.2382160900    4.4764321800   12.2382160900
Sc    0.0000000000    6.7146482700   12.2382160900
Sc    2.2382160900    6.7146482700   10.0000000000
Sc   -0.0088853766    4.4825523542   14.4696846486
Sc    2.2116701494    4.5141411134   16.5976396034
Sc   -0.0048031657    6.7271591104   16.6546409792
Sc    2.2488617908    6.7312415771   14.4724172616
Sc    0.0000000000    8.9528643500   10.0000000000
Sc    2.2382160900    8.9528643500   12.2382160900
Sc    0.0000000000   11.1910804400   12.2382160900
Sc    2.2382160900   11.1910804400   10.0000000000
Sc   -0.0014516060    8.9563943770   14.4743836321
Sc    2.2258963671    8.9614180753   16.6713701525
Sc   -0.0026947175   11.1961264066   16.6631575583
Sc    2.2395834753   11.1882269660   14.4792856581
Sc    4.4764321800    0.0000000000   10.0000000000
Sc    6.7146482700    0.0000000000   12.2382160900
Sc    4.4764321800    2.2382160900   12.2382160900
Sc    6.7146482700    2.2382160900   10.0000000000
Sc    4.4751591514   -0.0110287758   14.4702896439
Sc    6.7181878485   -0.0062930113   16.6597653552
Sc    4.4945091115    2.2150627474   16.5826349347
Sc    6.7243714249    2.2344033525   14.4635472821
Sc    4.4764321800    4.4764321800   10.0000000000
Sc    6.7146482700    4.4764321800   12.2382160900
Sc    4.4764321800    6.7146482700   12.2382160900
Sc    6.7146482700    6.7146482700   10.0000000000
Sc    4.4790358764    4.5029974150   14.4740704978
Sc    6.6880871017    4.4333147171   16.6894204511
Sc    4.3965772177    6.6995229562   16.8520975593
Sc    6.6877846670    6.7108223585   14.5013216517
Sc    4.4764321800    8.9528643500   10.0000000000
Sc    6.7146482700    8.9528643500   12.2382160900
Sc    4.4764321800   11.1910804400   12.2382160900
Sc    6.7146482700   11.1910804400   10.0000000000
Sc    4.4728679657    8.9305118051   14.4978186557
Sc    6.7120978977    8.9748115013   16.6581585181
Sc    4.4745426422   11.1863959809   16.6639675369
Sc    6.7122244302   11.1920668188   14.4736744971
Sc    8.9528643500    0.0000000000   10.0000000000
Sc   11.1910804400    0.0000000000   12.2382160900
Sc    8.9528643500    2.2382160900   12.2382160900
Sc   11.1910804400    2.2382160900   10.0000000000
Sc    8.9555407223   -0.0012560111   14.4770539367
Sc   11.1925788095    0.0025294493   16.6637865692
Sc    8.9555128372    2.2372666425   16.6658630725
Sc   11.1900428078    2.2403570155   14.4796472353
Sc    8.9528643500    4.4764321800   10.0000000000
Sc   11.1910804400    4.4764321800   12.2382160900
Sc    8.9528643500    6.7146482700   12.2382160900
Sc   11.1910804400    6.7146482700   10.0000000000
Sc    8.9453290526    4.4807042405   14.4848104339
Sc   11.1888665382    4.4810538739   16.6619673917
Sc    8.9682711218    6.7173366325   16.6547500673
Sc   11.1933532332    6.7182322996   14.4730148667
Sc    8.9528643500    8.9528643500   10.0000000000
Sc   11.1910804400    8.9528643500   12.2382160900
Sc    8.9528643500   11.1910804400   12.2382160900
Sc   11.1910804400   11.1910804400   10.0000000000
Sc    8.9518258997    8.9527132548   14.4777156402
Sc   11.1909019636    8.9596344167   16.6618418939
Sc    8.9567628573   11.1939288081   16.6612017577
Sc   11.1924626253   11.1936079456   14.4758309343
 N    0.0000000000    2.2382160900   10.0000000000
 N    2.2382160900    0.0000000000   10.0000000000
 N    0.0000000000    0.0000000000   12.2382160900
 N    2.2382160900    2.2382160900   12.2382160900
 N    0.0163963928    2.2409683273   14.5016006200
 N    2.2373164024    0.0188080966   14.5030037876
 N    0.0047167567    0.0082923442   16.6801962750
 N    2.2639085020    2.2763844485   16.8591344359
 N    0.0000000000    6.7146482700   10.0000000000
 N    2.2382160900    4.4764321800   10.0000000000
 N    0.0000000000    4.4764321800   12.2382160900
 N    2.2382160900    6.7146482700   12.2382160900
 N   -0.0105084834    6.7211396795   14.4771779830
 N    2.2239871779    4.4721149316   14.4710560216
 N   -0.0073848826    4.4840385606   16.6646344170
 N    2.2046642762    6.7297223349   16.6341801783
 N    0.0000000000   11.1910804400   10.0000000000
 N    2.2382160900    8.9528643500   10.0000000000
 N    0.0000000000    8.9528643500   12.2382160900
 N    2.2382160900   11.1910804400   12.2382160900
 N    0.0012699695   11.1958042079   14.4866313752
 N    2.2376433673    8.9602451438   14.4881729006
 N   -0.0035217416    8.9613850818   16.6744956092
 N    2.2357310833   11.2007736467   16.6826572548
 N    4.4764321800    2.2382160900   10.0000000000
 N    6.7146482700    0.0000000000   10.0000000000
 N    4.4764321800    0.0000000000   12.2382160900
 N    6.7146482700    2.2382160900   12.2382160900
 N    4.4675647064    2.2163591251   14.4597556525
 N    6.7182660675   -0.0016771799   14.4841976309
 N    4.4801440919   -0.0161511056   16.6681351719
 N    6.7194190540    2.2304287034   16.6694558495
 N    4.4764321800    6.7146482700   10.0000000000
 N    6.7146482700    4.4764321800   10.0000000000
 N    4.4764321800    4.4764321800   12.2382160900
 N    6.7146482700    6.7146482700   12.2382160900
 N    4.4831680499    6.7100705089   14.4793782175
 N    6.7129394768    4.4866314629   14.5026738523
 N    4.4427196508    4.3695340332   16.5847621169
 N    6.7368001588    6.7262634344   16.8249829394
 N    4.4764321800   11.1910804400   10.0000000000
 N    6.7146482700    8.9528643500   10.0000000000
 N    4.4764321800    8.9528643500   12.2382160900
 N    6.7146482700   11.1910804400   12.2382160900
 N    4.4753059531   11.1878427689   14.4858289449
 N    6.7108559977    8.9427481000   14.5021069245
 N    4.4683563207    8.9511635785   16.6928272039
 N    6.7173051632   11.1900264483   16.6774172237
 N    8.9528643500    2.2382160900   10.0000000000
 N   11.1910804400    0.0000000000   10.0000000000
 N    8.9528643500    0.0000000000   12.2382160900
 N   11.1910804400    2.2382160900   12.2382160900
 N    8.9531912244    2.2395276180   14.4876342113
 N   11.1927076604    0.0051133494   14.4875481278
 N    8.9562381088    0.0012499317   16.6759267163
 N   11.1973612440    2.2421735663   16.6836746987
 N    8.9528643500    6.7146482700   10.0000000000
 N   11.1910804400    4.4764321800   10.0000000000
 N    8.9528643500    4.4764321800   12.2382160900
 N   11.1910804400    6.7146482700   12.2382160900
 N    8.9426868719    6.7152096296   14.4962119904
 N   11.1871046696    4.4769000368   14.4862930334
 N    8.9458641843    4.4717703801   16.6832751432
 N   11.1869405404    6.7184894298   16.6779087753
 N    8.9528643500   11.1910804400   10.0000000000
 N   11.1910804400    8.9528643500   10.0000000000
 N    8.9528643500    8.9528643500   12.2382160900
 N   11.1910804400   11.1910804400   12.2382160900
 N    8.9524433292   11.1919000689   14.4852346524
 N   11.1888715773    8.9559808132   14.4856799403
 N    8.9563899037    8.9601639592   16.6779806817
 N   11.1931532158   11.1967856182   16.6767421443
 S    4.4420906665    5.6372595258   19.2852629198
Li    6.4217724062    6.5626477563   18.7917357736
Li    3.3132019306    3.4996730970   18.8591357201
  147

Sc    0.0000000000    0.0000000000   10.0000000000
Sc    2.2382160900    0.0000000000   12.2382160900
Sc    0.0000000000    2.2382160900   12.2382160900
Sc    2.2382160900    2.2382160900   10.0000000000
Sc    0.0041871836    0.0039959304   14.4865641373
Sc    2.2443600701   -0.0177425008   16.6805049129
Sc   -0.0171126576    2.2498932096   16.6765781722
Sc    2.2414183427    2.2453550857   14.4397917022
Sc    0.0000000000    4.4764321800   10.0000000000
Sc    2.2382160900    4.4764321800   12.2382160900
Sc    0.0000000000    6.7146482700   12.2382160900
Sc    2.2382160900    6.7146482700   10.0000000000
Sc    0.0000586520    4.4853743595   14.4775419237
Sc    2.2420626837    4.5433621711   16.6318868497
Sc   -0.0007919580    6.7299253865   16.6554544960
Sc    2.2564856993    6.7332622457   14.4761037082
Sc    0.0000000000    8.9528643500   10.0000000000
Sc    2.2382160900    8.9528643500   12.2382160900
Sc    0.0000000000   11.1910804400   12.2382160900
Sc    2.2382160900   11.1910804400   10.0000000000
Sc    0.0005838206    8.9558190641   14.4742949951
Sc    2.2293350641    8.9622701767   16.6742700597
Sc   -0.0036249625   11.1942721929   16.6618287539
Sc    2.2417549014   11.1857142215   14.4775264989
Sc    4.4764321800    0.0000000000   10.0000000000
Sc    6.7146482700    0.0000000000   12.2382160900
Sc    4.4764321800    2.2382160900   12.2382160900
Sc    6.7146482700    2.2382160900   10.0000000000
Sc    4.4767383915   -0.0054756498   14.4761301251
Sc    6.7206253160   -0.0045888418   16.6597902741
Sc    4.5173190218    2.2374929426   16.6047519876
Sc    6.7256958203    2.2389019543   14.4643198355
Sc    4.4764321800    4.4764321800   10.0000000000
Sc    6.7146482700    4.4764321800   12.2382160900
Sc    4.4764321800    6.7146482700   12.2382160900
Sc    6.7146482700    6.7146482700   10.0000000000
Sc    4.4818822093    4.5115781274   14.4766437545
Sc    6.6943050727    4.4501914628   16.6868501061
Sc    4.4171219960    6.7190819900   16.8776220303
Sc    6.6883736155    6.7147977572   14.4995068557
Sc    4.4764321800    8.9528643500   10.0000000000
Sc    6.7146482700    8.9528643500   12.2382160900
Sc    4.4764321800   11.1910804400   12.2382160900
Sc    6.7146482700   11.1910804400   10.0000000000
Sc    4.4748612682    8.9295129137   14.4964529477
Sc    6.7174017885    8.9813603069   16.6522478272
Sc    4.4780070246   11.1855774293   16.6625867493
Sc    6.7122135352   11.1940790867   14.4716126369
Sc    8.9528643500    0.0000000000   10.0000000000
Sc   11.1910804400    0.0000000000   12.2382160900
Sc    8.9528643500    2.2382160900   12.2382160900
Sc   11.1910804400    2.2382160900   10.0000000000
Sc    8.9554867275   -0.0003792006   14.4766838716
Sc   11.1912910493    0.0012389466   16.6620543740
Sc    8.9558832955    2.2407155936   16.6660634535
Sc   11.1882550794    2.2423500980   14.4774728168
Sc    8.9528643500    4.4764321800   10.0000000000
Sc   11.1910804400    4.4764321800   12.2382160900
Sc    8.9528643500    6.7146482700   12.2382160900
Sc   11.1910804400    6.7146482700   10.0000000000
Sc    8.9468085193    4.4829062107   14.4824791363
Sc   11.1895201333    4.4850068741   16.6614352679
Sc    8.9736103904    6.7217250164   16.6452182023
Sc   11.1967272080    6.7184053509   14.4711779016
Sc    8.9528643500    8.9528643500   10.0000000000
Sc   11.1910804400    8.9528643500   12.2382160900
Sc    8.9528643500   11.1910804400   12.2382160900
Sc   11.1910804400   11.1910804400   10.0000000000
Sc    8.9537606822    8.9545037291   14.4743834031
Sc   11.1923816628    8.9599944953   16.6606235829
Sc    8.9581643666   11.1948344958   16.6599428354
Sc   11.1928985019   11.1933890644   14.4746848078
 N    0.0000000000    2.2382160900   10.0000000000
 N    2.2382160900    0.0000000000   10.0000000000
 N    0.0000000000    0.0000000000   12.2382160900
 N    2.2382160900    2.2382160900   12.2382160900
 N    0.0231928522    2.2427526599   14.5062637919
 N    2.2387225335    0.0255393702   14.5075068972
 N    0.0049775341    0.0091620309   16.6786752532
 N    2.2579743625    2.2676485518   16.9596133973
 N    0.0000000000    6.7146482700   10.0000000000
 N    2.2382160900    4.4764321800   10.0000000000
 N    0.0000000000    4.4764321800   12.2382160900
 N    2.2382160900    6.7146482700   12.2382160900
 N   -0.0070407567    6.7204074344   14.4782480292
 N    2.2309792892    4.4685643278   14.4868433814
 N    0.0033633972    4.4830602346   16.6743117102
 N    2.2059047873    6.7326609544   16.6370209193
 N    0.0000000000   11.1910804400   10.0000000000
 N    2.2382160900    8.9528643500   10.0000000000
 N    0.0000000000    8.9528643500   12.2382160900
 N    2.2382160900   11.1910804400   12.2382160900
 N    0.0028216819   11.1965023536   14.4861947193
 N    2.2387097537    8.9617354759   14.4898867443
 N   -0.0008701385    8.9636720707   16.6745570391
 N    2.2366480470   11.2059217895   16.6843981017
 N    4.4764321800    2.2382160900   10.0000000000
 N    6.7146482700    0.0000000000   10.0000000000
 N    4.4764321800    0.0000000000   12.2382160900
 N    6.7146482700    2.2382160900   12.2382160900
 N    4.4633247301    2.2229854140   14.4732766979
 N    6.7181251816    0.0021010123   14.4850603764
 N    4.4805794596   -0.0043200994   16.6738578665
 N    6.7200652244    2.2375377860   16.6718095572
 N    4.4764321800    6.7146482700   10.0000000000
 N    6.7146482700    4.4764321800   10.0000000000
 N    4.4764321800    4.4764321800   12.2382160900
 N    6.7146482700    6.7146482700   12.2382160900
 N    4.4856921717    6.7170425839   14.4639868896
 N    6.7181448606    4.4883985405   14.4984535913
 N    4.4671215969    4.3998352923   16.5806136096
 N    6.7571276694    6.7380088830   16.7993359466
 N    4.4764321800   11.1910804400   10.0000000000
 N    6.7146482700    8.9528643500   10.0000000000
 N    4.4764321800    8.9528643500   12.2382160900
 N    6.7146482700   11.1910804400   12.2382160900
 N    4.4752708603   11.1934305186   14.4851714810
 N    6.7136738821    8.9480206948   14.4988701414
 N    4.4724881231    8.9674320671   16.6857596958
 N    6.7195291295   11.1963944522   16.6760510452
 N    8.9528643500    2.2382160900   10.0000000000
 N   11.1910804400    0.0000000000   10.0000000000
 N    8.9528643500    0.0000000000   12.2382160900
 N   11.1910804400    2.2382160900   12.2382160900
 N    8.9545786726    2.2408852759   14.4885620045
 N   11.1935014503    0.0064888956   14.4869483527
 N    8.9572193133    0.0048232483   16.6755402422
 N   11.2015983246    2.2433826606   16.6848853976
 N    8.9528643500    6.7146482700   10.0000000000
 N   11.1910804400    4.4764321800   10.0000000000
 N    8.9528643500    4.4764321800   12.2382160900
 N   11.1910804400    6.7146482700   12.2382160900
 N    8.9490035816    6.7170561929   14.4910549476
 N   11.1914819268    4.4765582903   14.4872614897
 N    8.9532706604    4.4746079810   16.6820300947
 N   11.1928220876    6.7198714839   16.6767268817
 N    8.9528643500   11.1910804400   10.0000000000
 N   11.1910804400    8.9528643500   10.0000000000
 N    8.9528643500    8.9528643500   12.2382160900
 N   11.1910804400   11.1910804400   12.2382160900
 N    8.9537880965   11.1938009611   14.4845028378
 N   11.1910077453    8.9571164182   14.4851483267
 N    8.9606131615    8.9649851844   16.6768065118
 N   11.1948022534   11.1989989458   16.6765819950
 S    4.4937875508    5.8270815421   19.2769771866
Li    6.5010675829    6.6174225625   18.7712054987
Li    2.6663639739    2.8042074081   18.7861946314
  147

Sc    0.0000000000    0.0000000000   10.0000000000
Sc    2.2382160900    0.0000000000   12.2382160900
Sc    0.0000000000    2.2382160900   12.2382160900
Sc    2.2382160900    2.2382160900   10.0000000000
Sc   -0.0007178100   -0.0049637300   14.4796339500
Sc    2.2398890800   -0.0352150200   16.6576827200
Sc   -0.0350438700    2.2410469000   16.6521948600
Sc    2.2433980300    2.2454942900   14.4463855200
Sc    0.0000000000    4.4764321800   10.0000000000
Sc    2.2382160900    4.4764321800   12.2382160900
Sc    0.0000000000    6.7146482700   12.2382160900
Sc    2.2382160900    6.7146482700   10.0000000000
Sc    0.0008628100    4.4879022500   14.4776224100
Sc    2.2395394500    4.5350514000   16.6503308500
Sc    0.0038152700    6.7251502000   16.6617165600
Sc    2.2711304000    6.7309276400   14.4909221000
Sc    0.0000000000    8.9528643500   10.0000000000
Sc    2.2382160900    8.9528643500   12.2382160900
Sc    0.0000000000   11.1910804400   12.2382160900
Sc    2.2382160900   11.1910804400   10.0000000000
Sc    0.0050549800    8.9491273400   14.4782921900
Sc    2.2386507200    8.9513975400   16.6924342500
Sc   -0.0044587100   11.1838490200   16.6618997100
Sc    2.2442806700   11.1736171100   14.4755746400
Sc    4.4764321800    0.0000000000   10.0000000000
Sc    6.7146482700    0.0000000000   12.2382160900
Sc    4.4764321800    2.2382160900   12.2382160900
Sc    6.7146482700    2.2382160900   10.0000000000
Sc    4.4779101100   -0.0070805700   14.4785574600
Sc    6.7164668900   -0.0053766700   16.6620629900
Sc    4.5158887300    2.2467395300   16.6282964500
Sc    6.7201856600    2.2400224400   14.4662095700
Sc    4.4764321800    4.4764321800   10.0000000000
Sc    6.7146482700    4.4764321800   12.2382160900
Sc    4.4764321800    6.7146482700   12.2382160900
Sc    6.7146482700    6.7146482700   10.0000000000
Sc    4.4800676600    4.5232552900   14.4958203300
Sc    6.7121339800    4.4598700800   16.6683097300
Sc    4.4387970900    6.7233353800   17.0050017200
Sc    6.6782403100    6.7173095400   14.5028370800
Sc    4.4764321800    8.9528643500   10.0000000000
Sc    6.7146482700    8.9528643500   12.2382160900
Sc    4.4764321800   11.1910804400   12.2382160900
Sc    6.7146482700   11.1910804400   10.0000000000
Sc    4.4741105600    8.9155994800   14.5030021800
Sc    6.7101490100    8.9823037200   16.6564320000
Sc    4.4760426600   11.1773816200   16.6646717300
Sc    6.7075370400   11.1902840300   14.4722419700
Sc    8.9528643500    0.0000000000   10.0000000000
Sc   11.1910804400    0.0000000000   12.2382160900
Sc    8.9528643500    2.2382160900   12.2382160900
Sc   11.1910804400    2.2382160900   10.0000000000
Sc    8.9513191700   -0.0033328100   14.4771138800
Sc   11.1858248800   -0.0064752500   16.6603583300
Sc    8.9535861200    2.2382514200   16.6639618400
Sc   11.1819308700    2.2401209000   14.4719920500
Sc    8.9528643500    4.4764321800   10.0000000000
Sc   11.1910804400    4.4764321800   12.2382160900
Sc    8.9528643500    6.7146482700   12.2382160900
Sc   11.1910804400    6.7146482700   10.0000000000
Sc    8.9491618200    4.4817502600   14.4754441800
Sc   11.1880608000    4.4840837200   16.6607019100
Sc    8.9780552000    6.7199467400   16.6250233800
Sc   11.1994365400    6.7177066700   14.4689915900
Sc    8.9528643500    8.9528643500   10.0000000000
Sc   11.1910804400    8.9528643500   12.2382160900
Sc    8.9528643500   11.1910804400   12.2382160900
Sc   11.1910804400   11.1910804400   10.0000000000
Sc    8.9504529300    8.9529294500   14.4728564700
Sc   11.1920993800    8.9545486400   16.6600227200
Sc    8.9537600300   11.1900943000   16.6595599300
Sc   11.1908706800   11.1875348400   14.4739397700
 N    0.0000000000    2.2382160900   10.0000000000
 N    2.2382160900    0.0000000000   10.0000000000
 N    0.0000000000    0.0000000000   12.2382160900
 N    2.2382160900    2.2382160900   12.2382160900
 N    0.0170143100    2.2393598200   14.4985031900
 N    2.2378211800    0.0187262100   14.5011781700
 N   -0.0012736600    0.0026075200   16.6792358400
 N    2.2377232700    2.2442712200   16.9299318100
 N    0.0000000000    6.7146482700   10.0000000000
 N    2.2382160900    4.4764321800   10.0000000000
 N    0.0000000000    4.4764321800   12.2382160900
 N    2.2382160900    6.7146482700   12.2382160900
 N   -0.0045447000    6.7151799300   14.4804472300
 N    2.2370108800    4.4646602000   14.4998989700
 N   -0.0008485100    4.4731135600   16.6805271900
 N    2.1991863800    6.7184240700   16.6581302800
 N    0.0000000000   11.1910804400   10.0000000000
 N    2.2382160900    8.9528643500   10.0000000000
 N    0.0000000000    8.9528643500   12.2382160900
 N    2.2382160900   11.1910804400   12.2382160900
 N    0.0022398300   11.1922121300   14.4854307400
 N    2.2383631100    8.9537320000   14.4944491500
 N   -0.0039671100    8.9599456000   16.6750360300
 N    2.2325074800   11.1987295200   16.6828222800
 N    4.4764321800    2.2382160900   10.0000000000
 N    6.7146482700    0.0000000000   10.0000000000
 N    4.4764321800    0.0000000000   12.2382160900
 N    6.7146482700    2.2382160900   12.2382160900
 N    4.4617487200    2.2328729700   14.4881537300
 N    6.7136470100    0.0022511300   14.4865658700
 N    4.4760292200    0.0042399600   16.6837347300
 N    6.7180105500    2.2400649900   16.6715184600
 N    4.4764321800    6.7146482700   10.0000000000
 N    6.7146482700    4.4764321800   10.0000000000
 N    4.4764321800    4.4764321800   12.2382160900
 N    6.7146482700    6.7146482700   12.2382160900
 N    4.4865022600    6.7145702900   14.4362791000
 N    6.7133910100    4.4837168800   14.4996027500
 N    4.4693219800    4.4343082700   16.6556538800
 N    6.7841771500    6.7226429300   16.7560326400
 N    4.4764321800   11.1910804400   10.0000000000
 N    6.7146482700    8.9528643500   10.0000000000
 N    4.4764321800    8.9528643500   12.2382160900
 N    6.7146482700   11.1910804400   12.2382160900
 N    4.4741107000   11.1979500400   14.4836814500
 N    6.7133204100    8.9483454500   14.4980929600
 N    4.4705970400    8.9893760000   16.6666419600
 N    6.7176707600   11.1964134300   16.6737943500
 N    8.9528643500    2.2382160900   10.0000000000
 N   11.1910804400    0.0000000000   10.0000000000
 N    8.9528643500    0.0000000000   12.2382160900
 N   11.1910804400    2.2382160900   12.2382160900
 N    8.9525539800    2.2390549900   14.4855449200
 N   11.1914352800    0.0025437500   14.4852212300
 N    8.9529383400    0.0020528400   16.6735842500
 N   11.1934606100    2.2380561200   16.6799368500
 N    8.9528643500    6.7146482700   10.0000000000
 N   11.1910804400    4.4764321800   10.0000000000
 N    8.9528643500    4.4764321800   12.2382160900
 N   11.1910804400    6.7146482700   12.2382160900
 N    8.9563436000    6.7151923600   14.4794239000
 N   11.1921116000    4.4742081200   14.4858027000
 N    8.9561394200    4.4709766900   16.6749365200
 N   11.1949114700    6.7151524900   16.6734010700
 N    8.9528643500   11.1910804400   10.0000000000
 N   11.1910804400    8.9528643500   10.0000000000
 N    8.9528643500    8.9528643500   12.2382160900
 N   11.1910804400   11.1910804400   12.2382160900
 N    8.9515379500   11.1914776400   14.4832775700
 N   11.1906603700    8.9541168800   14.4840409500
 N    8.9576794500    8.9623465500   16.6779170300
 N   11.1911768300   11.1950385000   16.6713771100
 S    4.6502724900    6.5941740900   19.4724120300
Li    6.6821572800    6.7439683700   18.7142749300
Li    2.3658572700    2.4260720200   18.7808902000
