64
Lattice="8.953701228987285 0.0 0.0 0.0 8.953701228987285 0.0 0.0 0.0 21.715275924493643" Properties=species:S:1:pos:R:3:move_mask:L:1:tags:I:1:forces:R:3 energy=-48910.21744326313 free_energy=-48910.21744326313 pbc="T T F"
Sc       0.00000000       0.00000000       7.50000000  F        2       0.00000000       0.00000000       1.63304337
Sc       2.23842531       0.00000000       9.73842531  F        2       0.00012907       0.00000000      -0.74650232
Sc       0.00000000       2.23842531       9.73842531  F        2       0.00000000       0.00012907      -0.74650232
Sc       2.23842531       2.23842531       7.50000000  F        2       0.00010027       0.00010027       1.63335190
N        0.00000000       2.23842531       7.50000000  F        2       0.00000000      -0.00002340       0.02873388
N        2.23842531       0.00000000       7.50000000  F        2      -0.00002340       0.00000000       0.02873388
N        0.00000000       0.00000000       9.73842531  F        2       0.00000000       0.00000000      -0.90300845
N        2.23842531       2.23842531       9.73842531  F        2      -0.00001131      -0.00001131      -0.89566564
Sc       0.00000000       0.00000000      11.97685061  T        1       0.00000000       0.00000000       0.01479027
Sc       2.23842531       0.00000000      14.21527592  T        1       0.00001980       0.00000000      -0.02547243
Sc       0.00000000       2.23842531      14.21527592  T        1       0.00000000       0.00001980      -0.02547243
Sc       2.23842531       2.23842531      11.97685061  T        1       0.00009307       0.00009307       0.01410507
N        0.00000000       2.23842531      11.97685061  T        1       0.00000000       0.00000771      -0.02081642
N        2.23842531       0.00000000      11.97685061  T        1       0.00000771       0.00000000      -0.02081642
N        0.00000000       0.00000000      14.21527592  T        1       0.00000000       0.00000000       0.01594752
N        2.23842531       2.23842531      14.21527592  T        1       0.00002340       0.00002340       0.01551995
Sc       0.00000000       4.47685061       7.50000000  F        2       0.00000000       0.00000000       1.63309145
Sc       2.23842531       4.47685061       9.73842531  F        2       0.00012907       0.00000000      -0.74652957
Sc       0.00000000       6.71527592       9.73842531  F        2       0.00000000      -0.00012907      -0.74650232
Sc       2.23842531       6.71527592       7.50000000  F        2       0.00010027      -0.00010027       1.63335190
N        0.00000000       6.71527592       7.50000000  F        2       0.00000000       0.00002340       0.02873388
N        2.23842531       4.47685061       7.50000000  F        2      -0.00002468       0.00000000       0.02871614
N        0.00000000       4.47685061       9.73842531  F        2       0.00000000       0.00000000      -0.90299020
N        2.23842531       6.71527592       9.73842531  F        2      -0.00001131       0.00001131      -0.89566564
Sc       0.00000000       4.47685061      11.97685061  T        1       0.00000000       0.00000000       0.01475428
Sc       2.23842531       4.47685061      14.21527592  T        1       0.00002828       0.00000000      -0.02545598
Sc       0.00000000       6.71527592      14.21527592  T        1       0.00000000      -0.00001980      -0.02547243
Sc       2.23842531       6.71527592      11.97685061  T        1       0.00009307      -0.00009307       0.01410507
N        0.00000000       6.71527592      11.97685061  T        1       0.00000000      -0.00000771      -0.02081642
N        2.23842531       4.47685061      11.97685061  T        1       0.00002108       0.00000000      -0.02081308
N        0.00000000       4.47685061      14.21527592  T        1       0.00000000       0.00000000       0.01597915
N        2.23842531       6.71527592      14.21527592  T        1       0.00002340      -0.00002340       0.01551995
Sc       4.47685061       0.00000000       7.50000000  F        2       0.00000000       0.00000000       1.63309145
Sc       6.71527592       0.00000000       9.73842531  F        2      -0.00012907       0.00000000      -0.74650232
Sc       4.47685061       2.23842531       9.73842531  F        2       0.00000000       0.00012907      -0.74652957
Sc       6.71527592       2.23842531       7.50000000  F        2      -0.00010027       0.00010027       1.63335190
N        4.47685061       2.23842531       7.50000000  F        2       0.00000000      -0.00002468       0.02871614
N        6.71527592       0.00000000       7.50000000  F        2       0.00002340       0.00000000       0.02873388
N        4.47685061       0.00000000       9.73842531  F        2       0.00000000       0.00000000      -0.90299020
N        6.71527592       2.23842531       9.73842531  F        2       0.00001131      -0.00001131      -0.89566564
Sc       4.47685061       0.00000000      11.97685061  T        1       0.00000000       0.00000000       0.01475428
Sc       6.71527592       0.00000000      14.21527592  T        1      -0.00001980       0.00000000      -0.02547243
Sc       4.47685061       2.23842531      14.21527592  T        1       0.00000000       0.00002828      -0.02545598
Sc       6.71527592       2.23842531      11.97685061  T        1      -0.00009307       0.00009307       0.01410507
N        4.47685061       2.23842531      11.97685061  T        1       0.00000000       0.00002108      -0.02081308
N        6.71527592       0.00000000      11.97685061  T        1      -0.00000771       0.00000000      -0.02081642
N        4.47685061       0.00000000      14.21527592  T        1       0.00000000       0.00000000       0.01597915
N        6.71527592       2.23842531      14.21527592  T        1      -0.00002340       0.00002340       0.01551995
Sc       4.47685061       4.47685061       7.50000000  F        2       0.00000000       0.00000000       1.63313747
Sc       6.71527592       4.47685061       9.73842531  F        2      -0.00012907       0.00000000      -0.74652957
Sc       4.47685061       6.71527592       9.73842531  F        2       0.00000000      -0.00012907      -0.74652957
Sc       6.71527592       6.71527592       7.50000000  F        2      -0.00010027      -0.00010027       1.63335190
N        4.47685061       6.71527592       7.50000000  F        2       0.00000000       0.00002468       0.02871614
N        6.71527592       4.47685061       7.50000000  F        2       0.00002468       0.00000000       0.02871614
N        4.47685061       4.47685061       9.73842531  F        2       0.00000000       0.00000000      -0.90297683
N        6.71527592       6.71527592       9.73842531  F        2       0.00001131       0.00001131      -0.89566564
Sc       4.47685061       4.47685061      11.97685061  T        1       0.00000000       0.00000000       0.01472188
Sc       6.71527592       4.47685061      14.21527592  T        1      -0.00002828       0.00000000      -0.02545598
Sc       4.47685061       6.71527592      14.21527592  T        1       0.00000000      -0.00002828      -0.02545598
Sc       6.71527592       6.71527592      11.97685061  T        1      -0.00009307      -0.00009307       0.01410507
N        4.47685061       6.71527592      11.97685061  T        1       0.00000000      -0.00002108      -0.02081308
N        6.71527592       4.47685061      11.97685061  T        1      -0.00002108       0.00000000      -0.02081308
N        4.47685061       4.47685061      14.21527592  T        1       0.00000000       0.00000000       0.01598943
N        6.71527592       6.71527592      14.21527592  T        1      -0.00002340      -0.00002340       0.01551995
