64
Lattice="8.443100417880753 0.0 0.0 0.0 8.443100417880753 0.0 0.0 0.0 21.332325308940376" Properties=species:S:1:pos:R:3:move_mask:L:1:tags:I:1:forces:R:3 energy=-59151.53066374564 free_energy=-59151.53066374564 pbc="T T F"
Ti       0.00000000       0.00000000       7.50000000  F        2       0.00000000       0.00000000       3.55508491
Ti       2.11077510       0.00000000       9.61077510  F        2       0.00004859       0.00000000      -0.24607591
Ti       0.00000000       2.11077510       9.61077510  F        2       0.00000000       0.00004859      -0.24607591
Ti       2.11077510       2.11077510       7.50000000  F        2      -0.00002365      -0.00002365       3.55513865
N        0.00000000       2.11077510       7.50000000  F        2       0.00000000      -0.00003214      -1.36886561
N        2.11077510       0.00000000       7.50000000  F        2      -0.00003214       0.00000000      -1.36886561
N        0.00000000       0.00000000       9.61077510  F        2       0.00000000       0.00000000      -1.94043238
N        2.11077510       2.11077510       9.61077510  F        2       0.00000334       0.00000334      -1.94036708
Ti       0.00000000       0.00000000      11.72155021  T        1       0.00000000       0.00000000       0.00018126
Ti       2.11077510       0.00000000      13.83232531  T        1       0.00005374       0.00000000      -0.00301385
Ti       0.00000000       2.11077510      13.83232531  T        1       0.00000000       0.00005374      -0.00301385
Ti       2.11077510       2.11077510      11.72155021  T        1       0.00006016       0.00006016       0.00020337
N        0.00000000       2.11077510      11.72155021  T        1       0.00000000      -0.00002057      -0.00015761
N        2.11077510       0.00000000      11.72155021  T        1      -0.00002057       0.00000000      -0.00015761
N        0.00000000       0.00000000      13.83232531  T        1       0.00000000       0.00000000       0.00318405
N        2.11077510       2.11077510      13.83232531  T        1       0.00000540       0.00000540       0.00312312
Ti       0.00000000       4.22155021       7.50000000  F        2       0.00000000       0.00000000       3.55512913
Ti       2.11077510       4.22155021       9.61077510  F        2      -0.00000591       0.00000000      -0.24596998
Ti       0.00000000       6.33232531       9.61077510  F        2       0.00000000      -0.00004859      -0.24607591
Ti       2.11077510       6.33232531       7.50000000  F        2      -0.00002365       0.00002365       3.55513865
N        0.00000000       6.33232531       7.50000000  F        2       0.00000000       0.00003214      -1.36886561
N        2.11077510       4.22155021       7.50000000  F        2       0.00000566       0.00000000      -1.36884247
N        0.00000000       4.22155021       9.61077510  F        2       0.00000000       0.00000000      -1.94035036
N        2.11077510       6.33232531       9.61077510  F        2       0.00000334      -0.00000334      -1.94036708
Ti       0.00000000       4.22155021      11.72155021  T        1       0.00000000       0.00000000       0.00030673
Ti       2.11077510       4.22155021      13.83232531  T        1       0.00006736       0.00000000      -0.00300099
Ti       0.00000000       6.33232531      13.83232531  T        1       0.00000000      -0.00005374      -0.00301385
Ti       2.11077510       6.33232531      11.72155021  T        1       0.00006016      -0.00006016       0.00020337
N        0.00000000       6.33232531      11.72155021  T        1       0.00000000       0.00002057      -0.00015761
N        2.11077510       4.22155021      11.72155021  T        1       0.00006042       0.00000000      -0.00028873
N        0.00000000       4.22155021      13.83232531  T        1       0.00000000       0.00000000       0.00310538
N        2.11077510       6.33232531      13.83232531  T        1       0.00000540      -0.00000540       0.00312312
Ti       4.22155021       0.00000000       7.50000000  F        2       0.00000000       0.00000000       3.55512913
Ti       6.33232531       0.00000000       9.61077510  F        2      -0.00004859       0.00000000      -0.24607591
Ti       4.22155021       2.11077510       9.61077510  F        2       0.00000000      -0.00000591      -0.24596998
Ti       6.33232531       2.11077510       7.50000000  F        2       0.00002365      -0.00002365       3.55513865
N        4.22155021       2.11077510       7.50000000  F        2       0.00000000       0.00000566      -1.36884247
N        6.33232531       0.00000000       7.50000000  F        2       0.00003214       0.00000000      -1.36886561
N        4.22155021       0.00000000       9.61077510  F        2       0.00000000       0.00000000      -1.94035036
N        6.33232531       2.11077510       9.61077510  F        2      -0.00000334       0.00000334      -1.94036708
Ti       4.22155021       0.00000000      11.72155021  T        1       0.00000000       0.00000000       0.00030673
Ti       6.33232531       0.00000000      13.83232531  T        1      -0.00005374       0.00000000      -0.00301385
Ti       4.22155021       2.11077510      13.83232531  T        1       0.00000000       0.00006736      -0.00300099
Ti       6.33232531       2.11077510      11.72155021  T        1      -0.00006016       0.00006016       0.00020337
N        4.22155021       2.11077510      11.72155021  T        1       0.00000000       0.00006042      -0.00028873
N        6.33232531       0.00000000      11.72155021  T        1       0.00002057       0.00000000      -0.00015761
N        4.22155021       0.00000000      13.83232531  T        1       0.00000000       0.00000000       0.00310538
N        6.33232531       2.11077510      13.83232531  T        1      -0.00000540       0.00000540       0.00312312
Ti       4.22155021       4.22155021       7.50000000  F        2       0.00000000       0.00000000       3.55513119
Ti       6.33232531       4.22155021       9.61077510  F        2       0.00000591       0.00000000      -0.24596998
Ti       4.22155021       6.33232531       9.61077510  F        2       0.00000000       0.00000591      -0.24596998
Ti       6.33232531       6.33232531       7.50000000  F        2       0.00002365       0.00002365       3.55513865
N        4.22155021       6.33232531       7.50000000  F        2       0.00000000      -0.00000566      -1.36884247
N        6.33232531       4.22155021       7.50000000  F        2      -0.00000566       0.00000000      -1.36884247
N        4.22155021       4.22155021       9.61077510  F        2       0.00000000       0.00000000      -1.94029894
N        6.33232531       6.33232531       9.61077510  F        2      -0.00000334      -0.00000334      -1.94036708
Ti       4.22155021       4.22155021      11.72155021  T        1       0.00000000       0.00000000       0.00012393
Ti       6.33232531       4.22155021      13.83232531  T        1      -0.00006736       0.00000000      -0.00300099
Ti       4.22155021       6.33232531      13.83232531  T        1       0.00000000      -0.00006736      -0.00300099
Ti       6.33232531       6.33232531      11.72155021  T        1      -0.00006016      -0.00006016       0.00020337
N        4.22155021       6.33232531      11.72155021  T        1       0.00000000      -0.00006042      -0.00028873
N        6.33232531       4.22155021      11.72155021  T        1      -0.00006042       0.00000000      -0.00028873
N        4.22155021       4.22155021      13.83232531  T        1       0.00000000       0.00000000       0.00311155
N        6.33232531       6.33232531      13.83232531  T        1      -0.00000540      -0.00000540       0.00312312
