6
Lattice="18.953278 0.0 0.0 0.0 19.57087 0.0 0.0 0.0 28.177086" Properties=species:S:1:pos:R:3:spacegroup_kinds:I:1:forces:R:3 spacegroup="P 1" unit_cell=conventional occupancy="_JSON {\"0\": {\"S\": 1.0}, \"1\": {\"S\": 1.0}, \"2\": {\"S\": 1.0}, \"3\": {\"S\": 1.0}, \"4\": {\"Li\": 1.0}, \"5\": {\"Li\": 1.0}}" energy=-1707.4150054006354 free_energy=-1707.4150054006354 pbc="T T T"
S        9.71131129      11.62521812       8.38912527        0       0.00152055      -0.02077683       0.00824373
S        9.45032446       7.89283969       8.09986548        1      -0.00086723       0.01943240       0.00973574
S        9.99609339       8.65966454       9.95559055        2       0.00075410      -0.00692938       0.01467843
S        9.01905532      10.59459438      10.05861609        3      -0.00331107       0.00576467       0.01563385
Li       8.19208077       9.90148556       7.94436124        4      -0.00146810      -0.00270634      -0.02382024
Li      10.99175760       9.65469239       8.04498141        5       0.00337149       0.00521523      -0.02447176
