16
Lattice="4.431339305 0.0 0.0 0.0 4.431339305 0.0 0.0 0.0 26.6470089527" Properties=species:S:1:pos:R:3:tags:I:1 pbc="T T F"
Nb       0.00000000       0.00000000      10.00000000        2
Nb       2.21566965       0.00000000      12.21566965        2
Nb       0.00000000       2.21566965      12.21566965        2
Nb       2.21566965       2.21566965      10.00000000        2
N        0.00000000       2.21566965      10.00000000        2
N        2.21566965       0.00000000      10.00000000        2
N        0.00000000       0.00000000      12.21566965        2
N        2.21566965       2.21566965      12.21566965        2
Nb       0.00000000       0.00000000      14.43133930        1
Nb       2.21566965       0.00000000      16.64700895        1
Nb       0.00000000       2.21566965      16.64700895        1
Nb       2.21566965       2.21566965      14.43133930        1
N        0.00000000       2.21566965      14.43133930        1
N        2.21566965       0.00000000      14.43133930        1
N        0.00000000       0.00000000      16.64700895        1
N        2.21566965       2.21566965      16.64700895        1
