16
Lattice="4.566816402 0.0 0.0 0.0 4.566816402 0.0 0.0 0.0 26.8502246058" Properties=species:S:1:pos:R:3:tags:I:1 pbc="T T F"
Sc       0.00000000       0.00000000      10.00000000        2
Sc       2.28340820       0.00000000      12.28340820        2
Sc       0.00000000       2.28340820      12.28340820        2
Sc       2.28340820       2.28340820      10.00000000        2
N        0.00000000       2.28340820      10.00000000        2
N        2.28340820       0.00000000      10.00000000        2
N        0.00000000       0.00000000      12.28340820        2
N        2.28340820       2.28340820      12.28340820        2
Sc       0.00000000       0.00000000      14.56681640        1
Sc       2.28340820       0.00000000      16.85022461        1
Sc       0.00000000       2.28340820      16.85022461        1
Sc       2.28340820       2.28340820      14.56681640        1
N        0.00000000       2.28340820      14.56681640        1
N        2.28340820       0.00000000      14.56681640        1
N        0.00000000       0.00000000      16.85022461        1
N        2.28340820       2.28340820      16.85022461        1
