108
Lattice="13.175790596999999 0.0 0.0 0.0 13.175790596999999 0.0 0.0 0.0 26.587895289000002" Properties=species:S:1:pos:R:3:tags:I:1 pbc="T T F"
Nb       0.00000000       0.00000000      10.00000000        2
Nb       2.19596509       0.00000000      12.19596509        2
Nb       0.00000000       2.19596509      12.19596509        2
Nb       2.19596509       2.19596509      10.00000000        2
Nb       0.00000000       0.00000000      14.39193020        1
Nb       2.19596509       2.19596509      14.39193020        1
Nb       0.00000000       4.39193020      10.00000000        2
Nb       2.19596509       4.39193020      12.19596509        2
Nb       0.00000000       6.58789529      12.19596509        2
Nb       2.19596509       6.58789529      10.00000000        2
Nb       0.00000000       4.39193020      14.39193020        1
Nb       2.19596509       6.58789529      14.39193020        1
Nb       0.00000000       8.78386040      10.00000000        2
Nb       2.19596509       8.78386040      12.19596509        2
Nb       0.00000000      10.97982549      12.19596509        2
Nb       2.19596509      10.97982549      10.00000000        2
Nb       0.00000000       8.78386040      14.39193020        1
Nb       2.19596509      10.97982549      14.39193020        1
Nb       4.39193020       0.00000000      10.00000000        2
Nb       6.58789529       0.00000000      12.19596509        2
Nb       4.39193020       2.19596509      12.19596509        2
Nb       6.58789529       2.19596509      10.00000000        2
Nb       4.39193020       0.00000000      14.39193020        1
Nb       6.58789529       2.19596509      14.39193020        1
Nb       4.39193020       4.39193020      10.00000000        2
Nb       6.58789529       4.39193020      12.19596509        2
Nb       4.39193020       6.58789529      12.19596509        2
Nb       6.58789529       6.58789529      10.00000000        2
Nb       4.39193020       4.39193020      14.39193020        1
Nb       6.58789529       6.58789529      14.39193020        1
Nb       4.39193020       8.78386040      10.00000000        2
Nb       6.58789529       8.78386040      12.19596509        2
Nb       4.39193020      10.97982549      12.19596509        2
Nb       6.58789529      10.97982549      10.00000000        2
Nb       4.39193020       8.78386040      14.39193020        1
Nb       6.58789529      10.97982549      14.39193020        1
Nb       8.78386040       0.00000000      10.00000000        2
Nb      10.97982549       0.00000000      12.19596509        2
Nb       8.78386040       2.19596509      12.19596509        2
Nb      10.97982549       2.19596509      10.00000000        2
Nb       8.78386040       0.00000000      14.39193020        1
Nb      10.97982549       2.19596509      14.39193020        1
Nb       8.78386040       4.39193020      10.00000000        2
Nb      10.97982549       4.39193020      12.19596509        2
Nb       8.78386040       6.58789529      12.19596509        2
Nb      10.97982549       6.58789529      10.00000000        2
Nb       8.78386040       4.39193020      14.39193020        1
Nb      10.97982549       6.58789529      14.39193020        1
Nb       8.78386040       8.78386040      10.00000000        2
Nb      10.97982549       8.78386040      12.19596509        2
Nb       8.78386040      10.97982549      12.19596509        2
Nb      10.97982549      10.97982549      10.00000000        2
Nb       8.78386040       8.78386040      14.39193020        1
Nb      10.97982549      10.97982549      14.39193020        1
N        0.00000000       2.19596509      10.00000000        2
N        2.19596509       0.00000000      10.00000000        2
N        0.00000000       0.00000000      12.19596509        2
N        2.19596509       2.19596509      12.19596509        2
N        0.00000000       2.19596509      14.39193020        1
N        2.19596509       0.00000000      14.39193020        1
N        0.00000000       6.58789529      10.00000000        2
N        2.19596509       4.39193020      10.00000000        2
N        0.00000000       4.39193020      12.19596509        2
N        2.19596509       6.58789529      12.19596509        2
N        0.00000000       6.58789529      14.39193020        1
N        2.19596509       4.39193020      14.39193020        1
N        0.00000000      10.97982549      10.00000000        2
N        2.19596509       8.78386040      10.00000000        2
N        0.00000000       8.78386040      12.19596509        2
N        2.19596509      10.97982549      12.19596509        2
N        0.00000000      10.97982549      14.39193020        1
N        2.19596509       8.78386040      14.39193020        1
N        4.39193020       2.19596509      10.00000000        2
N        6.58789529       0.00000000      10.00000000        2
N        4.39193020       0.00000000      12.19596509        2
N        6.58789529       2.19596509      12.19596509        2
N        4.39193020       2.19596509      14.39193020        1
N        6.58789529       0.00000000      14.39193020        1
N        4.39193020       6.58789529      10.00000000        2
N        6.58789529       4.39193020      10.00000000        2
N        4.39193020       4.39193020      12.19596509        2
N        6.58789529       6.58789529      12.19596509        2
N        4.39193020       6.58789529      14.39193020        1
N        6.58789529       4.39193020      14.39193020        1
N        4.39193020      10.97982549      10.00000000        2
N        6.58789529       8.78386040      10.00000000        2
N        4.39193020       8.78386040      12.19596509        2
N        6.58789529      10.97982549      12.19596509        2
N        4.39193020      10.97982549      14.39193020        1
N        6.58789529       8.78386040      14.39193020        1
N        8.78386040       2.19596509      10.00000000        2
N       10.97982549       0.00000000      10.00000000        2
N        8.78386040       0.00000000      12.19596509        2
N       10.97982549       2.19596509      12.19596509        2
N        8.78386040       2.19596509      14.39193020        1
N       10.97982549       0.00000000      14.39193020        1
N        8.78386040       6.58789529      10.00000000        2
N       10.97982549       4.39193020      10.00000000        2
N        8.78386040       4.39193020      12.19596509        2
N       10.97982549       6.58789529      12.19596509        2
N        8.78386040       6.58789529      14.39193020        1
N       10.97982549       4.39193020      14.39193020        1
N        8.78386040      10.97982549      10.00000000        2
N       10.97982549       8.78386040      10.00000000        2
N        8.78386040       8.78386040      12.19596509        2
N       10.97982549      10.97982549      12.19596509        2
N        8.78386040      10.97982549      14.39193020        1
N       10.97982549       8.78386040      14.39193020        1
