108
Lattice="13.429296531000002 0.0 0.0 0.0 13.429296531000002 0.0 0.0 0.0 26.714648267" Properties=species:S:1:pos:R:3:tags:I:1 pbc="T T F"
Sc       0.00000000       0.00000000      10.00000000        2
Sc       2.23821609       0.00000000      12.23821609        2
Sc       0.00000000       2.23821609      12.23821609        2
Sc       2.23821609       2.23821609      10.00000000        2
Sc       0.00000000       0.00000000      14.47643218        1
Sc       2.23821609       2.23821609      14.47643218        1
Sc       0.00000000       4.47643218      10.00000000        2
Sc       2.23821609       4.47643218      12.23821609        2
Sc       0.00000000       6.71464827      12.23821609        2
Sc       2.23821609       6.71464827      10.00000000        2
Sc       0.00000000       4.47643218      14.47643218        1
Sc       2.23821609       6.71464827      14.47643218        1
Sc       0.00000000       8.95286435      10.00000000        2
Sc       2.23821609       8.95286435      12.23821609        2
Sc       0.00000000      11.19108044      12.23821609        2
Sc       2.23821609      11.19108044      10.00000000        2
Sc       0.00000000       8.95286435      14.47643218        1
Sc       2.23821609      11.19108044      14.47643218        1
Sc       4.47643218       0.00000000      10.00000000        2
Sc       6.71464827       0.00000000      12.23821609        2
Sc       4.47643218       2.23821609      12.23821609        2
Sc       6.71464827       2.23821609      10.00000000        2
Sc       4.47643218       0.00000000      14.47643218        1
Sc       6.71464827       2.23821609      14.47643218        1
Sc       4.47643218       4.47643218      10.00000000        2
Sc       6.71464827       4.47643218      12.23821609        2
Sc       4.47643218       6.71464827      12.23821609        2
Sc       6.71464827       6.71464827      10.00000000        2
Sc       4.47643218       4.47643218      14.47643218        1
Sc       6.71464827       6.71464827      14.47643218        1
Sc       4.47643218       8.95286435      10.00000000        2
Sc       6.71464827       8.95286435      12.23821609        2
Sc       4.47643218      11.19108044      12.23821609        2
Sc       6.71464827      11.19108044      10.00000000        2
Sc       4.47643218       8.95286435      14.47643218        1
Sc       6.71464827      11.19108044      14.47643218        1
Sc       8.95286435       0.00000000      10.00000000        2
Sc      11.19108044       0.00000000      12.23821609        2
Sc       8.95286435       2.23821609      12.23821609        2
Sc      11.19108044       2.23821609      10.00000000        2
Sc       8.95286435       0.00000000      14.47643218        1
Sc      11.19108044       2.23821609      14.47643218        1
Sc       8.95286435       4.47643218      10.00000000        2
Sc      11.19108044       4.47643218      12.23821609        2
Sc       8.95286435       6.71464827      12.23821609        2
Sc      11.19108044       6.71464827      10.00000000        2
Sc       8.95286435       4.47643218      14.47643218        1
Sc      11.19108044       6.71464827      14.47643218        1
Sc       8.95286435       8.95286435      10.00000000        2
Sc      11.19108044       8.95286435      12.23821609        2
Sc       8.95286435      11.19108044      12.23821609        2
Sc      11.19108044      11.19108044      10.00000000        2
Sc       8.95286435       8.95286435      14.47643218        1
Sc      11.19108044      11.19108044      14.47643218        1
N        0.00000000       2.23821609      10.00000000        2
N        2.23821609       0.00000000      10.00000000        2
N        0.00000000       0.00000000      12.23821609        2
N        2.23821609       2.23821609      12.23821609        2
N        0.00000000       2.23821609      14.47643218        1
N        2.23821609       0.00000000      14.47643218        1
N        0.00000000       6.71464827      10.00000000        2
N        2.23821609       4.47643218      10.00000000        2
N        0.00000000       4.47643218      12.23821609        2
N        2.23821609       6.71464827      12.23821609        2
N        0.00000000       6.71464827      14.47643218        1
N        2.23821609       4.47643218      14.47643218        1
N        0.00000000      11.19108044      10.00000000        2
N        2.23821609       8.95286435      10.00000000        2
N        0.00000000       8.95286435      12.23821609        2
N        2.23821609      11.19108044      12.23821609        2
N        0.00000000      11.19108044      14.47643218        1
N        2.23821609       8.95286435      14.47643218        1
N        4.47643218       2.23821609      10.00000000        2
N        6.71464827       0.00000000      10.00000000        2
N        4.47643218       0.00000000      12.23821609        2
N        6.71464827       2.23821609      12.23821609        2
N        4.47643218       2.23821609      14.47643218        1
N        6.71464827       0.00000000      14.47643218        1
N        4.47643218       6.71464827      10.00000000        2
N        6.71464827       4.47643218      10.00000000        2
N        4.47643218       4.47643218      12.23821609        2
N        6.71464827       6.71464827      12.23821609        2
N        4.47643218       6.71464827      14.47643218        1
N        6.71464827       4.47643218      14.47643218        1
N        4.47643218      11.19108044      10.00000000        2
N        6.71464827       8.95286435      10.00000000        2
N        4.47643218       8.95286435      12.23821609        2
N        6.71464827      11.19108044      12.23821609        2
N        4.47643218      11.19108044      14.47643218        1
N        6.71464827       8.95286435      14.47643218        1
N        8.95286435       2.23821609      10.00000000        2
N       11.19108044       0.00000000      10.00000000        2
N        8.95286435       0.00000000      12.23821609        2
N       11.19108044       2.23821609      12.23821609        2
N        8.95286435       2.23821609      14.47643218        1
N       11.19108044       0.00000000      14.47643218        1
N        8.95286435       6.71464827      10.00000000        2
N       11.19108044       4.47643218      10.00000000        2
N        8.95286435       4.47643218      12.23821609        2
N       11.19108044       6.71464827      12.23821609        2
N        8.95286435       6.71464827      14.47643218        1
N       11.19108044       4.47643218      14.47643218        1
N        8.95286435      11.19108044      10.00000000        2
N       11.19108044       8.95286435      10.00000000        2
N        8.95286435       8.95286435      12.23821609        2
N       11.19108044      11.19108044      12.23821609        2
N        8.95286435      11.19108044      14.47643218        1
N       11.19108044       8.95286435      14.47643218        1
