108
Lattice="12.259575224999999 0.0 0.0 0.0 12.259575224999999 0.0 0.0 0.0 26.129787614999998" Properties=species:S:1:pos:R:3:tags:I:1 pbc="T T F"
V        0.00000000       0.00000000      10.00000000        2
V        2.04326254       0.00000000      12.04326254        2
V        0.00000000       2.04326254      12.04326254        2
V        2.04326254       2.04326254      10.00000000        2
V        0.00000000       0.00000000      14.08652508        1
V        2.04326254       2.04326254      14.08652508        1
V        0.00000000       4.08652507      10.00000000        2
V        2.04326254       4.08652507      12.04326254        2
V        0.00000000       6.12978761      12.04326254        2
V        2.04326254       6.12978761      10.00000000        2
V        0.00000000       4.08652507      14.08652508        1
V        2.04326254       6.12978761      14.08652508        1
V        0.00000000       8.17305015      10.00000000        2
V        2.04326254       8.17305015      12.04326254        2
V        0.00000000      10.21631269      12.04326254        2
V        2.04326254      10.21631269      10.00000000        2
V        0.00000000       8.17305015      14.08652508        1
V        2.04326254      10.21631269      14.08652508        1
V        4.08652507       0.00000000      10.00000000        2
V        6.12978761       0.00000000      12.04326254        2
V        4.08652507       2.04326254      12.04326254        2
V        6.12978761       2.04326254      10.00000000        2
V        4.08652507       0.00000000      14.08652508        1
V        6.12978761       2.04326254      14.08652508        1
V        4.08652507       4.08652507      10.00000000        2
V        6.12978761       4.08652507      12.04326254        2
V        4.08652507       6.12978761      12.04326254        2
V        6.12978761       6.12978761      10.00000000        2
V        4.08652507       4.08652507      14.08652508        1
V        6.12978761       6.12978761      14.08652508        1
V        4.08652507       8.17305015      10.00000000        2
V        6.12978761       8.17305015      12.04326254        2
V        4.08652507      10.21631269      12.04326254        2
V        6.12978761      10.21631269      10.00000000        2
V        4.08652507       8.17305015      14.08652508        1
V        6.12978761      10.21631269      14.08652508        1
V        8.17305015       0.00000000      10.00000000        2
V       10.21631269       0.00000000      12.04326254        2
V        8.17305015       2.04326254      12.04326254        2
V       10.21631269       2.04326254      10.00000000        2
V        8.17305015       0.00000000      14.08652508        1
V       10.21631269       2.04326254      14.08652508        1
V        8.17305015       4.08652507      10.00000000        2
V       10.21631269       4.08652507      12.04326254        2
V        8.17305015       6.12978761      12.04326254        2
V       10.21631269       6.12978761      10.00000000        2
V        8.17305015       4.08652507      14.08652508        1
V       10.21631269       6.12978761      14.08652508        1
V        8.17305015       8.17305015      10.00000000        2
V       10.21631269       8.17305015      12.04326254        2
V        8.17305015      10.21631269      12.04326254        2
V       10.21631269      10.21631269      10.00000000        2
V        8.17305015       8.17305015      14.08652508        1
V       10.21631269      10.21631269      14.08652508        1
N        0.00000000       2.04326254      10.00000000        2
N        2.04326254       0.00000000      10.00000000        2
N        0.00000000       0.00000000      12.04326254        2
N        2.04326254       2.04326254      12.04326254        2
N        0.00000000       2.04326254      14.08652508        1
N        2.04326254       0.00000000      14.08652508        1
N        0.00000000       6.12978761      10.00000000        2
N        2.04326254       4.08652507      10.00000000        2
N        0.00000000       4.08652507      12.04326254        2
N        2.04326254       6.12978761      12.04326254        2
N        0.00000000       6.12978761      14.08652508        1
N        2.04326254       4.08652507      14.08652508        1
N        0.00000000      10.21631269      10.00000000        2
N        2.04326254       8.17305015      10.00000000        2
N        0.00000000       8.17305015      12.04326254        2
N        2.04326254      10.21631269      12.04326254        2
N        0.00000000      10.21631269      14.08652508        1
N        2.04326254       8.17305015      14.08652508        1
N        4.08652507       2.04326254      10.00000000        2
N        6.12978761       0.00000000      10.00000000        2
N        4.08652507       0.00000000      12.04326254        2
N        6.12978761       2.04326254      12.04326254        2
N        4.08652507       2.04326254      14.08652508        1
N        6.12978761       0.00000000      14.08652508        1
N        4.08652507       6.12978761      10.00000000        2
N        6.12978761       4.08652507      10.00000000        2
N        4.08652507       4.08652507      12.04326254        2
N        6.12978761       6.12978761      12.04326254        2
N        4.08652507       6.12978761      14.08652508        1
N        6.12978761       4.08652507      14.08652508        1
N        4.08652507      10.21631269      10.00000000        2
N        6.12978761       8.17305015      10.00000000        2
N        4.08652507       8.17305015      12.04326254        2
N        6.12978761      10.21631269      12.04326254        2
N        4.08652507      10.21631269      14.08652508        1
N        6.12978761       8.17305015      14.08652508        1
N        8.17305015       2.04326254      10.00000000        2
N       10.21631269       0.00000000      10.00000000        2
N        8.17305015       0.00000000      12.04326254        2
N       10.21631269       2.04326254      12.04326254        2
N        8.17305015       2.04326254      14.08652508        1
N       10.21631269       0.00000000      14.08652508        1
N        8.17305015       6.12978761      10.00000000        2
N       10.21631269       4.08652507      10.00000000        2
N        8.17305015       4.08652507      12.04326254        2
N       10.21631269       6.12978761      12.04326254        2
N        8.17305015       6.12978761      14.08652508        1
N       10.21631269       4.08652507      14.08652508        1
N        8.17305015      10.21631269      10.00000000        2
N       10.21631269       8.17305015      10.00000000        2
N        8.17305015       8.17305015      12.04326254        2
N       10.21631269      10.21631269      12.04326254        2
N        8.17305015      10.21631269      14.08652508        1
N       10.21631269       8.17305015      14.08652508        1
