147
Lattice="13.175790690290984 0.0 0.0 0.0 13.175790690290984 0.0 0.0 0.0 26.587889186612337" Properties=species:S:1:pos:R:3:forces:R:3 energy=-136152.23631195267 free_energy=-136152.23631195267 pbc="T T T"
Nb       0.00000000       0.00000000      10.00000000       0.06012833       0.06899298       2.24449798
Nb       2.19596509       0.00000000      12.19596509      -0.16667073       0.17132674      -0.57665242
Nb       0.00000000       2.19596509      12.19596509       0.19712879      -0.17312240      -0.60372845
Nb       2.19596509       2.19596509      10.00000000      -0.06467610      -0.10991903       2.23512194
Nb       0.10931656       0.10178965      14.44088408      -0.00309767       0.00040392      -0.00204403
Nb       2.17647064       0.01775517      16.44975175       0.00119171      -0.00381397       0.00649461
Nb       0.02261267       2.16875263      16.44948138       0.00469715      -0.00042320       0.00180131
Nb       2.11298369       2.09896922      14.44370390       0.00025685      -0.00663885      -0.00367719
Nb       0.00000000       4.39193020      10.00000000       0.06954628       0.04616467       2.26895997
Nb       2.19596509       4.39193020      12.19596509      -0.10110812       0.19525369      -0.57254174
Nb       0.00000000       6.58789529      12.19596509       0.23845953      -0.16360367      -0.48513966
Nb       2.19596509       6.58789529      10.00000000      -0.05294467      -0.06896213       2.36937106
Nb       0.11449403       4.49528721      14.44649558      -0.00660748      -0.01034895      -0.00815323
Nb       2.12292600       4.39788954      16.44156655      -0.00726568      -0.01307869       0.00171673
Nb      -0.00728611       6.57542362      16.45149987      -0.01181576       0.00402892       0.00913462
Nb       2.13178787       6.47750163      14.44351545      -0.00806195       0.00060987      -0.00623852
Nb       0.00000000       8.78386040      10.00000000       0.03231800       0.06983399       2.27333085
Nb       2.19596509       8.78386040      12.19596509      -0.16658383       0.17718603      -0.53160926
Nb       0.00000000      10.97982549      12.19596509       0.19749595      -0.18939286      -0.59155196
Nb       2.19596509      10.97982549      10.00000000      -0.06909763      -0.03118980       2.27416466
Nb       0.11832819       8.89171353      14.44675161      -0.00259141      -0.00363220      -0.00364454
Nb       2.19492070       8.78536310      16.45106779      -0.01119510       0.01507489      -0.00413536
Nb       0.00651553      10.97679685      16.44678531       0.00017535      -0.00003908       0.00432357
Nb       2.09324364      10.86821377      14.44521643       0.00193707       0.00066926      -0.00204326
Nb       4.39193020       0.00000000      10.00000000       0.06928197       0.09276592       2.23716777
Nb       6.58789529       0.00000000      12.19596509      -0.18124812       0.18039837      -0.61209559
Nb       4.39193020       2.19596509      12.19596509       0.16050497      -0.05510105      -0.57705762
Nb       6.58789529       2.19596509      10.00000000      -0.03728691      -0.06285293       2.26242243
Nb       4.49649089       0.08960134      14.44462358      -0.01178439      -0.00335786       0.02213797
Nb       6.59255364       0.01575500      16.45109512      -0.01026616      -0.00183243       0.00997588
Nb       4.40724080       2.12485781      16.45107091      -0.00469226      -0.00197589       0.00958893
Nb       6.49173281       2.09932294      14.44251935      -0.00029748      -0.00557389      -0.00246903
Nb       4.39193020       4.39193020      10.00000000       0.06462005       0.00733330       2.33265365
Nb       6.58789529       4.39193020      12.19596509      -0.20718386       0.21172495      -0.58165630
Nb       4.39193020       6.58789529      12.19596509       0.21659127      -0.21722788      -0.29832150
Nb       6.58789529       6.58789529      10.00000000      -0.00005219      -0.05939891       2.33030521
Nb       4.50570410       4.52050451      14.48299751      -0.00712376       0.00393456       0.02215340
Nb       6.65241284       4.33469119      16.45178695       0.00581558      -0.01026487       0.00503242
Nb       4.39190369       6.62895703      16.64479740      -0.02354642      -0.01260766      -0.01607197
Nb       6.46766275       6.48193976      14.48246912      -0.00629072      -0.00109452      -0.00281176
Nb       4.39193020       8.78386040      10.00000000       0.07404186       0.05376794       2.36951068
Nb       6.58789529       8.78386040      12.19596509      -0.19292093       0.11265854      -0.56798111
Nb       4.39193020      10.97982549      12.19596509       0.17006588      -0.21396052      -0.49407193
Nb       6.58789529      10.97982549      10.00000000      -0.03991355      -0.06887574       2.26894635
Nb       4.50850493       8.85297074      14.44294259      -0.00149355       0.00506739      -0.00189619
Nb       6.58666003       8.86303454      16.43982679       0.01397137       0.00824141       0.00219521
Nb       4.41055475      10.98947273      16.45142263      -0.00359055       0.02273241       0.00709007
Nb       6.49036151      10.87268324      14.44502340       0.01052918       0.00581558      -0.00659719
Nb       8.78386040       0.00000000      10.00000000       0.08221051       0.05832239       2.26060980
Nb      10.97982549       0.00000000      12.19596509      -0.14929985       0.15497787      -0.61086146
Nb       8.78386040       2.19596509      12.19596509       0.16323548      -0.15342801      -0.59331522
Nb      10.97982549       2.19596509      10.00000000      -0.05816427      -0.08077146       2.26209718
Nb       8.89593725       0.09972286      14.43872985      -0.00021983       0.00309767      -0.00021623
Nb      10.98206453       0.00268801      16.44373293       0.00053967      -0.00153418       0.00278142
Nb       8.79901160       2.18574737      16.44655353      -0.00272357      -0.00139251       0.00178974
Nb      10.88642500       2.08850125      14.43825344      -0.00510775      -0.00212450      -0.00040341
Nb       8.78386040       4.39193020      10.00000000       0.06280819       0.04064323       2.26220877
Nb      10.97982549       4.39193020      12.19596509      -0.16953366       0.18722825      -0.60690787
Nb       8.78386040       6.58789529      12.19596509       0.06952906      -0.15777780      -0.59380167
Nb      10.97982549       6.58789529      10.00000000      -0.09576614      -0.06875490       2.23442312
Nb       8.88775036       4.49298655      14.44246547       0.00577367       0.00285341      -0.00034376
Nb      10.97592435       4.39384270      16.45108247      -0.00154986       0.00968277       0.00846767
Nb       8.86394634       6.57844295      16.44854792       0.01436372       0.00464984       0.00906520
Nb      10.89810069       6.48755681      14.44401657      -0.00002905       0.01245057       0.02145534
Nb       8.78386040       8.78386040      10.00000000       0.11482290       0.06661574       2.23708266
Nb      10.97982549       8.78386040      12.19596509      -0.16778274       0.17498954      -0.57915976
Nb       8.78386040      10.97982549      12.19596509       0.17563643      -0.18871949      -0.60807901
Nb      10.97982549      10.97982549      10.00000000      -0.06763415      -0.05944288       2.24054903
Nb       8.88887875       8.87339206      14.44285793      -0.00004217      -0.00344451      -0.00257059
Nb      10.97609578       8.80911185      16.44950620      -0.00578241      -0.00052271       0.00611254
Nb       8.81904623      10.96561235      16.44865917       0.00136397      -0.00577238       0.00426289
Nb      10.88408945      10.87387993      14.44115721      -0.00367616       0.00658665      -0.00173241
N        0.00000000       2.19596509      10.00000000      -0.02486437       0.02347700      -1.38607452
N        2.19596509       0.00000000      10.00000000       0.01409864      -0.02148131      -1.38856566
N        0.00000000       0.00000000      12.19596509      -0.04694629      -0.05228750      -0.28148335
N        2.19596509       2.19596509      12.19596509       0.04689795       0.04675088      -0.30747823
N       -0.09386749       2.30186768      14.40002813       0.00237698      -0.00005502      -0.00140871
N        2.30624987      -0.10893597      14.39960271      -0.00013601      -0.00561709       0.00126421
N        0.00096660      -0.00858954      16.76373142      -0.00963264       0.00331724       0.00027588
N        2.21204254       2.20268894      16.77033802      -0.00249603       0.00302027      -0.00266726
N        0.00000000       6.58789529      10.00000000      -0.02058965       0.01782752      -1.39190681
N        2.19596509       4.39193020      10.00000000       0.01847749      -0.01609742      -1.42079572
N        0.00000000       4.39193020      12.19596509      -0.05189232      -0.06484708      -0.23318517
N        2.19596509       6.58789529      12.19596509       0.03098128       0.06921178      -0.56278954
N       -0.07993617       6.69790351      14.40179252      -0.00871090      -0.00470795      -0.00544637
N        2.31999431       4.28093142      14.39090891      -0.00083432       0.01147149       0.00109375
N       -0.02356363       4.37555668      16.76167887       0.00424181       0.00502574       0.00567237
N        2.17402919       6.58468641      16.68535392      -0.01020548       0.00595056       0.01473988
N        0.00000000      10.97982549      10.00000000      -0.01147535       0.01319182      -1.38576418
N        2.19596509       8.78386040      10.00000000       0.01203765      -0.01260895      -1.40568046
N        0.00000000       8.78386040      12.19596509      -0.05188049      -0.05377308      -0.30958962
N        2.19596509      10.97982549      12.19596509       0.05973804       0.05403148      -0.33273854
N       -0.10463695      11.09023846      14.39667427      -0.00035815      -0.00688721      -0.00061758
N        2.31372371       8.67267452      14.39660651       0.00918835      -0.00329358      -0.00168047
N        0.00011134       8.78293695      16.74588660       0.01651780       0.00022780      -0.00132772
N        2.20058987      10.98841721      16.73941150       0.00192781      -0.01519136       0.00620819
N        4.39193020       2.19596509      10.00000000      -0.02531971       0.01324915      -1.40492970
N        6.58789529       0.00000000      10.00000000       0.02235240      -0.02763396      -1.39406190
N        4.39193020       0.00000000      12.19596509      -0.05425516      -0.03570028      -0.29168908
N        6.58789529       2.19596509      12.19596509       0.05852294       0.03664928      -0.26851702
N        4.29969221       2.30289805      14.39889328       0.00027948       0.01222920       0.00301359
N        6.70123720      -0.10447709      14.40237427      -0.00352293      -0.00249140       0.00031445
N        4.38750817      -0.02266057      16.77256942       0.00529827       0.00383274      -0.00245180
N        6.60260939       2.17736682      16.77638749      -0.00156632      -0.00099065       0.00489564
N        4.39193020       6.58789529      10.00000000      -0.02476692       0.02238634      -1.57922350
N        6.58789529       4.39193020      10.00000000       0.00485141      -0.00222040      -1.44197004
N        4.39193020       4.39193020      12.19596509      -0.06023786      -0.06630001      -0.24718046
N        6.58789529       6.58789529      12.19596509       0.06451386       0.06162009      -0.24635873
N        4.29333102       6.69192394      14.38892709       0.00619790      -0.00884768       0.02599488
N        6.69400424       4.29227683      14.39678205      -0.00144470       0.00601947      -0.00686767
N        4.39251392       4.35453310      16.70840964      -0.00136963      -0.00558058       0.01125398
N        6.64788276       6.59565946      16.70693893      -0.01426140       0.00415825       0.01218420
N        4.39193020      10.97982549      10.00000000      -0.01965788       0.02137358      -1.39009778
N        6.58789529       8.78386040      10.00000000       0.02140161      -0.01631545      -1.42404251
N        4.39193020       8.78386040      12.19596509      -0.06263079      -0.02677264      -0.55406322
N        6.58789529      10.97982549      12.19596509       0.06717984       0.05462052      -0.24950834
N        4.28788391      11.06594546      14.40206378       0.00052399       0.00098756      -0.00814577
N        6.70665339       8.66706038      14.38915342      -0.00645501       0.00029953       0.00087366
N        4.39772964       8.82632890      16.68959517      -0.00525431      -0.00798122       0.01176717
N        6.61123670      11.01265719      16.75786303      -0.00645578      -0.01119998       0.00579707
N        8.78386040       2.19596509      10.00000000      -0.00196715       0.00285110      -1.38520111
N       10.97982549       0.00000000      10.00000000       0.01254595      -0.01104649      -1.38466195
N        8.78386040       0.00000000      12.19596509      -0.05820926      -0.04795493      -0.33189677
N       10.97982549       2.19596509      12.19596509       0.05146012       0.06106139      -0.33930617
N        8.68613319       2.29927521      14.39562658      -0.00911919       0.01014557       0.00034478
N       11.09496601      -0.11169659      14.39498867      -0.00012958       0.00368876       0.00090297
N        8.79157532      -0.00723254      16.74555892       0.00711758       0.00260401       0.00853632
N       10.99325721       2.19346830      16.74418678      -0.00189336      -0.00498537       0.00600790
N        8.78386040       6.58789529      10.00000000      -0.01160416       0.02658855      -1.41226891
N       10.97982549       4.39193020      10.00000000       0.02317104      -0.02237297      -1.39547447
N        8.78386040       4.39193020      12.19596509      -0.03640733      -0.05778272      -0.27926911
N       10.97982549       6.58789529      12.19596509       0.04227254       0.05737262      -0.29127334
N        8.68519451       6.68593974      14.39715146      -0.01843841      -0.00373838       0.00370573
N       11.09145093       4.28279224      14.40232077       0.00495452       0.00519877       0.00064175
N        8.81307762       4.38253707      16.77340787      -0.00426957       0.00065332       0.00909939
N       11.00881938       6.59778067      16.77473240      -0.00540137      -0.00094282      -0.00456191
N        8.78386040      10.97982549      10.00000000      -0.02237323       0.02412620      -1.38724205
N       10.97982549       8.78386040      10.00000000       0.01624140      -0.01405288      -1.39062383
N        8.78386040       8.78386040      12.19596509      -0.04682724      -0.04849615      -0.32700164
N       10.97982549      10.97982549      12.19596509       0.05435158       0.04868564      -0.27489669
N        8.68459725      11.08012734      14.39943559      -0.00498023      -0.00924132       0.00035353
N       11.09647989       8.67692746      14.39940593       0.00375921       0.00557827       0.00148250
N        8.78720353       8.77702454      16.76475007      -0.00890964       0.00065743       0.00590891
N       10.99384193      10.98453415      16.76604401       0.00044943       0.00936370      -0.00263461
S        4.40034641       6.64794453      19.13499006      -0.03911162       0.00589760       0.00222863
Li       6.56610961       6.63670630      18.64742051      -0.03532156      -0.01945579       0.01110459
Li       2.21204254       2.20268894      18.97033802      -0.00406620      -0.01056029       0.00953236
