147
Lattice="12.641749285038259 0.0 0.0 0.0 12.641749285038259 0.0 0.0 0.0 26.320880516406753" Properties=species:S:1:pos:R:3:forces:R:3 energy=-137543.52145846287 free_energy=-137543.52145846287 pbc="T T T"
Ti       0.00000000       0.00000000      10.00000000      -0.00517820      -0.00157531       1.89289911
Ti       2.10695823       0.00000000      12.10695823       0.01110819       0.00396901       0.24771088
Ti       0.00000000       2.10695823      12.10695823       0.03464819       0.01939537       0.24813742
Ti       2.10695823       2.10695823      10.00000000      -0.00587986       0.01278147       1.89854474
Ti       0.00305619      -0.00034688      14.20464004      -0.00501185      -0.00315731      -0.00205200
Ti       2.10668051      -0.00183511      16.21583048       0.00389625       0.00058621       0.00989592
Ti       0.00458560       2.10513713      16.21656161      -0.00030005      -0.00411659       0.00501288
Ti       2.11018663       2.10375161      14.20314877      -0.00776576      -0.00650952       0.00586186
Ti       0.00000000       4.21391647      10.00000000      -0.00613028      -0.00161877       1.88381181
Ti       2.10695823       4.21391647      12.10695823       0.05564022       0.01156405       0.30237742
Ti       0.00000000       6.32087470      12.10695823      -0.01578040       0.00389522       0.25473102
Ti       2.10695823       6.32087470      10.00000000       0.05058106       0.00384277       1.93737174
Ti      -0.00080678       4.21623756      14.20157460      -0.00588577      -0.00648689      -0.00091557
Ti       2.07660742       4.21825056      16.21207284       0.00456885       0.00264052      -0.00435056
Ti      -0.00198654       6.32812881      16.21084697      -0.01533560      -0.00553610       0.01072021
Ti       2.14205867       6.32373145      14.20720366      -0.00770174      -0.00655117      -0.03022615
Ti       0.00000000       8.42783294      10.00000000       0.00994014       0.00808689       1.90229649
Ti       2.10695823       8.42783294      12.10695823       0.02420874      -0.01514123       0.28355051
Ti       0.00000000      10.53479117      12.10695823       0.01930359      -0.00866565       0.24985518
Ti       2.10695823      10.53479117      10.00000000      -0.00727237      -0.00920635       1.90226616
Ti       0.00063883       8.42967568      14.20344815      -0.00676406       0.00150667       0.00040469
Ti       2.10984581       8.43237861      16.22554112      -0.01916835       0.00822085       0.00763592
Ti       0.00797952      10.53319800      16.21804854      -0.00825453       0.00134983       0.00681060
Ti       2.10977654      10.53932154      14.20330331      -0.00942412      -0.00274517      -0.00009873
Ti       4.21391647       0.00000000      10.00000000      -0.00221346      -0.01895880       1.92270077
Ti       6.32087470       0.00000000      12.10695823       0.01057418       0.00621281       0.24870204
Ti       4.21391647       2.10695823      12.10695823       0.00352395       0.01995022       0.24670789
Ti       6.32087470       2.10695823      10.00000000       0.00189747      -0.00137683       1.87830862
Ti       4.21618369       0.00084390      14.19590228      -0.00384457      -0.00401838       0.00507870
Ti       6.33358060      -0.00209357      16.21346060      -0.01388061       0.00528979       0.01319542
Ti       4.21667078       2.06603874      16.20824317      -0.00277679       0.00404203       0.00206022
Ti       6.32322560       2.10543497      14.20048440       0.00302773      -0.01703227       0.00534070
Ti       4.21391647       4.21391647      10.00000000       0.00191264       0.06726803       1.85270557
Ti       6.32087470       4.21391647      12.10695823      -0.04163002       0.05080191       0.31925028
Ti       4.21391647       6.32087470      12.10695823       0.03325182      -0.02622808       0.03277154
Ti       6.32087470       6.32087470      10.00000000      -0.06727111      -0.00208979       1.85383094
Ti       4.21752621       4.24269382      14.24147974      -0.00300793      -0.00402789      -0.01225465
Ti       6.35841585       4.18331904      16.22138133      -0.00632569      -0.00705665       0.00164165
Ti       4.18462157       6.35713137      16.47501765      -0.01893283       0.01722536       0.01119767
Ti       6.29479064       6.32036587      14.24095851       0.00894975       0.00034736      -0.03706091
Ti       4.21391647       8.42783294      10.00000000      -0.00405360      -0.05021287       1.93965154
Ti       6.32087470       8.42783294      12.10695823      -0.00271971      -0.04776364       0.30125693
Ti       4.21391647      10.53479117      12.10695823       0.00560500       0.02981426       0.25020356
Ti       6.32087470      10.53479117      10.00000000       0.00115468       0.00719523       1.88615434
Ti       4.21387732       8.39613418      14.20527648       0.00347947       0.00696126      -0.02481320
Ti       6.31913103       8.46348681      16.20820938       0.02039862       0.01271925       0.01061094
Ti       4.21371613      10.54366152      16.20977327      -0.00380960       0.01411613       0.01525795
Ti       6.32284955      10.54041157      14.20043272       0.00218724       0.00253948       0.00091480
Ti       8.42783294       0.00000000      10.00000000       0.00541269       0.00073534       1.88589388
Ti      10.53479117       0.00000000      12.10695823       0.00649589       0.00437885       0.25646600
Ti       8.42783294       2.10695823      12.10695823      -0.01351320       0.02502352       0.24640270
Ti      10.53479117       2.10695823      10.00000000      -0.00054764      -0.00496223       1.88605843
Ti       8.43372072      -0.00122247      14.20462243      -0.00614031       0.00023011      -0.00383583
Ti      10.53975868       0.00186016      16.21837788      -0.00388108      -0.00966992      -0.00323085
Ti       8.44017638       2.10189119      16.21594691      -0.00384431      -0.00410657       0.00599401
Ti      10.54051656       2.10606727      14.20463289      -0.00604286      -0.00113874      -0.00508436
Ti       8.42783294       4.21391647      10.00000000       0.00125727      -0.00184708       1.87747481
Ti      10.53479117       4.21391647      12.10695823       0.00646375       0.00029748       0.24936024
Ti       8.42783294       6.32087470      12.10695823      -0.01149077       0.00601201       0.23917687
Ti      10.53479117       6.32087470      10.00000000       0.01825997       0.00178383       1.92435553
Ti       8.43354474       4.21508568      14.20019868       0.01438172      -0.00355815       0.00182163
Ti      10.54300126       4.20898300      16.21392101      -0.00548236       0.00000360       0.00834014
Ti       8.47475654       6.32460026      16.20386846       0.01932338      -0.00023371       0.00993243
Ti      10.54004541       6.32284554      14.19495154      -0.00843708       0.00017741       0.00778042
Ti       8.42783294       8.42783294      10.00000000      -0.01265857       0.00630152       1.89962923
Ti      10.53479117       8.42783294      12.10695823       0.00753308       0.00150152       0.24890438
Ti       8.42783294      10.53479117      12.10695823      -0.00662779      -0.02349757       0.24883342
Ti      10.53479117      10.53479117      10.00000000       0.00173678       0.00553636       1.89227999
Ti       8.43460931       8.42956460      14.20231415       0.01009801       0.00033116       0.00212142
Ti      10.54265268       8.43366812      16.21552983      -0.00376538       0.00243175       0.00777373
Ti       8.43522065      10.53540183      16.21617704       0.00636374      -0.00245258       0.00399318
Ti      10.53946034      10.53617107      14.20528798      -0.00136808       0.00001671      -0.00752793
N        0.00000000       2.10695823      10.00000000      -0.00557801      -0.00017406      -1.26811616
N        2.10695823       0.00000000      10.00000000      -0.00137143      -0.00435982      -1.25374292
N        0.00000000       0.00000000      12.10695823       0.00366922      -0.00040932      -0.91211042
N        2.10695823       2.10695823      12.10695823       0.01377186       0.01835922      -0.90150179
N        0.00321031       2.10802904      14.22517453      -0.00604543      -0.00275648       0.00588988
N        2.11034529       0.00029886      14.22370220      -0.00467787      -0.01251870       0.01139050
N        0.00399073       0.00040856      16.38606407       0.00087238      -0.00673398       0.00045791
N        2.10902978       2.10409521      16.39462187      -0.01269688      -0.00842345      -0.00098062
N        0.00000000       6.32087470      10.00000000      -0.01266577      -0.00203734      -1.28702971
N        2.10695823       4.21391647      10.00000000       0.01154322      -0.01174403      -1.21911710
N        0.00000000       4.21391647      12.10695823       0.01885287       0.00056693      -0.93039585
N        2.10695823       6.32087470      12.10695823       0.03322097      -0.00582972      -0.89661232
N        0.01155035       6.32329447      14.22558071       0.00350981      -0.00116060       0.00497766
N        2.10755048       4.21409391      14.22860187       0.00467504       0.00390756       0.00446703
N        0.00415894       4.21458784      16.38573233      -0.00345916      -0.00414230      -0.00316271
N        2.08443544       6.32324155      16.33698831       0.01924162       0.00912330       0.02025798
N        0.00000000      10.53479117      10.00000000       0.00067646      -0.00167302      -1.26571809
N        2.10695823       8.42783294      10.00000000      -0.00669952       0.00557544      -1.26067333
N        0.00000000       8.42783294      12.10695823       0.01480595       0.00663447      -0.93626053
N        2.10695823      10.53479117      12.10695823       0.00097933      -0.00739012      -0.93662537
N        0.00414981      10.53521546      14.22699862      -0.00266032      -0.00288195       0.00276908
N        2.10740880       8.43133315      14.23197849       0.00428500      -0.00473212      -0.00484576
N        0.00439853       8.43118953      16.38288114      -0.01268454      -0.00070320       0.00626038
N        2.11084609      10.53753932      16.38301218      -0.01046490       0.00124930       0.00506096
N        4.21391647       2.10695823      10.00000000       0.00118476       0.01087062      -1.24779082
N        6.32087470       0.00000000      10.00000000       0.00034916      -0.00518592      -1.25422243
N        4.21391647       0.00000000      12.10695823       0.00454700       0.00000643      -0.93940910
N        6.32087470       2.10695823      12.10695823      -0.00061321       0.02513896      -0.89389544
N        4.21653827       2.11368680      14.22962440      -0.00277396       0.00572559       0.01107400
N        6.32471511       0.00054180      14.22230705      -0.00345839      -0.00540986       0.01184404
N        4.21933290      -0.00139610      16.38824585      -0.01251844       0.00089063      -0.01527904
N        6.33053911       2.10280097      16.39092039       0.00521934      -0.01666743       0.00984578
N        4.21391647       6.32087470      10.00000000       0.00970540      -0.01116604      -1.33323757
N        6.32087470       4.21391647      10.00000000      -0.01281129       0.01249993      -1.17282542
N        4.21391647       4.21391647      12.10695823       0.01680679       0.01508286      -0.71390305
N        6.32087470       6.32087470      12.10695823      -0.01012989      -0.01198006      -0.72495725
N        4.21821267       6.31962543      14.26594724      -0.00486196       0.00647121      -0.02081976
N        6.32487953       4.21293309      14.23756880       0.00827844      -0.00011853      -0.01266757
N        4.21209661       4.18678938      16.41980314      -0.00161414      -0.00271303      -0.00340183
N        6.35728831       6.32855400      16.40842285      -0.02874776       0.00986481       0.01154220
N        4.21391647      10.53479117      10.00000000       0.00137451       0.01297122      -1.28750845
N        6.32087470       8.42783294      10.00000000       0.01186436      -0.01222405      -1.22289174
N        4.21391647       8.42783294      12.10695823       0.01070916      -0.02611547      -0.90837872
N        6.32087470      10.53479117      12.10695823       0.00591097      -0.01047313      -0.93872056
N        4.21599670      10.52830536      14.22522460      -0.00473443      -0.01162524       0.00019566
N        6.32354448       8.43117522      14.22704501       0.00072274      -0.00731119      -0.00687256
N        4.21708471       8.45768071      16.33246847      -0.00478019      -0.02273138       0.02739485
N        6.32642195      10.53608967      16.38319375       0.00126678       0.00980079       0.00593591
N        8.42783294       2.10695823      10.00000000       0.00603798      -0.00697926      -1.26428727
N       10.53479117       0.00000000      10.00000000      -0.00046845      -0.00063095      -1.26692754
N        8.42783294       0.00000000      12.10695823       0.01082254       0.00105390      -0.91709604
N       10.53479117       2.10695823      12.10695823       0.00691832      -0.00287964      -0.91615013
N        8.43304416       2.10603154      14.22411291      -0.00288221      -0.00123953       0.00494012
N       10.53934310       0.00035212      14.22649766      -0.00692629      -0.00122976       0.00131409
N        8.43625918      -0.00056384      16.38698851      -0.00386180      -0.00664553      -0.00021803
N       10.54204605       2.10530844      16.38728033      -0.00050034      -0.00137683      -0.00056333
N        8.42783294       6.32087470      10.00000000      -0.01127480      -0.00197152      -1.25027553
N       10.53479117       4.21391647      10.00000000       0.00465318      -0.00128864      -1.25335057
N        8.42783294       4.21391647      12.10695823      -0.01873743       0.00704791      -0.89596826
N       10.53479117       6.32087470      12.10695823       0.00904694       0.00324216      -0.94428340
N        8.42518950       6.32252217      14.22700295      -0.00516663      -0.00095285       0.01862250
N       10.53907254       4.21469888      14.22269277      -0.00395641      -0.00144625       0.00732276
N        8.43975232       4.21174769      16.39137088      -0.00548082      -0.01304809       0.00627812
N       10.54229597       6.32321247      16.38659741       0.00393404       0.00165013      -0.00802364
N        8.42783294      10.53479117      10.00000000      -0.00048285       0.00487095      -1.26867357
N       10.53479117       8.42783294      10.00000000       0.00389934       0.00103127      -1.25368661
N        8.42783294       8.42783294      12.10695823      -0.01129588      -0.00645398      -0.90861706
N       10.53479117      10.53479117      12.10695823       0.00829926       0.00371627      -0.90984836
N        8.43107835      10.53611372      14.22502343      -0.00181803       0.00122873       0.00408497
N       10.53913941       8.42873769      14.22384204       0.00364480       0.00250811       0.00743512
N        8.43613591       8.43147130      16.39240624       0.00508487       0.01118121       0.00829849
N       10.54081039      10.53721765      16.38669502       0.00054944      -0.00616473      -0.00428089
S        4.17804011       6.39782572      18.91202509      -0.01539859       0.00268063       0.03668039
Li       6.31289253       6.36364231      18.36178621      -0.01659930       0.01346230       0.01160442
Li       2.10902978       2.10409521      18.59462187      -0.02710354      -0.01025407      -0.02859915
