147
Lattice="12.259575388456497 0.0 0.0 0.0 12.259575388456497 0.0 0.0 0.0 26.129789272297636" Properties=species:S:1:pos:R:3:forces:R:3 energy=-162744.41931510056 free_energy=-162744.41931510056 pbc="T T T"
V        0.00000000       0.00000000      10.00000000       0.03243987       0.01589996       2.37244456
V        2.04326254       0.00000000      12.04326254      -0.03860331       0.00999234      -0.59810493
V        0.00000000       2.04326254      12.04326254       0.05611844      -0.03721389      -0.54175740
V        2.04326254       2.04326254      10.00000000      -0.02507803      -0.01774935       2.38215279
V        0.06592699       0.02273609      14.17364490      -0.00644421       0.00927166      -0.01693586
V        1.99826848       0.03972641      16.01629104       0.01322935       0.00958816      -0.00871938
V        0.02750262       2.01373773      16.00825705      -0.00122796       0.01037286      -0.00284235
V        1.99449440       2.02991224      14.17142691       0.00333009      -0.01151109      -0.00572739
V        0.00000000       4.08652507      10.00000000       0.01719811      -0.01672940       2.42797319
V        2.04326254       4.08652507      12.04326254      -0.03050023       0.07240689      -0.56751009
V        0.00000000       6.12978761      12.04326254       0.05985682      -0.03382106      -0.52651308
V        2.04326254       6.12978761      10.00000000      -0.00942052      -0.02895268       2.43153494
V        0.06811433       4.11521291      14.16076801      -0.00177278       0.01552201      -0.00703222
V        1.93275334       4.02373129      16.00678198      -0.00091557      -0.01621595      -0.00672061
V        0.01440226       6.13361967      16.01258165      -0.01231018      -0.00123439       0.00435339
V        2.03750592       6.08311247      14.18624587       0.01411330      -0.00648355      -0.01324555
V        0.00000000       8.17305015      10.00000000      -0.00419450       0.02528654       2.43612667
V        2.04326254       8.17305015      12.04326254      -0.08938620       0.05829848      -0.38982063
V        0.00000000      10.21631269      12.04326254       0.07248943      -0.04533138      -0.59483989
V        2.04326254      10.21631269      10.00000000      -0.02257917       0.01142290       2.43969896
V        0.06310800       8.21877743      14.15101991       0.00865922       0.01350138      -0.00896775
V        2.02433920       8.18561827      16.01534837       0.00070217      -0.00073945       0.00940612
V       -0.01036155      10.24232479      16.01577315      -0.02287742      -0.01123546      -0.00491518
V        1.98025170      10.17795219      14.15158320      -0.00632080      -0.02867911      -0.00582406
V        4.08652507       0.00000000      10.00000000       0.00723431      -0.00363940       2.40919900
V        6.12978761       0.00000000      12.04326254      -0.09687660       0.03405040      -0.57700440
V        4.08652507       2.04326254      12.04326254       0.05649254       0.03155746      -0.48520393
V        6.12978761       2.04326254      10.00000000      -0.03480888      -0.03024749       2.38921715
V        4.15442498       0.04610963      14.16652893      -0.00746083       0.02473144      -0.01728527
V        6.13689832       0.01452169      16.00973214      -0.00269092       0.01771799       0.00326813
V        4.10284925       1.94120034      16.00117270      -0.00973317      -0.00311438      -0.00256236
V        6.05638909       1.99434917      14.16213628       0.01005456      -0.01592721      -0.00218569
V        4.08652507       4.08652507      10.00000000       0.02105476       0.01470620       2.44764804
V        6.12978761       4.08652507      12.04326254      -0.13087121       0.11192912      -0.48703302
V        4.08652507       6.12978761      12.04326254       0.12654944      -0.09854421      -0.31597392
V        6.12978761       6.12978761      10.00000000      -0.02486694      -0.01202916       2.45463219
V        4.16063769       4.18212501      14.23035200      -0.01618432       0.02329779       0.01351192
V        6.22337927       3.98679831      16.01279396      -0.01086960       0.00440096       0.01610796
V        3.91261479       6.28536039      16.27333665       0.00633597       0.00637196      -0.02346954
V        6.01978683       6.07721848      14.23643239      -0.00059135      -0.01657205      -0.00922229
V        4.08652507       8.17305015      10.00000000       0.03598876       0.01054461       2.43080115
V        6.12978761       8.17305015      12.04326254      -0.09471327       0.00288735      -0.53368851
V        4.08652507      10.21631269      12.04326254       0.04766748      -0.04921734      -0.55374363
V        6.12978761      10.21631269      10.00000000      -0.00108295      -0.00835069       2.41611912
V        4.15179217       8.15813087      14.18197530      -0.00304959      -0.03953303       0.01196180
V        6.18980126       8.28848782      16.00326687      -0.00732404      -0.01097064       0.01169183
V        4.09798248      10.20347652      16.01163600      -0.00092045       0.00347356       0.01753338
V        6.07222380      10.17861134      14.16101245      -0.00358180      -0.00473751       0.00217233
V        8.17305015       0.00000000      10.00000000       0.02675310       0.00526973       2.43915800
V       10.21631269       0.00000000      12.04326254      -0.08102446       0.05374480      -0.56901290
V        8.17305015       2.04326254      12.04326254       0.10591634      -0.07839088      -0.41895252
V       10.21631269       2.04326254      10.00000000      -0.01410122      -0.01569658       2.43182625
V        8.25207563       0.05826066      14.14333282      -0.00677306       0.00463313      -0.00821133
V       10.24880777      -0.02007906      16.01400736      -0.00562326      -0.00243586      -0.00852552
V        8.14234818       2.07180464      16.00677960       0.01403540       0.00767397      -0.00271406
V       10.14096376       1.98960562      14.14506294      -0.00515635      -0.01898760      -0.01072639
V        8.17305015       4.08652507      10.00000000       0.03757410       0.03006854       2.38670853
V       10.21631269       4.08652507      12.04326254      -0.04852237       0.07301444      -0.56337293
V        8.17305015       6.12978761      12.04326254      -0.02372254      -0.05097109      -0.51192644
V       10.21631269       6.12978761      10.00000000      -0.00456859      -0.00155732       2.40716551
V        8.23994469       4.14286267      14.16355691      -0.02000730       0.00939481      -0.00143210
V       10.19146768       4.07394041      16.01088471       0.01279124       0.01903105       0.00062838
V        8.27970538       6.12796942      16.00471195      -0.00871090      -0.01157922      -0.01157948
V       10.14590617       6.08949887      14.16710477      -0.00719318      -0.01928276       0.00869110
V        8.17305015       8.17305015      10.00000000       0.03447129       0.01509263       2.37971281
V       10.21631269       8.17305015      12.04326254      -0.02748458       0.02601879      -0.61228585
V        8.17305015      10.21631269      12.04326254       0.07122007      -0.03224498      -0.52660229
V       10.21631269      10.21631269      10.00000000      -0.02682895      -0.02338624       2.37921968
V        8.22293998       8.19207653      14.17128298      -0.00997254       0.01907039      -0.01197723
V       10.17540842       8.20826714      16.01403133       0.00666044       0.00226900       0.00103873
V        8.18409468      10.18157085      16.00590340       0.02149108      -0.01036977      -0.00194633
V       10.16739932      10.17146234      14.16633428      -0.00119222       0.00824964      -0.00617605
N        0.00000000       2.04326254      10.00000000      -0.00129661       0.00227311      -1.37923101
N        2.04326254       0.00000000      10.00000000       0.00684402       0.00782721      -1.37861137
N        0.00000000       0.00000000      12.04326254       0.01877677       0.00283361      -0.42186584
N        2.04326254       2.04326254      12.04326254      -0.02080717      -0.02971090      -0.42465085
N       -0.04595736       2.05704651      14.10713959       0.01364382       0.02030837       0.00258190
N        2.09133165      -0.01503369      14.11215361       0.01929124      -0.01059397       0.00159588
N       -0.00095643       0.00096416      16.31378629       0.01254827      -0.00081375      -0.00524505
N        2.06705012       2.04588329      16.32748488       0.00083638      -0.01103723      -0.01453445
N        0.00000000       6.12978761      10.00000000       0.00417676       0.00503062      -1.37689105
N        2.04326254       4.08652507      10.00000000       0.02485614      -0.00272665      -1.37907289
N        0.00000000       4.08652507      12.04326254      -0.00353835       0.00541809      -0.47784081
N        2.04326254       6.12978761      12.04326254      -0.02263625      -0.00455471      -0.55756403
N       -0.03159668       6.15246740      14.11220226       0.01077292       0.01589944      -0.00181340
N        2.10381920       4.06086916      14.10611247      -0.02686597      -0.02682303      -0.01011652
N       -0.03881816       4.06497270      16.27936284      -0.00666867      -0.00879009       0.00205611
N        1.97788377       6.10592268      16.26230637       0.02877913       0.03054676       0.02881692
N        0.00000000      10.21631269      10.00000000      -0.01581357       0.01237009      -1.36075172
N        2.04326254       8.17305015      10.00000000       0.02302243      -0.01944937      -1.36673699
N        0.00000000       8.17305015      12.04326254       0.00324448       0.00775753      -0.58044325
N        2.04326254      10.21631269      12.04326254      -0.00557827       0.00799202      -0.58519362
N       -0.04273218      10.24432900      14.10924878      -0.01497976       0.00466270      -0.00646555
N        2.09064655       8.14415396      14.11155493      -0.02274681       0.00447552      -0.01118558
N       -0.01446582       8.19256452      16.25117084       0.02448359      -0.00204480      -0.02102854
N        2.03486268      10.22859347      16.24966856      -0.00779738      -0.01928764      -0.01545773
N        4.08652507       2.04326254      10.00000000      -0.01262952       0.01693251      -1.37573097
N        6.12978761       0.00000000      10.00000000       0.01368007      -0.00529853      -1.38667024
N        4.08652507       0.00000000      12.04326254       0.00241195      -0.02272392      -0.47255565
N        6.12978761       2.04326254      12.04326254      -0.01636507      -0.04405045      -0.43033891
N        4.04255245       2.08709413      14.10196669       0.00067569       0.01339905       0.00314780
N        6.18607077      -0.03421368      14.10585442      -0.01263337       0.00509207       0.00789200
N        4.07292824      -0.03776950      16.28163357      -0.00845687      -0.01706827       0.01403565
N        6.12171025       2.01305983      16.32079349      -0.00850007       0.00113000      -0.00580169
N        4.08652507       6.12978761      10.00000000      -0.01880479       0.01591821      -1.45729742
N        6.12978761       4.08652507      10.00000000      -0.00398058       0.00748602      -1.39046287
N        4.08652507       4.08652507      12.04326254       0.00570888       0.03987241      -0.52150097
N        6.12978761       6.12978761      12.04326254      -0.04489943      -0.00058698      -0.51550593
N        4.04306367       6.16032749      14.15463132      -0.01059500       0.00177226       0.02198036
N        6.18016661       4.05237755      14.11412261       0.00124107      -0.03194261      -0.01202813
N        4.09754598       4.05826494      16.22754709       0.01288971       0.01716237      -0.02947873
N        6.15134906       6.12077243      16.22308232       0.00826533       0.00665864      -0.00106572
N        4.08652507      10.21631269      10.00000000      -0.00823190      -0.00529596      -1.37724740
N        6.12978761       8.17305015      10.00000000       0.00676406      -0.01999675      -1.38581201
N        4.08652507       8.17305015      12.04326254       0.00719523       0.01757298      -0.56970967
N        6.12978761      10.21631269      12.04326254      -0.01135142       0.01337899      -0.45729435
N        4.04645065      10.23348451      14.11011674      -0.00024683       0.00299842       0.01276450
N        6.17493044       8.13417167      14.10575642       0.02080691       0.02496567      -0.00460845
N        4.10605388       8.22724666      16.25995972       0.01556109      -0.00226694      -0.00530959
N        6.14927445      10.25813092      16.29001267      -0.00178717      -0.00546848       0.00879343
N        8.17305015       2.04326254      10.00000000      -0.01455733       0.01545979      -1.36557357
N       10.21631269       0.00000000      10.00000000       0.01930821      -0.01524664      -1.35734347
N        8.17305015       0.00000000      12.04326254       0.03319474       0.00976685      -0.64725234
N       10.21631269       2.04326254      12.04326254      -0.01628151      -0.02170011      -0.63074097
N        8.11660294       2.08667718      14.10694213      -0.01838159       0.01579223       0.00141076
N       10.27280525      -0.03656937      14.11089757      -0.00512318      -0.01555106      -0.01461132
N        8.19574984       0.00198222      16.23428216      -0.00834117       0.01341962      -0.01148897
N       10.20957329       2.02762490      16.24063116       0.00582072       0.00142182       0.00538106
N        8.17305015       6.12978761      10.00000000      -0.01838210       0.00883482      -1.37246027
N       10.21631269       4.08652507      10.00000000       0.00663319      -0.01037286      -1.38543380
N        8.17305015       4.08652507      12.04326254       0.05099680       0.01144398      -0.44107326
N       10.21631269       6.12978761      12.04326254       0.01695360      -0.00273668      -0.45602423
N        8.10987348       6.15703642      14.10288830       0.01975533       0.01484169       0.00022497
N       10.26710450       4.05251654      14.10784592      -0.00293954      -0.00158560       0.01094647
N        8.19325991       4.10134073      16.32049535       0.02308311      -0.00013755      -0.00896801
N       10.25869554       6.14208340      16.28685813      -0.00956399      -0.01806509      -0.00598604
N        8.17305015      10.21631269      10.00000000      -0.00882171      -0.00574153      -1.38172575
N       10.21631269       8.17305015      10.00000000      -0.00272023      -0.00264926      -1.37810127
N        8.17305015       8.17305015      12.04326254       0.04092502       0.01299513      -0.41993057
N       10.21631269      10.21631269      12.04326254      -0.01050039      -0.00643290      -0.48458635
N        8.13809105      10.24370742      14.10651664      -0.00149870      -0.00707465       0.00330850
N       10.25589880       8.14070254      14.10905367       0.00261301      -0.01248939       0.01773855
N        8.17079359       8.14834248      16.32906789      -0.00614031       0.01084800      -0.00111663
N       10.21301953      10.21899520      16.29338539      -0.01507901      -0.02391640       0.01272645
S        3.93640388       6.24911689      18.66057267       0.01335560       0.00585312      -0.01854794
Li       6.08879246       6.23876981      18.14719866       0.00811132      -0.00382606      -0.00062966
Li       2.06705012       2.04588329      18.52748488       0.00602461       0.00856434       0.00989978
