147
Lattice="13.691787681916065 0.0 0.0 0.0 13.691787681916065 0.0 0.0 0.0 26.84589886156329" Properties=species:S:1:pos:R:3:forces:R:3 energy=-117847.8613636207 free_energy=-117847.8613636207 pbc="T T T"
Zr       0.00000000       0.00000000      10.00000000      -0.00465035      -0.00416287       1.55117353
Zr       2.28196466       0.00000000      12.28196466       0.02161192       0.00328973       0.24787209
Zr       0.00000000       2.28196466      12.28196466       0.04336705       0.02107302       0.23573211
Zr       2.28196466       2.28196466      10.00000000      -0.00689056       0.01215669       1.56651633
Zr       0.00429443      -0.00244469      14.55963939      -0.00278322       0.00240810      -0.00571685
Zr       2.28449435      -0.00198833      16.75170649      -0.00809126       0.00222298      -0.00041960
Zr       0.00768441       2.27725977      16.75063347       0.00090940      -0.00359003      -0.00407983
Zr       2.28868321       2.27977001      14.55786063      -0.00106367      -0.00147530       0.00437062
Zr       0.00000000       4.56392932      10.00000000      -0.01591384      -0.00573202       1.55442829
Zr       2.28196466       4.56392932      12.28196466       0.06479720      -0.00786166       0.30661588
Zr       0.00000000       6.84589398      12.28196466      -0.02849065      -0.00462799       0.24769005
Zr       2.28196466       6.84589398      10.00000000       0.04434407      -0.00491415       1.62812639
Zr       0.00448710       4.56302472      14.55671131      -0.00670621       0.00184220       0.00018409
Zr       2.25879320       4.56346563      16.75382238      -0.00449172       0.00617065       0.00553764
Zr      -0.00307915       6.84812525      16.74834465       0.00257522       0.00337766       0.00003342
Zr       2.30960507       6.84598300      14.55157651      -0.00876695       0.00249166       0.01467791
Zr       0.00000000       9.12785864      10.00000000      -0.00444364       0.02047781       1.56901159
Zr       2.28196466       9.12785864      12.28196466       0.01944242      -0.01047905       0.29826134
Zr       0.00000000      11.40982330      12.28196466       0.02183766      -0.01467277       0.23324405
Zr       2.28196466      11.40982330      10.00000000      -0.02004123       0.00317068       1.56935715
Zr       0.00166975       9.12866329      14.55712473      -0.00332238      -0.00162082       0.00040598
Zr       2.27989980       9.13591148      16.75872061       0.00398701      -0.00988152       0.00473289
Zr       0.00666255      11.40797916      16.75352038       0.00156015      -0.00207359      -0.00573382
Zr       2.28393052      11.41183780      14.55697492       0.00190750       0.00288863       0.00026919
Zr       4.56392932       0.00000000      10.00000000      -0.00275211      -0.01745136       1.55646846
Zr       6.84589398       0.00000000      12.28196466       0.00576956       0.00311798       0.24326904
Zr       4.56392932       2.28196466      12.28196466       0.00770534       0.02385572       0.21490206
Zr       6.84589398       2.28196466      10.00000000      -0.00467761       0.00620716       1.53840081
Zr       4.56689229       0.00210181      14.55439229       0.00114003       0.00034376       0.00465987
Zr       6.85865485      -0.00258066      16.75038240       0.00230859      -0.00104130       0.00000643
Zr       4.57060088       2.24187069      16.76605481      -0.00354555       0.00289018       0.00374687
Zr       6.84826759       2.28172090      14.55653994      -0.00129481       0.00314112      -0.00143493
Zr       4.56392932       4.56392932      10.00000000       0.01334788       0.04972488       1.51064626
Zr       6.84589398       4.56392932      12.28196466      -0.03667242       0.04317294       0.30680151
Zr       4.56392932       6.84589398      12.28196466       0.04389773      -0.03691487       0.04806215
Zr       6.84589398       6.84589398      10.00000000      -0.05068159      -0.01434393       1.51716761
Zr       4.57128173       4.58329501      14.59581018      -0.00049237      -0.00624290       0.01192041
Zr       6.89302162       4.52221500      16.76779046      -0.00786835       0.00741789       0.02073878
Zr       4.53633043       6.88123183      16.98834969       0.01137507      -0.01015046       0.00188565
Zr       6.83098615       6.84216948      14.59168227       0.00077776       0.00021134       0.03582010
Zr       4.56392932       9.12785864      10.00000000       0.00395256      -0.04408285       1.62787571
Zr       6.84589398       9.12785864      12.28196466       0.01767299      -0.05192497       0.30443918
Zr       4.56392932      11.40982330      12.28196466       0.01159362       0.04093968       0.24326364
Zr       6.84589398      11.40982330      10.00000000       0.00422149       0.01461826       1.55509190
Zr       4.56702708       9.10433282      14.55120521      -0.00222838       0.00601047       0.01280307
Zr       6.85243101       9.15943037      16.75219930      -0.01283032      -0.00787915       0.00450946
Zr       4.56619580      11.41955452      16.74839262      -0.00273180      -0.01026127      -0.00349104
Zr       6.84993365      11.40994035      14.55659333      -0.00266186       0.00087212       0.00021932
Zr       9.12785864       0.00000000      10.00000000      -0.00462233       0.00169976       1.56223853
Zr      11.40982330       0.00000000      12.28196466       0.00824013      -0.00060807       0.25859230
Zr       9.12785864       2.28196466      12.28196466      -0.01102746       0.01776889       0.21598629
Zr      11.40982330       2.28196466      10.00000000      -0.00302773       0.00521960       1.56208658
Zr       9.13312777      -0.00344557      14.55757419       0.00098679      -0.00098730      -0.00841008
Zr      11.41742611      -0.00263615      16.75250771      -0.00448298       0.00342831      -0.00638662
Zr       9.14288596       2.27184114      16.74911145      -0.00177869       0.00272948      -0.00094565
Zr      11.41664508       2.27931805      14.55740862      -0.00078959      -0.00044737      -0.00751713
Zr       9.12785864       4.56392932      10.00000000      -0.00615548       0.00391708       1.53693399
Zr      11.40982330       4.56392932      12.28196466       0.00783107       0.00028256       0.24084038
Zr       9.12785864       6.84589398      12.28196466      -0.01117144       0.00030005       0.20776262
Zr      11.40982330       6.84589398      10.00000000       0.01454730       0.00154061       1.55619053
Zr       9.13197700       4.56420119      14.55641075      -0.00415876       0.00106958      -0.00221269
Zr      11.41853385       4.55500122      16.74998188      -0.00483933      -0.00092200       0.00171955
Zr       9.17691189       6.84390078      16.76443685      -0.01733901       0.00405951       0.00705408
Zr      11.41204621       6.84545163      14.55426735      -0.00005476      -0.00011467       0.00341083
Zr       9.12785864       9.12785864      10.00000000      -0.01234284       0.00681342       1.56530072
Zr      11.40982330       9.12785864      12.28196466       0.00635525      -0.01451465       0.24668244
Zr       9.12785864      11.40982330      12.28196466      -0.01192066      -0.03298648       0.23414754
Zr      11.40982330      11.40982330      10.00000000       0.00287681       0.00369030       1.55096682
Zr       9.13438473       9.12495336      14.55804370      -0.00411479       0.00011287       0.00132335
Zr      11.41762856       9.13017947      16.75176434      -0.00619687       0.00475628      -0.00047103
Zr       9.13793420      11.40788270      16.75063495      -0.00130843      -0.00714510      -0.00404872
Zr      11.41543197      11.40869546      14.55964697      -0.00337277       0.00102407      -0.00605855
N        0.00000000       2.28196466      10.00000000      -0.01476096      -0.00072094      -0.91822167
N        2.28196466       0.00000000      10.00000000      -0.00171004      -0.01105600      -0.87466796
N        0.00000000       0.00000000      12.28196466       0.01215772      -0.00106984      -0.91602081
N        2.28196466       2.28196466      12.28196466       0.01058035       0.01159490      -0.90042347
N        0.00468934       2.28090842      14.58441434      -0.00594748      -0.00154189       0.00050882
N        2.28620657      -0.00156507      14.58351692      -0.00014192       0.00261250       0.00186199
N        0.00601569      -0.00271152      16.90995387      -0.01114239       0.00071348       0.00111689
N        2.28321570       2.27466999      16.90618283      -0.00544662      -0.00031959       0.00385563
N        0.00000000       6.84589398      10.00000000      -0.00747805      -0.00629020      -0.92373309
N        2.28196466       4.56392932      10.00000000       0.01122955      -0.01085160      -0.86210940
N        0.00000000       4.56392932      12.28196466       0.01388807      -0.00525302      -0.93513105
N        2.28196466       6.84589398      12.28196466       0.02276815      -0.01523687      -0.96665868
N        0.01404091       6.84593289      14.58986103      -0.00328818       0.00335529       0.00758141
N        2.28816980       4.56514006      14.59210947      -0.01198803      -0.00422792       0.00340234
N        0.00806552       4.56268685      16.90638182      -0.00692501       0.00016172       0.00487044
N        2.26377523       6.85070356      16.84984602       0.00179669      -0.00316400      -0.02304840
N        0.00000000      11.40982330      10.00000000       0.00187022      -0.00221141      -0.91167564
N        2.28196466       9.12785864      10.00000000      -0.01011061       0.00929634      -0.91025588
N        0.00000000       9.12785864      12.28196466       0.00298145       0.00228031      -0.94561909
N        2.28196466      11.40982330      12.28196466       0.00117885       0.00044120      -0.94588237
N        0.00463254      11.40823404      14.58704757      -0.00414308       0.00259990       0.00184631
N        2.28614750       9.12758906      14.59545101      -0.00930816       0.00411762       0.01545979
N        0.00607195       9.12707775      16.90759808       0.00090040       0.00351367       0.00051859
N        2.28772630      11.40982210      16.90757075      -0.00390088      -0.00269889       0.00154086
N        4.56392932       2.28196466      10.00000000       0.00476554       0.02121057      -0.87911391
N        6.84589398       0.00000000      10.00000000      -0.00081504      -0.01349161      -0.88581549
N        4.56392932       0.00000000      12.28196466       0.00530239       0.00325142      -0.93256303
N        6.84589398       2.28196466      12.28196466       0.00454931       0.01590407      -0.89223270
N        4.56841504       2.29194752      14.60131091      -0.00164422      -0.00076927       0.00031959
N        6.84988786      -0.00179751      14.58265689       0.00403278       0.00060292       0.00108835
N        4.57032120      -0.00270516      16.91297792       0.00131898      -0.00165502       0.00571042
N        6.86498196       2.26722890      16.89833295      -0.00155886       0.00070140       0.00367102
N        4.56392932       6.84589398      10.00000000       0.00176249      -0.00401992      -0.98892804
N        6.84589398       4.56392932      10.00000000      -0.01938329       0.01811496      -0.82210304
N        4.56392932       4.56392932      12.28196466       0.01600332       0.00904591      -0.77179143
N        6.84589398       6.84589398      12.28196466      -0.00512627      -0.01214306      -0.78879620
N        4.56769706       6.84700027      14.61839133      -0.00378389      -0.00161157      -0.00393893
N        6.85028324       4.56407258      14.59453246       0.00130483      -0.00868107      -0.00143493
N        4.56143438       4.55203215      16.92493921      -0.00266392       0.00302619      -0.00969306
N        6.86432387       6.85572902      16.91061020       0.00307427      -0.00097445       0.01553718
N        4.56392932      11.40982330      10.00000000       0.00542528       0.00633494      -0.92351429
N        6.84589398       9.12785864      10.00000000       0.01100021      -0.01027850      -0.86578582
N        4.56392932       9.12785864      12.28196466       0.01901691      -0.01739197      -0.97261593
N        6.84589398      11.40982330      12.28196466       0.00830955      -0.00890630      -0.93641685
N        4.56671281      11.40005550      14.58981546      -0.00247623       0.00185479       0.00857746
N        6.84859786       9.12533194      14.59111549       0.00169719       0.01202531       0.00645630
N        4.56540296       9.15431714      16.84735154       0.00035147      -0.00774313      -0.02422982
N        6.85211789      11.40931111      16.90725913      -0.00203066      -0.00187562       0.00102278
N        9.12785864       2.28196466      10.00000000       0.01544410      -0.01535231      -0.91731921
N       11.40982330       0.00000000      10.00000000       0.00205328      -0.00279505      -0.91182888
N        9.12785864       0.00000000      12.28196466      -0.00069883      -0.00025917      -0.92546730
N       11.40982330       2.28196466      12.28196466       0.00401221       0.00384611      -0.92675979
N        9.13424532       2.27857241      14.58141244       0.00071400      -0.00137863       0.00303442
N       11.41419848      -0.00145238      14.58656580      -0.00080167      -0.00006659      -0.00738549
N        9.13853838      -0.00574108      16.90778089       0.00575953       0.00196201       0.00341674
N       11.42126699       2.27610562      16.90791892      -0.00553687      -0.00701166       0.00371987
N        9.12785864       6.84589398      10.00000000      -0.02065547      -0.00572456      -0.88093579
N       11.40982330       4.56392932      10.00000000       0.01286657       0.00000591      -0.88570622
N        9.12785864       4.56392932      12.28196466      -0.01164247      -0.00186816      -0.89571346
N       11.40982330       6.84589398      12.28196466       0.00185916      -0.00210213      -0.93260185
N        9.12181739       6.84465883      14.60049661      -0.00049262       0.00100016      -0.00167507
N       11.41579894       4.56231166      14.58231788      -0.00070500      -0.00234330       0.00249551
N        9.14848681       4.54992512      16.89770147       0.00057927       0.00170876       0.00291332
N       11.42021129       6.84367234      16.91339346      -0.00608220       0.00106675       0.00259373
N        9.12785864      11.40982330      10.00000000      -0.00023808       0.01319516      -0.91875620
N       11.40982330       9.12785864      10.00000000       0.01074181       0.00128169      -0.87407712
N        9.12785864       9.12785864      12.28196466      -0.00623621      -0.00606883      -0.90242918
N       11.40982330      11.40982330      12.28196466       0.00451151      -0.00926574      -0.91488849
N        9.13210957      11.40897001      14.58413652       0.00088986       0.00257085       0.00184400
N       11.41533022       9.12649239      14.58327312      -0.00252688      -0.00006016       0.00310872
N        9.14156040       9.13196957      16.90657284      -0.00500080       0.00257213      -0.00022111
N       11.41796909      11.40894635      16.90997532      -0.00408831       0.00841034       0.00096339
S        4.63226843       6.81687849      19.52681363      -0.02959494       0.00153572       0.00763206
Li       6.77334734       6.79587332      18.88685813      -0.02161578       0.00393867       0.01819441
Li       2.28321570       2.27466999      19.10618283      -0.01315042       0.01923057      -0.00192678
