8
Lattice="4.391930199 0.0 0.0 0.0 4.391930199 0.0 0.0 0.0 4.391930199" Properties=species:S:1:pos:R:3:forces:R:3 energy=-7525.596198206431 free_energy=-7525.596198206431 stress="-1.0099733767193969e-05 -0.0 -0.0 -0.0 -1.0099733767193969e-05 -0.0 -0.0 -0.0 -1.0099733767193969e-05" pbc="T T T"
Nb       0.00000000       0.00000000       0.00000000       0.00000000       0.00000000       0.00000000
Nb       2.19596509       2.19596509       0.00000000       0.00000000       0.00000000       0.00000000
Nb       2.19596509       0.00000000       2.19596509       0.00000000       0.00000000       0.00000000
Nb       0.00000000       2.19596509       2.19596509       0.00000000       0.00000000       0.00000000
N        0.00000000       0.00000000       2.19596509       0.00000000       0.00000000       0.00000000
N        0.00000000       2.19596509       0.00000000       0.00000000       0.00000000       0.00000000
N        2.19596509       0.00000000       0.00000000       0.00000000       0.00000000       0.00000000
N        2.19596509       2.19596509       2.19596509       0.00000000       0.00000000       0.00000000
