8
Lattice="4.476432177 0.0 0.0 0.0 4.476432177 0.0 0.0 0.0 4.476432177" Properties=species:S:1:pos:R:3:forces:R:3 energy=-6247.558054757709 free_energy=-6247.558054757709 stress="-0.0013891724717967704 -0.0 -0.0 -0.0 -0.0013891724717967704 -0.0 -0.0 -0.0 -0.0013891724717967704" pbc="T T T"
Sc       0.00000000       0.00000000       0.00000000       0.00000000       0.00000000       0.00000000
Sc       2.23821609       2.23821609       0.00000000       0.00000000       0.00000000       0.00000000
Sc       2.23821609       0.00000000       2.23821609       0.00000000       0.00000000       0.00000000
Sc       0.00000000       2.23821609       2.23821609       0.00000000       0.00000000       0.00000000
N        0.00000000       0.00000000       2.23821609       0.00000000       0.00000000       0.00000000
N        0.00000000       2.23821609       0.00000000       0.00000000       0.00000000       0.00000000
N        2.23821609       0.00000000       0.00000000       0.00000000       0.00000000       0.00000000
N        2.23821609       2.23821609       2.23821609       0.00000000       0.00000000       0.00000000
