192
Lattice="16.855665888 0.0 0.0 0.0 16.855665888 0.0 0.0 0.0 26.320874702" Properties=species:S:1:pos:R:3:tags:I:1 pbc="T T F"
Ti       0.00000000       0.00000000      10.00000000        2
Ti       2.10695823       0.00000000      12.10695823        2
Ti       0.00000000       2.10695823      12.10695823        2
Ti       2.10695823       2.10695823      10.00000000        2
Ti       0.00000000       0.00000000      14.21391647        1
Ti       2.10695823       2.10695823      14.21391647        1
Ti       0.00000000       4.21391647      10.00000000        2
Ti       2.10695823       4.21391647      12.10695823        2
Ti       0.00000000       6.32087470      12.10695823        2
Ti       2.10695823       6.32087470      10.00000000        2
Ti       0.00000000       4.21391647      14.21391647        1
Ti       2.10695823       6.32087470      14.21391647        1
Ti       0.00000000       8.42783294      10.00000000        2
Ti       2.10695823       8.42783294      12.10695823        2
Ti       0.00000000      10.53479117      12.10695823        2
Ti       2.10695823      10.53479117      10.00000000        2
Ti       0.00000000       8.42783294      14.21391647        1
Ti       2.10695823      10.53479117      14.21391647        1
Ti       0.00000000      12.64174942      10.00000000        2
Ti       2.10695823      12.64174942      12.10695823        2
Ti       0.00000000      14.74870765      12.10695823        2
Ti       2.10695823      14.74870765      10.00000000        2
Ti       0.00000000      12.64174942      14.21391647        1
Ti       2.10695823      14.74870765      14.21391647        1
Ti       4.21391647       0.00000000      10.00000000        2
Ti       6.32087470       0.00000000      12.10695823        2
Ti       4.21391647       2.10695823      12.10695823        2
Ti       6.32087470       2.10695823      10.00000000        2
Ti       4.21391647       0.00000000      14.21391647        1
Ti       6.32087470       2.10695823      14.21391647        1
Ti       4.21391647       4.21391647      10.00000000        2
Ti       6.32087470       4.21391647      12.10695823        2
Ti       4.21391647       6.32087470      12.10695823        2
Ti       6.32087470       6.32087470      10.00000000        2
Ti       4.21391647       4.21391647      14.21391647        1
Ti       6.32087470       6.32087470      14.21391647        1
Ti       4.21391647       8.42783294      10.00000000        2
Ti       6.32087470       8.42783294      12.10695823        2
Ti       4.21391647      10.53479117      12.10695823        2
Ti       6.32087470      10.53479117      10.00000000        2
Ti       4.21391647       8.42783294      14.21391647        1
Ti       6.32087470      10.53479117      14.21391647        1
Ti       4.21391647      12.64174942      10.00000000        2
Ti       6.32087470      12.64174942      12.10695823        2
Ti       4.21391647      14.74870765      12.10695823        2
Ti       6.32087470      14.74870765      10.00000000        2
Ti       4.21391647      12.64174942      14.21391647        1
Ti       6.32087470      14.74870765      14.21391647        1
Ti       8.42783294       0.00000000      10.00000000        2
Ti      10.53479117       0.00000000      12.10695823        2
Ti       8.42783294       2.10695823      12.10695823        2
Ti      10.53479117       2.10695823      10.00000000        2
Ti       8.42783294       0.00000000      14.21391647        1
Ti      10.53479117       2.10695823      14.21391647        1
Ti       8.42783294       4.21391647      10.00000000        2
Ti      10.53479117       4.21391647      12.10695823        2
Ti       8.42783294       6.32087470      12.10695823        2
Ti      10.53479117       6.32087470      10.00000000        2
Ti       8.42783294       4.21391647      14.21391647        1
Ti      10.53479117       6.32087470      14.21391647        1
Ti       8.42783294       8.42783294      10.00000000        2
Ti      10.53479117       8.42783294      12.10695823        2
Ti       8.42783294      10.53479117      12.10695823        2
Ti      10.53479117      10.53479117      10.00000000        2
Ti       8.42783294       8.42783294      14.21391647        1
Ti      10.53479117      10.53479117      14.21391647        1
Ti       8.42783294      12.64174942      10.00000000        2
Ti      10.53479117      12.64174942      12.10695823        2
Ti       8.42783294      14.74870765      12.10695823        2
Ti      10.53479117      14.74870765      10.00000000        2
Ti       8.42783294      12.64174942      14.21391647        1
Ti      10.53479117      14.74870765      14.21391647        1
Ti      12.64174942       0.00000000      10.00000000        2
Ti      14.74870765       0.00000000      12.10695823        2
Ti      12.64174942       2.10695823      12.10695823        2
Ti      14.74870765       2.10695823      10.00000000        2
Ti      12.64174942       0.00000000      14.21391647        1
Ti      14.74870765       2.10695823      14.21391647        1
Ti      12.64174942       4.21391647      10.00000000        2
Ti      14.74870765       4.21391647      12.10695823        2
Ti      12.64174942       6.32087470      12.10695823        2
Ti      14.74870765       6.32087470      10.00000000        2
Ti      12.64174942       4.21391647      14.21391647        1
Ti      14.74870765       6.32087470      14.21391647        1
Ti      12.64174942       8.42783294      10.00000000        2
Ti      14.74870765       8.42783294      12.10695823        2
Ti      12.64174942      10.53479117      12.10695823        2
Ti      14.74870765      10.53479117      10.00000000        2
Ti      12.64174942       8.42783294      14.21391647        1
Ti      14.74870765      10.53479117      14.21391647        1
Ti      12.64174942      12.64174942      10.00000000        2
Ti      14.74870765      12.64174942      12.10695823        2
Ti      12.64174942      14.74870765      12.10695823        2
Ti      14.74870765      14.74870765      10.00000000        2
Ti      12.64174942      12.64174942      14.21391647        1
Ti      14.74870765      14.74870765      14.21391647        1
N        0.00000000       2.10695823      10.00000000        2
N        2.10695823       0.00000000      10.00000000        2
N        0.00000000       0.00000000      12.10695823        2
N        2.10695823       2.10695823      12.10695823        2
N        0.00000000       2.10695823      14.21391647        1
N        2.10695823       0.00000000      14.21391647        1
N        0.00000000       6.32087470      10.00000000        2
N        2.10695823       4.21391647      10.00000000        2
N        0.00000000       4.21391647      12.10695823        2
N        2.10695823       6.32087470      12.10695823        2
N        0.00000000       6.32087470      14.21391647        1
N        2.10695823       4.21391647      14.21391647        1
N        0.00000000      10.53479117      10.00000000        2
N        2.10695823       8.42783294      10.00000000        2
N        0.00000000       8.42783294      12.10695823        2
N        2.10695823      10.53479117      12.10695823        2
N        0.00000000      10.53479117      14.21391647        1
N        2.10695823       8.42783294      14.21391647        1
N        0.00000000      14.74870765      10.00000000        2
N        2.10695823      12.64174942      10.00000000        2
N        0.00000000      12.64174942      12.10695823        2
N        2.10695823      14.74870765      12.10695823        2
N        0.00000000      14.74870765      14.21391647        1
N        2.10695823      12.64174942      14.21391647        1
N        4.21391647       2.10695823      10.00000000        2
N        6.32087470       0.00000000      10.00000000        2
N        4.21391647       0.00000000      12.10695823        2
N        6.32087470       2.10695823      12.10695823        2
N        4.21391647       2.10695823      14.21391647        1
N        6.32087470       0.00000000      14.21391647        1
N        4.21391647       6.32087470      10.00000000        2
N        6.32087470       4.21391647      10.00000000        2
N        4.21391647       4.21391647      12.10695823        2
N        6.32087470       6.32087470      12.10695823        2
N        4.21391647       6.32087470      14.21391647        1
N        6.32087470       4.21391647      14.21391647        1
N        4.21391647      10.53479117      10.00000000        2
N        6.32087470       8.42783294      10.00000000        2
N        4.21391647       8.42783294      12.10695823        2
N        6.32087470      10.53479117      12.10695823        2
N        4.21391647      10.53479117      14.21391647        1
N        6.32087470       8.42783294      14.21391647        1
N        4.21391647      14.74870765      10.00000000        2
N        6.32087470      12.64174942      10.00000000        2
N        4.21391647      12.64174942      12.10695823        2
N        6.32087470      14.74870765      12.10695823        2
N        4.21391647      14.74870765      14.21391647        1
N        6.32087470      12.64174942      14.21391647        1
N        8.42783294       2.10695823      10.00000000        2
N       10.53479117       0.00000000      10.00000000        2
N        8.42783294       0.00000000      12.10695823        2
N       10.53479117       2.10695823      12.10695823        2
N        8.42783294       2.10695823      14.21391647        1
N       10.53479117       0.00000000      14.21391647        1
N        8.42783294       6.32087470      10.00000000        2
N       10.53479117       4.21391647      10.00000000        2
N        8.42783294       4.21391647      12.10695823        2
N       10.53479117       6.32087470      12.10695823        2
N        8.42783294       6.32087470      14.21391647        1
N       10.53479117       4.21391647      14.21391647        1
N        8.42783294      10.53479117      10.00000000        2
N       10.53479117       8.42783294      10.00000000        2
N        8.42783294       8.42783294      12.10695823        2
N       10.53479117      10.53479117      12.10695823        2
N        8.42783294      10.53479117      14.21391647        1
N       10.53479117       8.42783294      14.21391647        1
N        8.42783294      14.74870765      10.00000000        2
N       10.53479117      12.64174942      10.00000000        2
N        8.42783294      12.64174942      12.10695823        2
N       10.53479117      14.74870765      12.10695823        2
N        8.42783294      14.74870765      14.21391647        1
N       10.53479117      12.64174942      14.21391647        1
N       12.64174942       2.10695823      10.00000000        2
N       14.74870765       0.00000000      10.00000000        2
N       12.64174942       0.00000000      12.10695823        2
N       14.74870765       2.10695823      12.10695823        2
N       12.64174942       2.10695823      14.21391647        1
N       14.74870765       0.00000000      14.21391647        1
N       12.64174942       6.32087470      10.00000000        2
N       14.74870765       4.21391647      10.00000000        2
N       12.64174942       4.21391647      12.10695823        2
N       14.74870765       6.32087470      12.10695823        2
N       12.64174942       6.32087470      14.21391647        1
N       14.74870765       4.21391647      14.21391647        1
N       12.64174942      10.53479117      10.00000000        2
N       14.74870765       8.42783294      10.00000000        2
N       12.64174942       8.42783294      12.10695823        2
N       14.74870765      10.53479117      12.10695823        2
N       12.64174942      10.53479117      14.21391647        1
N       14.74870765       8.42783294      14.21391647        1
N       12.64174942      14.74870765      10.00000000        2
N       14.74870765      12.64174942      10.00000000        2
N       12.64174942      12.64174942      12.10695823        2
N       14.74870765      14.74870765      12.10695823        2
N       12.64174942      14.74870765      14.21391647        1
N       14.74870765      12.64174942      14.21391647        1
