150
Lattice="13.175790690290984 0.0 0.0 0.0 13.175790690290984 0.0 0.0 0.0 26.587889186612337" Properties=species:S:1:pos:R:3 pbc="T T T"
Nb       0.00000000       0.00000000      10.00000000
Nb       2.19596509       0.00000000      12.19596509
Nb       0.00000000       2.19596509      12.19596509
Nb       2.19596509       2.19596509      10.00000000
Nb      -0.00000223       0.00000012      14.48413365
Nb       2.19597746       0.00000157      16.48462747
Nb      -0.00000012       2.19597641      16.48462754
Nb       2.19596636       2.19596389      14.48413794
Nb       0.00000000       4.39193020      10.00000000
Nb       2.19596509       4.39193020      12.19596509
Nb       0.00000000       6.58789529      12.19596509
Nb       2.19596509       6.58789529      10.00000000
Nb      -0.00000126       4.39193326      14.48414733
Nb       2.19597007       4.39193651      16.48463768
Nb       0.00000035       6.58789517      16.48464737
Nb       2.19596377       6.58789259      14.48414882
Nb       0.00000000       8.78386040      10.00000000
Nb       2.19596509       8.78386040      12.19596509
Nb       0.00000000      10.97982549      12.19596509
Nb       2.19596509      10.97982549      10.00000000
Nb      -0.00000119       8.78386440      14.48414667
Nb       2.19596938       8.78385186      16.48463838
Nb       0.00000035      10.97981578      16.48462449
Nb       2.19596558      10.97982207      14.48413983
Nb       4.39193020       0.00000000      10.00000000
Nb       6.58789529       0.00000000      12.19596509
Nb       4.39193020       2.19596509      12.19596509
Nb       6.58789529       2.19596509      10.00000000
Nb       4.39192640       0.00000004      14.48414576
Nb       6.58789495       0.00000163      16.48465001
Nb       4.39193863       2.19596756      16.48464071
Nb       6.58789763       2.19596233      14.48414793
Nb       4.39193020       4.39193020      10.00000000
Nb       6.58789529       4.39193020      12.19596509
Nb       4.39193020       6.58789529      12.19596509
Nb       6.58789529       6.58789529      10.00000000
Nb       4.39192956       4.39193522      14.48414114
Nb       6.58789514       4.39193091      16.48463493
Nb       4.39193287       6.58789633      16.48463519
Nb       6.58789680       6.58789248      14.48413493
Nb       4.39193020       8.78386040      10.00000000
Nb       6.58789529       8.78386040      12.19596509
Nb       4.39193020      10.97982549      12.19596509
Nb       6.58789529      10.97982549      10.00000000
Nb       4.39192957       8.78386194      14.48413979
Nb       6.58789495       8.78385725      16.48463453
Nb       4.39193858      10.97982240      16.48463780
Nb       6.58789675      10.97982433      14.48415007
Nb       8.78386040       0.00000000      10.00000000
Nb      10.97982549       0.00000000      12.19596509
Nb       8.78386040       2.19596509      12.19596509
Nb      10.97982549       2.19596509      10.00000000
Nb       8.78385920       0.00000001      14.48414620
Nb      10.97981276       0.00000101      16.48462736
Nb       8.78385222       2.19596750      16.48464089
Nb      10.97982892       2.19596412      14.48413798
Nb       8.78386040       4.39193020      10.00000000
Nb      10.97982549       4.39193020      12.19596509
Nb       8.78386040       6.58789529      12.19596509
Nb      10.97982549       6.58789529      10.00000000
Nb       8.78385797       4.39193537      14.48414147
Nb      10.97981993       4.39193569      16.48463761
Nb       8.78385769       6.58789661      16.48463539
Nb      10.97983008       6.58789258      14.48414884
Nb       8.78386040       8.78386040      10.00000000
Nb      10.97982549       8.78386040      12.19596509
Nb       8.78386040      10.97982549      12.19596509
Nb      10.97982549      10.97982549      10.00000000
Nb       8.78385750       8.78386166      14.48413980
Nb      10.97982102       8.78385158      16.48463833
Nb       8.78385235      10.97982267      16.48463772
Nb      10.97982802      10.97982227      14.48413980
N        0.00000000       2.19596509      10.00000000
N        2.19596509       0.00000000      10.00000000
N        0.00000000       0.00000000      12.19596509
N        2.19596509       2.19596509      12.19596509
N        0.00000225       2.19596805      14.41425175
N        2.19596290      -0.00000289      14.41425164
N       -0.00000007       0.00000047      16.80014486
N        2.19596765       2.19596739      16.80016779
N        0.00000000       6.58789529      10.00000000
N        2.19596509       4.39193020      10.00000000
N        0.00000000       4.39193020      12.19596509
N        2.19596509       6.58789529      12.19596509
N        0.00000125       6.58789816      14.41426363
N        2.19596804       4.39193162      14.41425551
N       -0.00000041       4.39193178      16.80019351
N        2.19596852       6.58789365      16.80020533
N        0.00000000      10.97982549      10.00000000
N        2.19596509       8.78386040      10.00000000
N        0.00000000       8.78386040      12.19596509
N        2.19596509      10.97982549      12.19596509
N        0.00000144      10.97982484      14.41424530
N        2.19596753       8.78385652      14.41425593
N       -0.00000032       8.78385903      16.80019258
N        2.19596764      10.97982377      16.80017080
N        4.39193020       2.19596509      10.00000000
N        6.58789529       0.00000000      10.00000000
N        4.39193020       0.00000000      12.19596509
N        6.58789529       2.19596509      12.19596509
N        4.39193340       2.19597198      14.41426206
N        6.58789309      -0.00000271      14.41426988
N        4.39193252      -0.00000059      16.80019079
N        6.58789551       2.19596827      16.80020400
N        4.39193020       6.58789529      10.00000000
N        6.58789529       4.39193020      10.00000000
N        4.39193020       4.39193020      12.19596509
N        6.58789529       6.58789529      12.19596509
N        4.39193379       6.58789786      14.41424971
N        6.58789383       4.39193287      14.41424949
N        4.39193230       4.39193248      16.80019604
N        6.58789535       6.58789355      16.80020278
N        4.39193020      10.97982549      10.00000000
N        6.58789529       8.78386040      10.00000000
N        4.39193020       8.78386040      12.19596509
N        6.58789529      10.97982549      12.19596509
N        4.39193248      10.97982087      14.41425570
N        6.58789369       8.78385521      14.41424978
N        4.39193236       8.78385995      16.80019560
N        6.58789557      10.97982280      16.80020660
N        8.78386040       2.19596509      10.00000000
N       10.97982549       0.00000000      10.00000000
N        8.78386040       0.00000000      12.19596509
N       10.97982549       2.19596509      12.19596509
N        8.78386148       2.19597231      14.41426203
N       10.97982331      -0.00000292      14.41425163
N        8.78385711      -0.00000071      16.80019082
N       10.97982352       2.19596742      16.80016767
N        8.78386040       6.58789529      10.00000000
N       10.97982549       4.39193020      10.00000000
N        8.78386040       4.39193020      12.19596509
N       10.97982549       6.58789529      12.19596509
N        8.78385950       6.58789800      14.41424986
N       10.97982005       4.39193176      14.41425540
N        8.78385761       4.39193236      16.80019528
N       10.97982209       6.58789388      16.80020588
N        8.78386040      10.97982549      10.00000000
N       10.97982549       8.78386040      10.00000000
N        8.78386040       8.78386040      12.19596509
N       10.97982549      10.97982549      12.19596509
N        8.78386085      10.97982108      14.41425566
N       10.97982038       8.78385642      14.41425583
N        8.78385806       8.78386023      16.80019563
N       10.97982348      10.97982392      16.80017085
S        4.24849408       6.68312219      20.24506026
S        6.69998294       3.86487961      19.95620076
S        6.51932074       4.79568199      21.82187408
S        4.51184588       5.46033915      21.92302200
Li       4.39193230       4.39193248      19.80020660
Li       6.54510793       6.19820656      19.90073109
