152
Lattice="13.429296207015998 0.0 0.0 0.0 13.429296207015998 0.0 0.0 0.0 26.714643787988994" Properties=species:S:1:pos:R:3 pbc="T T T"
Sc       0.00000000       0.00000000      10.00000000
Sc       2.23821609       0.00000000      12.23821609
Sc       0.00000000       2.23821609      12.23821609
Sc       2.23821609       2.23821609      10.00000000
Sc      -0.00000439       0.00003943      14.47852089
Sc       2.23821487      -0.00000248      16.66436385
Sc      -0.00001274       2.23821196      16.66446192
Sc       2.23819016       2.23821399      14.47853142
Sc       0.00000000       4.47643218      10.00000000
Sc       2.23821609       4.47643218      12.23821609
Sc       0.00000000       6.71464827      12.23821609
Sc       2.23821609       6.71464827      10.00000000
Sc       0.00000541       4.47639548      14.47848670
Sc       2.23822162       4.47643210      16.66434890
Sc      -0.00000786       6.71464424      16.66432354
Sc       2.23821906       6.71465255      14.47850929
Sc       0.00000000       8.95286435      10.00000000
Sc       2.23821609       8.95286435      12.23821609
Sc       0.00000000      11.19108044      12.23821609
Sc       2.23821609      11.19108044      10.00000000
Sc      -0.00000508       8.95286203      14.47850750
Sc       2.23820275       8.95286811      16.66439195
Sc      -0.00000769      11.19109236      16.66433834
Sc       2.23820671      11.19107785      14.47849716
Sc       4.47643218       0.00000000      10.00000000
Sc       6.71464827       0.00000000      12.23821609
Sc       4.47643218       2.23821609      12.23821609
Sc       6.71464827       2.23821609      10.00000000
Sc       4.47643489       0.00001422      14.47849076
Sc       6.71464857      -0.00000217      16.66438075
Sc       4.47643231       2.23821458      16.66437101
Sc       6.71467256       2.23820986      14.47853133
Sc       4.47643218       4.47643218      10.00000000
Sc       6.71464827       4.47643218      12.23821609
Sc       4.47643218       6.71464827      12.23821609
Sc       6.71464827       6.71464827      10.00000000
Sc       4.47643010       4.47642536      14.47850119
Sc       6.71464493       4.47643108      16.66432514
Sc       4.47643114       6.71464327      16.66441221
Sc       6.71464607       6.71465537      14.47850625
Sc       4.47643218       8.95286435      10.00000000
Sc       6.71464827       8.95286435      12.23821609
Sc       4.47643218      11.19108044      12.23821609
Sc       6.71464827      11.19108044      10.00000000
Sc       4.47643244       8.95285679      14.47851946
Sc       6.71466009       8.95286715      16.66439245
Sc       4.47643271      11.19108712      16.66436194
Sc       6.71465870      11.19108004      14.47849957
Sc       8.95286435       0.00000000      10.00000000
Sc      11.19108044       0.00000000      12.23821609
Sc       8.95286435       2.23821609      12.23821609
Sc      11.19108044       2.23821609      10.00000000
Sc       8.95286549       0.00003721      14.47852195
Sc      11.19108138      -0.00001327      16.66437699
Sc       8.95287768       2.23821089      16.66445748
Sc      11.19108056       2.23819821      14.47855845
Sc       8.95286435       4.47643218      10.00000000
Sc      11.19108044       4.47643218      12.23821609
Sc       8.95286435       6.71464827      12.23821609
Sc      11.19108044       6.71464827      10.00000000
Sc       8.95286226       4.47639650      14.47848475
Sc      11.19108184       4.47644277      16.66426603
Sc       8.95287176       6.71464256      16.66433759
Sc      11.19108086       6.71467157      14.47848281
Sc       8.95286435       8.95286435      10.00000000
Sc      11.19108044       8.95286435      12.23821609
Sc       8.95286435      11.19108044      12.23821609
Sc      11.19108044      11.19108044      10.00000000
Sc       8.95286920       8.95286305      14.47850755
Sc      11.19108064       8.95286864      16.66441020
Sc       8.95287301      11.19109130      16.66437018
Sc      11.19107969      11.19107537      14.47847969
N        0.00000000       2.23821609      10.00000000
N        2.23821609       0.00000000      10.00000000
N        0.00000000       0.00000000      12.23821609
N        2.23821609       2.23821609      12.23821609
N       -0.00001693       2.23817950      14.48718876
N        2.23820355       0.00001744      14.48713448
N       -0.00001049       0.00001320      16.67729247
N        2.23818953       2.23822370      16.67731552
N        0.00000000       6.71464827      10.00000000
N        2.23821609       4.47643218      10.00000000
N        0.00000000       4.47643218      12.23821609
N        2.23821609       6.71464827      12.23821609
N       -0.00000691       6.71468309      14.48711925
N        2.23823973       4.47642539      14.48711728
N       -0.00000668       4.47641504      16.67705593
N        2.23819905       6.71463168      16.67730009
N        0.00000000      11.19108044      10.00000000
N        2.23821609       8.95286435      10.00000000
N        0.00000000       8.95286435      12.23821609
N        2.23821609      11.19108044      12.23821609
N       -0.00000495      11.19108255      14.48712867
N        2.23820906       8.95285485      14.48715066
N       -0.00001209       8.95286598      16.67729151
N        2.23820917      11.19108885      16.67723314
N        4.47643218       2.23821609      10.00000000
N        6.71464827       0.00000000      10.00000000
N        4.47643218       0.00000000      12.23821609
N        6.71464827       2.23821609      12.23821609
N        4.47643244       2.23821626      14.48714425
N        6.71466249       0.00001554      14.48713800
N        4.47643197       0.00001000      16.67722330
N        6.71467402       2.23822258      16.67731416
N        4.47643218       6.71464827      10.00000000
N        6.71464827       4.47643218      10.00000000
N        4.47643218       4.47643218      12.23821609
N        6.71464827       6.71464827      12.23821609
N        4.47643103       6.71464660      14.48716471
N        6.71462387       4.47642343      14.48711570
N        4.47643161       4.47642299      16.67726436
N        6.71466630       6.71463222      16.67728027
N        4.47643218      11.19108044      10.00000000
N        6.71464827       8.95286435      10.00000000
N        4.47643218       8.95286435      12.23821609
N        6.71464827      11.19108044      12.23821609
N        4.47643307      11.19108199      14.48713678
N        6.71465496       8.95285724      14.48715059
N        4.47643299       8.95286294      16.67725622
N        6.71465509      11.19109024      16.67725856
N        8.95286435       2.23821609      10.00000000
N       11.19108044       0.00000000      10.00000000
N        8.95286435       0.00000000      12.23821609
N       11.19108044       2.23821609      12.23821609
N        8.95288197       2.23817855      14.48718941
N       11.19108092       0.00003475      14.48713581
N        8.95287377       0.00001259      16.67727887
N       11.19107941       2.23823246      16.67740675
N        8.95286435       6.71464827      10.00000000
N       11.19108044       4.47643218      10.00000000
N        8.95286435       4.47643218      12.23821609
N       11.19108044       6.71464827      12.23821609
N        8.95287189       6.71468286      14.48711959
N       11.19107892       4.47640868      14.48707563
N        8.95287094       4.47641611      16.67705547
N       11.19108034       6.71462197      16.67728257
N        8.95286435      11.19108044      10.00000000
N       11.19108044       8.95286435      10.00000000
N        8.95286435       8.95286435      12.23821609
N       11.19108044      11.19108044      12.23821609
N        8.95286850      11.19108351      14.48713001
N       11.19108097       8.95285341      14.48715076
N        8.95287682       8.95286514      16.67726313
N       11.19107969      11.19108882      16.67721006
S        8.83096715       5.12748824      21.17800254
S        8.56807210       6.90738686      20.15647489
S        7.10051626       8.02082917      21.09866345
S        5.30275352       7.74784588      20.11153470
S        4.19315897       6.30729668      21.09823657
S        4.47643161       4.47642299      20.17740675
S        5.92331004       3.41480618      21.20749169
S        7.74150907       3.63642730      20.24534936
