148
Lattice="12.641749285038259 0.0 0.0 0.0 12.641749285038259 0.0 0.0 0.0 26.320880516406753" Properties=species:S:1:pos:R:3 pbc="T T T"
Ti       0.00000000       0.00000000      10.00000000
Ti       2.10695823       0.00000000      12.10695823
Ti       0.00000000       2.10695823      12.10695823
Ti       2.10695823       2.10695823      10.00000000
Ti      -0.00000028      -0.00000023      14.20734174
Ti       2.10695235       0.00000014      16.21777969
Ti      -0.00000004       2.10695248      16.21778035
Ti       2.10696086       2.10696087      14.20734338
Ti       0.00000000       4.21391647      10.00000000
Ti       2.10695823       4.21391647      12.10695823
Ti       0.00000000       6.32087470      12.10695823
Ti       2.10695823       6.32087470      10.00000000
Ti      -0.00000014       4.21391791      14.20734344
Ti       2.10695701       4.21391223      16.21778720
Ti      -0.00000027       6.32087463      16.21778573
Ti       2.10696709       6.32087450      14.20734927
Ti       0.00000000       8.42783294      10.00000000
Ti       2.10695823       8.42783294      12.10695823
Ti       0.00000000      10.53479117      12.10695823
Ti       2.10695823      10.53479117      10.00000000
Ti      -0.00000020       8.42783167      14.20734287
Ti       2.10695700       8.42783673      16.21778770
Ti       0.00000012      10.53479702      16.21777989
Ti       2.10696100      10.53478825      14.20734321
Ti       4.21391647       0.00000000      10.00000000
Ti       6.32087470       0.00000000      12.10695823
Ti       4.21391647       2.10695823      12.10695823
Ti       6.32087470       2.10695823      10.00000000
Ti       4.21391775      -0.00000029      14.20734312
Ti       6.32087450      -0.00000001      16.21778470
Ti       4.21391229       2.10695707      16.21778816
Ti       6.32087463       2.10696723      14.20734935
Ti       4.21391647       4.21391647      10.00000000
Ti       6.32087470       4.21391647      12.10695823
Ti       4.21391647       6.32087470      12.10695823
Ti       6.32087470       6.32087470      10.00000000
Ti       4.21392455       4.21392443      14.20735408
Ti       6.32087477       4.21391707      16.21779786
Ti       4.21391704       6.32087482      16.21779820
Ti       6.32087464       6.32087451      14.20735783
Ti       4.21391647       8.42783294      10.00000000
Ti       6.32087470       8.42783294      12.10695823
Ti       4.21391647      10.53479117      12.10695823
Ti       6.32087470      10.53479117      10.00000000
Ti       4.21392450       8.42782503      14.20735360
Ti       6.32087491       8.42783193      16.21779771
Ti       4.21391224      10.53479220      16.21778736
Ti       6.32087453      10.53478202      14.20734948
Ti       8.42783294       0.00000000      10.00000000
Ti      10.53479117       0.00000000      12.10695823
Ti       8.42783294       2.10695823      12.10695823
Ti      10.53479117       2.10695823      10.00000000
Ti       8.42783149      -0.00000004      14.20734329
Ti      10.53479707      -0.00000001      16.21778028
Ti       8.42783690       2.10695694      16.21778788
Ti      10.53478826       2.10696083      14.20734282
Ti       8.42783294       4.21391647      10.00000000
Ti      10.53479117       4.21391647      12.10695823
Ti       8.42783294       6.32087470      12.10695823
Ti      10.53479117       6.32087470      10.00000000
Ti       8.42782471       4.21392439      14.20735388
Ti      10.53479263       4.21391211      16.21778830
Ti       8.42783232       6.32087453      16.21779856
Ti      10.53478237       6.32087474      14.20734920
Ti       8.42783294       8.42783294      10.00000000
Ti      10.53479117       8.42783294      12.10695823
Ti       8.42783294      10.53479117      12.10695823
Ti      10.53479117      10.53479117      10.00000000
Ti       8.42782441       8.42782494      14.20735351
Ti      10.53479252       8.42783674      16.21778693
Ti       8.42783672      10.53479238      16.21778762
Ti      10.53478848      10.53478833      14.20734271
N        0.00000000       2.10695823      10.00000000
N        2.10695823       0.00000000      10.00000000
N        0.00000000       0.00000000      12.10695823
N        2.10695823       2.10695823      12.10695823
N       -0.00000048       2.10696118      14.22537790
N        2.10696104      -0.00000014      14.22537748
N        0.00000012       0.00000004      16.38936933
N        2.10695660       2.10695669      16.38937713
N        0.00000000       6.32087470      10.00000000
N        2.10695823       4.21391647      10.00000000
N        0.00000000       4.21391647      12.10695823
N        2.10695823       6.32087470      12.10695823
N       -0.00000053       6.32087443      14.22538417
N        2.10696243       4.21391876      14.22538486
N        0.00000007       4.21391370      16.38937891
N        2.10695634       6.32087458      16.38938995
N        0.00000000      10.53479117      10.00000000
N        2.10695823       8.42783294      10.00000000
N        0.00000000       8.42783294      12.10695823
N        2.10695823      10.53479117      12.10695823
N       -0.00000014      10.53478819      14.22537729
N        2.10696250       8.42783003      14.22538498
N       -0.00000037       8.42783538      16.38937857
N        2.10695664      10.53479268      16.38937690
N        4.21391647       2.10695823      10.00000000
N        6.32087470       0.00000000      10.00000000
N        4.21391647       0.00000000      12.10695823
N        6.32087470       2.10695823      12.10695823
N        4.21391902       2.10696250      14.22538479
N        6.32087469      -0.00000039      14.22538410
N        4.21391363      -0.00000037      16.38937924
N        6.32087454       2.10695636      16.38939041
N        4.21391647       6.32087470      10.00000000
N        6.32087470       4.21391647      10.00000000
N        4.21391647       4.21391647      12.10695823
N        6.32087470       6.32087470      12.10695823
N        4.21392008       6.32087453      14.22539074
N        6.32087455       4.21391985      14.22539079
N        4.21391399       4.21391408      16.38939763
N        6.32087439       6.32087474      16.38941347
N        4.21391647      10.53479117      10.00000000
N        6.32087470       8.42783294      10.00000000
N        4.21391647       8.42783294      12.10695823
N        6.32087470      10.53479117      12.10695823
N        4.21391891      10.53478694      14.22538459
N        6.32087444       8.42782939      14.22539080
N        4.21391410       8.42783540      16.38939752
N        6.32087443      10.53479302      16.38939000
N        8.42783294       2.10695823      10.00000000
N       10.53479117       0.00000000      10.00000000
N        8.42783294       0.00000000      12.10695823
N       10.53479117       2.10695823      12.10695823
N        8.42783068       2.10696247      14.22538465
N       10.53478849      -0.00000011      14.22537797
N        8.42783572       0.00000001      16.38937938
N       10.53479254       2.10695675      16.38937736
N        8.42783294       6.32087470      10.00000000
N       10.53479117       4.21391647      10.00000000
N        8.42783294       4.21391647      12.10695823
N       10.53479117       6.32087470      12.10695823
N        8.42782940       6.32087463      14.22539078
N       10.53478676       4.21391900      14.22538481
N        8.42783556       4.21391401      16.38939763
N       10.53479296       6.32087448      16.38939008
N        8.42783294      10.53479117      10.00000000
N       10.53479117       8.42783294      10.00000000
N        8.42783294       8.42783294      12.10695823
N       10.53479117      10.53479117      12.10695823
N        8.42783069      10.53478690      14.22538435
N       10.53478679       8.42783058      14.22538437
N        8.42783524       8.42783513      16.38939699
N       10.53479300      10.53479291      16.38937668
S        6.36211894       4.75534961      19.39050386
S        4.83188452       6.33738480      19.25913444
Li       6.98002334       6.87919828      19.26565038
Li       4.21391399       4.21391408      19.38941347
