
     Program PWSCF v.7.5 starts on 12Mar2026 at 20: 1:34 

     This program is part of the open-source Quantum ESPRESSO suite
     for quantum simulation of materials; please cite
         "P. Giannozzi et al., J. Phys.:Condens. Matter 21 395502 (2009);
         "P. Giannozzi et al., J. Phys.:Condens. Matter 29 465901 (2017);
         "P. Giannozzi et al., J. Chem. Phys. 152 154105 (2020);
          URL http://www.quantum-espresso.org", 
     in publications or presentations arising from this work. More details at
     http://www.quantum-espresso.org/quote

     Parallel version (MPI & OpenMP), running on      24 processor cores
     Number of MPI processes:                24
     Threads/MPI process:                     1

     MPI processes distributed on     1 nodes
     646788 MiB available memory on the printing compute node when the environment starts

     Waiting for input...
     Reading input from standard input

     Current dimensions of program PWSCF are:
     Max number of different atomic species (ntypx) = 10
     Max number of k-points (npk) =  40000
     Max angular momentum in pseudopotentials (lmaxx) =  4
     Found identity + (  0.5000  0.5000  0.0000) symmetry
     This is a supercell, fractional translations are disabled
     Message from routine setup:
     using ibrav=0 with symmetry is DISCOURAGED, use correct ibrav instead

     K-points division:     npool     =       2
     R & G space division:  proc/nbgrp/npool/nimage =      12
     Subspace diagonalization in iterative solution of the eigenvalue problem:
     a serial algorithm will be used


     Parallelization info
     --------------------
     sticks:   dense  smooth     PW     G-vecs:    dense   smooth      PW
     Min         179      72     20                 6253     1590     246
     Max         183      73     21                 6254     1592     251
     Sum        2161     869    249                75037    19093    2969

     Using Slab Decomposition



     bravais-lattice index     =            0
     lattice parameter (alat)  =       7.7524  a.u.
     unit-cell volume          =     465.9097 (a.u.)^3
     number of atoms/cell      =            8
     number of atomic types    =            2
     number of electrons       =        72.00
     number of Kohn-Sham states=           43
     kinetic-energy cutoff     =      45.0000  Ry
     charge density cutoff     =     450.0000  Ry
     scf convergence threshold =      1.0E-06
     mixing beta               =       0.3000
     number of iterations used =            8  local-TF  mixing
     energy convergence thresh.=      1.0E-04
     force convergence thresh. =      1.0E-03
     press convergence thresh. =      5.0E-01
     Exchange-correlation= SLA  PW   PBE  PBE
                           (   1   4   3   4   0   0   0)
     nstep                     =           50

     Hubbard projectors: ortho-atomic
     Hubbard parameters of DFT+U (Dudarev formulation) in eV:
     U(V-3d) =  5.9100

     Internal variables: lda_plus_u =T, lda_plus_u_kind = 0

     Internal variables: orbital_resolved =F, hub_pot_fix =F, apply_U = F

     celldm(1)=   7.752360  celldm(2)=   0.000000  celldm(3)=   0.000000
     celldm(4)=   0.000000  celldm(5)=   0.000000  celldm(6)=   0.000000

     crystal axes: (cart. coord. in units of alat)
               a(1) = (   1.000000   0.000000   0.000000 )  
               a(2) = (   0.000000   1.000000   0.000000 )  
               a(3) = (   0.000000   0.000000   1.000000 )  

     reciprocal axes: (cart. coord. in units 2 pi/alat)
               b(1) = (  1.000000  0.000000  0.000000 )  
               b(2) = (  0.000000  1.000000  0.000000 )  
               b(3) = (  0.000000  0.000000  1.000000 )  


     PseudoPot. # 1 for V  read from file:
     /scratch/anizami/QE_2/USPP/v_pbe_v1.4.uspp.F.UPF
     MD5 check sum: 22b79981416ebb76fdaf5b1b8640f6fb
     Pseudo is Ultrasoft + core correction, Zval = 13.0
     Generated by new atomic code, or converted to UPF format
     Using radial grid of  853 points,  6 beta functions with: 
                l(1) =   0
                l(2) =   0
                l(3) =   1
                l(4) =   1
                l(5) =   2
                l(6) =   2
     Q(r) pseudized with  8 coefficients,  rinner =    1.100   1.100   1.100
                                                       1.100   1.100

     PseudoPot. # 2 for N  read from file:
     /scratch/anizami/QE_2/USPP/n_pbe_v1.2.uspp.F.UPF
     MD5 check sum: 95339753478d7afb44899504a8723017
     Pseudo is Ultrasoft + core correction, Zval =  5.0
     Generated by new atomic code, or converted to UPF format
     Using radial grid of  729 points,  4 beta functions with: 
                l(1) =   0
                l(2) =   0
                l(3) =   1
                l(4) =   1
     Q(r) pseudized with  8 coefficients,  rinner =    0.900   0.900   0.900


     atomic species   valence    mass     pseudopotential
     V                13.00     1.00000     V ( 1.00)
     N                 5.00     1.00000     N ( 1.00)

     Starting magnetic structure 
     atomic species   magnetization
     V               0.020
     N               0.000

     48 Sym. Ops., with inversion, found



   Cartesian axes

     site n.     atom                  positions (alat units)
         1        V      tau(   1) = (   0.0000000   0.0000000   0.0000000  )
         2        V      tau(   2) = (   0.5000000   0.5000000   0.0000000  )
         3        V      tau(   3) = (   0.5000000   0.0000000   0.5000000  )
         4        V      tau(   4) = (   0.0000000   0.5000000   0.5000000  )
         5        N      tau(   5) = (   0.0000000   0.0000000   0.5000000  )
         6        N      tau(   6) = (   0.0000000   0.5000000   0.0000000  )
         7        N      tau(   7) = (   0.5000000   0.0000000   0.0000000  )
         8        N      tau(   8) = (   0.5000000   0.5000000   0.5000000  )

     --------------------------------------------
     DFT-D3 Dispersion Correction (3-body terms):
     --------------------------------------------
       Reference C6 values for interpolation: 

         atom   Coordination number   C6
         N          0.000            50.54
         N          0.994            44.25
         N          2.014            39.35
         N          2.990            31.16
         V          0.000          2232.20
         V          1.914           580.29
         V          2.911           538.67

       Values used:

         atom   Coordination number  R0_AB[au]  C6      C8
         V         16.606            3.516    538.67  59684.75
         V         16.606            3.516    538.67  59684.75
         V         16.606            3.516    538.67  59684.75
         V         16.606            3.516    538.67  59684.75
         N          6.060            2.478     31.16    687.49
         N          6.060            2.478     31.16    687.49
         N          6.060            2.478     31.16    687.49
         N          6.060            2.478     31.16    687.49

         Molecular C6 ( Ry / a.u.^6 ) =     13007.47


     number of k points=    10  Marzari-Vanderbilt smearing, width (Ry)=  0.0800
                       cart. coord. in units 2pi/alat
        k(    1) = (   0.0000000   0.0000000   0.0000000), wk =   0.0080000
        k(    2) = (   0.0000000   0.0000000   0.2000000), wk =   0.0480000
        k(    3) = (   0.0000000   0.0000000   0.4000000), wk =   0.0480000
        k(    4) = (   0.0000000   0.2000000   0.2000000), wk =   0.0960000
        k(    5) = (   0.0000000   0.2000000   0.4000000), wk =   0.1920000
        k(    6) = (   0.0000000   0.4000000   0.4000000), wk =   0.0960000
        k(    7) = (   0.2000000   0.2000000   0.2000000), wk =   0.0640000
        k(    8) = (   0.2000000   0.2000000   0.4000000), wk =   0.1920000
        k(    9) = (   0.2000000   0.4000000   0.4000000), wk =   0.1920000
        k(   10) = (   0.4000000   0.4000000   0.4000000), wk =   0.0640000

     Dense  grid:    75037 G-vectors     FFT dimensions: (  54,  54,  54)

     Smooth grid:    19093 G-vectors     FFT dimensions: (  36,  36,  36)

     Estimated max dynamical RAM per process >      25.14 MB

     Estimated total dynamical RAM >     566.63 MB

     Check: negative core charge=   -0.000008
     Generating pointlists ...
     new r_m :   0.2062 (alat units)  1.5989 (a.u.) for type    1
     new r_m :   0.2062 (alat units)  1.5989 (a.u.) for type    2

     Initial potential from superposition of free atoms

     starting charge      71.9951, renormalised to      72.0000

     negative rho (up, down):  1.317E-03 1.265E-03

     STARTING HUBBARD OCCUPATIONS:

     =================== HUBBARD OCCUPATIONS ===================
     ------------------------ ATOM    1 ------------------------
     Tr[ns(  1)] (up, down, total) =   3.00000  0.00000  3.00000
     Atomic magnetic moment for atom   1 =   3.00000
     SPIN  1
     eigenvalues:
       0.600  0.600  0.600  0.600  0.600
     eigenvectors (columns):
       1.000  0.000  0.000  0.000  0.000
       0.000  1.000  0.000  0.000  0.000
       0.000  0.000  1.000  0.000  0.000
       0.000  0.000  0.000  1.000  0.000
       0.000  0.000  0.000  0.000  1.000
     occupation matrix ns (before diag.):
       0.600  0.000  0.000  0.000  0.000
       0.000  0.600  0.000  0.000  0.000
       0.000  0.000  0.600  0.000  0.000
       0.000  0.000  0.000  0.600  0.000
       0.000  0.000  0.000  0.000  0.600
     SPIN  2
     eigenvalues:
       0.000  0.000  0.000  0.000  0.000
     eigenvectors (columns):
       1.000  0.000  0.000  0.000  0.000
       0.000  1.000  0.000  0.000  0.000
       0.000  0.000  1.000  0.000  0.000
       0.000  0.000  0.000  1.000  0.000
       0.000  0.000  0.000  0.000  1.000
     occupation matrix ns (before diag.):
       0.000  0.000  0.000  0.000  0.000
       0.000  0.000  0.000  0.000  0.000
       0.000  0.000  0.000  0.000  0.000
       0.000  0.000  0.000  0.000  0.000
       0.000  0.000  0.000  0.000  0.000
     ------------------------ ATOM    2 ------------------------
     Tr[ns(  2)] (up, down, total) =   3.00000  0.00000  3.00000
     Atomic magnetic moment for atom   2 =   3.00000
     SPIN  1
     eigenvalues:
       0.600  0.600  0.600  0.600  0.600
     eigenvectors (columns):
       1.000  0.000  0.000  0.000  0.000
       0.000  1.000  0.000  0.000  0.000
       0.000  0.000  1.000  0.000  0.000
       0.000  0.000  0.000  1.000  0.000
       0.000  0.000  0.000  0.000  1.000
     occupation matrix ns (before diag.):
       0.600  0.000  0.000  0.000  0.000
       0.000  0.600  0.000  0.000  0.000
       0.000  0.000  0.600  0.000  0.000
       0.000  0.000  0.000  0.600  0.000
       0.000  0.000  0.000  0.000  0.600
     SPIN  2
     eigenvalues:
       0.000  0.000  0.000  0.000  0.000
     eigenvectors (columns):
       1.000  0.000  0.000  0.000  0.000
       0.000  1.000  0.000  0.000  0.000
       0.000  0.000  1.000  0.000  0.000
       0.000  0.000  0.000  1.000  0.000
       0.000  0.000  0.000  0.000  1.000
     occupation matrix ns (before diag.):
       0.000  0.000  0.000  0.000  0.000
       0.000  0.000  0.000  0.000  0.000
       0.000  0.000  0.000  0.000  0.000
       0.000  0.000  0.000  0.000  0.000
       0.000  0.000  0.000  0.000  0.000
     ------------------------ ATOM    3 ------------------------
     Tr[ns(  3)] (up, down, total) =   3.00000  0.00000  3.00000
     Atomic magnetic moment for atom   3 =   3.00000
     SPIN  1
     eigenvalues:
       0.600  0.600  0.600  0.600  0.600
     eigenvectors (columns):
       1.000  0.000  0.000  0.000  0.000
       0.000  1.000  0.000  0.000  0.000
       0.000  0.000  1.000  0.000  0.000
       0.000  0.000  0.000  1.000  0.000
       0.000  0.000  0.000  0.000  1.000
     occupation matrix ns (before diag.):
       0.600  0.000  0.000  0.000  0.000
       0.000  0.600  0.000  0.000  0.000
       0.000  0.000  0.600  0.000  0.000
       0.000  0.000  0.000  0.600  0.000
       0.000  0.000  0.000  0.000  0.600
     SPIN  2
     eigenvalues:
       0.000  0.000  0.000  0.000  0.000
     eigenvectors (columns):
       1.000  0.000  0.000  0.000  0.000
       0.000  1.000  0.000  0.000  0.000
       0.000  0.000  1.000  0.000  0.000
       0.000  0.000  0.000  1.000  0.000
       0.000  0.000  0.000  0.000  1.000
     occupation matrix ns (before diag.):
       0.000  0.000  0.000  0.000  0.000
       0.000  0.000  0.000  0.000  0.000
       0.000  0.000  0.000  0.000  0.000
       0.000  0.000  0.000  0.000  0.000
       0.000  0.000  0.000  0.000  0.000
     ------------------------ ATOM    4 ------------------------
     Tr[ns(  4)] (up, down, total) =   3.00000  0.00000  3.00000
     Atomic magnetic moment for atom   4 =   3.00000
     SPIN  1
     eigenvalues:
       0.600  0.600  0.600  0.600  0.600
     eigenvectors (columns):
       1.000  0.000  0.000  0.000  0.000
       0.000  1.000  0.000  0.000  0.000
       0.000  0.000  1.000  0.000  0.000
       0.000  0.000  0.000  1.000  0.000
       0.000  0.000  0.000  0.000  1.000
     occupation matrix ns (before diag.):
       0.600  0.000  0.000  0.000  0.000
       0.000  0.600  0.000  0.000  0.000
       0.000  0.000  0.600  0.000  0.000
       0.000  0.000  0.000  0.600  0.000
       0.000  0.000  0.000  0.000  0.600
     SPIN  2
     eigenvalues:
       0.000  0.000  0.000  0.000  0.000
     eigenvectors (columns):
       1.000  0.000  0.000  0.000  0.000
       0.000  1.000  0.000  0.000  0.000
       0.000  0.000  1.000  0.000  0.000
       0.000  0.000  0.000  1.000  0.000
       0.000  0.000  0.000  0.000  1.000
     occupation matrix ns (before diag.):
       0.000  0.000  0.000  0.000  0.000
       0.000  0.000  0.000  0.000  0.000
       0.000  0.000  0.000  0.000  0.000
       0.000  0.000  0.000  0.000  0.000
       0.000  0.000  0.000  0.000  0.000

     Number of occupied Hubbard levels =   12.0000

     Atomic wfc used for Hubbard projectors are orthogonalized

     Starting wfcs are   56 randomized atomic wfcs

     total cpu time spent up to now is        0.8 secs

     per-process dynamical memory:   103.7 Mb

     Self-consistent Calculation

     iteration #  1     ecut=    45.00 Ry     beta= 0.30
     Davidson diagonalization with overlap
     ethr =  1.00E-02,  avg # of iterations =  2.0

     =================== HUBBARD OCCUPATIONS ===================
     ------------------------ ATOM    1 ------------------------
     Tr[ns(  1)] (up, down, total) =   2.37175  0.56680  2.93855
     Atomic magnetic moment for atom   1 =   1.80495
     SPIN  1
     eigenvalues:
       0.286  0.286  0.600  0.600  0.600
     eigenvectors (columns):
       0.155  0.988 -0.000 -0.000  0.000
       0.000  0.000  0.277  0.817 -0.506
       0.000  0.000  0.378  0.392  0.839
      -0.988  0.155  0.000  0.000 -0.000
      -0.000 -0.000 -0.883  0.424  0.200
     occupation matrix ns (before diag.):
       0.286 -0.000 -0.000  0.000  0.000
      -0.000  0.600 -0.000  0.000  0.000
      -0.000 -0.000  0.600  0.000  0.000
       0.000  0.000  0.000  0.286 -0.000
       0.000  0.000  0.000 -0.000  0.600
     SPIN  2
     eigenvalues:
       0.096  0.096  0.096  0.140  0.140
     eigenvectors (columns):
      -0.000  0.000 -0.000  0.239 -0.971
      -0.262  0.834 -0.486 -0.000  0.000
      -0.382  0.373  0.845 -0.000  0.000
       0.000 -0.000  0.000 -0.971 -0.239
       0.886  0.407  0.221  0.000 -0.000
     occupation matrix ns (before diag.):
       0.140 -0.000 -0.000  0.000  0.000
      -0.000  0.096 -0.000  0.000  0.000
      -0.000 -0.000  0.096  0.000  0.000
       0.000  0.000  0.000  0.140 -0.000
       0.000  0.000  0.000 -0.000  0.096
     ------------------------ ATOM    2 ------------------------
     Tr[ns(  2)] (up, down, total) =   2.36747  0.56682  2.93428
     Atomic magnetic moment for atom   2 =   1.80065
     SPIN  1
     eigenvalues:
       0.285  0.286  0.598  0.598  0.600
     eigenvectors (columns):
      -0.000 -1.000 -0.000  0.000  0.000
      -0.000 -0.000  0.615 -0.789  0.000
      -0.000 -0.000  0.789  0.615  0.000
       1.000 -0.000  0.000 -0.000 -0.000
       0.000  0.000 -0.000 -0.000  1.000
     occupation matrix ns (before diag.):
       0.286 -0.000 -0.000  0.000  0.000
      -0.000  0.598 -0.000  0.000  0.000
      -0.000 -0.000  0.598  0.000  0.000
       0.000  0.000  0.000  0.285 -0.000
       0.000  0.000  0.000 -0.000  0.600
     SPIN  2
     eigenvalues:
       0.096  0.096  0.096  0.140  0.140
     eigenvectors (columns):
       0.000 -0.000  0.000 -1.000  0.000
       0.713 -0.702 -0.000  0.000  0.000
       0.702  0.713 -0.000  0.000  0.000
      -0.000  0.000 -0.000  0.000  1.000
      -0.000 -0.000 -1.000 -0.000 -0.000
     occupation matrix ns (before diag.):
       0.140 -0.000 -0.000  0.000  0.000
      -0.000  0.096 -0.000  0.000  0.000
      -0.000 -0.000  0.096  0.000  0.000
       0.000  0.000  0.000  0.140 -0.000
       0.000  0.000  0.000 -0.000  0.096
     ------------------------ ATOM    3 ------------------------
     Tr[ns(  3)] (up, down, total) =   2.36747  0.56682  2.93428
     Atomic magnetic moment for atom   3 =   1.80065
     SPIN  1
     eigenvalues:
       0.285  0.286  0.598  0.598  0.600
     eigenvectors (columns):
       0.866  0.500 -0.000 -0.000 -0.000
       0.000 -0.000  0.000 -0.000  1.000
       0.000 -0.000  0.409 -0.912 -0.000
      -0.500  0.866  0.000  0.000  0.000
      -0.000  0.000 -0.912 -0.409  0.000
     occupation matrix ns (before diag.):
       0.286 -0.000 -0.000  0.000  0.000
      -0.000  0.600 -0.000  0.000  0.000
      -0.000 -0.000  0.598  0.000  0.000
       0.000  0.000  0.000  0.286 -0.000
       0.000  0.000  0.000 -0.000  0.598
     SPIN  2
     eigenvalues:
       0.096  0.096  0.096  0.140  0.140
     eigenvectors (columns):
      -0.000 -0.000  0.000 -0.500  0.866
      -0.000  0.000  1.000 -0.000 -0.000
      -0.393  0.920 -0.000 -0.000 -0.000
       0.000  0.000 -0.000 -0.866 -0.500
       0.920  0.393  0.000  0.000  0.000
     occupation matrix ns (before diag.):
       0.140 -0.000 -0.000 -0.000  0.000
      -0.000  0.096 -0.000  0.000  0.000
      -0.000 -0.000  0.096  0.000  0.000
      -0.000  0.000  0.000  0.140 -0.000
       0.000  0.000  0.000 -0.000  0.096
     ------------------------ ATOM    4 ------------------------
     Tr[ns(  4)] (up, down, total) =   2.36747  0.56682  2.93428
     Atomic magnetic moment for atom   4 =   1.80065
     SPIN  1
     eigenvalues:
       0.285  0.286  0.598  0.598  0.600
     eigenvectors (columns):
       0.866  0.500 -0.000 -0.000  0.000
       0.000  0.000  0.269  0.963  0.000
      -0.000  0.000  0.000  0.000 -1.000
       0.500 -0.866  0.000  0.000 -0.000
      -0.000 -0.000 -0.963  0.269 -0.000
     occupation matrix ns (before diag.):
       0.286 -0.000 -0.000 -0.000  0.000
      -0.000  0.598 -0.000  0.000  0.000
      -0.000 -0.000  0.600  0.000  0.000
      -0.000  0.000  0.000  0.286 -0.000
       0.000  0.000  0.000 -0.000  0.598
     SPIN  2
     eigenvalues:
       0.096  0.096  0.096  0.140  0.140
     eigenvectors (columns):
      -0.000  0.000  0.000  0.500 -0.866
      -0.261  0.965 -0.000 -0.000  0.000
      -0.000  0.000  1.000 -0.000 -0.000
       0.000 -0.000 -0.000 -0.866 -0.500
       0.965  0.261  0.000  0.000 -0.000
     occupation matrix ns (before diag.):
       0.140 -0.000 -0.000  0.000  0.000
      -0.000  0.096 -0.000  0.000  0.000
      -0.000 -0.000  0.096  0.000  0.000
       0.000  0.000  0.000  0.140 -0.000
       0.000  0.000  0.000 -0.000  0.096

     Number of occupied Hubbard levels =   11.7414

     negative rho (up, down):  1.145E-03 1.702E-03

     total cpu time spent up to now is        1.4 secs

     total energy              =    -659.90770249 Ry
     estimated scf accuracy    <       3.24852893 Ry

     total magnetization       =     6.80 Bohr mag/cell
     absolute magnetization    =     7.24 Bohr mag/cell

     iteration #  2     ecut=    45.00 Ry     beta= 0.30
     Davidson diagonalization with overlap
     ethr =  4.51E-03,  avg # of iterations =  1.6

     negative rho (up, down):  8.017E-04 6.391E-03

     total cpu time spent up to now is        1.6 secs

     total energy              =    -659.56249982 Ry
     estimated scf accuracy    <       1.32951761 Ry

     total magnetization       =     6.67 Bohr mag/cell
     absolute magnetization    =     6.82 Bohr mag/cell

     iteration #  3     ecut=    45.00 Ry     beta= 0.30
     Davidson diagonalization with overlap
     ethr =  1.85E-03,  avg # of iterations =  4.0

     negative rho (up, down):  7.275E-04 6.017E-03

     total cpu time spent up to now is        1.9 secs

     total energy              =    -659.96787256 Ry
     estimated scf accuracy    <       0.36568118 Ry

     total magnetization       =     7.57 Bohr mag/cell
     absolute magnetization    =     8.62 Bohr mag/cell

     iteration #  4     ecut=    45.00 Ry     beta= 0.30
     Davidson diagonalization with overlap
     ethr =  5.08E-04,  avg # of iterations =  1.6

     negative rho (up, down):  1.619E-04 8.580E-03

     total cpu time spent up to now is        2.1 secs

     total energy              =    -660.02366324 Ry
     estimated scf accuracy    <       0.12266649 Ry

     total magnetization       =     7.62 Bohr mag/cell
     absolute magnetization    =     8.54 Bohr mag/cell

     iteration #  5     ecut=    45.00 Ry     beta= 0.30
     Davidson diagonalization with overlap
     ethr =  1.70E-04,  avg # of iterations =  5.0

     negative rho (up, down):  9.583E-05 9.469E-03

     total cpu time spent up to now is        2.4 secs

     total energy              =    -660.05458683 Ry
     estimated scf accuracy    <       0.08869250 Ry

     total magnetization       =     7.92 Bohr mag/cell
     absolute magnetization    =     9.10 Bohr mag/cell

     iteration #  6     ecut=    45.00 Ry     beta= 0.30
     Davidson diagonalization with overlap
     ethr =  1.23E-04,  avg # of iterations =  2.0

     negative rho (up, down):  8.999E-05 9.411E-03

     total cpu time spent up to now is        2.7 secs

     total energy              =    -660.06609749 Ry
     estimated scf accuracy    <       0.00761596 Ry

     total magnetization       =     7.90 Bohr mag/cell
     absolute magnetization    =     9.43 Bohr mag/cell

     iteration #  7     ecut=    45.00 Ry     beta= 0.30
     Davidson diagonalization with overlap
     ethr =  1.06E-05,  avg # of iterations =  6.3

     negative rho (up, down):  6.866E-05 9.404E-03

     total cpu time spent up to now is        3.0 secs

     total energy              =    -660.06871701 Ry
     estimated scf accuracy    <       0.00158938 Ry

     total magnetization       =     7.90 Bohr mag/cell
     absolute magnetization    =     9.69 Bohr mag/cell

     iteration #  8     ecut=    45.00 Ry     beta= 0.30
     Davidson diagonalization with overlap
     ethr =  2.21E-06,  avg # of iterations =  7.2

     negative rho (up, down):  7.887E-05 9.393E-03

     total cpu time spent up to now is        3.5 secs

     total energy              =    -660.07521535 Ry
     estimated scf accuracy    <       0.00094388 Ry

     total magnetization       =     7.91 Bohr mag/cell
     absolute magnetization    =     9.85 Bohr mag/cell

     iteration #  9     ecut=    45.00 Ry     beta= 0.30
     Davidson diagonalization with overlap
     ethr =  1.31E-06,  avg # of iterations =  1.6

     negative rho (up, down):  6.855E-05 9.472E-03

     total cpu time spent up to now is        3.7 secs

     total energy              =    -660.07549143 Ry
     estimated scf accuracy    <       0.00209366 Ry

     total magnetization       =     7.90 Bohr mag/cell
     absolute magnetization    =     9.83 Bohr mag/cell

     iteration # 10     ecut=    45.00 Ry     beta= 0.30
     Davidson diagonalization with overlap
     ethr =  1.31E-06,  avg # of iterations =  4.1

     negative rho (up, down):  6.604E-05 9.429E-03

     total cpu time spent up to now is        4.0 secs

     total energy              =    -660.07547947 Ry
     estimated scf accuracy    <       0.00106016 Ry

     total magnetization       =     7.91 Bohr mag/cell
     absolute magnetization    =     9.88 Bohr mag/cell

     iteration # 11     ecut=    45.00 Ry     beta= 0.30
     Davidson diagonalization with overlap
     ethr =  1.31E-06,  avg # of iterations =  2.2

     negative rho (up, down):  6.257E-05 9.442E-03

     total cpu time spent up to now is        4.2 secs

     total energy              =    -660.07483835 Ry
     estimated scf accuracy    <       0.00062953 Ry

     total magnetization       =     7.91 Bohr mag/cell
     absolute magnetization    =     9.88 Bohr mag/cell

     iteration # 12     ecut=    45.00 Ry     beta= 0.30
     Davidson diagonalization with overlap
     ethr =  8.74E-07,  avg # of iterations =  6.4

     negative rho (up, down):  6.304E-05 9.473E-03

     total cpu time spent up to now is        4.5 secs

     total energy              =    -660.07045127 Ry
     estimated scf accuracy    <       0.00046557 Ry

     total magnetization       =     7.91 Bohr mag/cell
     absolute magnetization    =     9.86 Bohr mag/cell

     iteration # 13     ecut=    45.00 Ry     beta= 0.30
     Davidson diagonalization with overlap
     ethr =  6.47E-07,  avg # of iterations =  7.2

     negative rho (up, down):  6.336E-05 9.486E-03

     total cpu time spent up to now is        4.9 secs

     total energy              =    -660.07734990 Ry
     estimated scf accuracy    <       0.00111649 Ry

     total magnetization       =     7.91 Bohr mag/cell
     absolute magnetization    =     9.76 Bohr mag/cell

     iteration # 14     ecut=    45.00 Ry     beta= 0.30
     Davidson diagonalization with overlap
     ethr =  6.47E-07,  avg # of iterations =  1.2

     negative rho (up, down):  5.418E-05 9.509E-03

     total cpu time spent up to now is        5.1 secs

     total energy              =    -660.07523475 Ry
     estimated scf accuracy    <       0.00110264 Ry

     total magnetization       =     7.91 Bohr mag/cell
     absolute magnetization    =     9.76 Bohr mag/cell

     iteration # 15     ecut=    45.00 Ry     beta= 0.30
     Davidson diagonalization with overlap
     ethr =  6.47E-07,  avg # of iterations =  5.7

     negative rho (up, down):  5.463E-05 9.511E-03

     total cpu time spent up to now is        5.5 secs

     total energy              =    -660.07779778 Ry
     estimated scf accuracy    <       0.00008003 Ry

     total magnetization       =     7.91 Bohr mag/cell
     absolute magnetization    =     9.87 Bohr mag/cell

     iteration # 16     ecut=    45.00 Ry     beta= 0.30
     Davidson diagonalization with overlap
     ethr =  1.11E-07,  avg # of iterations =  2.2

     negative rho (up, down):  5.628E-05 9.513E-03

     total cpu time spent up to now is        5.7 secs

     total energy              =    -660.07781192 Ry
     estimated scf accuracy    <       0.00006268 Ry

     total magnetization       =     7.91 Bohr mag/cell
     absolute magnetization    =     9.87 Bohr mag/cell

     iteration # 17     ecut=    45.00 Ry     beta= 0.30
     Davidson diagonalization with overlap
     ethr =  8.71E-08,  avg # of iterations =  3.9

     negative rho (up, down):  5.771E-05 9.510E-03

     total cpu time spent up to now is        6.0 secs

     total energy              =    -660.07830683 Ry
     estimated scf accuracy    <       0.00002786 Ry

     total magnetization       =     7.91 Bohr mag/cell
     absolute magnetization    =     9.86 Bohr mag/cell

     iteration # 18     ecut=    45.00 Ry     beta= 0.30
     Davidson diagonalization with overlap
     ethr =  3.87E-08,  avg # of iterations =  3.5

     negative rho (up, down):  5.797E-05 9.505E-03

     total cpu time spent up to now is        6.3 secs

     total energy              =    -660.07830242 Ry
     estimated scf accuracy    <       0.00007259 Ry

     total magnetization       =     7.91 Bohr mag/cell
     absolute magnetization    =     9.86 Bohr mag/cell

     iteration # 19     ecut=    45.00 Ry     beta= 0.30
     Davidson diagonalization with overlap
     ethr =  3.87E-08,  avg # of iterations =  1.2

     negative rho (up, down):  5.722E-05 9.505E-03

     total cpu time spent up to now is        6.5 secs

     total energy              =    -660.07830051 Ry
     estimated scf accuracy    <       0.00004874 Ry

     total magnetization       =     7.91 Bohr mag/cell
     absolute magnetization    =     9.87 Bohr mag/cell

     iteration # 20     ecut=    45.00 Ry     beta= 0.30
     Davidson diagonalization with overlap
     ethr =  3.87E-08,  avg # of iterations =  4.3

     negative rho (up, down):  5.605E-05 9.503E-03

     total cpu time spent up to now is        6.8 secs

     total energy              =    -660.07818013 Ry
     estimated scf accuracy    <       0.00001725 Ry

     total magnetization       =     7.91 Bohr mag/cell
     absolute magnetization    =     9.87 Bohr mag/cell

     iteration # 21     ecut=    45.00 Ry     beta= 0.30
     Davidson diagonalization with overlap
     ethr =  2.40E-08,  avg # of iterations =  5.3

     negative rho (up, down):  5.681E-05 9.497E-03

     total cpu time spent up to now is        7.2 secs

     total energy              =    -660.07826032 Ry
     estimated scf accuracy    <       0.00015302 Ry

     total magnetization       =     7.91 Bohr mag/cell
     absolute magnetization    =     9.86 Bohr mag/cell

     iteration # 22     ecut=    45.00 Ry     beta= 0.30
     Davidson diagonalization with overlap
     ethr =  2.40E-08,  avg # of iterations =  5.0

     negative rho (up, down):  5.722E-05 9.497E-03

     total cpu time spent up to now is        7.5 secs

     total energy              =    -660.07832275 Ry
     estimated scf accuracy    <       0.00001493 Ry

     total magnetization       =     7.91 Bohr mag/cell
     absolute magnetization    =     9.87 Bohr mag/cell

     iteration # 23     ecut=    45.00 Ry     beta= 0.30
     Davidson diagonalization with overlap
     ethr =  2.07E-08,  avg # of iterations =  1.6

     negative rho (up, down):  5.796E-05 9.495E-03

     total cpu time spent up to now is        7.7 secs

     total energy              =    -660.07832204 Ry
     estimated scf accuracy    <       0.00000520 Ry

     total magnetization       =     7.91 Bohr mag/cell
     absolute magnetization    =     9.87 Bohr mag/cell

     iteration # 24     ecut=    45.00 Ry     beta= 0.30
     Davidson diagonalization with overlap
     ethr =  7.22E-09,  avg # of iterations =  3.6

     negative rho (up, down):  5.788E-05 9.497E-03

     Magnetic moment per site  (integrated on atomic sphere of radius R)
     atom   1 (R=0.206)  charge= 10.0649  magn=  1.7328
     atom   2 (R=0.206)  charge= 10.0586  magn=  1.7073
     atom   3 (R=0.206)  charge= 10.0586  magn=  1.7073
     atom   4 (R=0.206)  charge= 10.0586  magn=  1.7073
     atom   5 (R=0.206)  charge=  4.6336  magn= -0.2373
     atom   6 (R=0.206)  charge=  4.6336  magn= -0.2373
     atom   7 (R=0.206)  charge=  4.6336  magn= -0.2373
     atom   8 (R=0.206)  charge=  4.6331  magn= -0.2516

     total cpu time spent up to now is        8.0 secs

     End of self-consistent calculation

     =================== HUBBARD OCCUPATIONS ===================
     ------------------------ ATOM    1 ------------------------
     Tr[ns(  1)] (up, down, total) =   2.95265  0.64408  3.59673
     Atomic magnetic moment for atom   1 =   2.30856
     SPIN  1
     eigenvalues:
       0.301  0.301  0.783  0.783  0.783
     eigenvectors (columns):
      -0.276  0.961 -0.000 -0.000  0.000
      -0.000  0.000  0.279  0.831 -0.481
      -0.000  0.000  0.393  0.358  0.847
       0.961  0.276  0.000  0.000 -0.000
       0.000 -0.000 -0.876  0.426  0.227
     occupation matrix ns (before diag.):
       0.301 -0.000 -0.000  0.000  0.000
      -0.000  0.783 -0.000  0.000  0.000
      -0.000 -0.000  0.783  0.000  0.000
       0.000  0.000  0.000  0.301 -0.000
       0.000  0.000  0.000 -0.000  0.783
     SPIN  2
     eigenvalues:
       0.070  0.070  0.070  0.216  0.216
     eigenvectors (columns):
      -0.000 -0.000 -0.000  0.416 -0.909
      -0.276  0.902 -0.332 -0.000  0.000
      -0.340  0.231  0.911 -0.000 -0.000
       0.000 -0.000  0.000 -0.909 -0.416
       0.899  0.364  0.243  0.000 -0.000
     occupation matrix ns (before diag.):
       0.216 -0.000 -0.000  0.000  0.000
      -0.000  0.070 -0.000  0.000  0.000
      -0.000 -0.000  0.070  0.000  0.000
       0.000  0.000  0.000  0.216 -0.000
       0.000  0.000  0.000 -0.000  0.070
     ------------------------ ATOM    2 ------------------------
     Tr[ns(  2)] (up, down, total) =   2.93358  0.66025  3.59384
     Atomic magnetic moment for atom   2 =   2.27333
     SPIN  1
     eigenvalues:
       0.291  0.298  0.718  0.718  0.908
     eigenvectors (columns):
       0.000 -1.000 -0.000  0.000  0.000
       0.000 -0.000  0.715 -0.699  0.000
       0.000 -0.000  0.699  0.715  0.000
      -1.000 -0.000  0.000 -0.000 -0.000
      -0.000  0.000 -0.000 -0.000  1.000
     occupation matrix ns (before diag.):
       0.298 -0.000 -0.000  0.000  0.000
      -0.000  0.718 -0.000  0.000  0.000
      -0.000 -0.000  0.718  0.000  0.000
       0.000  0.000  0.000  0.291 -0.000
       0.000  0.000  0.000 -0.000  0.908
     SPIN  2
     eigenvalues:
       0.073  0.074  0.074  0.219  0.220
     eigenvectors (columns):
      -0.000  0.000  0.000  0.000  1.000
      -0.000  0.721  0.693 -0.000 -0.000
      -0.000  0.693 -0.721 -0.000 -0.000
       0.000 -0.000 -0.000 -1.000  0.000
       1.000  0.000 -0.000  0.000  0.000
     occupation matrix ns (before diag.):
       0.220 -0.000 -0.000  0.000  0.000
      -0.000  0.074 -0.000  0.000  0.000
      -0.000 -0.000  0.074  0.000  0.000
       0.000  0.000  0.000  0.219 -0.000
       0.000  0.000  0.000 -0.000  0.073
     ------------------------ ATOM    3 ------------------------
     Tr[ns(  3)] (up, down, total) =   2.93358  0.66025  3.59384
     Atomic magnetic moment for atom   3 =   2.27333
     SPIN  1
     eigenvalues:
       0.291  0.298  0.718  0.718  0.908
     eigenvectors (columns):
       0.866  0.500 -0.000 -0.000  0.000
       0.000 -0.000  0.000 -0.000 -1.000
       0.000 -0.000  0.408 -0.913  0.000
      -0.500  0.866  0.000  0.000 -0.000
      -0.000  0.000 -0.913 -0.408 -0.000
     occupation matrix ns (before diag.):
       0.293 -0.000 -0.000  0.003  0.000
      -0.000  0.908 -0.000  0.000  0.000
      -0.000 -0.000  0.718  0.000  0.000
       0.003  0.000  0.000  0.297 -0.000
       0.000  0.000  0.000 -0.000  0.718
     SPIN  2
     eigenvalues:
       0.073  0.074  0.074  0.219  0.220
     eigenvectors (columns):
       0.000 -0.000 -0.000 -0.866 -0.500
       1.000  0.000 -0.000  0.000 -0.000
       0.000 -0.385  0.923  0.000 -0.000
      -0.000  0.000  0.000  0.500 -0.866
      -0.000  0.923  0.385 -0.000  0.000
     occupation matrix ns (before diag.):
       0.219 -0.000 -0.000  0.000  0.000
      -0.000  0.073 -0.000  0.000  0.000
      -0.000 -0.000  0.074  0.000  0.000
       0.000  0.000  0.000  0.220 -0.000
       0.000  0.000  0.000 -0.000  0.074
     ------------------------ ATOM    4 ------------------------
     Tr[ns(  4)] (up, down, total) =   2.93358  0.66025  3.59384
     Atomic magnetic moment for atom   4 =   2.27333
     SPIN  1
     eigenvalues:
       0.291  0.298  0.718  0.718  0.908
     eigenvectors (columns):
       0.866  0.500 -0.000 -0.000  0.000
       0.000  0.000  0.235  0.972  0.000
      -0.000  0.000  0.000  0.000 -1.000
       0.500 -0.866  0.000  0.000 -0.000
      -0.000 -0.000 -0.972  0.235 -0.000
     occupation matrix ns (before diag.):
       0.293 -0.000 -0.000 -0.003  0.000
      -0.000  0.718 -0.000  0.000  0.000
      -0.000 -0.000  0.908  0.000  0.000
      -0.003  0.000  0.000  0.297 -0.000
       0.000  0.000  0.000 -0.000  0.718
     SPIN  2
     eigenvalues:
       0.073  0.074  0.074  0.219  0.220
     eigenvectors (columns):
       0.000 -0.000  0.000 -0.866 -0.500
       0.000 -0.267  0.964  0.000  0.000
       1.000  0.000 -0.000 -0.000  0.000
      -0.000  0.000 -0.000 -0.500  0.866
      -0.000  0.964  0.267 -0.000 -0.000
     occupation matrix ns (before diag.):
       0.219 -0.000 -0.000 -0.000  0.000
      -0.000  0.074 -0.000  0.000  0.000
      -0.000 -0.000  0.073  0.000  0.000
      -0.000  0.000  0.000  0.220 -0.000
       0.000  0.000  0.000 -0.000  0.074

     Number of occupied Hubbard levels =   14.3782

 ------ SPIN UP ------------


          k = 0.0000 0.0000 0.0000 (  2373 PWs)   bands (ev):

   -47.2616 -47.1736 -47.1736 -46.9406 -21.3463 -21.3463 -21.3463 -21.0544
   -21.0544 -21.0544 -21.0475 -21.0475 -21.0475 -20.7885 -20.7885 -20.7885
     1.0436   3.2173   3.3980   3.3980  12.2410  12.2410  12.2410  12.4625
    12.4625  12.4625  14.8084  14.8084  14.8084  15.5020  15.5020  15.5020
    15.6200  15.6200  15.6200  17.1540  17.1540  17.1540  17.2700  17.2700
    17.2700  17.8429  17.8429

          k = 0.0000 0.0000 0.2000 (  2393 PWs)   bands (ev):

   -47.2537 -47.1807 -47.1752 -46.9428 -21.3265 -21.3265 -21.3143 -21.0735
   -21.0735 -21.0600 -21.0567 -21.0401 -21.0401 -20.8196 -20.8008 -20.8008
     1.3239   3.2121   3.4542   3.5405  12.0138  12.0775  12.0775  12.2439
    12.2439  12.6333  14.5658  14.5773  14.5773  14.5905  14.7035  15.1525
    15.1525  15.3312  16.1109  16.1109  17.2676  17.4621  17.4621  17.6903
    17.6903  17.8437  18.1120

          k = 0.0000 0.0000 0.4000 (  2384 PWs)   bands (ev):

   -47.2342 -47.1991 -47.1777 -46.9468 -21.2830 -21.2830 -21.2392 -21.1205
   -21.1205 -21.1018 -21.0605 -21.0207 -21.0207 -20.8722 -20.8234 -20.8234
     2.0330   2.8122   3.6774   3.7893  11.8212  11.8212  11.9881  11.9881
    12.0748  13.0587  13.2043  13.4922  13.5588  14.0263  14.3662  14.3662
    14.6404  14.6404  17.0516  17.0516  17.2645  17.6497  17.6497  17.8453
    18.2987  18.2987  18.4981

          k = 0.0000 0.2000 0.2000 (  2374 PWs)   bands (ev):

   -47.2471 -47.1845 -47.1801 -46.9457 -21.3349 -21.3072 -21.2740 -21.1285
   -21.0647 -21.0593 -21.0586 -21.0478 -21.0210 -20.8502 -20.8142 -20.7902
     1.5952   3.3237   3.4664   3.6326  11.7111  11.8176  11.8513  11.9657
    12.2833  12.4204  13.8309  13.8590  14.4676  14.5614  14.6614  14.9435
    15.3700  15.7084  15.7726  15.9739  16.7875  17.3018  17.6527  17.6623
    17.9260  18.0721  18.1432

          k = 0.0000 0.2000 0.4000 (  2370 PWs)   bands (ev):

   -47.2306 -47.2006 -47.1842 -46.9504 -21.3246 -21.2651 -21.2036 -21.1821
   -21.1068 -21.1064 -21.0499 -21.0398 -21.0038 -20.8519 -20.8391 -20.8074
     2.2783   3.0160   3.6972   3.8342  11.2434  11.4088  11.7273  11.7777
    12.0126  12.6133  12.6498  13.2628  13.7250  13.8435  14.2757  14.4136
    14.9043  15.4362  16.5446  16.8492  17.1494  17.4682  17.7473  17.9525
    18.0873  18.3360  18.4455

          k = 0.0000 0.4000 0.4000 (  2356 PWs)   bands (ev):

   -47.2204 -47.2045 -47.1980 -46.9565 -21.3581 -21.2303 -21.2266 -21.1808
   -21.1460 -21.0812 -21.0793 -21.0631 -20.9509 -20.8688 -20.8167 -20.7975
     2.8775   3.4228   3.5455   3.8339  10.7118  10.9916  11.0742  11.6126
    11.7019  12.0914  12.2857  12.6010  13.6687  13.6965  13.8075  13.9370
    15.3241  16.2043  16.3447  16.8082  17.1420  17.7455  17.9170  18.0747
    18.3315  18.6681  18.7751

          k = 0.2000 0.2000 0.2000 (  2349 PWs)   bands (ev):

   -47.2418 -47.1867 -47.1867 -46.9489 -21.3652 -21.2651 -21.2651 -21.1237
   -21.1237 -21.1079 -21.0147 -21.0147 -21.0132 -20.8780 -20.7967 -20.7967
     1.8577   3.4380   3.6144   3.6144  11.1355  11.3639  11.3639  12.3275
    12.3275  12.3473  12.7885  14.2780  14.2780  14.3510  14.3510  14.4579
    15.8330  15.8330  15.9468  16.3730  16.3730  17.2587  17.4678  17.4678
    17.8484  17.9207  18.3015

          k = 0.2000 0.2000 0.4000 (  2378 PWs)   bands (ev):

   -47.2281 -47.2025 -47.1901 -46.9542 -21.3806 -21.2418 -21.2227 -21.1792
   -21.1723 -21.0944 -21.0285 -21.0005 -20.9910 -20.8579 -20.8111 -20.8080
     2.5151   3.2101   3.7716   3.8759  10.5572  10.7648  11.0993  11.7390
    12.1661  12.2815  12.7693  13.5580  13.6690  13.7366  13.9021  14.0032
    15.5051  15.9774  16.6655  16.7334  17.2336  17.4142  17.4993  17.7549
    17.8748  18.1578  18.4231

          k = 0.2000 0.4000 0.4000 (  2384 PWs)   bands (ev):

   -47.2203 -47.2070 -47.2022 -46.9605 -21.4253 -21.2722 -21.2514 -21.2314
   -21.1477 -21.0767 -21.0022 -21.0020 -20.9497 -20.8434 -20.8045 -20.7940
     3.0867   3.5822   3.7059   3.9249   9.9601  10.2422  10.3422  10.7431
    12.3152  12.5294  12.6813  13.1224  13.4166  13.4363  13.5162  13.5853
    15.9175  16.6676  16.6867  17.0115  17.1213  17.5835  17.6560  17.8511
    17.9625  18.3851  18.5786

          k = 0.4000 0.4000 0.4000 (  2377 PWs)   bands (ev):

   -47.2184 -47.2112 -47.2112 -46.9672 -21.4897 -21.3184 -21.3184 -21.3045
   -21.0755 -21.0755 -20.9495 -20.9495 -20.9460 -20.8048 -20.7855 -20.7855
     3.5534   3.8561   3.9967   3.9967   9.2131   9.5246   9.5246   9.7661
    12.7835  12.7847  12.7847  13.0727  13.0727  13.1745  13.1745  13.2515
    16.6553  16.6553  17.2738  17.3872  17.3872  17.4799  17.4799  17.6565
    18.0844  18.5888  18.7528

 ------ SPIN DOWN ----------


          k = 0.0000 0.0000 0.0000 (  2373 PWs)   bands (ev):

   -45.1122 -45.0175 -45.0175 -44.7521 -19.3117 -19.3117 -19.3117 -18.9326
   -18.9326 -18.9326 -18.8670 -18.8670 -18.8670 -18.6204 -18.6204 -18.6204
     0.9972   3.0378   3.2266   3.2266  12.4279  12.4279  12.4279  15.3258
    15.3258  15.3258  15.3754  15.3754  15.3754  16.7473  16.7473  16.7473
    18.5794  18.5794  18.5794  20.9125  20.9125  21.1918  21.1918  21.1918
    21.9811  21.9811  21.9824

          k = 0.0000 0.0000 0.2000 (  2393 PWs)   bands (ev):

   -45.1039 -45.0252 -45.0198 -44.7548 -19.2938 -19.2938 -19.2891 -18.9351
   -18.9326 -18.9326 -18.8701 -18.8679 -18.8679 -18.6563 -18.6325 -18.6325
     1.2669   3.0393   3.2712   3.3588  12.2376  12.5771  12.5771  14.6059
    14.6524  14.7090  14.7090  15.3739  15.3934  15.3934  16.4517  16.4517
    18.7764  19.5779  19.5779  20.8771  21.0045  21.7691  21.7691  21.8773
    22.0266  22.5629  22.5858

          k = 0.0000 0.0000 0.4000 (  2384 PWs)   bands (ev):

   -45.0830 -45.0455 -45.0233 -44.7595 -19.2620 -19.2620 -19.2469 -18.9447
   -18.9447 -18.9384 -18.8752 -18.8570 -18.8570 -18.7212 -18.6552 -18.6552
     1.9411   2.6767   3.4651   3.5874  12.3229  13.0129  13.0129  13.3805
    13.6686  13.7090  13.7561  13.7561  15.5531  15.5531  15.9500  15.9500
    19.3179  20.1543  21.2344  21.4270  21.4270  21.6258  22.9384  22.9384
    23.0684  23.0684  23.3334

          k = 0.0000 0.2000 0.2000 (  2374 PWs)   bands (ev):

   -45.0959 -45.0280 -45.0239 -44.7562 -19.3274 -19.2775 -19.2295 -18.9693
   -18.9450 -18.9251 -18.8754 -18.8741 -18.8346 -18.6914 -18.6457 -18.6198
     1.5284   3.1395   3.2918   3.4412  12.2858  12.3316  12.7186  13.6852
    14.6494  14.6849  14.7215  14.7609  14.8077  14.9510  15.4956  16.1070
    19.7366  19.7375  20.2104  21.4707  21.5037  21.5080  22.2277  22.4246
    22.4822  22.7872  23.2787

          k = 0.0000 0.2000 0.4000 (  2370 PWs)   bands (ev):

   -45.0760 -45.0435 -45.0265 -44.7587 -19.3383 -19.2488 -19.1652 -19.0101
   -18.9584 -18.9276 -18.9066 -18.8681 -18.8115 -18.6908 -18.6708 -18.6364
     2.1779   2.8718   3.4894   3.6292  12.2558  12.4363  12.7421  13.1367
    13.2640  13.8600  13.8993  14.0882  14.8040  15.0256  15.0767  15.5126
    20.1793  20.9010  21.5390  21.7106  21.8248  22.2035  22.7742  22.9694
    23.1257  23.1619  23.3938

          k = 0.0000 0.4000 0.4000 (  2356 PWs)   bands (ev):

   -45.0589 -45.0418 -45.0348 -44.7572 -19.3888 -19.2255 -19.0960 -19.0622
   -18.9924 -18.9827 -18.8965 -18.8856 -18.7518 -18.7018 -18.6465 -18.6246
     2.7442   3.2489   3.3744   3.6329  11.9567  11.9648  12.1236  12.5759
    13.5105  13.9118  13.9129  14.0359  14.1609  14.2051  14.2357  14.7777
    21.8324  21.8418  22.3533  22.3739  22.4280  22.5821  22.7418  22.8577
    23.2091  23.3162  23.4813

          k = 0.2000 0.2000 0.2000 (  2349 PWs)   bands (ev):

   -45.0882 -45.0281 -45.0281 -44.7564 -19.3719 -19.2169 -19.2169 -18.9951
   -18.9951 -18.9479 -18.8440 -18.8440 -18.8205 -18.7215 -18.6265 -18.6265
     1.7813   3.2417   3.4294   3.4294  12.2830  12.2830  12.3799  13.8035
    13.9520  13.9520  14.4270  14.6830  14.6830  14.7192  15.3301  15.3301
    20.3422  20.3463  20.3463  21.7765  21.8532  21.8532  22.8950  22.8950
    23.1551  23.2011  23.2011

          k = 0.2000 0.2000 0.4000 (  2378 PWs)   bands (ev):

   -45.0693 -45.0412 -45.0281 -44.7570 -19.4037 -19.1891 -19.1508 -19.0566
   -19.0233 -18.9892 -18.8445 -18.8224 -18.7966 -18.6922 -18.6407 -18.6386
     2.4040   3.0533   3.5555   3.6692  12.0784  12.0964  12.2363  12.9730
    13.3788  13.5101  14.0794  14.0978  14.2354  14.6749  14.7578  15.0327
    20.7137  21.3429  21.7995  21.8026  22.4527  22.8632  22.9005  23.1689
    23.2134  23.4773  23.8067

          k = 0.2000 0.4000 0.4000 (  2384 PWs)   bands (ev):

   -45.0535 -45.0387 -45.0334 -44.7541 -19.4623 -19.1567 -19.1116 -19.1093
   -19.0716 -19.0617 -18.8109 -18.8090 -18.7503 -18.6735 -18.6347 -18.6220
     2.9355   3.3879   3.5169   3.7094  11.5687  11.6336  11.7710  12.1726
    13.5153  13.7210  13.7952  13.8871  14.0834  14.0869  14.2018  14.4500
    22.0087  22.0364  22.3782  22.6366  22.6387  23.2084  23.2096  23.3424
    23.3724  23.4755  23.6806

          k = 0.4000 0.4000 0.4000 (  2377 PWs)   bands (ev):

   -45.0415 -45.0330 -45.0330 -44.7485 -19.5378 -19.1725 -19.1725 -19.1578
   -19.0797 -19.0797 -18.7495 -18.7495 -18.7459 -18.6340 -18.6142 -18.6142
     3.3406   3.6253   3.7672   3.7672  11.0362  11.0362  11.1499  11.3852
    13.5456  13.6887  13.6887  13.8107  13.8107  13.8814  14.0350  14.0350
    22.8208  22.8318  22.8318  23.1991  23.2604  23.2604  23.3653  23.4702
    23.4702  23.7585  23.7585

     the Fermi energy is    18.0241 ev

!    total energy              =    -660.07832318 Ry
     estimated scf accuracy    <       0.00000029 Ry
     smearing contrib. (-TS)   =      -0.01944503 Ry
     internal energy E=F+TS    =    -660.05887814 Ry

     The total energy is F=E-TS. E is the sum of the following terms:
     one-electron contribution =    -148.66731430 Ry
     hartree contribution      =     121.07075002 Ry
     xc contribution           =    -101.44986412 Ry
     ewald contribution        =    -532.03336123 Ry
     DFT-D3 Dispersion         =      -0.24367539 Ry
     Hubbard energy            =       1.26458687 Ry

     total magnetization       =     7.91 Bohr mag/cell
     absolute magnetization    =     9.86 Bohr mag/cell

     convergence has been achieved in  24 iterations

     negative rho (up, down):  5.788E-05 9.497E-03
     force_hub    :      0.29s CPU      0.30s WALL (       1 calls)
     dndtau       :      0.26s CPU      0.27s WALL (     240 calls)
     dprojdtau    :      0.06s CPU      0.06s WALL (     960 calls)
     calc_doverla :      0.14s CPU      0.14s WALL (     240 calls)
     matel_dSdtau :      0.13s CPU      0.14s WALL (     480 calls)

     Forces acting on atoms (cartesian axes, Ry/au):

     atom    1 type  1   force =     0.00000000    0.00000000    0.00000000
     atom    2 type  1   force =     0.00000000    0.00000000    0.00000000
     atom    3 type  1   force =     0.00000000    0.00000000    0.00000000
     atom    4 type  1   force =     0.00000000    0.00000000    0.00000000
     atom    5 type  2   force =     0.00000000    0.00000000    0.00000000
     atom    6 type  2   force =     0.00000000    0.00000000    0.00000000
     atom    7 type  2   force =     0.00000000    0.00000000    0.00000000
     atom    8 type  2   force =     0.00000000    0.00000000    0.00000000

     Total force =     0.000000     Total SCF correction =     0.000000


     Computing stress (Cartesian axis) and pressure


     negative rho (up, down):  5.788E-05 9.497E-03
     stres_hub    :      0.53s CPU      0.54s WALL (       1 calls)
     dprojdepsilo :      0.49s CPU      0.50s WALL (      90 calls)
     dprojdeps1   :      0.04s CPU      0.04s WALL (      90 calls)
     dprojdeps2   :      0.29s CPU      0.29s WALL (      90 calls)
     dprojdeps3   :      0.16s CPU      0.16s WALL (      90 calls)
          total   stress  (Ry/bohr**3)                   (kbar)     P=      387.52
   0.00263429   0.00000000   0.00000000          387.52        0.00        0.00
   0.00000000   0.00263429   0.00000000            0.00      387.52        0.00
   0.00000000   0.00000000   0.00263429            0.00        0.00      387.52


     BFGS Geometry Optimization
     Energy error            =      1.8E-01 Ry
     Gradient error          =      0.0E+00 Ry/Bohr
     Cell gradient error     =      3.9E+02 kbar

     number of scf cycles    =   1
     number of bfgs steps    =   0

     enthalpy           new  =    -660.0783231769 Ry

     new trust radius        =       0.2843049617 bohr
     new conv_thr            =       0.0000010000 Ry

     new unit-cell volume =    564.15559 a.u.^3 (    83.59923 Ang^3 )
     density =      0.15890 g/cm^3

CELL_PARAMETERS (angstrom)
   4.372543092   0.000000000   0.000000000
   0.000000000   4.372543092   0.000000000
   0.000000000   0.000000000   4.372543092

ATOMIC_POSITIONS (angstrom)
V                0.0000000000        0.0000000000        0.0000000000
V                2.1862715438        2.1862715438        0.0000000000
V                2.1862715438        0.0000000000        2.1862715438
V                0.0000000000        2.1862715438        2.1862715438
N                0.0000000000        0.0000000000        2.1862715438
N                0.0000000000        2.1862715438        0.0000000000
N                2.1862715438        0.0000000000        0.0000000000
N                2.1862715438        2.1862715438        2.1862715438



     Writing config-only to output data dir ./tmp/vn.save/ :
     XML data file
     NEW-OLD atomic charge density approx. for the potential
     New effective cutoffs (rho, wfc):  396.08   39.60

     Check: negative core charge=   -0.000003

     negative rho (up, down):  4.344E-05 9.649E-03
     Generating pointlists ...

     Atomic wfc used for Hubbard projectors are orthogonalized


     total cpu time spent up to now is       10.2 secs

     per-process dynamical memory:   130.2 Mb

     Self-consistent Calculation

     iteration #  1     ecut=    45.00 Ry     beta= 0.30
     Davidson diagonalization with overlap
     ethr =  1.00E-06,  avg # of iterations = 12.4

     =================== HUBBARD OCCUPATIONS ===================
     ------------------------ ATOM    1 ------------------------
     Tr[ns(  1)] (up, down, total) =   2.95107  0.56298  3.51406
     Atomic magnetic moment for atom   1 =   2.38809
     SPIN  1
     eigenvalues:
       0.281  0.281  0.797  0.797  0.797
     eigenvectors (columns):
      -0.261  0.965 -0.000 -0.000  0.000
      -0.000  0.000  0.282 -0.758 -0.589
      -0.000  0.000  0.392 -0.469  0.791
       0.965  0.261  0.000 -0.000 -0.000
       0.000 -0.000 -0.875 -0.454  0.165
     occupation matrix ns (before diag.):
       0.281 -0.000 -0.000  0.000  0.000
      -0.000  0.797 -0.000  0.000  0.000
      -0.000 -0.000  0.797  0.000  0.000
       0.000  0.000  0.000  0.281 -0.000
       0.000  0.000  0.000 -0.000  0.797
     SPIN  2
     eigenvalues:
       0.057  0.057  0.057  0.196  0.196
     eigenvectors (columns):
      -0.000  0.000  0.000  0.345 -0.939
      -0.284 -0.891  0.355 -0.000  0.000
      -0.368 -0.241 -0.898 -0.000 -0.000
       0.000  0.000 -0.000 -0.939 -0.345
       0.885 -0.386 -0.259  0.000 -0.000
     occupation matrix ns (before diag.):
       0.196 -0.000 -0.000  0.000  0.000
      -0.000  0.057 -0.000  0.000  0.000
      -0.000 -0.000  0.057  0.000  0.000
       0.000  0.000  0.000  0.196 -0.000
       0.000  0.000  0.000 -0.000  0.057
     ------------------------ ATOM    2 ------------------------
     Tr[ns(  2)] (up, down, total) =   2.93549  0.57534  3.51083
     Atomic magnetic moment for atom   2 =   2.36016
     SPIN  1
     eigenvalues:
       0.268  0.277  0.733  0.733  0.925
     eigenvectors (columns):
      -0.000 -1.000 -0.000  0.000  0.000
      -0.000 -0.000  0.680 -0.733  0.000
      -0.000 -0.000  0.733  0.680  0.000
       1.000 -0.000  0.000 -0.000 -0.000
       0.000  0.000 -0.000 -0.000  1.000
     occupation matrix ns (before diag.):
       0.277 -0.000 -0.000  0.000  0.000
      -0.000  0.733 -0.000  0.000  0.000
      -0.000 -0.000  0.733  0.000  0.000
       0.000  0.000  0.000  0.268 -0.000
       0.000  0.000  0.000 -0.000  0.925
     SPIN  2
     eigenvalues:
       0.060  0.060  0.060  0.198  0.198
     eigenvectors (columns):
      -0.000 -0.000  0.000 -0.000  1.000
      -0.817 -0.577 -0.000  0.000 -0.000
      -0.577  0.817 -0.000  0.000 -0.000
       0.000 -0.000 -0.000  1.000  0.000
       0.000 -0.000 -1.000 -0.000  0.000
     occupation matrix ns (before diag.):
       0.198 -0.000 -0.000  0.000  0.000
      -0.000  0.060 -0.000  0.000  0.000
      -0.000 -0.000  0.060  0.000  0.000
       0.000  0.000  0.000  0.198 -0.000
       0.000  0.000  0.000 -0.000  0.060
     ------------------------ ATOM    3 ------------------------
     Tr[ns(  3)] (up, down, total) =   2.93549  0.57534  3.51083
     Atomic magnetic moment for atom   3 =   2.36016
     SPIN  1
     eigenvalues:
       0.268  0.277  0.733  0.733  0.925
     eigenvectors (columns):
       0.866  0.500 -0.000 -0.000  0.000
       0.000 -0.000  0.000 -0.000 -1.000
       0.000 -0.000  0.387 -0.922  0.000
      -0.500  0.866  0.000  0.000 -0.000
      -0.000  0.000 -0.922 -0.387 -0.000
     occupation matrix ns (before diag.):
       0.270 -0.000 -0.000  0.004  0.000
      -0.000  0.925 -0.000  0.000  0.000
      -0.000 -0.000  0.733  0.000  0.000
       0.004  0.000  0.000  0.274 -0.000
       0.000  0.000  0.000 -0.000  0.733
     SPIN  2
     eigenvalues:
       0.060  0.060  0.060  0.198  0.198
     eigenvectors (columns):
      -0.000 -0.000  0.000 -0.866 -0.500
      -0.000  0.000  1.000  0.000 -0.000
      -0.389  0.921 -0.000  0.000 -0.000
       0.000  0.000 -0.000  0.500 -0.866
       0.921  0.389  0.000 -0.000  0.000
     occupation matrix ns (before diag.):
       0.198 -0.000 -0.000  0.000  0.000
      -0.000  0.060 -0.000  0.000  0.000
      -0.000 -0.000  0.060  0.000  0.000
       0.000  0.000  0.000  0.198 -0.000
       0.000  0.000  0.000 -0.000  0.060
     ------------------------ ATOM    4 ------------------------
     Tr[ns(  4)] (up, down, total) =   2.93549  0.57534  3.51083
     Atomic magnetic moment for atom   4 =   2.36016
     SPIN  1
     eigenvalues:
       0.268  0.277  0.733  0.733  0.925
     eigenvectors (columns):
       0.866  0.500 -0.000 -0.000  0.000
       0.000  0.000  0.262  0.965  0.000
      -0.000  0.000  0.000  0.000 -1.000
       0.500 -0.866  0.000  0.000 -0.000
      -0.000 -0.000 -0.965  0.262 -0.000
     occupation matrix ns (before diag.):
       0.270 -0.000 -0.000 -0.004  0.000
      -0.000  0.733 -0.000  0.000  0.000
      -0.000 -0.000  0.925  0.000  0.000
      -0.004  0.000  0.000  0.274 -0.000
       0.000  0.000  0.000 -0.000  0.733
     SPIN  2
     eigenvalues:
       0.060  0.060  0.060  0.198  0.198
     eigenvectors (columns):
      -0.000 -0.000  0.000 -0.866 -0.500
      -0.266  0.964 -0.000  0.000  0.000
      -0.000  0.000  1.000 -0.000  0.000
       0.000 -0.000 -0.000 -0.500  0.866
       0.964  0.266  0.000 -0.000 -0.000
     occupation matrix ns (before diag.):
       0.198 -0.000 -0.000 -0.000  0.000
      -0.000  0.060 -0.000  0.000  0.000
      -0.000 -0.000  0.060  0.000  0.000
      -0.000  0.000  0.000  0.198 -0.000
       0.000  0.000  0.000 -0.000  0.060

     Number of occupied Hubbard levels =   14.0466

     negative rho (up, down):  1.135E-05 9.759E-03

     total cpu time spent up to now is       11.2 secs

     total energy              =    -660.13524768 Ry
     estimated scf accuracy    <       0.01244035 Ry

     total magnetization       =     7.62 Bohr mag/cell
     absolute magnetization    =    10.65 Bohr mag/cell

     iteration #  2     ecut=    45.00 Ry     beta= 0.30
     Davidson diagonalization with overlap
     ethr =  1.73E-05,  avg # of iterations =  2.3

     negative rho (up, down):  0.000E+00 9.953E-03

     total cpu time spent up to now is       11.4 secs

     total energy              =    -660.13890980 Ry
     estimated scf accuracy    <       0.00465620 Ry

     total magnetization       =     7.61 Bohr mag/cell
     absolute magnetization    =    10.78 Bohr mag/cell

     iteration #  3     ecut=    45.00 Ry     beta= 0.30
     Davidson diagonalization with overlap
     ethr =  6.47E-06,  avg # of iterations =  2.9

     negative rho (up, down):  0.000E+00 1.018E-02

     total cpu time spent up to now is       11.7 secs

     total energy              =    -660.14100008 Ry
     estimated scf accuracy    <       0.00121493 Ry

     total magnetization       =     7.62 Bohr mag/cell
     absolute magnetization    =    10.94 Bohr mag/cell

     iteration #  4     ecut=    45.00 Ry     beta= 0.30
     Davidson diagonalization with overlap
     ethr =  1.69E-06,  avg # of iterations =  5.5

     negative rho (up, down):  0.000E+00 1.019E-02

     total cpu time spent up to now is       12.0 secs

     total energy              =    -660.14181397 Ry
     estimated scf accuracy    <       0.00052885 Ry

     total magnetization       =     7.62 Bohr mag/cell
     absolute magnetization    =    11.13 Bohr mag/cell

     iteration #  5     ecut=    45.00 Ry     beta= 0.30
     Davidson diagonalization with overlap
     ethr =  7.35E-07,  avg # of iterations =  1.4

     negative rho (up, down):  0.000E+00 1.024E-02

     total cpu time spent up to now is       12.2 secs

     total energy              =    -660.14215637 Ry
     estimated scf accuracy    <       0.00051449 Ry

     total magnetization       =     7.62 Bohr mag/cell
     absolute magnetization    =    11.14 Bohr mag/cell

     iteration #  6     ecut=    45.00 Ry     beta= 0.30
     Davidson diagonalization with overlap
     ethr =  7.15E-07,  avg # of iterations =  3.5

     negative rho (up, down):  0.000E+00 1.027E-02

     total cpu time spent up to now is       12.5 secs

     total energy              =    -660.14250015 Ry
     estimated scf accuracy    <       0.00051106 Ry

     total magnetization       =     7.61 Bohr mag/cell
     absolute magnetization    =    11.24 Bohr mag/cell

     iteration #  7     ecut=    45.00 Ry     beta= 0.30
     Davidson diagonalization with overlap
     ethr =  7.10E-07,  avg # of iterations =  2.5

     negative rho (up, down):  0.000E+00 1.028E-02

     total cpu time spent up to now is       12.7 secs

     total energy              =    -660.14261543 Ry
     estimated scf accuracy    <       0.00034783 Ry

     total magnetization       =     7.61 Bohr mag/cell
     absolute magnetization    =    11.29 Bohr mag/cell

     iteration #  8     ecut=    45.00 Ry     beta= 0.30
     Davidson diagonalization with overlap
     ethr =  4.83E-07,  avg # of iterations =  2.2

     negative rho (up, down):  0.000E+00 1.031E-02

     total cpu time spent up to now is       12.9 secs

     total energy              =    -660.14267967 Ry
     estimated scf accuracy    <       0.00015009 Ry

     total magnetization       =     7.61 Bohr mag/cell
     absolute magnetization    =    11.31 Bohr mag/cell

     iteration #  9     ecut=    45.00 Ry     beta= 0.30
     Davidson diagonalization with overlap
     ethr =  2.08E-07,  avg # of iterations =  4.2

     negative rho (up, down):  0.000E+00 1.034E-02

     total cpu time spent up to now is       13.2 secs

     total energy              =    -660.14273884 Ry
     estimated scf accuracy    <       0.00007803 Ry

     total magnetization       =     7.61 Bohr mag/cell
     absolute magnetization    =    11.33 Bohr mag/cell

     iteration # 10     ecut=    45.00 Ry     beta= 0.30
     Davidson diagonalization with overlap
     ethr =  1.08E-07,  avg # of iterations =  5.0

     negative rho (up, down):  0.000E+00 1.038E-02

     total cpu time spent up to now is       13.5 secs

     total energy              =    -660.14270965 Ry
     estimated scf accuracy    <       0.00002495 Ry

     total magnetization       =     7.61 Bohr mag/cell
     absolute magnetization    =    11.37 Bohr mag/cell

     iteration # 11     ecut=    45.00 Ry     beta= 0.30
     Davidson diagonalization with overlap
     ethr =  3.47E-08,  avg # of iterations =  6.0

     negative rho (up, down):  0.000E+00 1.038E-02

     total cpu time spent up to now is       13.9 secs

     total energy              =    -660.14284221 Ry
     estimated scf accuracy    <       0.00000577 Ry

     total magnetization       =     7.61 Bohr mag/cell
     absolute magnetization    =    11.41 Bohr mag/cell

     iteration # 12     ecut=    45.00 Ry     beta= 0.30
     Davidson diagonalization with overlap
     ethr =  8.01E-09,  avg # of iterations =  2.7

     negative rho (up, down):  0.000E+00 1.038E-02

     total cpu time spent up to now is       14.2 secs

     total energy              =    -660.14284255 Ry
     estimated scf accuracy    <       0.00000422 Ry

     total magnetization       =     7.61 Bohr mag/cell
     absolute magnetization    =    11.41 Bohr mag/cell

     iteration # 13     ecut=    45.00 Ry     beta= 0.30
     Davidson diagonalization with overlap
     ethr =  5.86E-09,  avg # of iterations =  1.9

     negative rho (up, down):  0.000E+00 1.038E-02

     total cpu time spent up to now is       14.4 secs

     total energy              =    -660.14284298 Ry
     estimated scf accuracy    <       0.00000157 Ry

     total magnetization       =     7.61 Bohr mag/cell
     absolute magnetization    =    11.41 Bohr mag/cell

     iteration # 14     ecut=    45.00 Ry     beta= 0.30
     Davidson diagonalization with overlap
     ethr =  2.17E-09,  avg # of iterations =  3.9

     negative rho (up, down):  0.000E+00 1.037E-02

     Magnetic moment per site  (integrated on atomic sphere of radius R)
     atom   1 (R=0.206)  charge=  9.9724  magn=  1.8338
     atom   2 (R=0.206)  charge=  9.9718  magn=  1.8281
     atom   3 (R=0.206)  charge=  9.9718  magn=  1.8281
     atom   4 (R=0.206)  charge=  9.9718  magn=  1.8281
     atom   5 (R=0.206)  charge=  4.4271  magn= -0.4481
     atom   6 (R=0.206)  charge=  4.4271  magn= -0.4481
     atom   7 (R=0.206)  charge=  4.4271  magn= -0.4481
     atom   8 (R=0.206)  charge=  4.4280  magn= -0.4438

     total cpu time spent up to now is       14.7 secs

     End of self-consistent calculation

     =================== HUBBARD OCCUPATIONS ===================
     ------------------------ ATOM    1 ------------------------
     Tr[ns(  1)] (up, down, total) =   2.98386  0.50877  3.49263
     Atomic magnetic moment for atom   1 =   2.47509
     SPIN  1
     eigenvalues:
       0.268  0.268  0.816  0.816  0.816
     eigenvectors (columns):
      -0.497  0.868 -0.000 -0.000  0.000
      -0.000  0.000  0.275 -0.666 -0.694
      -0.000 -0.000  0.415 -0.569  0.710
       0.868  0.497  0.000  0.000 -0.000
       0.000 -0.000 -0.867 -0.483  0.120
     occupation matrix ns (before diag.):
       0.268 -0.000 -0.000  0.000  0.000
      -0.000  0.816 -0.000  0.000  0.000
      -0.000 -0.000  0.816  0.000  0.000
       0.000  0.000  0.000  0.268 -0.000
       0.000  0.000  0.000 -0.000  0.816
     SPIN  2
     eigenvalues:
       0.051  0.051  0.051  0.177  0.177
     eigenvectors (columns):
      -0.000  0.000  0.000  0.402 -0.916
      -0.258 -0.862  0.436 -0.000 -0.000
      -0.354 -0.335 -0.873 -0.000  0.000
       0.000  0.000 -0.000 -0.916 -0.402
       0.899 -0.380 -0.219  0.000 -0.000
     occupation matrix ns (before diag.):
       0.177 -0.000 -0.000  0.000  0.000
      -0.000  0.051 -0.000  0.000  0.000
      -0.000 -0.000  0.051  0.000  0.000
       0.000  0.000  0.000  0.177 -0.000
       0.000  0.000  0.000 -0.000  0.051
     ------------------------ ATOM    2 ------------------------
     Tr[ns(  2)] (up, down, total) =   2.97581  0.51408  3.48989
     Atomic magnetic moment for atom   2 =   2.46174
     SPIN  1
     eigenvalues:
       0.256  0.263  0.779  0.779  0.898
     eigenvectors (columns):
       0.000 -1.000 -0.000  0.000  0.000
       0.000 -0.000  0.727 -0.686  0.000
       0.000 -0.000  0.686  0.727  0.000
      -1.000 -0.000  0.000 -0.000 -0.000
      -0.000  0.000 -0.000 -0.000  1.000
     occupation matrix ns (before diag.):
       0.263 -0.000 -0.000  0.000  0.000
      -0.000  0.779 -0.000  0.000  0.000
      -0.000 -0.000  0.779  0.000  0.000
       0.000  0.000  0.000  0.256 -0.000
       0.000  0.000  0.000 -0.000  0.898
     SPIN  2
     eigenvalues:
       0.053  0.053  0.053  0.178  0.178
     eigenvectors (columns):
      -0.000 -0.000 -0.000  0.000  1.000
      -0.000 -0.772 -0.635 -0.000 -0.000
      -0.000 -0.635  0.772 -0.000 -0.000
       0.000  0.000 -0.000 -1.000  0.000
       1.000 -0.000  0.000  0.000  0.000
     occupation matrix ns (before diag.):
       0.178 -0.000 -0.000  0.000  0.000
      -0.000  0.053 -0.000  0.000  0.000
      -0.000 -0.000  0.053  0.000  0.000
       0.000  0.000  0.000  0.178 -0.000
       0.000  0.000  0.000 -0.000  0.053
     ------------------------ ATOM    3 ------------------------
     Tr[ns(  3)] (up, down, total) =   2.97581  0.51408  3.48989
     Atomic magnetic moment for atom   3 =   2.46174
     SPIN  1
     eigenvalues:
       0.256  0.263  0.779  0.779  0.898
     eigenvectors (columns):
       0.866  0.500 -0.000 -0.000  0.000
       0.000 -0.000  0.000 -0.000 -1.000
       0.000 -0.000  0.375 -0.927  0.000
      -0.500  0.866  0.000  0.000 -0.000
      -0.000  0.000 -0.927 -0.375 -0.000
     occupation matrix ns (before diag.):
       0.258 -0.000 -0.000  0.003  0.000
      -0.000  0.898 -0.000  0.000  0.000
      -0.000 -0.000  0.779  0.000  0.000
       0.003  0.000  0.000  0.261 -0.000
       0.000  0.000  0.000 -0.000  0.779
     SPIN  2
     eigenvalues:
       0.053  0.053  0.053  0.178  0.178
     eigenvectors (columns):
       0.000 -0.000 -0.000 -0.866 -0.500
       1.000  0.000 -0.000  0.000 -0.000
       0.000 -0.364  0.931  0.000 -0.000
      -0.000  0.000 -0.000  0.500 -0.866
      -0.000  0.931  0.364 -0.000  0.000
     occupation matrix ns (before diag.):
       0.178 -0.000 -0.000  0.000  0.000
      -0.000  0.053 -0.000  0.000  0.000
      -0.000 -0.000  0.053  0.000  0.000
       0.000  0.000  0.000  0.178 -0.000
       0.000  0.000  0.000 -0.000  0.053
     ------------------------ ATOM    4 ------------------------
     Tr[ns(  4)] (up, down, total) =   2.97581  0.51408  3.48989
     Atomic magnetic moment for atom   4 =   2.46174
     SPIN  1
     eigenvalues:
       0.256  0.263  0.779  0.779  0.898
     eigenvectors (columns):
       0.866  0.500 -0.000 -0.000  0.000
       0.000  0.000  0.248  0.969  0.000
      -0.000  0.000  0.000  0.000 -1.000
       0.500 -0.866  0.000  0.000 -0.000
      -0.000 -0.000 -0.969  0.248 -0.000
     occupation matrix ns (before diag.):
       0.258 -0.000 -0.000 -0.003  0.000
      -0.000  0.779 -0.000  0.000  0.000
      -0.000 -0.000  0.898  0.000  0.000
      -0.003  0.000  0.000  0.261 -0.000
       0.000  0.000  0.000 -0.000  0.779
     SPIN  2
     eigenvalues:
       0.053  0.053  0.053  0.178  0.178
     eigenvectors (columns):
       0.000 -0.000  0.000 -0.866 -0.500
       0.000 -0.249  0.969 -0.000  0.000
       1.000  0.000 -0.000 -0.000  0.000
      -0.000  0.000 -0.000 -0.500  0.866
      -0.000  0.969  0.249 -0.000 -0.000
     occupation matrix ns (before diag.):
       0.178 -0.000 -0.000 -0.000  0.000
      -0.000  0.053 -0.000  0.000  0.000
      -0.000 -0.000  0.053  0.000  0.000
      -0.000  0.000  0.000  0.178 -0.000
       0.000  0.000  0.000 -0.000  0.053

     Number of occupied Hubbard levels =   13.9623

 ------ SPIN UP ------------


          k = 0.0000 0.0000 0.0000 (  2373 PWs)   bands (ev):

   -51.1656 -51.1287 -51.1287 -51.0147 -25.1009 -25.1009 -25.1009 -24.9549
   -24.9549 -24.9549 -24.9519 -24.9519 -24.9519 -24.8247 -24.8247 -24.8247
    -1.2057   0.7706   0.8689   0.8689   9.3329   9.3329   9.3329   9.3440
     9.3440   9.3440  11.0508  11.0508  11.0508  12.3142  12.3142  12.3142
    12.3816  12.3816  12.3816  12.8469  12.8469  12.8469  13.2152  13.2152
    13.8235  13.8235  13.8235

          k = 0.0000 0.0000 0.1876 (  2393 PWs)   bands (ev):

   -51.1625 -51.1319 -51.1299 -51.0159 -25.0921 -25.0921 -25.0856 -24.9637
   -24.9637 -24.9594 -24.9524 -24.9481 -24.9481 -24.8392 -24.8308 -24.8308
    -0.9901   0.6861   0.8982   0.9528   9.1360   9.1360   9.2301   9.2301
     9.2379   9.4772  10.8778  10.9680  10.9680  11.6087  11.6751  11.7626
    11.7626  12.3093  12.6741  12.6741  12.8458  13.1946  13.1946  13.2157
    13.6921  13.6921  14.0386

          k = 0.0000 0.0000 0.3753 (  2384 PWs)   bands (ev):

   -51.1545 -51.1400 -51.1317 -51.0180 -25.0733 -25.0733 -25.0519 -24.9847
   -24.9847 -24.9741 -24.9533 -24.9384 -24.9384 -24.8644 -24.8420 -24.8420
    -0.4291   0.2364   1.0341   1.0957   8.9011   8.9011   9.0337   9.0337
     9.4608   9.8133  10.4775  10.5123  10.7414  10.7948  10.9145  10.9145
    11.2144  11.2144  12.8444  13.2150  13.2150  13.2167  13.4480  13.4480
    14.2639  14.2639  14.3550

          k = 0.0000 0.1876 0.1876 (  2374 PWs)   bands (ev):

   -51.1600 -51.1339 -51.1323 -51.0174 -25.0968 -25.0834 -25.0652 -24.9880
   -24.9600 -24.9592 -24.9567 -24.9494 -24.9368 -24.8542 -24.8374 -24.8258
    -0.7820   0.7583   0.8321   0.9969   8.8521   9.0074   9.0235   9.0481
     9.2567   9.3284  10.4434  10.5448  11.2032  11.4439  11.5308  11.7178
    11.9982  12.1121  12.4282  12.4556  12.8891  13.0191  13.3459  13.4590
    13.5805  13.7547  13.7895

          k = 0.0000 0.1876 0.3753 (  2370 PWs)   bands (ev):

   -51.1535 -51.1413 -51.1349 -51.0199 -25.0935 -25.0653 -25.0309 -25.0114
   -24.9779 -24.9771 -24.9540 -24.9472 -24.9277 -24.8557 -24.8497 -24.8344
    -0.2441   0.3822   0.9920   1.0895   8.4852   8.6270   8.8745   9.0483
     9.0494   9.5323   9.7335  10.0014  10.9830  11.0845  11.2470  11.2477
    11.4615  11.6331  12.4385  12.7937  12.9929  13.3616  13.5739  13.7762
    13.7780  13.9631  14.3364

          k = 0.0000 0.3753 0.3753 (  2356 PWs)   bands (ev):

   -51.1502 -51.1439 -51.1414 -51.0232 -25.1096 -25.0488 -25.0328 -25.0125
   -24.9930 -24.9694 -24.9651 -24.9645 -24.9024 -24.8643 -24.8394 -24.8302
     0.2191   0.6874   0.7549   1.0111   8.1010   8.3461   8.4232   8.8285
     8.8533   9.1174   9.2448   9.5062  11.0425  11.0666  11.1198  11.2907
    11.5139  12.0708  12.2006  12.4955  13.0970  13.4613  13.5593  13.6586
    14.2333  14.4304  14.5093

          k = 0.1876 0.1876 0.1876 (  2349 PWs)   bands (ev):

   -51.1581 -51.1355 -51.1355 -51.0191 -25.1122 -25.0600 -25.0600 -24.9893
   -24.9893 -24.9778 -24.9357 -24.9357 -24.9322 -24.8679 -24.8292 -24.8292
    -0.5814   0.8239   0.9202   0.9202   8.3665   8.5411   8.5411   9.3963
     9.3963   9.4448   9.6559  10.9638  10.9638  11.2849  11.2849  11.4016
    12.3098  12.3098  12.3498  12.8796  12.8796  13.2123  13.2123  13.3125
    13.4205  13.5769  13.7920

          k = 0.1876 0.1876 0.3753 (  2378 PWs)   bands (ev):

   -51.1531 -51.1428 -51.1380 -51.0221 -25.1203 -25.0449 -25.0344 -25.0200
   -25.0074 -24.9801 -24.9407 -24.9279 -24.9216 -24.8589 -24.8364 -24.8351
    -0.0677   0.5168   1.0121   1.0709   7.8862   8.0332   8.3615   8.8425
     9.2906   9.4059   9.8670  10.5711  10.7333  10.8800  10.8823  10.9841
    11.9809  12.2398  12.6168  12.7985  13.1523  13.2909  13.4964  13.6241
    13.6782  13.8607  13.9613

          k = 0.1876 0.3753 0.3753 (  2384 PWs)   bands (ev):

   -51.1510 -51.1458 -51.1440 -51.0256 -25.1417 -25.0532 -25.0437 -25.0339
   -25.0112 -24.9776 -24.9274 -24.9273 -24.9019 -24.8524 -24.8338 -24.8287
     0.3669   0.7837   0.8516   1.0409   7.4069   7.6171   7.6976   8.0078
     9.4755   9.6938   9.7992  10.1639  10.6180  10.7049  10.7631  10.8131
    12.2184  12.5999  12.6341  12.8710  13.0810  13.4174  13.4820  13.5842
    13.8192  14.0599  14.1636

          k = 0.3753 0.3753 0.3753 (  2377 PWs)   bands (ev):

   -51.1516 -51.1489 -51.1489 -51.0297 -25.1721 -25.0747 -25.0747 -25.0678
   -24.9781 -24.9781 -24.9019 -24.9019 -24.9001 -24.8342 -24.8249 -24.8249
     0.7010   0.9353   1.0185   1.0185   6.7897   7.0050   7.0050   7.1845
    10.0150  10.0150  10.0885  10.3481  10.3481  10.4018  10.4018  10.4785
    12.8239  12.8239  13.1373  13.2076  13.2076  13.2597  13.2597  13.3655
    13.8036  14.1184  14.2213

 ------ SPIN DOWN ----------


          k = 0.0000 0.0000 0.0000 (  2373 PWs)   bands (ev):

   -48.8507 -48.8101 -48.8101 -48.6876 -22.8749 -22.8749 -22.8749 -22.6690
   -22.6690 -22.6690 -22.6246 -22.6246 -22.6246 -22.5163 -22.5163 -22.5163
    -1.5901   0.1999   0.2879   0.2879   9.2690   9.2690   9.2690  11.8155
    11.8155  11.8155  11.8226  11.8226  11.8226  13.0548  13.0548  13.0548
    15.9126  15.9126  15.9126  17.4606  17.4606  17.9442  17.9442  17.9442
    18.2460  18.2461  18.2616

          k = 0.0000 0.0000 0.1876 (  2393 PWs)   bands (ev):

   -48.8473 -48.8136 -48.8117 -48.6891 -22.8671 -22.8671 -22.8650 -22.6668
   -22.6668 -22.6664 -22.6254 -22.6252 -22.6252 -22.5343 -22.5227 -22.5227
    -1.3914   0.1234   0.3092   0.3591   9.2141   9.4283   9.4283  11.3209
    11.3268  11.3746  11.3746  11.8826  11.8826  12.0179  12.8462  12.8462
    16.0719  16.6091  16.6091  17.5307  17.7073  18.1343  18.1733  18.3469
    18.3469  18.6121  18.6463

          k = 0.0000 0.0000 0.3753 (  2384 PWs)   bands (ev):

   -48.8387 -48.8229 -48.8142 -48.6918 -22.8538 -22.8538 -22.8474 -22.6670
   -22.6670 -22.6584 -22.6268 -22.6213 -22.6213 -22.5690 -22.5348 -22.5348
    -0.8797  -0.2793   0.4206   0.4791   9.4609   9.8804   9.8804  10.4327
    10.5761  10.5761  10.6384  10.6606  12.0823  12.0823  12.4392  12.4392
    16.5107  17.1470  17.7112  17.9795  18.0240  18.0240  18.8190  18.9343
    19.0252  19.2016  19.2016

          k = 0.0000 0.1876 0.1876 (  2374 PWs)   bands (ev):

   -48.8440 -48.8149 -48.8136 -48.6898 -22.8849 -22.8601 -22.8355 -22.6771
   -22.6729 -22.6619 -22.6284 -22.6275 -22.6091 -22.5537 -22.5296 -22.5161
    -1.2001   0.1847   0.2512   0.3945   9.2828   9.3078   9.5802  10.5529
    11.3886  11.4244  11.4461  11.4539  11.4617  11.5754  12.2430  12.6045
    16.7445  16.7449  17.0942  17.8415  18.1084  18.1852  18.5368  18.5546
    18.6324  18.7389  19.1386

          k = 0.0000 0.1876 0.3753 (  2370 PWs)   bands (ev):

   -48.8356 -48.8218 -48.8151 -48.6911 -22.8916 -22.8482 -22.8066 -22.6933
   -22.6728 -22.6578 -22.6456 -22.6257 -22.5979 -22.5533 -22.5431 -22.5247
    -0.7109  -0.1486   0.3849   0.4720   9.3950   9.4705   9.7877  10.0139
    10.2579  10.6868  10.8738  11.0322  11.5934  11.7088  11.8616  12.1312
    17.1180  17.6696  18.0829  18.1192  18.2479  18.3578  18.9009  19.0763
    19.2177  19.2718  19.3672

          k = 0.0000 0.3753 0.3753 (  2356 PWs)   bands (ev):

   -48.8281 -48.8207 -48.8180 -48.6899 -22.9163 -22.8385 -22.7738 -22.7162
   -22.6911 -22.6819 -22.6399 -22.6322 -22.5689 -22.5604 -22.5310 -22.5194
    -0.2940   0.1210   0.1806   0.4034   9.1617   9.1747   9.2520   9.6340
    10.4009  11.0085  11.0096  11.0170  11.0194  11.0974  11.2808  11.5391
    18.3711  18.3743  18.4313  18.7096  18.7160  18.7236  18.8208  18.8306
    19.2876  19.4725  19.5002

          k = 0.1876 0.1876 0.1876 (  2349 PWs)   bands (ev):

   -48.8408 -48.8150 -48.8150 -48.6897 -22.9072 -22.8300 -22.8300 -22.6934
   -22.6934 -22.6636 -22.6152 -22.6152 -22.6018 -22.5707 -22.5200 -22.5200
    -1.0166   0.2384   0.3265   0.3265   9.2997   9.2997   9.3520  10.7298
    10.7969  10.7969  11.0907  11.4787  11.4787  11.4834  12.1110  12.1110
    17.2062  17.2082  17.2082  18.2689  18.3935  18.3935  18.8836  18.8836
    19.0812  19.0812  19.0827

          k = 0.1876 0.1876 0.3753 (  2378 PWs)   bands (ev):

   -48.8325 -48.8205 -48.8152 -48.6899 -22.9234 -22.8194 -22.7987 -22.7188
   -22.7023 -22.6854 -22.6171 -22.6037 -22.5902 -22.5541 -22.5275 -22.5273
    -0.5523  -0.0312   0.3977   0.4538   9.2026   9.2190   9.2993   9.9625
    10.3847  10.4557  11.0591  11.0703  11.1503  11.5739  11.5996  11.8447
    17.5153  17.9762  18.3131  18.3186  18.6751  18.9123  19.1570  19.2805
    19.3237  19.4486  19.6475

          k = 0.1876 0.3753 0.3753 (  2384 PWs)   bands (ev):

   -48.8252 -48.8187 -48.8165 -48.6879 -22.9520 -22.8046 -22.7738 -22.7426
   -22.7308 -22.7235 -22.5983 -22.5964 -22.5680 -22.5454 -22.5262 -22.5189
    -0.1678   0.1966   0.2581   0.4208   8.8011   8.8592   8.9312   9.2634
    10.5600  10.8074  10.8412  11.0049  11.1198  11.1412  11.2322  11.3784
    18.4740  18.5018  18.6597  18.9287  19.0250  19.2911  19.3322  19.4060
    19.4445  19.5834  19.7274

          k = 0.3753 0.3753 0.3753 (  2377 PWs)   bands (ev):

   -48.8188 -48.8150 -48.8150 -48.6841 -22.9888 -22.7759 -22.7759 -22.7667
   -22.7667 -22.7654 -22.5674 -22.5674 -22.5657 -22.5265 -22.5165 -22.5165
     0.1108   0.3111   0.3881   0.3881   8.3619   8.3619   8.4301   8.6058
    10.7621  10.8412  10.8412  10.9922  10.9922  11.0149  11.1233  11.1233
    19.1041  19.1347  19.1347  19.2950  19.4633  19.4633  19.5966  19.6108
    19.6108  19.7826  19.7826

     the Fermi energy is    13.7642 ev

!    total energy              =    -660.14284381 Ry
     estimated scf accuracy    <       0.00000009 Ry
     smearing contrib. (-TS)   =       0.01717095 Ry
     internal energy E=F+TS    =    -660.16001477 Ry

     The total energy is F=E-TS. E is the sum of the following terms:
     one-electron contribution =    -196.98707795 Ry
     hartree contribution      =     135.42175586 Ry
     xc contribution           =    -100.33153133 Ry
     ewald contribution        =    -499.16005527 Ry
     DFT-D3 Dispersion         =      -0.20406326 Ry
     Hubbard energy            =       1.10095718 Ry

     total magnetization       =     7.61 Bohr mag/cell
     absolute magnetization    =    11.41 Bohr mag/cell

     convergence has been achieved in  14 iterations

     negative rho (up, down):  0.000E+00 1.037E-02
     force_hub    :      0.57s CPU      0.59s WALL (       2 calls)
     dndtau       :      0.52s CPU      0.54s WALL (     480 calls)
     dprojdtau    :      0.12s CPU      0.13s WALL (    1920 calls)
     calc_doverla :      0.28s CPU      0.29s WALL (     480 calls)
     matel_dSdtau :      0.26s CPU      0.27s WALL (     960 calls)

     Forces acting on atoms (cartesian axes, Ry/au):

     atom    1 type  1   force =     0.00000000    0.00000000    0.00000000
     atom    2 type  1   force =     0.00000000    0.00000000    0.00000000
     atom    3 type  1   force =     0.00000000    0.00000000    0.00000000
     atom    4 type  1   force =     0.00000000    0.00000000    0.00000000
     atom    5 type  2   force =     0.00000000    0.00000000    0.00000000
     atom    6 type  2   force =     0.00000000    0.00000000    0.00000000
     atom    7 type  2   force =     0.00000000    0.00000000    0.00000000
     atom    8 type  2   force =     0.00000000    0.00000000    0.00000000

     Total force =     0.000000     Total SCF correction =     0.000000


     Computing stress (Cartesian axis) and pressure


     negative rho (up, down):  0.000E+00 1.037E-02
     stres_hub    :      1.04s CPU      1.07s WALL (       2 calls)
     dprojdepsilo :      0.97s CPU      1.00s WALL (     180 calls)
     dprojdeps1   :      0.08s CPU      0.08s WALL (     180 calls)
     dprojdeps2   :      0.57s CPU      0.59s WALL (     180 calls)
     dprojdeps3   :      0.31s CPU      0.32s WALL (     180 calls)
          total   stress  (Ry/bohr**3)                   (kbar)     P=     -112.91
  -0.00076757   0.00000000   0.00000000         -112.91        0.00        0.00
   0.00000000  -0.00076757   0.00000000            0.00     -112.91        0.00
   0.00000000   0.00000000  -0.00076757            0.00        0.00     -112.91

     Energy error            =      6.5E-02 Ry
     Gradient error          =      0.0E+00 Ry/Bohr
     Cell gradient error     =      1.1E+02 kbar

     number of scf cycles    =   2
     number of bfgs steps    =   1

     enthalpy           old  =    -660.0783231769 Ry
     enthalpy           new  =    -660.1428438145 Ry

     CASE: enthalpy          _new < enthalpy          _old

     new trust radius        =       0.0729967130 bohr
     new conv_thr            =       0.0000000100 Ry

     new unit-cell volume =    538.54596 a.u.^3 (    79.80428 Ang^3 )
     density =      0.16646 g/cm^3

CELL_PARAMETERS (angstrom)
   4.305352579   0.000000000   0.000000000
   0.000000000   4.305352579   0.000000000
   0.000000000   0.000000000   4.305352579

ATOMIC_POSITIONS (angstrom)
V                0.0000000000        0.0000000000        0.0000000000
V                2.1526762872        2.1526762872        0.0000000000
V                2.1526762872        0.0000000000        2.1526762872
V                0.0000000000        2.1526762872        2.1526762872
N                0.0000000000        0.0000000000        2.1526762872
N                0.0000000000        2.1526762872        0.0000000000
N                2.1526762872        0.0000000000        0.0000000000
N                2.1526762872        2.1526762872        2.1526762872



     Writing config-only to output data dir ./tmp/vn.save/ :
     XML data file
     NEW-OLD atomic charge density approx. for the potential
     New effective cutoffs (rho, wfc):  408.54   40.84

     Check: negative core charge=   -0.000004

     negative rho (up, down):  0.000E+00 1.034E-02
     Generating pointlists ...

     Atomic wfc used for Hubbard projectors are orthogonalized


     total cpu time spent up to now is       16.5 secs

     per-process dynamical memory:   130.4 Mb

     Self-consistent Calculation

     iteration #  1     ecut=    45.00 Ry     beta= 0.30
     Davidson diagonalization with overlap
     ethr =  1.00E-06,  avg # of iterations =  6.7

     =================== HUBBARD OCCUPATIONS ===================
     ------------------------ ATOM    1 ------------------------
     Tr[ns(  1)] (up, down, total) =   2.98443  0.52617  3.51061
     Atomic magnetic moment for atom   1 =   2.45826
     SPIN  1
     eigenvalues:
       0.274  0.274  0.812  0.812  0.812
     eigenvectors (columns):
      -0.503  0.864 -0.000  0.000  0.000
      -0.000  0.000  0.277  0.638 -0.719
      -0.000 -0.000  0.425  0.590  0.687
       0.864  0.503  0.000 -0.000 -0.000
       0.000 -0.000 -0.862  0.496  0.108
     occupation matrix ns (before diag.):
       0.274 -0.000 -0.000  0.000  0.000
      -0.000  0.812 -0.000  0.000  0.000
      -0.000 -0.000  0.812  0.000  0.000
       0.000  0.000  0.000  0.274 -0.000
       0.000  0.000  0.000 -0.000  0.812
     SPIN  2
     eigenvalues:
       0.054  0.054  0.054  0.182  0.182
     eigenvectors (columns):
      -0.000 -0.000 -0.000  0.442 -0.897
      -0.283  0.609 -0.741 -0.000  0.000
      -0.426  0.612  0.666 -0.000 -0.000
       0.000  0.000  0.000 -0.897 -0.442
       0.859  0.504  0.087  0.000 -0.000
     occupation matrix ns (before diag.):
       0.182 -0.000 -0.000  0.000  0.000
      -0.000  0.054 -0.000  0.000  0.000
      -0.000 -0.000  0.054  0.000  0.000
       0.000  0.000  0.000  0.182 -0.000
       0.000  0.000  0.000 -0.000  0.054
     ------------------------ ATOM    2 ------------------------
     Tr[ns(  2)] (up, down, total) =   2.97718  0.53206  3.50924
     Atomic magnetic moment for atom   2 =   2.44512
     SPIN  1
     eigenvalues:
       0.263  0.269  0.775  0.775  0.894
     eigenvectors (columns):
      -0.000 -1.000 -0.000  0.000  0.000
      -0.000 -0.000  0.762 -0.648  0.000
      -0.000 -0.000  0.648  0.762  0.000
       1.000 -0.000  0.000 -0.000 -0.000
       0.000  0.000 -0.000 -0.000  1.000
     occupation matrix ns (before diag.):
       0.269 -0.000 -0.000  0.000  0.000
      -0.000  0.775 -0.000  0.000  0.000
      -0.000 -0.000  0.775  0.000  0.000
       0.000  0.000  0.000  0.263 -0.000
       0.000  0.000  0.000 -0.000  0.894
     SPIN  2
     eigenvalues:
       0.055  0.055  0.055  0.183  0.183
     eigenvectors (columns):
      -0.000  0.000  0.000  0.000  1.000
      -0.000  0.701  0.713 -0.000 -0.000
      -0.000  0.713 -0.701 -0.000 -0.000
       0.000 -0.000 -0.000 -1.000  0.000
       1.000  0.000 -0.000  0.000  0.000
     occupation matrix ns (before diag.):
       0.183 -0.000 -0.000  0.000  0.000
      -0.000  0.055 -0.000  0.000  0.000
      -0.000 -0.000  0.055  0.000  0.000
       0.000  0.000  0.000  0.183 -0.000
       0.000  0.000  0.000 -0.000  0.055
     ------------------------ ATOM    3 ------------------------
     Tr[ns(  3)] (up, down, total) =   2.97718  0.53206  3.50924
     Atomic magnetic moment for atom   3 =   2.44512
     SPIN  1
     eigenvalues:
       0.263  0.269  0.775  0.775  0.894
     eigenvectors (columns):
       0.866  0.500 -0.000 -0.000  0.000
       0.000 -0.000  0.000 -0.000 -1.000
       0.000 -0.000  0.363 -0.932  0.000
      -0.500  0.866  0.000  0.000 -0.000
      -0.000  0.000 -0.932 -0.363 -0.000
     occupation matrix ns (before diag.):
       0.265 -0.000 -0.000  0.003  0.000
      -0.000  0.894 -0.000  0.000  0.000
      -0.000 -0.000  0.775  0.000  0.000
       0.003  0.000  0.000  0.268 -0.000
       0.000  0.000  0.000 -0.000  0.775
     SPIN  2
     eigenvalues:
       0.055  0.055  0.055  0.183  0.183
     eigenvectors (columns):
       0.000 -0.000 -0.000 -0.866 -0.500
       1.000  0.000 -0.000  0.000 -0.000
       0.000 -0.342  0.940  0.000 -0.000
      -0.000  0.000 -0.000  0.500 -0.866
      -0.000  0.940  0.342 -0.000  0.000
     occupation matrix ns (before diag.):
       0.183 -0.000 -0.000  0.000  0.000
      -0.000  0.055 -0.000  0.000  0.000
      -0.000 -0.000  0.055  0.000  0.000
       0.000  0.000  0.000  0.183 -0.000
       0.000  0.000  0.000 -0.000  0.055
     ------------------------ ATOM    4 ------------------------
     Tr[ns(  4)] (up, down, total) =   2.97718  0.53206  3.50924
     Atomic magnetic moment for atom   4 =   2.44512
     SPIN  1
     eigenvalues:
       0.263  0.269  0.775  0.775  0.894
     eigenvectors (columns):
       0.866  0.500 -0.000 -0.000  0.000
       0.000  0.000  0.232  0.973  0.000
      -0.000  0.000  0.000  0.000 -1.000
       0.500 -0.866  0.000  0.000 -0.000
      -0.000 -0.000 -0.973  0.232 -0.000
     occupation matrix ns (before diag.):
       0.265 -0.000 -0.000 -0.003  0.000
      -0.000  0.775 -0.000  0.000  0.000
      -0.000 -0.000  0.894  0.000  0.000
      -0.003  0.000  0.000  0.268 -0.000
       0.000  0.000  0.000 -0.000  0.775
     SPIN  2
     eigenvalues:
       0.055  0.055  0.055  0.183  0.183
     eigenvectors (columns):
       0.000 -0.000 -0.000 -0.866 -0.500
       0.000 -0.267  0.964  0.000  0.000
       1.000  0.000 -0.000 -0.000  0.000
      -0.000  0.000 -0.000 -0.500  0.866
      -0.000  0.964  0.267 -0.000 -0.000
     occupation matrix ns (before diag.):
       0.183 -0.000 -0.000 -0.000  0.000
      -0.000  0.055 -0.000  0.000  0.000
      -0.000 -0.000  0.055  0.000  0.000
      -0.000  0.000  0.000  0.183 -0.000
       0.000  0.000  0.000 -0.000  0.055

     Number of occupied Hubbard levels =   14.0383

     negative rho (up, down):  0.000E+00 1.032E-02

     total cpu time spent up to now is       17.3 secs

     total energy              =    -660.15467046 Ry
     estimated scf accuracy    <       0.00055084 Ry

     total magnetization       =     7.73 Bohr mag/cell
     absolute magnetization    =    11.20 Bohr mag/cell

     iteration #  2     ecut=    45.00 Ry     beta= 0.30
     Davidson diagonalization with overlap
     ethr =  7.65E-07,  avg # of iterations =  3.0

     negative rho (up, down):  0.000E+00 1.028E-02

     total cpu time spent up to now is       17.5 secs

     total energy              =    -660.15495913 Ry
     estimated scf accuracy    <       0.00026974 Ry

     total magnetization       =     7.74 Bohr mag/cell
     absolute magnetization    =    11.16 Bohr mag/cell

     iteration #  3     ecut=    45.00 Ry     beta= 0.30
     Davidson diagonalization with overlap
     ethr =  3.75E-07,  avg # of iterations =  3.8

     negative rho (up, down):  0.000E+00 1.023E-02

     total cpu time spent up to now is       17.8 secs

     total energy              =    -660.15509660 Ry
     estimated scf accuracy    <       0.00008750 Ry

     total magnetization       =     7.73 Bohr mag/cell
     absolute magnetization    =    11.12 Bohr mag/cell

     iteration #  4     ecut=    45.00 Ry     beta= 0.30
     Davidson diagonalization with overlap
     ethr =  1.22E-07,  avg # of iterations =  5.1

     negative rho (up, down):  0.000E+00 1.020E-02

     total cpu time spent up to now is       18.1 secs

     total energy              =    -660.15515380 Ry
     estimated scf accuracy    <       0.00003248 Ry

     total magnetization       =     7.73 Bohr mag/cell
     absolute magnetization    =    11.07 Bohr mag/cell

     iteration #  5     ecut=    45.00 Ry     beta= 0.30
     Davidson diagonalization with overlap
     ethr =  4.51E-08,  avg # of iterations =  4.5

     negative rho (up, down):  0.000E+00 1.019E-02

     total cpu time spent up to now is       18.4 secs

     total energy              =    -660.15517900 Ry
     estimated scf accuracy    <       0.00001807 Ry

     total magnetization       =     7.73 Bohr mag/cell
     absolute magnetization    =    11.04 Bohr mag/cell

     iteration #  6     ecut=    45.00 Ry     beta= 0.30
     Davidson diagonalization with overlap
     ethr =  2.51E-08,  avg # of iterations =  1.9

     negative rho (up, down):  0.000E+00 1.021E-02

     total cpu time spent up to now is       18.6 secs

     total energy              =    -660.15518026 Ry
     estimated scf accuracy    <       0.00001462 Ry

     total magnetization       =     7.73 Bohr mag/cell
     absolute magnetization    =    11.03 Bohr mag/cell

     iteration #  7     ecut=    45.00 Ry     beta= 0.30
     Davidson diagonalization with overlap
     ethr =  2.03E-08,  avg # of iterations =  2.5

     negative rho (up, down):  0.000E+00 1.020E-02

     total cpu time spent up to now is       18.8 secs

     total energy              =    -660.15518112 Ry
     estimated scf accuracy    <       0.00000739 Ry

     total magnetization       =     7.73 Bohr mag/cell
     absolute magnetization    =    11.04 Bohr mag/cell

     iteration #  8     ecut=    45.00 Ry     beta= 0.30
     Davidson diagonalization with overlap
     ethr =  1.03E-08,  avg # of iterations =  5.2

     negative rho (up, down):  0.000E+00 1.020E-02

     total cpu time spent up to now is       19.2 secs

     total energy              =    -660.15519611 Ry
     estimated scf accuracy    <       0.00000316 Ry

     total magnetization       =     7.73 Bohr mag/cell
     absolute magnetization    =    11.02 Bohr mag/cell

     iteration #  9     ecut=    45.00 Ry     beta= 0.30
     Davidson diagonalization with overlap
     ethr =  4.40E-09,  avg # of iterations =  2.0

     negative rho (up, down):  0.000E+00 1.019E-02

     total cpu time spent up to now is       19.4 secs

     total energy              =    -660.15518935 Ry
     estimated scf accuracy    <       0.00000233 Ry

     total magnetization       =     7.73 Bohr mag/cell
     absolute magnetization    =    11.02 Bohr mag/cell

     iteration # 10     ecut=    45.00 Ry     beta= 0.30
     Davidson diagonalization with overlap
     ethr =  3.23E-09,  avg # of iterations =  5.4

     negative rho (up, down):  0.000E+00 1.019E-02

     total cpu time spent up to now is       19.8 secs

     total energy              =    -660.15520148 Ry
     estimated scf accuracy    <       0.00000211 Ry

     total magnetization       =     7.73 Bohr mag/cell
     absolute magnetization    =    11.01 Bohr mag/cell

     iteration # 11     ecut=    45.00 Ry     beta= 0.30
     Davidson diagonalization with overlap
     ethr =  2.93E-09,  avg # of iterations =  1.4

     negative rho (up, down):  0.000E+00 1.019E-02

     total cpu time spent up to now is       20.0 secs

     total energy              =    -660.15519995 Ry
     estimated scf accuracy    <       0.00000070 Ry

     total magnetization       =     7.73 Bohr mag/cell
     absolute magnetization    =    11.01 Bohr mag/cell

     iteration # 12     ecut=    45.00 Ry     beta= 0.30
     Davidson diagonalization with overlap
     ethr =  9.74E-10,  avg # of iterations =  4.9

     negative rho (up, down):  0.000E+00 1.019E-02

     total cpu time spent up to now is       20.3 secs

     total energy              =    -660.15520208 Ry
     estimated scf accuracy    <       0.00000007 Ry

     total magnetization       =     7.73 Bohr mag/cell
     absolute magnetization    =    11.01 Bohr mag/cell

     iteration # 13     ecut=    45.00 Ry     beta= 0.30
     Davidson diagonalization with overlap
     ethr =  9.10E-11,  avg # of iterations =  5.3

     negative rho (up, down):  0.000E+00 1.019E-02

     total cpu time spent up to now is       20.7 secs

     total energy              =    -660.15520213 Ry
     estimated scf accuracy    <       0.00000002 Ry

     total magnetization       =     7.73 Bohr mag/cell
     absolute magnetization    =    11.01 Bohr mag/cell

     iteration # 14     ecut=    45.00 Ry     beta= 0.30
     Davidson diagonalization with overlap
     ethr =  2.84E-11,  avg # of iterations =  6.2

     negative rho (up, down):  0.000E+00 1.019E-02

     total cpu time spent up to now is       21.1 secs

     total energy              =    -660.15530388 Ry
     estimated scf accuracy    <       0.00000609 Ry

     total magnetization       =     7.73 Bohr mag/cell
     absolute magnetization    =    11.02 Bohr mag/cell

     iteration # 15     ecut=    45.00 Ry     beta= 0.30
     Davidson diagonalization with overlap
     ethr =  2.84E-11,  avg # of iterations =  3.9

     negative rho (up, down):  0.000E+00 1.019E-02

     total cpu time spent up to now is       21.4 secs

     total energy              =    -660.15530399 Ry
     estimated scf accuracy    <       0.00000567 Ry

     total magnetization       =     7.73 Bohr mag/cell
     absolute magnetization    =    11.02 Bohr mag/cell

     iteration # 16     ecut=    45.00 Ry     beta= 0.30
     Davidson diagonalization with overlap
     ethr =  2.84E-11,  avg # of iterations =  5.0

     negative rho (up, down):  0.000E+00 1.019E-02

     total cpu time spent up to now is       21.8 secs

     total energy              =    -660.15530398 Ry
     estimated scf accuracy    <       0.00000483 Ry

     total magnetization       =     7.73 Bohr mag/cell
     absolute magnetization    =    11.02 Bohr mag/cell

     iteration # 17     ecut=    45.00 Ry     beta= 0.30
     Davidson diagonalization with overlap
     ethr =  2.84E-11,  avg # of iterations =  1.1

     negative rho (up, down):  0.000E+00 1.019E-02

     total cpu time spent up to now is       21.9 secs

     total energy              =    -660.15530402 Ry
     estimated scf accuracy    <       0.00000488 Ry

     total magnetization       =     7.73 Bohr mag/cell
     absolute magnetization    =    11.02 Bohr mag/cell

     iteration # 18     ecut=    45.00 Ry     beta= 0.30
     Davidson diagonalization with overlap
     ethr =  2.84E-11,  avg # of iterations =  1.0

     negative rho (up, down):  0.000E+00 1.019E-02

     total cpu time spent up to now is       22.1 secs

     total energy              =    -660.15530403 Ry
     estimated scf accuracy    <       0.00000502 Ry

     total magnetization       =     7.73 Bohr mag/cell
     absolute magnetization    =    11.02 Bohr mag/cell

     iteration # 19     ecut=    45.00 Ry     beta= 0.30
     Davidson diagonalization with overlap
     ethr =  2.84E-11,  avg # of iterations =  1.2

     negative rho (up, down):  0.000E+00 1.019E-02

     total cpu time spent up to now is       22.3 secs

     total energy              =    -660.15530404 Ry
     estimated scf accuracy    <       0.00000475 Ry

     total magnetization       =     7.73 Bohr mag/cell
     absolute magnetization    =    11.02 Bohr mag/cell

     iteration # 20     ecut=    45.00 Ry     beta= 0.30
     Davidson diagonalization with overlap
     ethr =  2.84E-11,  avg # of iterations =  1.8

     negative rho (up, down):  0.000E+00 1.019E-02

     total cpu time spent up to now is       22.5 secs

     total energy              =    -660.15530406 Ry
     estimated scf accuracy    <       0.00000452 Ry

     total magnetization       =     7.73 Bohr mag/cell
     absolute magnetization    =    11.02 Bohr mag/cell

     iteration # 21     ecut=    45.00 Ry     beta= 0.30
     Davidson diagonalization with overlap
     ethr =  2.84E-11,  avg # of iterations =  3.2

     negative rho (up, down):  0.000E+00 1.019E-02

     total cpu time spent up to now is       22.8 secs

     total energy              =    -660.15530385 Ry
     estimated scf accuracy    <       0.00000415 Ry

     total magnetization       =     7.73 Bohr mag/cell
     absolute magnetization    =    11.02 Bohr mag/cell

     iteration # 22     ecut=    45.00 Ry     beta= 0.30
     Davidson diagonalization with overlap
     ethr =  2.84E-11,  avg # of iterations =  5.2

     negative rho (up, down):  0.000E+00 1.019E-02

     total cpu time spent up to now is       23.2 secs

     total energy              =    -660.15530062 Ry
     estimated scf accuracy    <       0.00000583 Ry

     total magnetization       =     7.73 Bohr mag/cell
     absolute magnetization    =    11.02 Bohr mag/cell

     iteration # 23     ecut=    45.00 Ry     beta= 0.30
     Davidson diagonalization with overlap
     c_bands:  1 eigenvalues not converged
     ethr =  2.84E-11,  avg # of iterations =  9.9

     negative rho (up, down):  0.000E+00 1.019E-02

     total cpu time spent up to now is       23.9 secs

     total energy              =    -660.15530493 Ry
     estimated scf accuracy    <       0.00000013 Ry

     total magnetization       =     7.73 Bohr mag/cell
     absolute magnetization    =    11.02 Bohr mag/cell

     iteration # 24     ecut=    45.00 Ry     beta= 0.30
     Davidson diagonalization with overlap
     ethr =  2.84E-11,  avg # of iterations =  4.2

     negative rho (up, down):  0.000E+00 1.019E-02

     total cpu time spent up to now is       24.2 secs

     total energy              =    -660.15530492 Ry
     estimated scf accuracy    <       0.00000004 Ry

     total magnetization       =     7.73 Bohr mag/cell
     absolute magnetization    =    11.02 Bohr mag/cell

     iteration # 25     ecut=    45.00 Ry     beta= 0.30
     Davidson diagonalization with overlap
     ethr =  2.84E-11,  avg # of iterations =  5.2

     negative rho (up, down):  0.000E+00 1.019E-02

     total cpu time spent up to now is       24.6 secs

     total energy              =    -660.15530498 Ry
     estimated scf accuracy    <       0.00000001 Ry

     total magnetization       =     7.73 Bohr mag/cell
     absolute magnetization    =    11.02 Bohr mag/cell

     iteration # 26     ecut=    45.00 Ry     beta= 0.30
     Davidson diagonalization with overlap
     ethr =  1.40E-11,  avg # of iterations =  4.5

     negative rho (up, down):  0.000E+00 1.019E-02

     total cpu time spent up to now is       25.0 secs

     total energy              =    -660.15530499 Ry
     estimated scf accuracy    <       0.00000001 Ry

     total magnetization       =     7.73 Bohr mag/cell
     absolute magnetization    =    11.02 Bohr mag/cell

     iteration # 27     ecut=    45.00 Ry     beta= 0.30
     Davidson diagonalization with overlap
     ethr =  1.40E-11,  avg # of iterations =  4.5

     negative rho (up, down):  0.000E+00 1.019E-02

     Magnetic moment per site  (integrated on atomic sphere of radius R)
     atom   1 (R=0.206)  charge=  9.9885  magn=  1.8082
     atom   2 (R=0.206)  charge=  9.9883  magn=  1.8024
     atom   3 (R=0.206)  charge=  9.9883  magn=  1.8024
     atom   4 (R=0.206)  charge=  9.9883  magn=  1.8024
     atom   5 (R=0.206)  charge=  4.4717  magn= -0.3929
     atom   6 (R=0.206)  charge=  4.4717  magn= -0.3929
     atom   7 (R=0.206)  charge=  4.4717  magn= -0.3929
     atom   8 (R=0.206)  charge=  4.4724  magn= -0.3931

     total cpu time spent up to now is       25.4 secs

     End of self-consistent calculation

     =================== HUBBARD OCCUPATIONS ===================
     ------------------------ ATOM    1 ------------------------
     Tr[ns(  1)] (up, down, total) =   2.97375  0.53950  3.51325
     Atomic magnetic moment for atom   1 =   2.43426
     SPIN  1
     eigenvalues:
       0.278  0.278  0.806  0.806  0.806
     eigenvectors (columns):
       0.203  0.979 -0.000  0.000  0.000
       0.000  0.000  0.266  0.723 -0.638
       0.000  0.000  0.400  0.519  0.755
      -0.979  0.203  0.000  0.000 -0.000
      -0.000 -0.000 -0.877  0.456  0.151
     occupation matrix ns (before diag.):
       0.278 -0.000 -0.000  0.000  0.000
      -0.000  0.806 -0.000  0.000  0.000
      -0.000 -0.000  0.806  0.000  0.000
       0.000  0.000  0.000  0.278 -0.000
       0.000  0.000  0.000 -0.000  0.806
     SPIN  2
     eigenvalues:
       0.055  0.055  0.055  0.187  0.187
     eigenvectors (columns):
      -0.000 -0.000 -0.000  0.374 -0.927
      -0.275  0.722 -0.634 -0.000  0.000
      -0.397  0.516  0.759 -0.000 -0.000
       0.000 -0.000  0.000 -0.927 -0.374
       0.876  0.461  0.145  0.000 -0.000
     occupation matrix ns (before diag.):
       0.187 -0.000 -0.000  0.000  0.000
      -0.000  0.055 -0.000  0.000  0.000
      -0.000 -0.000  0.055  0.000  0.000
       0.000  0.000  0.000  0.187 -0.000
       0.000  0.000  0.000 -0.000  0.055
     ------------------------ ATOM    2 ------------------------
     Tr[ns(  2)] (up, down, total) =   2.96650  0.54546  3.51196
     Atomic magnetic moment for atom   2 =   2.42103
     SPIN  1
     eigenvalues:
       0.265  0.271  0.764  0.764  0.902
     eigenvectors (columns):
       0.000 -1.000 -0.000  0.000  0.000
       0.000 -0.000  0.695 -0.719  0.000
       0.000 -0.000  0.719  0.695  0.000
      -1.000 -0.000  0.000 -0.000 -0.000
      -0.000  0.000 -0.000 -0.000  1.000
     occupation matrix ns (before diag.):
       0.271 -0.000 -0.000  0.000  0.000
      -0.000  0.764 -0.000  0.000  0.000
      -0.000 -0.000  0.764  0.000  0.000
       0.000  0.000  0.000  0.265 -0.000
       0.000  0.000  0.000 -0.000  0.902
     SPIN  2
     eigenvalues:
       0.057  0.057  0.057  0.187  0.188
     eigenvectors (columns):
      -0.000 -0.000  0.000  0.000  1.000
      -0.000 -0.938 -0.345 -0.000 -0.000
      -0.000 -0.345  0.938 -0.000 -0.000
       0.000  0.000 -0.000 -1.000  0.000
       1.000 -0.000  0.000  0.000  0.000
     occupation matrix ns (before diag.):
       0.188 -0.000 -0.000  0.000  0.000
      -0.000  0.057 -0.000  0.000  0.000
      -0.000 -0.000  0.057  0.000  0.000
       0.000  0.000  0.000  0.187 -0.000
       0.000  0.000  0.000 -0.000  0.057
     ------------------------ ATOM    3 ------------------------
     Tr[ns(  3)] (up, down, total) =   2.96650  0.54546  3.51196
     Atomic magnetic moment for atom   3 =   2.42103
     SPIN  1
     eigenvalues:
       0.265  0.271  0.764  0.764  0.902
     eigenvectors (columns):
       0.866  0.500 -0.000 -0.000  0.000
       0.000 -0.000  0.000 -0.000 -1.000
       0.000 -0.000  0.397 -0.918  0.000
      -0.500  0.866  0.000  0.000 -0.000
      -0.000  0.000 -0.918 -0.397 -0.000
     occupation matrix ns (before diag.):
       0.266 -0.000 -0.000  0.003  0.000
      -0.000  0.902 -0.000  0.000  0.000
      -0.000 -0.000  0.764  0.000  0.000
       0.003  0.000  0.000  0.270 -0.000
       0.000  0.000  0.000 -0.000  0.764
     SPIN  2
     eigenvalues:
       0.057  0.057  0.057  0.187  0.188
     eigenvectors (columns):
       0.000 -0.000 -0.000 -0.866 -0.500
       1.000  0.000 -0.000  0.000 -0.000
       0.000 -0.377  0.926  0.000 -0.000
      -0.000  0.000  0.000  0.500 -0.866
      -0.000  0.926  0.377 -0.000  0.000
     occupation matrix ns (before diag.):
       0.187 -0.000 -0.000  0.000  0.000
      -0.000  0.057 -0.000  0.000  0.000
      -0.000 -0.000  0.057  0.000  0.000
       0.000  0.000  0.000  0.187 -0.000
       0.000  0.000  0.000 -0.000  0.057
     ------------------------ ATOM    4 ------------------------
     Tr[ns(  4)] (up, down, total) =   2.96650  0.54546  3.51196
     Atomic magnetic moment for atom   4 =   2.42103
     SPIN  1
     eigenvalues:
       0.265  0.271  0.764  0.764  0.902
     eigenvectors (columns):
       0.866  0.500 -0.000 -0.000  0.000
       0.000  0.000  0.242  0.970  0.000
      -0.000  0.000  0.000  0.000 -1.000
       0.500 -0.866  0.000  0.000 -0.000
      -0.000 -0.000 -0.970  0.242 -0.000
     occupation matrix ns (before diag.):
       0.266 -0.000 -0.000 -0.003  0.000
      -0.000  0.764 -0.000  0.000  0.000
      -0.000 -0.000  0.902  0.000  0.000
      -0.003  0.000  0.000  0.270 -0.000
       0.000  0.000  0.000 -0.000  0.764
     SPIN  2
     eigenvalues:
       0.057  0.057  0.057  0.187  0.188
     eigenvectors (columns):
       0.000 -0.000  0.000 -0.866 -0.500
       0.000 -0.235  0.972 -0.000  0.000
       1.000  0.000 -0.000 -0.000  0.000
      -0.000  0.000 -0.000 -0.500  0.866
      -0.000  0.972  0.235 -0.000 -0.000
     occupation matrix ns (before diag.):
       0.187 -0.000 -0.000 -0.000  0.000
      -0.000  0.057 -0.000  0.000  0.000
      -0.000 -0.000  0.057  0.000  0.000
      -0.000  0.000  0.000  0.187 -0.000
       0.000  0.000  0.000 -0.000  0.057

     Number of occupied Hubbard levels =   14.0491

 ------ SPIN UP ------------


          k = 0.0000 0.0000 0.0000 (  2373 PWs)   bands (ev):

   -50.2622 -50.2162 -50.2162 -50.0925 -24.2280 -24.2280 -24.2280 -24.0553
   -24.0553 -24.0553 -24.0497 -24.0497 -24.0497 -23.9062 -23.9062 -23.9062
    -0.7126   1.3237   1.4414   1.4414   9.9705   9.9705   9.9705  10.0689
    10.0689  10.0689  11.9205  11.9205  11.9205  13.0224  13.0224  13.0224
    13.1044  13.1044  13.1044  13.8573  13.8573  13.8573  14.2807  14.2807
    14.2807  14.5712  14.5712

          k = 0.0000 0.0000 0.1906 (  2393 PWs)   bands (ev):

   -50.2582 -50.2201 -50.2175 -50.0940 -24.2171 -24.2171 -24.2096 -24.0654
   -24.0654 -24.0603 -24.0506 -24.0457 -24.0457 -23.9246 -23.9138 -23.9138
    -0.4829   1.2546   1.4740   1.5371   9.7984   9.7984   9.8507   9.9143
     9.9143  10.2104  11.7327  11.8068  11.8068  12.2740  12.3546  12.5460
    12.5460  12.9934  13.4443  13.4443  13.8559  14.1886  14.1886  14.2813
    14.6795  14.6795  14.8368

          k = 0.0000 0.0000 0.3811 (  2384 PWs)   bands (ev):

   -50.2481 -50.2301 -50.2195 -50.0965 -24.1938 -24.1938 -24.1685 -24.0910
   -24.0910 -24.0773 -24.0519 -24.0336 -24.0336 -23.9570 -23.9278 -23.9278
     0.1116   0.8068   1.6278   1.7011   9.5588   9.5588   9.7037   9.7037
    10.0474  10.5653  11.1234  11.3036  11.3562  11.4189  11.7142  11.7142
    12.0091  12.0091  13.8540  14.0841  14.0841  14.2824  14.4059  14.4059
    15.1953  15.1953  15.2476

          k = 0.0000 0.1906 0.1906 (  2374 PWs)   bands (ev):

   -50.2550 -50.2225 -50.2204 -50.0958 -24.2226 -24.2065 -24.1855 -24.0943
   -24.0609 -24.0603 -24.0556 -24.0470 -24.0320 -23.9439 -23.9220 -23.9075
    -0.2608   1.3335   1.4233   1.5899   9.5051   9.6433   9.6460   9.6985
     9.9522  10.0438  11.2375  11.3088  12.0701  12.1288  12.2175  12.3766
    12.8550  12.9641  13.1137  13.2295  13.8700  13.9047  14.3191  14.4232
    14.6042  14.7570  14.7612

          k = 0.0000 0.1906 0.3811 (  2370 PWs)   bands (ev):

   -50.2467 -50.2314 -50.2233 -50.0988 -24.2183 -24.1841 -24.1444 -24.1226
   -24.0825 -24.0815 -24.0534 -24.0441 -24.0211 -23.9451 -23.9375 -23.9181
     0.3100   0.9651   1.5969   1.7037   9.1084   9.2561   9.5276   9.6559
     9.7239  10.2519  10.3976  10.7587  11.5978  11.7066  11.9381  12.0916
    12.1372  12.5147  13.3899  13.8001  13.8671  14.3035  14.5099  14.7196
    14.7527  14.9568  15.2772

          k = 0.0000 0.3811 0.3811 (  2356 PWs)   bands (ev):

   -50.2422 -50.2343 -50.2311 -50.1026 -24.2378 -24.1640 -24.1482 -24.1250
   -24.1023 -24.0697 -24.0662 -24.0649 -23.9905 -23.9561 -23.9244 -23.9128
     0.8038   1.2915   1.3728   1.6377   8.6917   8.9465   9.0263   9.4763
     9.4835   9.7961   9.9429  10.2196  11.6364  11.6601  11.7256  11.8870
    12.3858  13.0265  13.1600  13.4914  14.0126  14.4407  14.5550  14.6697
    15.1624  15.4029  15.4727

          k = 0.1906 0.1906 0.1906 (  2349 PWs)   bands (ev):

   -50.2525 -50.2241 -50.2241 -50.0978 -24.2409 -24.1795 -24.1795 -24.0953
   -24.0953 -24.0813 -24.0310 -24.0310 -24.0261 -23.9613 -23.9118 -23.9118
    -0.0466   1.4082   1.5236   1.5236   8.9880   9.1798   9.1798  10.0630
    10.0630  10.1078  10.3768  11.7537  11.7537  11.9869  11.9869  12.1077
    13.1128  13.1128  13.1679  13.6474  13.6474  14.1696  14.1696  14.2083
    14.4241  14.5567  14.8177

          k = 0.1906 0.1906 0.3811 (  2378 PWs)   bands (ev):

   -50.2459 -50.2330 -50.2269 -50.1012 -24.2506 -24.1622 -24.1501 -24.1315
   -24.1172 -24.0834 -24.0381 -24.0209 -24.0135 -23.9489 -23.9207 -23.9195
     0.4997   1.1125   1.6267   1.6964   8.4857   8.6511   8.9847   9.5055
     9.9428  10.0633  10.5357  11.2755  11.4710  11.5166  11.5695  11.6565
    12.7735  13.0882  13.5465  13.7231  14.0653  14.2217  14.3811  14.5552
    14.6206  14.8312  14.9785

          k = 0.1906 0.3811 0.3811 (  2384 PWs)   bands (ev):

   -50.2428 -50.2363 -50.2340 -50.1054 -24.2764 -24.1740 -24.1630 -24.1505
   -24.1190 -24.0784 -24.0208 -24.0207 -23.9898 -23.9409 -23.9179 -23.9113
     0.9650   1.4009   1.4826   1.6794   7.9798   8.2113   8.2976   8.6294
    10.1220  10.3472  10.4648  10.8523  11.2708  11.3372  11.3978  11.4596
    13.0408  13.5217  13.5600  13.8391  13.9666  14.3693  14.4335  14.5576
    14.7461  15.0355  15.1629

          k = 0.3811 0.3811 0.3811 (  2377 PWs)   bands (ev):

   -50.2431 -50.2396 -50.2396 -50.1100 -24.3131 -24.2006 -24.2006 -24.1921
   -24.0788 -24.0788 -23.9897 -23.9897 -23.9876 -23.9186 -23.9071 -23.9071
     1.3275   1.5765   1.6743   1.6743   7.3311   7.5749   7.5749   7.7683
    10.6526  10.6526  10.7152  10.9845  10.9845  11.0477  11.0477  11.1261
    13.6788  13.6788  14.0736  14.1528  14.1528  14.2146  14.2146  14.3382
    14.7723  15.1382  15.2549

 ------ SPIN DOWN ----------


          k = 0.0000 0.0000 0.0000 (  2373 PWs)   bands (ev):

   -47.9822 -47.9318 -47.9318 -47.7992 -22.0449 -22.0449 -22.0449 -21.8066
   -21.8066 -21.8066 -21.7506 -21.7506 -21.7506 -21.6292 -21.6292 -21.6292
    -1.0053   0.8576   0.9705   0.9705   9.9734   9.9734   9.9734  12.6108
    12.6108  12.6108  12.6268  12.6268  12.6268  13.8978  13.8978  13.8978
    16.5348  16.5348  16.5348  18.2571  18.2571  18.6969  18.6969  18.6969
    19.1004  19.1004  19.1219

          k = 0.0000 0.0000 0.1906 (  2393 PWs)   bands (ev):

   -47.9778 -47.9360 -47.9336 -47.8010 -22.0354 -22.0354 -22.0329 -21.8041
   -21.8041 -21.8035 -21.7518 -21.7514 -21.7514 -21.6514 -21.6369 -21.6369
    -0.7910   0.7968   0.9929   1.0539   9.8936  10.1324  10.1324  12.0690
    12.0837  12.1348  12.1348  12.6791  12.6791  12.7902  13.6711  13.6711
    16.7028  17.2937  17.2937  18.3321  18.4426  19.0237  19.0300  19.1362
    19.1362  19.5131  19.5487

          k = 0.0000 0.0000 0.3811 (  2384 PWs)   bands (ev):

   -47.9669 -47.9473 -47.9363 -47.8042 -22.0191 -22.0191 -22.0116 -21.8046
   -21.8046 -21.7927 -21.7537 -21.7467 -21.7467 -21.6955 -21.6519 -21.6519
    -0.2423   0.3929   1.1207   1.1950  10.1151  10.5857  10.5857  11.1126
    11.2979  11.2979  11.3331  11.3583  12.8732  12.8732  13.2420  13.2420
    17.1658  17.8452  18.5246  18.8073  18.8073  18.8162  19.8166  19.9205
    20.0022  20.0583  20.0583

          k = 0.0000 0.1906 0.1906 (  2374 PWs)   bands (ev):

   -47.9737 -47.9376 -47.9358 -47.8019 -22.0566 -22.0269 -21.9977 -21.8154
   -21.8118 -21.7983 -21.7554 -21.7542 -21.7323 -21.6762 -21.6454 -21.6286
    -0.5842   0.8640   0.9509   1.0970   9.9588   9.9889  10.2837  11.2664
    12.1317  12.1765  12.1863  12.2090  12.2250  12.3502  12.9928  13.4081
    17.4355  17.4356  17.8131  18.6817  18.8903  18.9536  19.4311  19.4383
    19.4670  19.6634  20.0821

          k = 0.0000 0.1906 0.3811 (  2370 PWs)   bands (ev):

   -47.9631 -47.9461 -47.9376 -47.8035 -22.0644 -22.0122 -21.9627 -21.8347
   -21.8116 -21.7932 -21.7783 -21.7521 -21.7195 -21.6746 -21.6622 -21.6390
    -0.0586   0.5374   1.0958   1.1956  10.0486  10.1431  10.4607  10.7186
    10.9505  11.4081  11.5668  11.7321  12.3291  12.4679  12.5988  12.9070
    17.8268  18.4155  18.9070  18.9422  19.0508  19.2392  19.8437  19.9252
    20.1667  20.2199  20.2327

          k = 0.0000 0.3811 0.3811 (  2356 PWs)   bands (ev):

   -47.9539 -47.9448 -47.9413 -47.8023 -22.0942 -22.0005 -21.9232 -21.8616
   -21.8344 -21.8234 -21.7706 -21.7602 -21.6844 -21.6844 -21.6468 -21.6323
     0.3921   0.8290   0.9052   1.1375   9.8003   9.8120   9.9084  10.3084
    11.1068  11.6796  11.6852  11.7282  11.7443  11.7763  11.9604  12.2813
    19.1716  19.1744  19.3395  19.5706  19.6329  19.6350  19.6407  19.7332
    20.2274  20.3566  20.3573

          k = 0.1906 0.1906 0.1906 (  2349 PWs)   bands (ev):

   -47.9696 -47.9377 -47.9377 -47.8019 -22.0832 -21.9910 -21.9910 -21.8358
   -21.8358 -21.7979 -21.7402 -21.7402 -21.7234 -21.6982 -21.6336 -21.6336
    -0.3854   0.9262   1.0387   1.0387   9.9725   9.9725  10.0357  11.4299
    11.5162  11.5162  11.8545  12.2124  12.2124  12.2242  12.8532  12.8532
    17.9301  17.9329  17.9329  19.0764  19.1978  19.1978  19.7968  19.7968
    20.0178  20.0178  20.0203

          k = 0.1906 0.1906 0.3811 (  2378 PWs)   bands (ev):

   -47.9594 -47.9445 -47.9378 -47.8022 -22.1026 -21.9777 -21.9534 -21.8667
   -21.8462 -21.8256 -21.7450 -21.7259 -21.7098 -21.6752 -21.6432 -21.6422
     0.1148   0.6684   1.1176   1.1883   9.8585   9.8713   9.9676  10.6544
    11.0655  11.1522  11.7526  11.7641  11.8570  12.2858  12.3258  12.5785
    18.2559  18.7531  19.1175  19.1234  19.5511  19.8238  20.0171  20.1934
    20.2289  20.3572  20.6052

          k = 0.1906 0.3811 0.3811 (  2384 PWs)   bands (ev):

   -47.9505 -47.9425 -47.9398 -47.8000 -22.1369 -21.9599 -21.9238 -21.8949
   -21.8807 -21.8723 -21.7206 -21.7175 -21.6832 -21.6650 -21.6417 -21.6322
     0.5322   0.9173   0.9958   1.1660   9.4311   9.4916   9.5790   9.9281
    11.2370  11.4776  11.5220  11.6705  11.8000  11.8204  11.9134  12.0849
    19.2925  19.3206  19.5145  19.7880  19.8572  20.2028  20.2442  20.3210
    20.3668  20.4556  20.6349

          k = 0.3811 0.3811 0.3811 (  2377 PWs)   bands (ev):

   -47.9430 -47.9384 -47.9384 -47.7959 -22.1809 -21.9336 -21.9336 -21.9228
   -21.9161 -21.9161 -21.6823 -21.6823 -21.6801 -21.6425 -21.6301 -21.6301
     0.8378   1.0549   1.1494   1.1494   8.9705   8.9705   9.0502   9.2390
    11.4034  11.4997  11.4997  11.6431  11.6431  11.6782  11.7955  11.7955
    19.9616  19.9908  19.9908  20.1862  20.3352  20.3352  20.4686  20.5011
    20.5011  20.6887  20.6887

     the Fermi energy is    14.7351 ev

!    total energy              =    -660.15530501 Ry
     estimated scf accuracy    <          3.2E-09 Ry
     smearing contrib. (-TS)   =       0.00301828 Ry
     internal energy E=F+TS    =    -660.15832329 Ry

     The total energy is F=E-TS. E is the sum of the following terms:
     one-electron contribution =    -185.45226979 Ry
     hartree contribution      =     131.89454014 Ry
     xc contribution           =    -100.57782298 Ry
     ewald contribution        =    -506.95008401 Ry
     DFT-D3 Dispersion         =      -0.21308703 Ry
     Hubbard energy            =       1.14040038 Ry

     total magnetization       =     7.73 Bohr mag/cell
     absolute magnetization    =    11.02 Bohr mag/cell

     convergence has been achieved in  27 iterations

     negative rho (up, down):  0.000E+00 1.019E-02
     force_hub    :      0.86s CPU      0.89s WALL (       3 calls)
     dndtau       :      0.79s CPU      0.82s WALL (     720 calls)
     dprojdtau    :      0.19s CPU      0.19s WALL (    2880 calls)
     calc_doverla :      0.42s CPU      0.44s WALL (     720 calls)
     matel_dSdtau :      0.40s CPU      0.41s WALL (    1440 calls)

     Forces acting on atoms (cartesian axes, Ry/au):

     atom    1 type  1   force =     0.00000000    0.00000000    0.00000000
     atom    2 type  1   force =     0.00000000    0.00000000    0.00000000
     atom    3 type  1   force =     0.00000000    0.00000000    0.00000000
     atom    4 type  1   force =     0.00000000    0.00000000    0.00000000
     atom    5 type  2   force =     0.00000000    0.00000000    0.00000000
     atom    6 type  2   force =     0.00000000    0.00000000    0.00000000
     atom    7 type  2   force =     0.00000000    0.00000000    0.00000000
     atom    8 type  2   force =     0.00000000    0.00000000    0.00000000

     Total force =     0.000000     Total SCF correction =     0.000000


     Computing stress (Cartesian axis) and pressure


     negative rho (up, down):  0.000E+00 1.019E-02
     stres_hub    :      1.57s CPU      1.61s WALL (       3 calls)
     dprojdepsilo :      1.46s CPU      1.50s WALL (     270 calls)
     dprojdeps1   :      0.12s CPU      0.13s WALL (     270 calls)
     dprojdeps2   :      0.87s CPU      0.89s WALL (     270 calls)
     dprojdeps3   :      0.47s CPU      0.49s WALL (     270 calls)
          total   stress  (Ry/bohr**3)                   (kbar)     P=      -24.39
  -0.00016581   0.00000000   0.00000000          -24.39        0.00        0.00
   0.00000000  -0.00016581   0.00000000            0.00      -24.39        0.00
   0.00000000   0.00000000  -0.00016581            0.00        0.00      -24.39

     Energy error            =      1.2E-02 Ry
     Gradient error          =      0.0E+00 Ry/Bohr
     Cell gradient error     =      2.4E+01 kbar

     number of scf cycles    =   3
     number of bfgs steps    =   2

     enthalpy           old  =    -660.1428438145 Ry
     enthalpy           new  =    -660.1553050105 Ry

     CASE: enthalpy          _new < enthalpy          _old

     new trust radius        =       0.0191888490 bohr
     new conv_thr            =       0.0000000100 Ry

     new unit-cell volume =    531.89392 a.u.^3 (    78.81855 Ang^3 )
     density =      0.16854 g/cm^3

CELL_PARAMETERS (angstrom)
   4.287552732   0.000000000   0.000000000
   0.000000000   4.287552732   0.000000000
   0.000000000   0.000000000   4.287552732

ATOMIC_POSITIONS (angstrom)
V                0.0000000000        0.0000000000        0.0000000000
V                2.1437763638        2.1437763638        0.0000000000
V                2.1437763638        0.0000000000        2.1437763638
V                0.0000000000        2.1437763638        2.1437763638
N                0.0000000000        0.0000000000        2.1437763638
N                0.0000000000        2.1437763638        0.0000000000
N                2.1437763638        0.0000000000        0.0000000000
N                2.1437763638        2.1437763638        2.1437763638



     Writing config-only to output data dir ./tmp/vn.save/ :
     XML data file
     NEW-OLD atomic charge density approx. for the potential
     New effective cutoffs (rho, wfc):  411.94   41.18

     Check: negative core charge=   -0.000005

     negative rho (up, down):  0.000E+00 1.018E-02
     Generating pointlists ...

     Atomic wfc used for Hubbard projectors are orthogonalized


     total cpu time spent up to now is       27.3 secs

     per-process dynamical memory:   130.8 Mb

     Self-consistent Calculation

     iteration #  1     ecut=    45.00 Ry     beta= 0.30
     Davidson diagonalization with overlap
     ethr =  1.00E-06,  avg # of iterations =  3.3

     =================== HUBBARD OCCUPATIONS ===================
     ------------------------ ATOM    1 ------------------------
     Tr[ns(  1)] (up, down, total) =   2.97476  0.54393  3.51869
     Atomic magnetic moment for atom   1 =   2.43084
     SPIN  1
     eigenvalues:
       0.279  0.279  0.806  0.806  0.806
     eigenvectors (columns):
      -0.244  0.970 -0.000  0.000  0.000
      -0.000  0.000  0.270 -0.845 -0.462
      -0.000  0.000  0.367 -0.353  0.861
       0.970  0.244  0.000 -0.000 -0.000
       0.000 -0.000 -0.890 -0.401  0.214
     occupation matrix ns (before diag.):
       0.279 -0.000 -0.000  0.000  0.000
      -0.000  0.806 -0.000  0.000  0.000
      -0.000 -0.000  0.806  0.000  0.000
       0.000  0.000  0.000  0.279 -0.000
       0.000  0.000  0.000 -0.000  0.806
     SPIN  2
     eigenvalues:
       0.056  0.056  0.056  0.188  0.188
     eigenvectors (columns):
      -0.000 -0.000 -0.000  0.421 -0.907
      -0.281  0.660 -0.697 -0.000 -0.000
      -0.403  0.577  0.710 -0.000 -0.000
       0.000  0.000  0.000 -0.907 -0.421
       0.871  0.481  0.104  0.000 -0.000
     occupation matrix ns (before diag.):
       0.188 -0.000 -0.000  0.000  0.000
      -0.000  0.056 -0.000  0.000  0.000
      -0.000 -0.000  0.056  0.000  0.000
       0.000  0.000  0.000  0.188 -0.000
       0.000  0.000  0.000 -0.000  0.056
     ------------------------ ATOM    2 ------------------------
     Tr[ns(  2)] (up, down, total) =   2.96763  0.55011  3.51774
     Atomic magnetic moment for atom   2 =   2.41752
     SPIN  1
     eigenvalues:
       0.266  0.273  0.764  0.764  0.901
     eigenvectors (columns):
       0.000 -1.000 -0.000  0.000  0.000
       0.000 -0.000  0.671 -0.741  0.000
       0.000 -0.000  0.741  0.671  0.000
      -1.000 -0.000  0.000 -0.000 -0.000
      -0.000  0.000 -0.000 -0.000  1.000
     occupation matrix ns (before diag.):
       0.273 -0.000 -0.000  0.000  0.000
      -0.000  0.764 -0.000  0.000  0.000
      -0.000 -0.000  0.764  0.000  0.000
       0.000  0.000  0.000  0.266 -0.000
       0.000  0.000  0.000 -0.000  0.901
     SPIN  2
     eigenvalues:
       0.058  0.058  0.058  0.188  0.189
     eigenvectors (columns):
      -0.000  0.000 -0.000  0.000  1.000
      -0.000  0.772  0.635 -0.000 -0.000
      -0.000  0.635 -0.772 -0.000 -0.000
       0.000 -0.000  0.000 -1.000  0.000
       1.000  0.000 -0.000  0.000  0.000
     occupation matrix ns (before diag.):
       0.189 -0.000 -0.000  0.000  0.000
      -0.000  0.058 -0.000  0.000  0.000
      -0.000 -0.000  0.058  0.000  0.000
       0.000  0.000  0.000  0.188 -0.000
       0.000  0.000  0.000 -0.000  0.058
     ------------------------ ATOM    3 ------------------------
     Tr[ns(  3)] (up, down, total) =   2.96763  0.55011  3.51774
     Atomic magnetic moment for atom   3 =   2.41752
     SPIN  1
     eigenvalues:
       0.266  0.273  0.764  0.764  0.901
     eigenvectors (columns):
       0.866  0.500 -0.000 -0.000  0.000
       0.000 -0.000  0.000 -0.000 -1.000
       0.000 -0.000  0.409 -0.913  0.000
      -0.500  0.866  0.000  0.000 -0.000
      -0.000  0.000 -0.913 -0.409 -0.000
     occupation matrix ns (before diag.):
       0.268 -0.000 -0.000  0.003  0.000
      -0.000  0.901 -0.000  0.000  0.000
      -0.000 -0.000  0.764  0.000  0.000
       0.003  0.000  0.000  0.271 -0.000
       0.000  0.000  0.000 -0.000  0.764
     SPIN  2
     eigenvalues:
       0.058  0.058  0.058  0.188  0.189
     eigenvectors (columns):
       0.000 -0.000 -0.000 -0.866 -0.500
       1.000  0.000 -0.000  0.000 -0.000
       0.000 -0.363  0.932  0.000 -0.000
      -0.000  0.000 -0.000  0.500 -0.866
      -0.000  0.932  0.363 -0.000  0.000
     occupation matrix ns (before diag.):
       0.188 -0.000 -0.000  0.000  0.000
      -0.000  0.058 -0.000  0.000  0.000
      -0.000 -0.000  0.058  0.000  0.000
       0.000  0.000  0.000  0.189 -0.000
       0.000  0.000  0.000 -0.000  0.058
     ------------------------ ATOM    4 ------------------------
     Tr[ns(  4)] (up, down, total) =   2.96763  0.55011  3.51774
     Atomic magnetic moment for atom   4 =   2.41752
     SPIN  1
     eigenvalues:
       0.266  0.273  0.764  0.764  0.901
     eigenvectors (columns):
       0.866  0.500 -0.000 -0.000  0.000
       0.000  0.000  0.267  0.964  0.000
      -0.000  0.000  0.000  0.000 -1.000
       0.500 -0.866  0.000  0.000 -0.000
      -0.000 -0.000 -0.964  0.267 -0.000
     occupation matrix ns (before diag.):
       0.268 -0.000 -0.000 -0.003  0.000
      -0.000  0.764 -0.000  0.000  0.000
      -0.000 -0.000  0.901  0.000  0.000
      -0.003  0.000  0.000  0.271 -0.000
       0.000  0.000  0.000 -0.000  0.764
     SPIN  2
     eigenvalues:
       0.058  0.058  0.058  0.188  0.189
     eigenvectors (columns):
       0.000 -0.000  0.000 -0.866 -0.500
       0.000 -0.267  0.964  0.000  0.000
       1.000  0.000 -0.000 -0.000  0.000
      -0.000  0.000 -0.000 -0.500  0.866
      -0.000  0.964  0.267 -0.000 -0.000
     occupation matrix ns (before diag.):
       0.188 -0.000 -0.000 -0.000  0.000
      -0.000  0.058 -0.000  0.000  0.000
      -0.000 -0.000  0.058  0.000  0.000
      -0.000  0.000  0.000  0.189 -0.000
       0.000  0.000  0.000 -0.000  0.058

     Number of occupied Hubbard levels =   14.0719

     Threshold (ethr) on eigenvalues was too large:
     Diagonalizing with lowered threshold

     Davidson diagonalization with overlap
     ethr =  5.08E-08,  avg # of iterations =  3.5

     negative rho (up, down):  0.000E+00 1.018E-02

     total cpu time spent up to now is       28.2 secs

     total energy              =    -660.15577341 Ry
     estimated scf accuracy    <       0.00004076 Ry

     total magnetization       =     7.76 Bohr mag/cell
     absolute magnetization    =    10.97 Bohr mag/cell

     iteration #  2     ecut=    45.00 Ry     beta= 0.30
     Davidson diagonalization with overlap
     ethr =  5.66E-08,  avg # of iterations =  2.6

     negative rho (up, down):  0.000E+00 1.017E-02

     total cpu time spent up to now is       28.4 secs

     total energy              =    -660.15579086 Ry
     estimated scf accuracy    <       0.00001791 Ry

     total magnetization       =     7.76 Bohr mag/cell
     absolute magnetization    =    10.96 Bohr mag/cell

     iteration #  3     ecut=    45.00 Ry     beta= 0.30
     Davidson diagonalization with overlap
     ethr =  2.49E-08,  avg # of iterations =  2.8

     negative rho (up, down):  0.000E+00 1.015E-02

     total cpu time spent up to now is       28.6 secs

     total energy              =    -660.15579977 Ry
     estimated scf accuracy    <       0.00000579 Ry

     total magnetization       =     7.76 Bohr mag/cell
     absolute magnetization    =    10.95 Bohr mag/cell

     iteration #  4     ecut=    45.00 Ry     beta= 0.30
     Davidson diagonalization with overlap
     ethr =  8.05E-09,  avg # of iterations =  4.8

     negative rho (up, down):  0.000E+00 1.015E-02

     total cpu time spent up to now is       28.9 secs

     total energy              =    -660.15580408 Ry
     estimated scf accuracy    <       0.00000233 Ry

     total magnetization       =     7.76 Bohr mag/cell
     absolute magnetization    =    10.94 Bohr mag/cell

     iteration #  5     ecut=    45.00 Ry     beta= 0.30
     Davidson diagonalization with overlap
     ethr =  3.23E-09,  avg # of iterations =  4.4

     negative rho (up, down):  0.000E+00 1.015E-02

     total cpu time spent up to now is       29.2 secs

     total energy              =    -660.15580553 Ry
     estimated scf accuracy    <       0.00000126 Ry

     total magnetization       =     7.76 Bohr mag/cell
     absolute magnetization    =    10.93 Bohr mag/cell

     iteration #  6     ecut=    45.00 Ry     beta= 0.30
     Davidson diagonalization with overlap
     ethr =  1.74E-09,  avg # of iterations =  2.3

     negative rho (up, down):  0.000E+00 1.015E-02

     total cpu time spent up to now is       29.5 secs

     total energy              =    -660.15580578 Ry
     estimated scf accuracy    <       0.00000068 Ry

     total magnetization       =     7.76 Bohr mag/cell
     absolute magnetization    =    10.93 Bohr mag/cell

     iteration #  7     ecut=    45.00 Ry     beta= 0.30
     Davidson diagonalization with overlap
     ethr =  9.41E-10,  avg # of iterations =  5.6

     negative rho (up, down):  0.000E+00 1.015E-02

     total cpu time spent up to now is       29.8 secs

     total energy              =    -660.15580654 Ry
     estimated scf accuracy    <       0.00000046 Ry

     total magnetization       =     7.76 Bohr mag/cell
     absolute magnetization    =    10.93 Bohr mag/cell

     iteration #  8     ecut=    45.00 Ry     beta= 0.30
     Davidson diagonalization with overlap
     ethr =  6.34E-10,  avg # of iterations =  3.1

     negative rho (up, down):  0.000E+00 1.014E-02

     total cpu time spent up to now is       30.1 secs

     total energy              =    -660.15580543 Ry
     estimated scf accuracy    <       0.00000038 Ry

     total magnetization       =     7.76 Bohr mag/cell
     absolute magnetization    =    10.93 Bohr mag/cell

     iteration #  9     ecut=    45.00 Ry     beta= 0.30
     Davidson diagonalization with overlap
     ethr =  5.30E-10,  avg # of iterations =  5.7

     negative rho (up, down):  0.000E+00 1.014E-02

     total cpu time spent up to now is       30.5 secs

     total energy              =    -660.15580736 Ry
     estimated scf accuracy    <       0.00000009 Ry

     total magnetization       =     7.76 Bohr mag/cell
     absolute magnetization    =    10.92 Bohr mag/cell

     iteration # 10     ecut=    45.00 Ry     beta= 0.30
     Davidson diagonalization with overlap
     ethr =  1.27E-10,  avg # of iterations =  3.2

     negative rho (up, down):  0.000E+00 1.014E-02

     total cpu time spent up to now is       30.7 secs

     total energy              =    -660.15580737 Ry
     estimated scf accuracy    <       0.00000001 Ry

     total magnetization       =     7.76 Bohr mag/cell
     absolute magnetization    =    10.92 Bohr mag/cell

     iteration # 11     ecut=    45.00 Ry     beta= 0.30
     Davidson diagonalization with overlap
     ethr =  2.02E-11,  avg # of iterations =  6.3

     negative rho (up, down):  0.000E+00 1.014E-02

     Magnetic moment per site  (integrated on atomic sphere of radius R)
     atom   1 (R=0.206)  charge=  9.9939  magn=  1.8016
     atom   2 (R=0.206)  charge=  9.9938  magn=  1.7956
     atom   3 (R=0.206)  charge=  9.9938  magn=  1.7956
     atom   4 (R=0.206)  charge=  9.9938  magn=  1.7956
     atom   5 (R=0.206)  charge=  4.4847  magn= -0.3788
     atom   6 (R=0.206)  charge=  4.4847  magn= -0.3788
     atom   7 (R=0.206)  charge=  4.4847  magn= -0.3788
     atom   8 (R=0.206)  charge=  4.4853  magn= -0.3805

     total cpu time spent up to now is       31.1 secs

     End of self-consistent calculation

     =================== HUBBARD OCCUPATIONS ===================
     ------------------------ ATOM    1 ------------------------
     Tr[ns(  1)] (up, down, total) =   2.97135  0.54788  3.51923
     Atomic magnetic moment for atom   1 =   2.42347
     SPIN  1
     eigenvalues:
       0.280  0.280  0.804  0.804  0.804
     eigenvectors (columns):
      -0.187  0.982 -0.000  0.000  0.000
      -0.000  0.000  0.279  0.743 -0.609
      -0.000  0.000  0.393  0.490  0.778
       0.982  0.187  0.000  0.000 -0.000
       0.000 -0.000 -0.876  0.456  0.156
     occupation matrix ns (before diag.):
       0.280 -0.000 -0.000  0.000  0.000
      -0.000  0.804 -0.000  0.000  0.000
      -0.000 -0.000  0.804  0.000  0.000
       0.000  0.000  0.000  0.280 -0.000
       0.000  0.000  0.000 -0.000  0.804
     SPIN  2
     eigenvalues:
       0.057  0.057  0.057  0.189  0.189
     eigenvectors (columns):
      -0.000  0.000  0.000  0.345 -0.939
      -0.241 -0.937  0.251 -0.000  0.000
      -0.326 -0.166 -0.931 -0.000 -0.000
       0.000  0.000 -0.000 -0.939 -0.345
       0.914 -0.306 -0.266  0.000 -0.000
     occupation matrix ns (before diag.):
       0.189 -0.000 -0.000  0.000  0.000
      -0.000  0.057 -0.000  0.000  0.000
      -0.000 -0.000  0.057  0.000  0.000
       0.000  0.000  0.000  0.189 -0.000
       0.000  0.000  0.000 -0.000  0.057
     ------------------------ ATOM    2 ------------------------
     Tr[ns(  2)] (up, down, total) =   2.96417  0.55412  3.51828
     Atomic magnetic moment for atom   2 =   2.41005
     SPIN  1
     eigenvalues:
       0.267  0.274  0.760  0.760  0.903
     eigenvectors (columns):
      -0.000 -1.000 -0.000  0.000  0.000
      -0.000 -0.000  0.709 -0.705  0.000
      -0.000 -0.000  0.705  0.709  0.000
       1.000 -0.000  0.000 -0.000 -0.000
       0.000  0.000 -0.000 -0.000  1.000
     occupation matrix ns (before diag.):
       0.274 -0.000 -0.000  0.000  0.000
      -0.000  0.760 -0.000  0.000  0.000
      -0.000 -0.000  0.760  0.000  0.000
       0.000  0.000  0.000  0.267 -0.000
       0.000  0.000  0.000 -0.000  0.903
     SPIN  2
     eigenvalues:
       0.058  0.058  0.058  0.189  0.190
     eigenvectors (columns):
      -0.000  0.000  0.000  0.000  1.000
      -0.000  0.862  0.507 -0.000 -0.000
      -0.000  0.507 -0.862 -0.000 -0.000
       0.000 -0.000  0.000 -1.000  0.000
       1.000  0.000 -0.000  0.000  0.000
     occupation matrix ns (before diag.):
       0.190 -0.000 -0.000  0.000  0.000
      -0.000  0.058 -0.000  0.000  0.000
      -0.000 -0.000  0.058  0.000  0.000
       0.000  0.000  0.000  0.189 -0.000
       0.000  0.000  0.000 -0.000  0.058
     ------------------------ ATOM    3 ------------------------
     Tr[ns(  3)] (up, down, total) =   2.96417  0.55412  3.51828
     Atomic magnetic moment for atom   3 =   2.41005
     SPIN  1
     eigenvalues:
       0.267  0.274  0.760  0.760  0.903
     eigenvectors (columns):
       0.866  0.500 -0.000 -0.000  0.000
       0.000 -0.000  0.000 -0.000 -1.000
       0.000 -0.000  0.405 -0.914  0.000
      -0.500  0.866  0.000  0.000 -0.000
      -0.000  0.000 -0.914 -0.405 -0.000
     occupation matrix ns (before diag.):
       0.269 -0.000 -0.000  0.003  0.000
      -0.000  0.903 -0.000  0.000  0.000
      -0.000 -0.000  0.760  0.000  0.000
       0.003  0.000  0.000  0.272 -0.000
       0.000  0.000  0.000 -0.000  0.760
     SPIN  2
     eigenvalues:
       0.058  0.058  0.058  0.189  0.190
     eigenvectors (columns):
       0.000 -0.000 -0.000 -0.866 -0.500
       1.000  0.000 -0.000  0.000 -0.000
       0.000 -0.398  0.917  0.000 -0.000
      -0.000  0.000  0.000  0.500 -0.866
      -0.000  0.917  0.398 -0.000  0.000
     occupation matrix ns (before diag.):
       0.190 -0.000 -0.000  0.000  0.000
      -0.000  0.058 -0.000  0.000  0.000
      -0.000 -0.000  0.058  0.000  0.000
       0.000  0.000  0.000  0.190 -0.000
       0.000  0.000  0.000 -0.000  0.058
     ------------------------ ATOM    4 ------------------------
     Tr[ns(  4)] (up, down, total) =   2.96417  0.55412  3.51828
     Atomic magnetic moment for atom   4 =   2.41005
     SPIN  1
     eigenvalues:
       0.267  0.274  0.760  0.760  0.903
     eigenvectors (columns):
       0.866  0.500 -0.000 -0.000  0.000
       0.000  0.000  0.260  0.966  0.000
      -0.000  0.000  0.000  0.000 -1.000
       0.500 -0.866  0.000  0.000 -0.000
      -0.000 -0.000 -0.966  0.260 -0.000
     occupation matrix ns (before diag.):
       0.269 -0.000 -0.000 -0.003  0.000
      -0.000  0.760 -0.000  0.000  0.000
      -0.000 -0.000  0.903  0.000  0.000
      -0.003  0.000  0.000  0.272 -0.000
       0.000  0.000  0.000 -0.000  0.760
     SPIN  2
     eigenvalues:
       0.058  0.058  0.058  0.189  0.190
     eigenvectors (columns):
       0.000 -0.000  0.000 -0.866 -0.500
       0.000 -0.250  0.968  0.000  0.000
       1.000  0.000 -0.000 -0.000  0.000
      -0.000  0.000 -0.000 -0.500  0.866
      -0.000  0.968  0.250 -0.000 -0.000
     occupation matrix ns (before diag.):
       0.190 -0.000 -0.000 -0.000  0.000
      -0.000  0.058 -0.000  0.000  0.000
      -0.000 -0.000  0.058  0.000  0.000
      -0.000  0.000  0.000  0.190 -0.000
       0.000  0.000  0.000 -0.000  0.058

     Number of occupied Hubbard levels =   14.0741

 ------ SPIN UP ------------


          k = 0.0000 0.0000 0.0000 (  2373 PWs)   bands (ev):

   -50.0149 -49.9662 -49.9662 -49.8386 -23.9896 -23.9896 -23.9896 -23.8089
   -23.8089 -23.8089 -23.8028 -23.8028 -23.8028 -23.6537 -23.6537 -23.6537
    -0.5752   1.4758   1.5992   1.5992  10.1481  10.1481  10.1481  10.2656
    10.2656  10.2656  12.1576  12.1576  12.1576  13.2186  13.2186  13.2186
    13.3048  13.3048  13.3048  14.1337  14.1337  14.1337  14.5727  14.5727
    14.5727  14.7778  14.7778

          k = 0.0000 0.0000 0.1914 (  2393 PWs)   bands (ev):

   -50.0106 -49.9703 -49.9675 -49.8401 -23.9782 -23.9782 -23.9703 -23.8194
   -23.8194 -23.8141 -23.8037 -23.7986 -23.7986 -23.6732 -23.6616 -23.6616
    -0.3416   1.4113   1.6328   1.6984   9.9793   9.9793  10.0210  10.1031
    10.1031  10.4094  11.9657  12.0349  12.0349  12.4580  12.5427  12.7590
    12.7590  13.1818  13.6572  13.6572  14.1321  14.4601  14.4601  14.5734
    14.9543  14.9543  15.0584

          k = 0.0000 0.0000 0.3827 (  2384 PWs)   bands (ev):

   -50.0000 -49.9808 -49.9696 -49.8428 -23.9535 -23.9535 -23.9271 -23.8464
   -23.8464 -23.8319 -23.8052 -23.7858 -23.7858 -23.7075 -23.6765 -23.6765
     0.2622   0.9652   1.7917   1.8685   9.7392   9.7392   9.8878   9.8878
    10.2094  10.7693  11.2915  11.5262  11.5287  11.5912  11.9317  11.9317
    12.2254  12.2254  14.1302  14.3232  14.3232  14.5745  14.6690  14.6690
    15.4495  15.4495  15.4997

          k = 0.0000 0.1914 0.1914 (  2374 PWs)   bands (ev):

   -50.0072 -49.9728 -49.9705 -49.8420 -23.9838 -23.9670 -23.9451 -23.8498
   -23.8146 -23.8141 -23.8089 -23.8000 -23.7843 -23.6936 -23.6703 -23.6550
    -0.1156   1.4922   1.5868   1.7538   9.6828   9.8183   9.8196   9.8779
    10.1418  10.2385  11.4536  11.5164  12.3058  12.3169  12.4062  12.5589
    13.0885  13.1953  13.2952  13.4501  14.1047  14.1823  14.5873  14.6871
    14.8863  15.0313  15.0354

          k = 0.0000 0.1914 0.3827 (  2370 PWs)   bands (ev):

   -49.9984 -49.9821 -49.9735 -49.8452 -23.9793 -23.9433 -23.9020 -23.8796
   -23.8374 -23.8365 -23.8068 -23.7969 -23.7728 -23.6948 -23.6866 -23.6662
     0.4642   1.1270   1.7642   1.8737   9.2793   9.4292   9.7068   9.8228
     9.9088  10.4477  10.5788  10.9649  11.7677  11.8782  12.1274  12.3208
    12.3222  12.7554  13.6491  14.0751  14.1071  14.5610  14.7698  14.9790
    15.0221  15.2314  15.5370

          k = 0.0000 0.3827 0.3827 (  2356 PWs)   bands (ev):

   -49.9935 -49.9851 -49.9817 -49.8492 -23.9998 -23.9221 -23.9064 -23.8823
   -23.8587 -23.8232 -23.8202 -23.8187 -23.7407 -23.7065 -23.6728 -23.6605
     0.9665   1.4593   1.5445   1.8116   8.8537   9.1113   9.1918   9.6535
     9.6561   9.9820  10.1338  10.4144  11.8000  11.8238  11.8929  12.0515
    12.6229  13.2878  13.4220  13.7637  14.2636  14.7096  14.8285  14.9475
    15.4171  15.6711  15.7387

          k = 0.1914 0.1914 0.1914 (  2349 PWs)   bands (ev):

   -50.0045 -49.9745 -49.9745 -49.8442 -24.0030 -23.9389 -23.9389 -23.8507
   -23.8507 -23.8361 -23.7832 -23.7832 -23.7780 -23.7120 -23.6596 -23.6596
     0.1024   1.5696   1.6906   1.6906   9.1587   9.3554   9.3554  10.2455
    10.2455  10.2892  10.5737  11.9664  11.9664  12.1781  12.1781  12.3002
    13.3329  13.3329  13.3927  13.8619  13.8619  14.4342  14.4342  14.4543
    14.7017  14.8268  15.1003

          k = 0.1914 0.1914 0.3827 (  2378 PWs)   bands (ev):

   -49.9975 -49.9837 -49.9773 -49.8477 -24.0132 -23.9209 -23.9084 -23.8884
   -23.8738 -23.8379 -23.7909 -23.7725 -23.7648 -23.6987 -23.6689 -23.6677
     0.6577   1.2780   1.7969   1.8698   8.6503   8.8212   9.1556   9.6870
    10.1213  10.2431  10.7178  11.4657  11.6703  11.6901  11.7516  11.8461
    12.9915  13.3223  13.8012  13.9727  14.3192  14.4787  14.6278  14.8112
    14.8819  15.0990  15.2586

          k = 0.1914 0.3827 0.3827 (  2384 PWs)   bands (ev):

   -49.9941 -49.9871 -49.9847 -49.8521 -24.0403 -23.9338 -23.9223 -23.9091
   -23.8749 -23.8322 -23.7725 -23.7723 -23.7399 -23.6902 -23.6660 -23.6590
     1.1314   1.5724   1.6581   1.8568   8.1371   8.3747   8.4626   8.8001
    10.2985  10.5253  10.6463  11.0395  11.4474  11.5091  11.5705  11.6353
    13.2682  13.7767  13.8148  14.1059  14.2097  14.6311  14.6948  14.8254
    15.0019  15.3050  15.4387

          k = 0.3827 0.3827 0.3827 (  2377 PWs)   bands (ev):

   -49.9943 -49.9906 -49.9906 -49.8569 -24.0789 -23.9619 -23.9619 -23.9530
   -23.8326 -23.8326 -23.7398 -23.7398 -23.7375 -23.6668 -23.6547 -23.6547
     1.5018   1.7550   1.8569   1.8569   7.4799   7.7318   7.7318   7.9290
    10.8259  10.8259  10.8853  11.1568  11.1568  11.2233  11.2233  11.3021
    13.9146  13.9146  14.3320  14.4142  14.4142  14.4784  14.4784  14.6070
    15.0380  15.4184  15.5390

 ------ SPIN DOWN ----------


          k = 0.0000 0.0000 0.0000 (  2373 PWs)   bands (ev):

   -47.7444 -47.6911 -47.6911 -47.5542 -21.8183 -21.8183 -21.8183 -21.5703
   -21.5703 -21.5703 -21.5112 -21.5112 -21.5112 -21.3850 -21.3850 -21.3850
    -0.8449   1.0359   1.1562   1.1562  10.1680  10.1680  10.1680  12.8289
    12.8289  12.8289  12.8477  12.8477  12.8477  14.1285  14.1285  14.1285
    16.7046  16.7046  16.7046  18.4755  18.4755  18.9029  18.9029  18.9029
    19.3352  19.3352  19.3580

          k = 0.0000 0.0000 0.1914 (  2393 PWs)   bands (ev):

   -47.7398 -47.6955 -47.6929 -47.5561 -21.8083 -21.8083 -21.8057 -21.5677
   -21.5677 -21.5670 -21.5125 -21.5121 -21.5121 -21.4085 -21.3931 -21.3931
    -0.6263   0.9798   1.1791   1.2431  10.0807  10.3266  10.3266  12.2738
    12.2913  12.3431  12.3431  12.8976  12.8976  13.0012  13.8968  13.8968
    16.8750  17.4812  17.4812  18.5519  18.6438  19.2573  19.2754  19.3526
    19.3526  19.7610  19.7970

          k = 0.0000 0.0000 0.3827 (  2384 PWs)   bands (ev):

   -47.7281 -47.7074 -47.6957 -47.5594 -21.7911 -21.7911 -21.7832 -21.5683
   -21.5683 -21.5557 -21.5146 -21.5071 -21.5071 -21.4551 -21.4089 -21.4089
    -0.0675   0.5770   1.3114   1.3905  10.2941  10.7798  10.7798  11.2978
    11.4960  11.4960  11.5232  11.5495  13.0897  13.0897  13.4618  13.4618
    17.3445  18.0361  18.7476  19.0219  19.0219  19.0460  20.0881  20.1947
    20.2718  20.2939  20.2939

          k = 0.0000 0.1914 0.1914 (  2374 PWs)   bands (ev):

   -47.7353 -47.6972 -47.6952 -47.5570 -21.8304 -21.7993 -21.7688 -21.5795
   -21.5758 -21.5616 -21.5163 -21.5151 -21.4920 -21.4347 -21.4021 -21.3843
    -0.4152   1.0488   1.1420   1.2886  10.1448  10.1764  10.4776  11.4619
    12.3350  12.3825  12.3888  12.4156  12.4341  12.5621  13.1974  13.6277
    17.6245  17.6248  18.0100  18.9117  19.1047  19.1640  19.6727  19.6766
    19.7049  19.9176  20.3418

          k = 0.0000 0.1914 0.3827 (  2370 PWs)   bands (ev):

   -47.7241 -47.7061 -47.6971 -47.5588 -21.8387 -21.7839 -21.7320 -21.5998
   -21.5757 -21.5564 -21.5407 -21.5128 -21.4787 -21.4327 -21.4198 -21.3953
     0.1204   0.7253   1.2899   1.3935  10.2275  10.3278  10.6452  10.9124
    11.1395  11.6060  11.7564  11.9235  12.5301  12.6755  12.8005  13.1191
    18.0207  18.6198  19.1228  19.1774  19.2711  19.4814  20.1022  20.1582
    20.4152  20.4702  20.4903

          k = 0.0000 0.3827 0.3827 (  2356 PWs)   bands (ev):

   -47.7144 -47.7048 -47.7011 -47.5576 -21.8699 -21.7715 -21.6905 -21.6280
   -21.5998 -21.5884 -21.5325 -21.5213 -21.4433 -21.4418 -21.4035 -21.3882
     0.5802   1.0230   1.1041   1.3388   9.9749   9.9863  10.0884  10.4929
    11.3004  11.8623  11.8667  11.9252  11.9436  11.9616  12.1463  12.4844
    19.3908  19.3935  19.5887  19.8033  19.8583  19.8818  19.8962  19.9823
    20.4884  20.5916  20.5999

          k = 0.1914 0.1914 0.1914 (  2349 PWs)   bands (ev):

   -47.7310 -47.6973 -47.6973 -47.5571 -21.8584 -21.7618 -21.7618 -21.6010
   -21.6010 -21.5610 -21.5004 -21.5004 -21.4827 -21.4579 -21.3896 -21.3896
    -0.2122   1.1135   1.2334   1.2334  10.1575  10.1575  10.2240  11.6212
    11.7134  11.7134  12.0636  12.4129  12.4129  12.4269  13.0557  13.0557
    18.1283  18.1313  18.1313  19.2976  19.4174  19.4174  20.0485  20.0485
    20.2757  20.2757  20.2778

          k = 0.1914 0.1914 0.3827 (  2378 PWs)   bands (ev):

   -47.7202 -47.7045 -47.6974 -47.5575 -21.8787 -21.7477 -21.7222 -21.6335
   -21.6119 -21.5903 -21.5059 -21.4854 -21.4684 -21.4334 -21.3998 -21.3986
     0.2979   0.8602   1.3144   1.3894  10.0385  10.0498  10.1512  10.8434
    11.2520  11.3433  11.9420  11.9538  12.0503  12.4804  12.5240  12.7790
    18.4584  18.9659  19.3379  19.3438  19.7906  20.0738  20.2530  20.4414
    20.4755  20.6081  20.8698

          k = 0.1914 0.3827 0.3827 (  2384 PWs)   bands (ev):

   -47.7108 -47.7024 -47.6996 -47.5552 -21.9147 -21.7289 -21.6912 -21.6631
   -21.6480 -21.6395 -21.4800 -21.4766 -21.4406 -21.4227 -21.3982 -21.3881
     0.7243   1.1149   1.1985   1.3705   9.6037   9.6647   9.7568  10.1102
    11.4219  11.6605  11.7080  11.8519  11.9857  12.0055  12.1000  12.2780
    19.5162  19.5446  19.7490  20.0229  20.0855  20.4515  20.4923  20.5707
    20.6205  20.6948  20.8840

          k = 0.3827 0.3827 0.3827 (  2377 PWs)   bands (ev):

   -47.7031 -47.6982 -47.6982 -47.5510 -21.9609 -21.7036 -21.7036 -21.6926
   -21.6832 -21.6832 -21.4396 -21.4396 -21.4373 -21.3991 -21.3860 -21.3860
     1.0371   1.2595   1.3589   1.3589   9.1373   9.1373   9.2203   9.4128
    11.5780  11.6793  11.6793  11.8202  11.8202  11.8591  11.9792  11.9792
    20.1964  20.2251  20.2251  20.4312  20.5746  20.5746  20.7074  20.7451
    20.7451  20.9382  20.9382

     the Fermi energy is    15.0025 ev

!    total energy              =    -660.15580739 Ry
     estimated scf accuracy    <          6.8E-09 Ry
     smearing contrib. (-TS)   =      -0.00007258 Ry
     internal energy E=F+TS    =    -660.15573482 Ry

     The total energy is F=E-TS. E is the sum of the following terms:
     one-electron contribution =    -182.34658285 Ry
     hartree contribution      =     130.95732040 Ry
     xc contribution           =    -100.64688267 Ry
     ewald contribution        =    -509.05469576 Ry
     DFT-D3 Dispersion         =      -0.21556681 Ry
     Hubbard energy            =       1.15067288 Ry

     total magnetization       =     7.76 Bohr mag/cell
     absolute magnetization    =    10.92 Bohr mag/cell

     convergence has been achieved in  11 iterations

     negative rho (up, down):  0.000E+00 1.014E-02
     force_hub    :      1.15s CPU      1.19s WALL (       4 calls)
     dndtau       :      1.05s CPU      1.09s WALL (     960 calls)
     dprojdtau    :      0.25s CPU      0.26s WALL (    3840 calls)
     calc_doverla :      0.57s CPU      0.58s WALL (     960 calls)
     matel_dSdtau :      0.53s CPU      0.55s WALL (    1920 calls)

     Forces acting on atoms (cartesian axes, Ry/au):

     atom    1 type  1   force =     0.00000000    0.00000000    0.00000000
     atom    2 type  1   force =     0.00000000    0.00000000    0.00000000
     atom    3 type  1   force =     0.00000000    0.00000000    0.00000000
     atom    4 type  1   force =     0.00000000    0.00000000    0.00000000
     atom    5 type  2   force =     0.00000000    0.00000000    0.00000000
     atom    6 type  2   force =     0.00000000    0.00000000    0.00000000
     atom    7 type  2   force =     0.00000000    0.00000000    0.00000000
     atom    8 type  2   force =     0.00000000    0.00000000    0.00000000

     Total force =     0.000000     Total SCF correction =     0.000000


     Computing stress (Cartesian axis) and pressure


     negative rho (up, down):  0.000E+00 1.014E-02
     stres_hub    :      2.08s CPU      2.14s WALL (       4 calls)
     dprojdepsilo :      1.95s CPU      2.00s WALL (     360 calls)
     dprojdeps1   :      0.16s CPU      0.17s WALL (     360 calls)
     dprojdeps2   :      1.15s CPU      1.18s WALL (     360 calls)
     dprojdeps3   :      0.63s CPU      0.65s WALL (     360 calls)
          total   stress  (Ry/bohr**3)                   (kbar)     P=        2.56
   0.00001741   0.00000000   0.00000000            2.56        0.00        0.00
   0.00000000   0.00001741   0.00000000            0.00        2.56        0.00
   0.00000000   0.00000000   0.00001741            0.00        0.00        2.56

     Energy error            =      5.0E-04 Ry
     Gradient error          =      0.0E+00 Ry/Bohr
     Cell gradient error     =      2.6E+00 kbar

     number of scf cycles    =   4
     number of bfgs steps    =   3

     enthalpy           old  =    -660.1553050105 Ry
     enthalpy           new  =    -660.1558073925 Ry

     CASE: enthalpy          _new < enthalpy          _old

     new trust radius        =       0.0018061098 bohr
     new conv_thr            =       0.0000000100 Ry

     new unit-cell volume =    532.51897 a.u.^3 (    78.91117 Ang^3 )
     density =      0.16835 g/cm^3

CELL_PARAMETERS (angstrom)
   4.289231579   0.000000000   0.000000000
   0.000000000   4.289231579   0.000000000
   0.000000000   0.000000000   4.289231579

ATOMIC_POSITIONS (angstrom)
V                0.0000000000        0.0000000000        0.0000000000
V                2.1446157873        2.1446157873        0.0000000000
V                2.1446157873        0.0000000000        2.1446157873
V                0.0000000000        2.1446157873        2.1446157873
N                0.0000000000        0.0000000000        2.1446157873
N                0.0000000000        2.1446157873        0.0000000000
N                2.1446157873        0.0000000000        0.0000000000
N                2.1446157873        2.1446157873        2.1446157873



     Writing config-only to output data dir ./tmp/vn.save/ :
     XML data file
     NEW-OLD atomic charge density approx. for the potential
     New effective cutoffs (rho, wfc):  411.62   41.15

     Check: negative core charge=   -0.000005

     negative rho (up, down):  0.000E+00 1.014E-02
     Generating pointlists ...

     Atomic wfc used for Hubbard projectors are orthogonalized


     total cpu time spent up to now is       33.0 secs

     per-process dynamical memory:   130.8 Mb

     Self-consistent Calculation

     iteration #  1     ecut=    45.00 Ry     beta= 0.30
     Davidson diagonalization with overlap
     ethr =  1.00E-06,  avg # of iterations =  2.0

     =================== HUBBARD OCCUPATIONS ===================
     ------------------------ ATOM    1 ------------------------
     Tr[ns(  1)] (up, down, total) =   2.97138  0.54746  3.51884
     Atomic magnetic moment for atom   1 =   2.42392
     SPIN  1
     eigenvalues:
       0.280  0.280  0.804  0.804  0.804
     eigenvectors (columns):
      -0.540  0.842 -0.000 -0.000  0.000
      -0.000  0.000  0.264 -0.689 -0.675
      -0.000 -0.000  0.396 -0.560  0.727
       0.842  0.540  0.000 -0.000 -0.000
       0.000 -0.000 -0.880 -0.459  0.125
     occupation matrix ns (before diag.):
       0.280 -0.000 -0.000  0.000  0.000
      -0.000  0.804 -0.000  0.000  0.000
      -0.000 -0.000  0.804  0.000  0.000
       0.000  0.000  0.000  0.280 -0.000
       0.000  0.000  0.000 -0.000  0.804
     SPIN  2
     eigenvalues:
       0.057  0.057  0.057  0.189  0.189
     eigenvectors (columns):
      -0.000  0.000  0.000  0.300 -0.954
      -0.270 -0.908  0.321 -0.000  0.000
      -0.364 -0.212 -0.907 -0.000 -0.000
       0.000  0.000 -0.000 -0.954 -0.300
       0.891 -0.361 -0.274  0.000 -0.000
     occupation matrix ns (before diag.):
       0.189 -0.000 -0.000  0.000  0.000
      -0.000  0.057 -0.000  0.000  0.000
      -0.000 -0.000  0.057  0.000  0.000
       0.000  0.000  0.000  0.189 -0.000
       0.000  0.000  0.000 -0.000  0.057
     ------------------------ ATOM    2 ------------------------
     Tr[ns(  2)] (up, down, total) =   2.96397  0.55368  3.51765
     Atomic magnetic moment for atom   2 =   2.41029
     SPIN  1
     eigenvalues:
       0.267  0.273  0.760  0.760  0.903
     eigenvectors (columns):
       0.000 -1.000 -0.000  0.000  0.000
       0.000 -0.000  0.743 -0.669  0.000
       0.000 -0.000  0.669  0.743  0.000
      -1.000 -0.000  0.000 -0.000 -0.000
      -0.000  0.000 -0.000 -0.000  1.000
     occupation matrix ns (before diag.):
       0.273 -0.000 -0.000  0.000  0.000
      -0.000  0.760 -0.000  0.000  0.000
      -0.000 -0.000  0.760  0.000  0.000
       0.000  0.000  0.000  0.267 -0.000
       0.000  0.000  0.000 -0.000  0.903
     SPIN  2
     eigenvalues:
       0.058  0.058  0.058  0.189  0.190
     eigenvectors (columns):
      -0.000  0.000 -0.000  0.000  1.000
      -0.000  0.843  0.538 -0.000 -0.000
      -0.000  0.538 -0.843 -0.000 -0.000
       0.000 -0.000  0.000 -1.000  0.000
       1.000  0.000 -0.000  0.000  0.000
     occupation matrix ns (before diag.):
       0.190 -0.000 -0.000  0.000  0.000
      -0.000  0.058 -0.000  0.000  0.000
      -0.000 -0.000  0.058  0.000  0.000
       0.000  0.000  0.000  0.189 -0.000
       0.000  0.000  0.000 -0.000  0.058
     ------------------------ ATOM    3 ------------------------
     Tr[ns(  3)] (up, down, total) =   2.96397  0.55368  3.51765
     Atomic magnetic moment for atom   3 =   2.41029
     SPIN  1
     eigenvalues:
       0.267  0.273  0.760  0.760  0.903
     eigenvectors (columns):
       0.866  0.500 -0.000 -0.000  0.000
       0.000 -0.000  0.000 -0.000 -1.000
       0.000 -0.000  0.368 -0.930  0.000
      -0.500  0.866  0.000  0.000 -0.000
      -0.000  0.000 -0.930 -0.368 -0.000
     occupation matrix ns (before diag.):
       0.268 -0.000 -0.000  0.003  0.000
      -0.000  0.903 -0.000  0.000  0.000
      -0.000 -0.000  0.760  0.000  0.000
       0.003  0.000  0.000  0.272 -0.000
       0.000  0.000  0.000 -0.000  0.760
     SPIN  2
     eigenvalues:
       0.058  0.058  0.058  0.189  0.190
     eigenvectors (columns):
       0.000 -0.000 -0.000 -0.866 -0.500
       1.000  0.000 -0.000  0.000 -0.000
       0.000 -0.362  0.932  0.000 -0.000
      -0.000  0.000  0.000  0.500 -0.866
      -0.000  0.932  0.362 -0.000  0.000
     occupation matrix ns (before diag.):
       0.190 -0.000 -0.000  0.000  0.000
      -0.000  0.058 -0.000  0.000  0.000
      -0.000 -0.000  0.058  0.000  0.000
       0.000  0.000  0.000  0.190 -0.000
       0.000  0.000  0.000 -0.000  0.058
     ------------------------ ATOM    4 ------------------------
     Tr[ns(  4)] (up, down, total) =   2.96397  0.55368  3.51765
     Atomic magnetic moment for atom   4 =   2.41029
     SPIN  1
     eigenvalues:
       0.267  0.273  0.760  0.760  0.903
     eigenvectors (columns):
       0.866  0.500 -0.000 -0.000  0.000
       0.000  0.000  0.265  0.964  0.000
      -0.000  0.000  0.000  0.000 -1.000
       0.500 -0.866  0.000  0.000 -0.000
      -0.000 -0.000 -0.964  0.265 -0.000
     occupation matrix ns (before diag.):
       0.268 -0.000 -0.000 -0.003  0.000
      -0.000  0.760 -0.000  0.000  0.000
      -0.000 -0.000  0.903  0.000  0.000
      -0.003  0.000  0.000  0.272 -0.000
       0.000  0.000  0.000 -0.000  0.760
     SPIN  2
     eigenvalues:
       0.058  0.058  0.058  0.189  0.190
     eigenvectors (columns):
       0.000 -0.000 -0.000 -0.866 -0.500
       0.000 -0.252  0.968 -0.000  0.000
       1.000  0.000 -0.000 -0.000  0.000
      -0.000  0.000 -0.000 -0.500  0.866
      -0.000  0.968  0.252 -0.000 -0.000
     occupation matrix ns (before diag.):
       0.190 -0.000 -0.000 -0.000  0.000
      -0.000  0.058 -0.000  0.000  0.000
      -0.000 -0.000  0.058  0.000  0.000
      -0.000  0.000  0.000  0.190 -0.000
       0.000  0.000  0.000 -0.000  0.058

     Number of occupied Hubbard levels =   14.0718

     Threshold (ethr) on eigenvalues was too large:
     Diagonalizing with lowered threshold

     Davidson diagonalization with overlap
     ethr =  5.58E-10,  avg # of iterations =  5.5

     negative rho (up, down):  0.000E+00 1.014E-02

     total cpu time spent up to now is       33.9 secs

     total energy              =    -660.15581212 Ry
     estimated scf accuracy    <       0.00000048 Ry

     total magnetization       =     7.76 Bohr mag/cell
     absolute magnetization    =    10.93 Bohr mag/cell

     iteration #  2     ecut=    45.00 Ry     beta= 0.30
     Davidson diagonalization with overlap
     ethr =  6.69E-10,  avg # of iterations =  2.3

     negative rho (up, down):  0.000E+00 1.014E-02

     total cpu time spent up to now is       34.1 secs

     total energy              =    -660.15581224 Ry
     estimated scf accuracy    <       0.00000029 Ry

     total magnetization       =     7.76 Bohr mag/cell
     absolute magnetization    =    10.93 Bohr mag/cell

     iteration #  3     ecut=    45.00 Ry     beta= 0.30
     Davidson diagonalization with overlap
     ethr =  3.96E-10,  avg # of iterations =  3.9

     negative rho (up, down):  0.000E+00 1.014E-02

     total cpu time spent up to now is       34.4 secs

     total energy              =    -660.15581232 Ry
     estimated scf accuracy    <       0.00000006 Ry

     total magnetization       =     7.76 Bohr mag/cell
     absolute magnetization    =    10.93 Bohr mag/cell

     iteration #  4     ecut=    45.00 Ry     beta= 0.30
     Davidson diagonalization with overlap
     ethr =  7.68E-11,  avg # of iterations =  3.9

     negative rho (up, down):  0.000E+00 1.015E-02

     total cpu time spent up to now is       34.7 secs

     total energy              =    -660.15581235 Ry
     estimated scf accuracy    <       0.00000006 Ry

     total magnetization       =     7.76 Bohr mag/cell
     absolute magnetization    =    10.93 Bohr mag/cell

     iteration #  5     ecut=    45.00 Ry     beta= 0.30
     Davidson diagonalization with overlap
     ethr =  7.68E-11,  avg # of iterations =  3.5

     negative rho (up, down):  0.000E+00 1.015E-02

     total cpu time spent up to now is       34.9 secs

     total energy              =    -660.15581238 Ry
     estimated scf accuracy    <       0.00000002 Ry

     total magnetization       =     7.76 Bohr mag/cell
     absolute magnetization    =    10.93 Bohr mag/cell

     iteration #  6     ecut=    45.00 Ry     beta= 0.30
     Davidson diagonalization with overlap
     ethr =  2.93E-11,  avg # of iterations =  3.3

     negative rho (up, down):  0.000E+00 1.015E-02

     total cpu time spent up to now is       35.2 secs

     total energy              =    -660.15581239 Ry
     estimated scf accuracy    <       0.00000001 Ry

     total magnetization       =     7.76 Bohr mag/cell
     absolute magnetization    =    10.93 Bohr mag/cell

     iteration #  7     ecut=    45.00 Ry     beta= 0.30
     Davidson diagonalization with overlap
     ethr =  1.95E-11,  avg # of iterations =  4.8

     negative rho (up, down):  0.000E+00 1.015E-02

     total cpu time spent up to now is       35.5 secs

     total energy              =    -660.15581240 Ry
     estimated scf accuracy    <       0.00000001 Ry

     total magnetization       =     7.76 Bohr mag/cell
     absolute magnetization    =    10.93 Bohr mag/cell

     iteration #  8     ecut=    45.00 Ry     beta= 0.30
     Davidson diagonalization with overlap
     ethr =  1.94E-11,  avg # of iterations =  3.8

     negative rho (up, down):  0.000E+00 1.015E-02

     Magnetic moment per site  (integrated on atomic sphere of radius R)
     atom   1 (R=0.206)  charge=  9.9934  magn=  1.8022
     atom   2 (R=0.206)  charge=  9.9933  magn=  1.7962
     atom   3 (R=0.206)  charge=  9.9933  magn=  1.7962
     atom   4 (R=0.206)  charge=  9.9933  magn=  1.7962
     atom   5 (R=0.206)  charge=  4.4835  magn= -0.3801
     atom   6 (R=0.206)  charge=  4.4835  magn= -0.3801
     atom   7 (R=0.206)  charge=  4.4835  magn= -0.3801
     atom   8 (R=0.206)  charge=  4.4841  magn= -0.3816

     total cpu time spent up to now is       35.7 secs

     End of self-consistent calculation

     =================== HUBBARD OCCUPATIONS ===================
     ------------------------ ATOM    1 ------------------------
     Tr[ns(  1)] (up, down, total) =   2.97154  0.54708  3.51861
     Atomic magnetic moment for atom   1 =   2.42446
     SPIN  1
     eigenvalues:
       0.280  0.280  0.804  0.804  0.804
     eigenvectors (columns):
      -0.421  0.907 -0.000  0.000  0.000
      -0.000  0.000  0.283 -0.884 -0.371
      -0.000 -0.000  0.372 -0.256  0.893
       0.907  0.421  0.000 -0.000 -0.000
       0.000 -0.000 -0.884 -0.390  0.256
     occupation matrix ns (before diag.):
       0.280 -0.000 -0.000  0.000  0.000
      -0.000  0.804 -0.000  0.000  0.000
      -0.000 -0.000  0.804  0.000  0.000
       0.000  0.000  0.000  0.280 -0.000
       0.000  0.000  0.000 -0.000  0.804
     SPIN  2
     eigenvalues:
       0.056  0.056  0.056  0.189  0.189
     eigenvectors (columns):
      -0.000  0.000  0.000  0.379 -0.925
      -0.283 -0.939  0.195 -0.000  0.000
      -0.372 -0.080 -0.925 -0.000 -0.000
       0.000  0.000 -0.000 -0.925 -0.379
       0.884 -0.334 -0.326  0.000 -0.000
     occupation matrix ns (before diag.):
       0.189 -0.000 -0.000  0.000  0.000
      -0.000  0.056 -0.000  0.000  0.000
      -0.000 -0.000  0.056  0.000  0.000
       0.000  0.000  0.000  0.189 -0.000
       0.000  0.000  0.000 -0.000  0.056
     ------------------------ ATOM    2 ------------------------
     Tr[ns(  2)] (up, down, total) =   2.96432  0.55332  3.51764
     Atomic magnetic moment for atom   2 =   2.41101
     SPIN  1
     eigenvalues:
       0.267  0.273  0.761  0.761  0.903
     eigenvectors (columns):
       0.000 -1.000 -0.000  0.000  0.000
       0.000 -0.000  0.694 -0.720  0.000
       0.000 -0.000  0.720  0.694  0.000
      -1.000 -0.000  0.000 -0.000 -0.000
      -0.000  0.000 -0.000 -0.000  1.000
     occupation matrix ns (before diag.):
       0.273 -0.000 -0.000  0.000  0.000
      -0.000  0.761 -0.000  0.000  0.000
      -0.000 -0.000  0.761  0.000  0.000
       0.000  0.000  0.000  0.267 -0.000
       0.000  0.000  0.000 -0.000  0.903
     SPIN  2
     eigenvalues:
       0.058  0.058  0.058  0.189  0.190
     eigenvectors (columns):
      -0.000  0.000  0.000  0.000  1.000
      -0.000  0.810  0.586 -0.000 -0.000
      -0.000  0.586 -0.810 -0.000 -0.000
       0.000 -0.000  0.000 -1.000  0.000
       1.000  0.000 -0.000  0.000  0.000
     occupation matrix ns (before diag.):
       0.190 -0.000 -0.000  0.000  0.000
      -0.000  0.058 -0.000  0.000  0.000
      -0.000 -0.000  0.058  0.000  0.000
       0.000  0.000  0.000  0.189 -0.000
       0.000  0.000  0.000 -0.000  0.058
     ------------------------ ATOM    3 ------------------------
     Tr[ns(  3)] (up, down, total) =   2.96432  0.55332  3.51764
     Atomic magnetic moment for atom   3 =   2.41101
     SPIN  1
     eigenvalues:
       0.267  0.273  0.761  0.761  0.903
     eigenvectors (columns):
       0.866  0.500 -0.000 -0.000  0.000
       0.000 -0.000  0.000 -0.000 -1.000
       0.000 -0.000  0.346 -0.938  0.000
      -0.500  0.866  0.000  0.000 -0.000
      -0.000  0.000 -0.938 -0.346 -0.000
     occupation matrix ns (before diag.):
       0.268 -0.000 -0.000  0.003  0.000
      -0.000  0.903 -0.000  0.000  0.000
      -0.000 -0.000  0.761  0.000  0.000
       0.003  0.000  0.000  0.272 -0.000
       0.000  0.000  0.000 -0.000  0.761
     SPIN  2
     eigenvalues:
       0.058  0.058  0.058  0.189  0.190
     eigenvectors (columns):
       0.000 -0.000 -0.000 -0.866 -0.500
       1.000  0.000 -0.000  0.000 -0.000
       0.000 -0.347  0.938  0.000 -0.000
      -0.000  0.000  0.000  0.500 -0.866
      -0.000  0.938  0.347 -0.000  0.000
     occupation matrix ns (before diag.):
       0.189 -0.000 -0.000  0.000  0.000
      -0.000  0.058 -0.000  0.000  0.000
      -0.000 -0.000  0.058  0.000  0.000
       0.000  0.000  0.000  0.190 -0.000
       0.000  0.000  0.000 -0.000  0.058
     ------------------------ ATOM    4 ------------------------
     Tr[ns(  4)] (up, down, total) =   2.96432  0.55332  3.51764
     Atomic magnetic moment for atom   4 =   2.41101
     SPIN  1
     eigenvalues:
       0.267  0.273  0.761  0.761  0.903
     eigenvectors (columns):
       0.866  0.500 -0.000 -0.000  0.000
       0.000  0.000  0.272  0.962  0.000
      -0.000  0.000  0.000  0.000 -1.000
       0.500 -0.866  0.000  0.000 -0.000
      -0.000 -0.000 -0.962  0.272 -0.000
     occupation matrix ns (before diag.):
       0.268 -0.000 -0.000 -0.003  0.000
      -0.000  0.761 -0.000  0.000  0.000
      -0.000 -0.000  0.903  0.000  0.000
      -0.003  0.000  0.000  0.272 -0.000
       0.000  0.000  0.000 -0.000  0.761
     SPIN  2
     eigenvalues:
       0.058  0.058  0.058  0.189  0.190
     eigenvectors (columns):
       0.000 -0.000  0.000 -0.866 -0.500
       0.000 -0.240  0.971  0.000  0.000
       1.000  0.000 -0.000 -0.000  0.000
      -0.000  0.000 -0.000 -0.500  0.866
      -0.000  0.971  0.240 -0.000 -0.000
     occupation matrix ns (before diag.):
       0.189 -0.000 -0.000 -0.000  0.000
      -0.000  0.058 -0.000  0.000  0.000
      -0.000 -0.000  0.058  0.000  0.000
      -0.000  0.000  0.000  0.190 -0.000
       0.000  0.000  0.000 -0.000  0.058

     Number of occupied Hubbard levels =   14.0715

 ------ SPIN UP ------------


          k = 0.0000 0.0000 0.0000 (  2373 PWs)   bands (ev):

   -50.0385 -49.9901 -49.9901 -49.8624 -24.0124 -24.0124 -24.0124 -23.8323
   -23.8323 -23.8323 -23.8263 -23.8263 -23.8263 -23.6775 -23.6775 -23.6775
    -0.5883   1.4611   1.5842   1.5842  10.1312  10.1312  10.1312  10.2469
    10.2469  10.2469  12.1354  12.1354  12.1354  13.1998  13.1998  13.1998
    13.2858  13.2858  13.2858  14.1073  14.1073  14.1073  14.5457  14.5457
    14.5457  14.7582  14.7582

          k = 0.0000 0.0000 0.1913 (  2393 PWs)   bands (ev):

   -50.0343 -49.9941 -49.9914 -49.8639 -24.0010 -24.0010 -23.9931 -23.8428
   -23.8428 -23.8376 -23.8272 -23.8221 -23.8221 -23.6968 -23.6853 -23.6853
    -0.3550   1.3963   1.6177   1.6831   9.9619   9.9619  10.0047  10.0853
    10.0853  10.3904  11.9439  12.0134  12.0134  12.4404  12.5248  12.7389
    12.7389  13.1638  13.6370  13.6370  14.1058  14.4344  14.4344  14.5463
    14.9285  14.9285  15.0373

          k = 0.0000 0.0000 0.3826 (  2384 PWs)   bands (ev):

   -50.0237 -50.0046 -49.9934 -49.8666 -23.9765 -23.9765 -23.9502 -23.8696
   -23.8696 -23.8553 -23.8287 -23.8094 -23.8094 -23.7308 -23.7001 -23.7001
     0.2478   0.9501   1.7760   1.8526   9.7219   9.7219   9.8705   9.8705
    10.1940  10.7496  11.2754  11.5078  11.5099  11.5748  11.9110  11.9110
    12.2051  12.2051  14.1038  14.3005  14.3005  14.5475  14.6442  14.6442
    15.4255  15.4255  15.4757

          k = 0.0000 0.1913 0.1913 (  2374 PWs)   bands (ev):

   -50.0308 -49.9966 -49.9944 -49.8658 -24.0067 -23.9899 -23.9680 -23.8730
   -23.8381 -23.8375 -23.8324 -23.8235 -23.8078 -23.7170 -23.6939 -23.6787
    -0.1295   1.4770   1.5713   1.7382   9.6657   9.8019   9.8030   9.8606
    10.1238  10.2202  11.4334  11.4968  12.2833  12.2989  12.3884  12.5416
    13.0665  13.1737  13.2779  13.4291  14.0824  14.1562  14.5618  14.6618
    14.8600  15.0060  15.0094

          k = 0.0000 0.1913 0.3826 (  2370 PWs)   bands (ev):

   -50.0221 -50.0059 -49.9974 -49.8689 -24.0022 -23.9663 -23.9251 -23.9027
   -23.8607 -23.8598 -23.8303 -23.8205 -23.7964 -23.7183 -23.7102 -23.6899
     0.4495   1.1115   1.7482   1.8575   9.2629   9.4129   9.6895   9.8069
     9.8915  10.4291  10.5616  10.9457  11.7515  11.8619  12.1094  12.2986
    12.3046  12.7330  13.6246  14.0495  14.0841  14.5366  14.7454  14.9541
    14.9968  15.2057  15.5125

          k = 0.0000 0.3826 0.3826 (  2356 PWs)   bands (ev):

   -50.0173 -50.0089 -50.0055 -49.8729 -24.0227 -23.9453 -23.9294 -23.9053
   -23.8818 -23.8468 -23.8436 -23.8422 -23.7644 -23.7299 -23.6965 -23.6842
     0.9509   1.4432   1.5282   1.7950   8.8382   9.0957   9.1762   9.6362
     9.6398   9.9645  10.1160  10.3962  11.7843  11.8081  11.8771  12.0358
    12.5995  13.2635  13.3977  13.7385  14.2391  14.6844  14.8029  14.9216
    15.3926  15.6459  15.7137

          k = 0.1913 0.1913 0.1913 (  2349 PWs)   bands (ev):

   -50.0282 -49.9983 -49.9983 -49.8679 -24.0258 -23.9618 -23.9618 -23.8740
   -23.8740 -23.8594 -23.8068 -23.8068 -23.8016 -23.7354 -23.6833 -23.6833
     0.0882   1.5541   1.6747   1.6747   9.1422   9.3388   9.3388  10.2281
    10.2281  10.2720  10.5552  11.9462  11.9462  12.1599  12.1599  12.2821
    13.3120  13.3120  13.3715  13.8415  13.8415  14.4091  14.4091  14.4308
    14.6759  14.8011  15.0738

          k = 0.1913 0.1913 0.3826 (  2378 PWs)   bands (ev):

   -50.0212 -50.0075 -50.0011 -49.8715 -24.0360 -23.9439 -23.9314 -23.9116
   -23.8970 -23.8613 -23.8144 -23.7962 -23.7885 -23.7222 -23.6926 -23.6914
     0.6426   1.2622   1.7807   1.8534   8.6344   8.8052   9.1394   9.6699
    10.1042  10.2262  10.7004  11.4477  11.6514  11.6735  11.7344  11.8282
    12.9704  13.3004  13.7771  13.9493  14.2950  14.4545  14.6046  14.7865
    14.8573  15.0738  15.2324

          k = 0.1913 0.3826 0.3826 (  2384 PWs)   bands (ev):

   -50.0179 -50.0109 -50.0085 -49.8758 -24.0630 -23.9566 -23.9452 -23.9321
   -23.8983 -23.8559 -23.7962 -23.7960 -23.7637 -23.7138 -23.6897 -23.6827
     1.1155   1.5559   1.6414   1.8399   8.1219   8.3592   8.4471   8.7841
    10.2815  10.5084  10.6292  11.0219  11.4304  11.4927  11.5540  11.6188
    13.2459  13.7529  13.7909  14.0810  14.1860  14.6065  14.6703  14.8004
    14.9771  15.2796  15.4128

          k = 0.3826 0.3826 0.3826 (  2377 PWs)   bands (ev):

   -50.0180 -50.0144 -50.0144 -49.8806 -24.1014 -23.9846 -23.9846 -23.9757
   -23.8562 -23.8562 -23.7636 -23.7636 -23.7613 -23.6905 -23.6784 -23.6784
     1.4851   1.7379   1.8396   1.8396   7.4653   7.7171   7.7171   7.9139
    10.8092  10.8092  10.8691  11.1404  11.1404  11.2067  11.2067  11.2856
    13.8916  13.8916  14.3078  14.3897  14.3897  14.4537  14.4537  14.5820
    15.0122  15.3921  15.5123

 ------ SPIN DOWN ----------


          k = 0.0000 0.0000 0.0000 (  2373 PWs)   bands (ev):

   -47.7671 -47.7141 -47.7141 -47.5772 -21.8402 -21.8402 -21.8402 -21.5927
   -21.5927 -21.5927 -21.5339 -21.5339 -21.5339 -21.4080 -21.4080 -21.4080
    -0.8601   1.0190   1.1387   1.1387  10.1495  10.1495  10.1495  12.8083
    12.8083  12.8083  12.8267  12.8267  12.8267  14.1067  14.1067  14.1067
    16.6884  16.6884  16.6884  18.4547  18.4547  18.8833  18.8833  18.8833
    19.3129  19.3129  19.3355

          k = 0.0000 0.0000 0.1913 (  2393 PWs)   bands (ev):

   -47.7625 -47.7185 -47.7159 -47.5791 -21.8303 -21.8303 -21.8277 -21.5901
   -21.5901 -21.5895 -21.5352 -21.5348 -21.5348 -21.4313 -21.4161 -21.4161
    -0.6419   0.9625   1.1615   1.2253  10.0629  10.3082  10.3082  12.2544
    12.2716  12.3234  12.3234  12.8769  12.8769  12.9812  13.8754  13.8754
    16.8586  17.4633  17.4633  18.5309  18.6246  19.2350  19.2520  19.3320
    19.3320  19.7373  19.7734

          k = 0.0000 0.0000 0.3826 (  2384 PWs)   bands (ev):

   -47.7510 -47.7303 -47.7187 -47.5824 -21.8133 -21.8133 -21.8054 -21.5907
   -21.5907 -21.5782 -21.5374 -21.5299 -21.5299 -21.4776 -21.4318 -21.4318
    -0.0841   0.5595   1.2934   1.3720  10.2771  10.7614  10.7614  11.2802
    11.4772  11.4772  11.5051  11.5315  13.0692  13.0692  13.4410  13.4410
    17.3274  18.0180  18.7263  19.0015  19.0015  19.0242  20.0621  20.1685
    20.2463  20.2715  20.2715

          k = 0.0000 0.1913 0.1913 (  2374 PWs)   bands (ev):

   -47.7582 -47.7202 -47.7183 -47.5800 -21.8524 -21.8214 -21.7910 -21.6018
   -21.5981 -21.5840 -21.5391 -21.5378 -21.5149 -21.4573 -21.4250 -21.4073
    -0.4312   1.0313   1.1240   1.2705  10.1271  10.1586  10.4592  11.4434
    12.3157  12.3630  12.3696  12.3961  12.4143  12.5421  13.1781  13.6069
    17.6065  17.6068  17.9912  18.8897  19.0843  19.1439  19.6506  19.6532
    19.6821  19.8934  20.3171

          k = 0.0000 0.1913 0.3826 (  2370 PWs)   bands (ev):

   -47.7470 -47.7291 -47.7201 -47.5817 -21.8606 -21.8060 -21.7544 -21.6221
   -21.5981 -21.5788 -21.5633 -21.5355 -21.5015 -21.4555 -21.4426 -21.4182
     0.1034   0.7075   1.2715   1.3748  10.2105  10.3103  10.6277  10.8940
    11.1216  11.5873  11.7384  11.9054  12.5110  12.6558  12.7814  13.0990
    18.0022  18.6004  19.1022  19.1549  19.2500  19.4583  20.0775  20.1361
    20.3916  20.4474  20.4645

          k = 0.0000 0.3826 0.3826 (  2356 PWs)   bands (ev):

   -47.7373 -47.7278 -47.7241 -47.5805 -21.8917 -21.7937 -21.7131 -21.6501
   -21.6220 -21.6106 -21.5550 -21.5440 -21.4659 -21.4648 -21.4264 -21.4111
     0.5624   1.0046   1.0853   1.3198   9.9583   9.9698  10.0715  10.4754
    11.2820  11.8449  11.8495  11.9066  11.9246  11.9440  12.1288  12.4652
    19.3698  19.3725  19.5649  19.7813  19.8371  19.8580  19.8718  19.9587
    20.4634  20.5690  20.5766

          k = 0.1913 0.1913 0.1913 (  2349 PWs)   bands (ev):

   -47.7538 -47.7203 -47.7203 -47.5800 -21.8802 -21.7840 -21.7840 -21.6232
   -21.6232 -21.5835 -21.5232 -21.5232 -21.5056 -21.4804 -21.4126 -21.4126
    -0.2286   1.0957   1.2151   1.2151  10.1399  10.1399  10.2062  11.6030
    11.6948  11.6948  12.0438  12.3939  12.3939  12.4077  13.0366  13.0366
    18.1094  18.1124  18.1124  19.2766  19.3965  19.3965  20.0244  20.0244
    20.2512  20.2512  20.2533

          k = 0.1913 0.1913 0.3826 (  2378 PWs)   bands (ev):

   -47.7431 -47.7274 -47.7204 -47.5804 -21.9004 -21.7700 -21.7446 -21.6556
   -21.6341 -21.6126 -21.5285 -21.5082 -21.4913 -21.4561 -21.4227 -21.4215
     0.2806   0.8420   1.2957   1.3704  10.0213  10.0328  10.1339  10.8255
    11.2342  11.3253  11.9240  11.9358  12.0320  12.4620  12.5052  12.7601
    18.4390  18.9458  19.3168  19.3227  19.7678  20.0501  20.2305  20.4177
    20.4520  20.5842  20.8443

          k = 0.1913 0.3826 0.3826 (  2384 PWs)   bands (ev):

   -47.7338 -47.7254 -47.7226 -47.5781 -21.9363 -21.7513 -21.7138 -21.6850
   -21.6701 -21.6615 -21.5029 -21.4995 -21.4636 -21.4455 -21.4211 -21.4111
     0.7060   1.0961   1.1794   1.3512   9.5873   9.6482   9.7400  10.0930
    11.4043  11.6432  11.6904  11.8347  11.9680  11.9879  12.0825  12.2598
    19.4947  19.5231  19.7268  20.0005  20.0638  20.4276  20.4685  20.5470
    20.5965  20.6718  20.8603

          k = 0.3826 0.3826 0.3826 (  2377 PWs)   bands (ev):

   -47.7261 -47.7212 -47.7212 -47.5739 -21.9823 -21.7254 -21.7254 -21.7143
   -21.7058 -21.7058 -21.4627 -21.4627 -21.4604 -21.4219 -21.4090 -21.4090
     1.0182   1.2401   1.3391   1.3391   9.1214   9.1214   9.2042   9.3964
    11.5613  11.6623  11.6623  11.8034  11.8034  11.8419  11.9620  11.9620
    20.1738  20.2027  20.2027  20.4080  20.5519  20.5519  20.6843  20.7216
    20.7216  20.9146  20.9146

     the Fermi energy is    14.9773 ev

!    total energy              =    -660.15581240 Ry
     estimated scf accuracy    <          4.4E-09 Ry
     smearing contrib. (-TS)   =       0.00020344 Ry
     internal energy E=F+TS    =    -660.15601584 Ry

     The total energy is F=E-TS. E is the sum of the following terms:
     one-electron contribution =    -182.63993726 Ry
     hartree contribution      =     131.04517033 Ry
     xc contribution           =    -100.64020830 Ry
     ewald contribution        =    -508.85544680 Ry
     DFT-D3 Dispersion         =      -0.21533121 Ry
     Hubbard energy            =       1.14973741 Ry

     total magnetization       =     7.76 Bohr mag/cell
     absolute magnetization    =    10.93 Bohr mag/cell

     convergence has been achieved in   8 iterations

     negative rho (up, down):  0.000E+00 1.015E-02
     force_hub    :      1.43s CPU      1.48s WALL (       5 calls)
     dndtau       :      1.31s CPU      1.36s WALL (    1200 calls)
     dprojdtau    :      0.31s CPU      0.32s WALL (    4800 calls)
     calc_doverla :      0.70s CPU      0.73s WALL (    1200 calls)
     matel_dSdtau :      0.66s CPU      0.68s WALL (    2400 calls)

     Forces acting on atoms (cartesian axes, Ry/au):

     atom    1 type  1   force =     0.00000000    0.00000000    0.00000000
     atom    2 type  1   force =     0.00000000    0.00000000    0.00000000
     atom    3 type  1   force =     0.00000000    0.00000000    0.00000000
     atom    4 type  1   force =     0.00000000    0.00000000    0.00000000
     atom    5 type  2   force =     0.00000000    0.00000000    0.00000000
     atom    6 type  2   force =     0.00000000    0.00000000    0.00000000
     atom    7 type  2   force =     0.00000000    0.00000000    0.00000000
     atom    8 type  2   force =     0.00000000    0.00000000    0.00000000

     Total force =     0.000000     Total SCF correction =     0.000000


     Computing stress (Cartesian axis) and pressure


     negative rho (up, down):  0.000E+00 1.015E-02
     stres_hub    :      2.61s CPU      2.68s WALL (       5 calls)
     dprojdepsilo :      2.44s CPU      2.50s WALL (     450 calls)
     dprojdeps1   :      0.20s CPU      0.21s WALL (     450 calls)
     dprojdeps2   :      1.45s CPU      1.48s WALL (     450 calls)
     dprojdeps3   :      0.79s CPU      0.81s WALL (     450 calls)
          total   stress  (Ry/bohr**3)                   (kbar)     P=       -0.17
  -0.00000118   0.00000000   0.00000000           -0.17        0.00        0.00
   0.00000000  -0.00000118   0.00000000            0.00       -0.17        0.00
   0.00000000   0.00000000  -0.00000118            0.00        0.00       -0.17

     Energy error            =      5.0E-06 Ry
     Gradient error          =      0.0E+00 Ry/Bohr
     Cell gradient error     =      1.7E-01 kbar

     bfgs converged in   5 scf cycles and   4 bfgs steps
     (criteria: energy <  1.0E-04 Ry, force <  1.0E-03 Ry/Bohr, cell <  5.0E-01 kbar)

     End of BFGS Geometry Optimization

     Final enthalpy           =    -660.1558123993 Ry

     File ./tmp/vn.bfgs deleted, as requested
Begin final coordinates
     new unit-cell volume =    532.51897 a.u.^3 (    78.91117 Ang^3 )
     density =      0.16835 g/cm^3

CELL_PARAMETERS (angstrom)
   4.289231579   0.000000000   0.000000000
   0.000000000   4.289231579   0.000000000
   0.000000000   0.000000000   4.289231579

ATOMIC_POSITIONS (angstrom)
V                0.0000000000        0.0000000000        0.0000000000
V                2.1446157873        2.1446157873        0.0000000000
V                2.1446157873        0.0000000000        2.1446157873
V                0.0000000000        2.1446157873        2.1446157873
N                0.0000000000        0.0000000000        2.1446157873
N                0.0000000000        2.1446157873        0.0000000000
N                2.1446157873        0.0000000000        0.0000000000
N                2.1446157873        2.1446157873        2.1446157873
End final coordinates



     Writing config-only to output data dir ./tmp/vn.save/ :
     XML data file

     Final scf calculation at the relaxed structure.
     The G-vectors are recalculated for the final unit cell
     Results may differ from those at the preceding step.

     Parallelization info
     --------------------
     sticks:   dense  smooth     PW     G-vecs:    dense   smooth      PW
     Min         196      79     23                 7142     1817     283
     Max         197      80     24                 7145     1820     286
     Sum        2361     949    277                85735    21823    3407

     Using Slab Decomposition



     bravais-lattice index     =            0
     lattice parameter (alat)  =       7.7524  a.u.
     unit-cell volume          =     532.5190 (a.u.)^3
     number of atoms/cell      =            8
     number of atomic types    =            2
     number of electrons       =        72.00
     number of Kohn-Sham states=           43
     kinetic-energy cutoff     =      45.0000  Ry
     charge density cutoff     =     450.0000  Ry
     scf convergence threshold =      1.0E-08
     mixing beta               =       0.3000
     number of iterations used =            8  local-TF  mixing
     press convergence thresh. =      5.0E-01
     Exchange-correlation= SLA  PW   PBE  PBE
                           (   1   4   3   4   0   0   0)
     Hubbard projectors: ortho-atomic
     Hubbard parameters of DFT+U (Dudarev formulation) in eV:
     U(V-3d) =  5.9100

     Internal variables: lda_plus_u =T, lda_plus_u_kind = 0

     Internal variables: orbital_resolved =F, hub_pot_fix =F, apply_U = F

     celldm(1)=   7.752360  celldm(2)=   0.000000  celldm(3)=   0.000000
     celldm(4)=   0.000000  celldm(5)=   0.000000  celldm(6)=   0.000000

     crystal axes: (cart. coord. in units of alat)
               a(1) = (   1.045549   0.000000   0.000000 )  
               a(2) = (   0.000000   1.045549   0.000000 )  
               a(3) = (   0.000000   0.000000   1.045549 )  

     reciprocal axes: (cart. coord. in units 2 pi/alat)
               b(1) = (  0.956435  0.000000  0.000000 )  
               b(2) = (  0.000000  0.956435  0.000000 )  
               b(3) = (  0.000000  0.000000  0.956435 )  


     PseudoPot. # 1 for V  read from file:
     /scratch/anizami/QE_2/USPP/v_pbe_v1.4.uspp.F.UPF
     MD5 check sum: 22b79981416ebb76fdaf5b1b8640f6fb
     Pseudo is Ultrasoft + core correction, Zval = 13.0
     Generated by new atomic code, or converted to UPF format
     Using radial grid of  853 points,  6 beta functions with: 
                l(1) =   0
                l(2) =   0
                l(3) =   1
                l(4) =   1
                l(5) =   2
                l(6) =   2
     Q(r) pseudized with  8 coefficients,  rinner =    1.100   1.100   1.100
                                                       1.100   1.100

     PseudoPot. # 2 for N  read from file:
     /scratch/anizami/QE_2/USPP/n_pbe_v1.2.uspp.F.UPF
     MD5 check sum: 95339753478d7afb44899504a8723017
     Pseudo is Ultrasoft + core correction, Zval =  5.0
     Generated by new atomic code, or converted to UPF format
     Using radial grid of  729 points,  4 beta functions with: 
                l(1) =   0
                l(2) =   0
                l(3) =   1
                l(4) =   1
     Q(r) pseudized with  8 coefficients,  rinner =    0.900   0.900   0.900


     atomic species   valence    mass     pseudopotential
     V                13.00     1.00000     V ( 1.00)
     N                 5.00     1.00000     N ( 1.00)

     Starting magnetic structure 
     atomic species   magnetization
     V               0.180
     N              -0.085

     48 Sym. Ops., with inversion, found



   Cartesian axes

     site n.     atom                  positions (alat units)
         1        V      tau(   1) = (   0.0000000   0.0000000   0.0000000  )
         2        V      tau(   2) = (   0.5227746   0.5227746   0.0000000  )
         3        V      tau(   3) = (   0.5227746   0.0000000   0.5227746  )
         4        V      tau(   4) = (   0.0000000   0.5227746   0.5227746  )
         5        N      tau(   5) = (   0.0000000   0.0000000   0.5227746  )
         6        N      tau(   6) = (   0.0000000   0.5227746   0.0000000  )
         7        N      tau(   7) = (   0.5227746   0.0000000   0.0000000  )
         8        N      tau(   8) = (   0.5227746   0.5227746   0.5227746  )

     --------------------------------------------
     DFT-D3 Dispersion Correction (3-body terms):
     --------------------------------------------
       Reference C6 values for interpolation: 

         atom   Coordination number   C6
         N          0.000            50.54
         N          0.994            44.25
         N          2.014            39.35
         N          2.990            31.16
         V          0.000          2232.20
         V          1.914           580.29
         V          2.911           538.67

       Values used:

         atom   Coordination number  R0_AB[au]  C6      C8
         V         14.828            3.516    538.67  59684.75
         V         14.828            3.516    538.67  59684.75
         V         14.828            3.516    538.67  59684.75
         V         14.828            3.516    538.67  59684.75
         N          5.850            2.478     31.16    687.49
         N          5.850            2.478     31.16    687.49
         N          5.850            2.478     31.16    687.49
         N          5.850            2.478     31.16    687.49

         Molecular C6 ( Ry / a.u.^6 ) =     13007.47


     number of k points=    10  Marzari-Vanderbilt smearing, width (Ry)=  0.0800
                       cart. coord. in units 2pi/alat
        k(    1) = (   0.0000000   0.0000000   0.0000000), wk =   0.0080000
        k(    2) = (   0.0000000   0.0000000   0.1912870), wk =   0.0480000
        k(    3) = (   0.0000000   0.0000000   0.3825741), wk =   0.0480000
        k(    4) = (   0.0000000   0.1912870   0.1912870), wk =   0.0960000
        k(    5) = (   0.0000000   0.1912870   0.3825741), wk =   0.1920000
        k(    6) = (   0.0000000   0.3825741   0.3825741), wk =   0.0960000
        k(    7) = (   0.1912870   0.1912870   0.1912870), wk =   0.0640000
        k(    8) = (   0.1912870   0.1912870   0.3825741), wk =   0.1920000
        k(    9) = (   0.1912870   0.3825741   0.3825741), wk =   0.1920000
        k(   10) = (   0.3825741   0.3825741   0.3825741), wk =   0.0640000

     Dense  grid:    85735 G-vectors     FFT dimensions: (  60,  60,  60)

     Smooth grid:    21823 G-vectors     FFT dimensions: (  36,  36,  36)

     Estimated max dynamical RAM per process >      28.00 MB

     Estimated total dynamical RAM >     630.03 MB

     Check: negative core charge=   -0.000007
     Generating pointlists ...

     Initial potential from superposition of free atoms

     starting charge      71.9951, renormalised to      72.0000

     negative rho (up, down):  1.284E-03 8.881E-04

     STARTING HUBBARD OCCUPATIONS:

     =================== HUBBARD OCCUPATIONS ===================
     ------------------------ ATOM    1 ------------------------
     Tr[ns(  1)] (up, down, total) =   3.00000  0.00000  3.00000
     Atomic magnetic moment for atom   1 =   3.00000
     SPIN  1
     eigenvalues:
       0.600  0.600  0.600  0.600  0.600
     eigenvectors (columns):
       1.000  0.000  0.000  0.000  0.000
       0.000  1.000  0.000  0.000  0.000
       0.000  0.000  1.000  0.000  0.000
       0.000  0.000  0.000  1.000  0.000
       0.000  0.000  0.000  0.000  1.000
     occupation matrix ns (before diag.):
       0.600  0.000  0.000  0.000  0.000
       0.000  0.600  0.000  0.000  0.000
       0.000  0.000  0.600  0.000  0.000
       0.000  0.000  0.000  0.600  0.000
       0.000  0.000  0.000  0.000  0.600
     SPIN  2
     eigenvalues:
       0.000  0.000  0.000  0.000  0.000
     eigenvectors (columns):
       1.000  0.000  0.000  0.000  0.000
       0.000  1.000  0.000  0.000  0.000
       0.000  0.000  1.000  0.000  0.000
       0.000  0.000  0.000  1.000  0.000
       0.000  0.000  0.000  0.000  1.000
     occupation matrix ns (before diag.):
       0.000  0.000  0.000  0.000  0.000
       0.000  0.000  0.000  0.000  0.000
       0.000  0.000  0.000  0.000  0.000
       0.000  0.000  0.000  0.000  0.000
       0.000  0.000  0.000  0.000  0.000
     ------------------------ ATOM    2 ------------------------
     Tr[ns(  2)] (up, down, total) =   3.00000  0.00000  3.00000
     Atomic magnetic moment for atom   2 =   3.00000
     SPIN  1
     eigenvalues:
       0.600  0.600  0.600  0.600  0.600
     eigenvectors (columns):
       1.000  0.000  0.000  0.000  0.000
       0.000  1.000  0.000  0.000  0.000
       0.000  0.000  1.000  0.000  0.000
       0.000  0.000  0.000  1.000  0.000
       0.000  0.000  0.000  0.000  1.000
     occupation matrix ns (before diag.):
       0.600  0.000  0.000  0.000  0.000
       0.000  0.600  0.000  0.000  0.000
       0.000  0.000  0.600  0.000  0.000
       0.000  0.000  0.000  0.600  0.000
       0.000  0.000  0.000  0.000  0.600
     SPIN  2
     eigenvalues:
       0.000  0.000  0.000  0.000  0.000
     eigenvectors (columns):
       1.000  0.000  0.000  0.000  0.000
       0.000  1.000  0.000  0.000  0.000
       0.000  0.000  1.000  0.000  0.000
       0.000  0.000  0.000  1.000  0.000
       0.000  0.000  0.000  0.000  1.000
     occupation matrix ns (before diag.):
       0.000  0.000  0.000  0.000  0.000
       0.000  0.000  0.000  0.000  0.000
       0.000  0.000  0.000  0.000  0.000
       0.000  0.000  0.000  0.000  0.000
       0.000  0.000  0.000  0.000  0.000
     ------------------------ ATOM    3 ------------------------
     Tr[ns(  3)] (up, down, total) =   3.00000  0.00000  3.00000
     Atomic magnetic moment for atom   3 =   3.00000
     SPIN  1
     eigenvalues:
       0.600  0.600  0.600  0.600  0.600
     eigenvectors (columns):
       1.000  0.000  0.000  0.000  0.000
       0.000  1.000  0.000  0.000  0.000
       0.000  0.000  1.000  0.000  0.000
       0.000  0.000  0.000  1.000  0.000
       0.000  0.000  0.000  0.000  1.000
     occupation matrix ns (before diag.):
       0.600  0.000  0.000  0.000  0.000
       0.000  0.600  0.000  0.000  0.000
       0.000  0.000  0.600  0.000  0.000
       0.000  0.000  0.000  0.600  0.000
       0.000  0.000  0.000  0.000  0.600
     SPIN  2
     eigenvalues:
       0.000  0.000  0.000  0.000  0.000
     eigenvectors (columns):
       1.000  0.000  0.000  0.000  0.000
       0.000  1.000  0.000  0.000  0.000
       0.000  0.000  1.000  0.000  0.000
       0.000  0.000  0.000  1.000  0.000
       0.000  0.000  0.000  0.000  1.000
     occupation matrix ns (before diag.):
       0.000  0.000  0.000  0.000  0.000
       0.000  0.000  0.000  0.000  0.000
       0.000  0.000  0.000  0.000  0.000
       0.000  0.000  0.000  0.000  0.000
       0.000  0.000  0.000  0.000  0.000
     ------------------------ ATOM    4 ------------------------
     Tr[ns(  4)] (up, down, total) =   3.00000  0.00000  3.00000
     Atomic magnetic moment for atom   4 =   3.00000
     SPIN  1
     eigenvalues:
       0.600  0.600  0.600  0.600  0.600
     eigenvectors (columns):
       1.000  0.000  0.000  0.000  0.000
       0.000  1.000  0.000  0.000  0.000
       0.000  0.000  1.000  0.000  0.000
       0.000  0.000  0.000  1.000  0.000
       0.000  0.000  0.000  0.000  1.000
     occupation matrix ns (before diag.):
       0.600  0.000  0.000  0.000  0.000
       0.000  0.600  0.000  0.000  0.000
       0.000  0.000  0.600  0.000  0.000
       0.000  0.000  0.000  0.600  0.000
       0.000  0.000  0.000  0.000  0.600
     SPIN  2
     eigenvalues:
       0.000  0.000  0.000  0.000  0.000
     eigenvectors (columns):
       1.000  0.000  0.000  0.000  0.000
       0.000  1.000  0.000  0.000  0.000
       0.000  0.000  1.000  0.000  0.000
       0.000  0.000  0.000  1.000  0.000
       0.000  0.000  0.000  0.000  1.000
     occupation matrix ns (before diag.):
       0.000  0.000  0.000  0.000  0.000
       0.000  0.000  0.000  0.000  0.000
       0.000  0.000  0.000  0.000  0.000
       0.000  0.000  0.000  0.000  0.000
       0.000  0.000  0.000  0.000  0.000

     Number of occupied Hubbard levels =   12.0000

     Atomic wfc used for Hubbard projectors are orthogonalized

     Starting wfcs are   56 randomized atomic wfcs

     total cpu time spent up to now is       38.1 secs

     per-process dynamical memory:   130.8 Mb

     Self-consistent Calculation

     iteration #  1     ecut=    45.00 Ry     beta= 0.30
     Davidson diagonalization with overlap
     c_bands:  1 eigenvalues not converged
     c_bands:  3 eigenvalues not converged
     c_bands:  2 eigenvalues not converged
     c_bands:  3 eigenvalues not converged
     c_bands:  1 eigenvalues not converged
     c_bands:  2 eigenvalues not converged
     c_bands:  1 eigenvalues not converged
     c_bands:  3 eigenvalues not converged
     c_bands:  4 eigenvalues not converged
     c_bands:  2 eigenvalues not converged
     ethr =  1.00E-06,  avg # of iterations = 18.4

     =================== HUBBARD OCCUPATIONS ===================
     ------------------------ ATOM    1 ------------------------
     Tr[ns(  1)] (up, down, total) =   2.53086  0.36324  2.89410
     Atomic magnetic moment for atom   1 =   2.16762
     SPIN  1
     eigenvalues:
       0.181  0.181  0.723  0.723  0.723
     eigenvectors (columns):
      -0.275  0.961 -0.000  0.000  0.000
      -0.000  0.000  0.301 -0.854 -0.425
      -0.000  0.000  0.391 -0.296  0.871
       0.961  0.275  0.000 -0.000 -0.000
       0.000 -0.000 -0.870 -0.428  0.244
     occupation matrix ns (before diag.):
       0.181 -0.000 -0.000  0.000  0.000
      -0.000  0.723 -0.000  0.000  0.000
      -0.000 -0.000  0.723  0.000  0.000
       0.000  0.000  0.000  0.181 -0.000
       0.000  0.000  0.000 -0.000  0.723
     SPIN  2
     eigenvalues:
       0.038  0.038  0.038  0.124  0.124
     eigenvectors (columns):
      -0.000 -0.000 -0.000  0.348 -0.937
      -0.294  0.783 -0.548 -0.000  0.000
      -0.396  0.421  0.816 -0.000 -0.000
       0.000  0.000  0.000 -0.937 -0.348
       0.870  0.457  0.187  0.000 -0.000
     occupation matrix ns (before diag.):
       0.124 -0.000 -0.000  0.000  0.000
      -0.000  0.038 -0.000  0.000  0.000
      -0.000 -0.000  0.038  0.000  0.000
       0.000  0.000  0.000  0.124 -0.000
       0.000  0.000  0.000 -0.000  0.038
     ------------------------ ATOM    2 ------------------------
     Tr[ns(  2)] (up, down, total) =   2.44716  0.36357  2.81073
     Atomic magnetic moment for atom   2 =   2.08360
     SPIN  1
     eigenvalues:
       0.175  0.177  0.608  0.608  0.880
     eigenvectors (columns):
      -0.000  1.000 -0.000  0.000  0.000
      -0.000  0.000  0.726 -0.687  0.000
      -0.000  0.000  0.687  0.726  0.000
       1.000  0.000  0.000 -0.000 -0.000
       0.000 -0.000 -0.000 -0.000  1.000
     occupation matrix ns (before diag.):
       0.177 -0.000 -0.000  0.000  0.000
      -0.000  0.608 -0.000  0.000  0.000
      -0.000 -0.000  0.608  0.000  0.000
       0.000  0.000  0.000  0.175 -0.000
       0.000  0.000  0.000 -0.000  0.880
     SPIN  2
     eigenvalues:
       0.038  0.038  0.038  0.124  0.124
     eigenvectors (columns):
      -0.000 -0.000  0.000  0.000 -1.000
      -0.000 -0.657  0.754 -0.000  0.000
      -0.000 -0.754 -0.657 -0.000  0.000
       0.000  0.000 -0.000 -1.000 -0.000
       1.000 -0.000 -0.000  0.000 -0.000
     occupation matrix ns (before diag.):
       0.124 -0.000 -0.000  0.000  0.000
      -0.000  0.038 -0.000  0.000  0.000
      -0.000 -0.000  0.038  0.000  0.000
       0.000  0.000  0.000  0.124 -0.000
       0.000  0.000  0.000 -0.000  0.038
     ------------------------ ATOM    3 ------------------------
     Tr[ns(  3)] (up, down, total) =   2.44716  0.36357  2.81073
     Atomic magnetic moment for atom   3 =   2.08360
     SPIN  1
     eigenvalues:
       0.175  0.177  0.608  0.608  0.880
     eigenvectors (columns):
      -0.866  0.500 -0.000  0.000  0.000
      -0.000 -0.000  0.000  0.000 -1.000
      -0.000 -0.000  0.410  0.912  0.000
       0.500  0.866  0.000 -0.000 -0.000
       0.000  0.000 -0.912  0.410 -0.000
     occupation matrix ns (before diag.):
       0.175 -0.000 -0.000  0.001  0.000
      -0.000  0.880 -0.000  0.000  0.000
      -0.000 -0.000  0.608  0.000  0.000
       0.001  0.000  0.000  0.176 -0.000
       0.000  0.000  0.000 -0.000  0.608
     SPIN  2
     eigenvalues:
       0.038  0.038  0.038  0.124  0.124
     eigenvectors (columns):
       0.000 -0.000 -0.000 -0.866 -0.500
       1.000  0.000 -0.000  0.000 -0.000
       0.000 -0.351  0.936  0.000 -0.000
      -0.000  0.000 -0.000  0.500 -0.866
      -0.000  0.936  0.351 -0.000  0.000
     occupation matrix ns (before diag.):
       0.124 -0.000 -0.000  0.000  0.000
      -0.000  0.038 -0.000  0.000  0.000
      -0.000 -0.000  0.038  0.000  0.000
       0.000  0.000  0.000  0.124 -0.000
       0.000  0.000  0.000 -0.000  0.038
     ------------------------ ATOM    4 ------------------------
     Tr[ns(  4)] (up, down, total) =   2.44716  0.36357  2.81073
     Atomic magnetic moment for atom   4 =   2.08360
     SPIN  1
     eigenvalues:
       0.175  0.177  0.608  0.608  0.880
     eigenvectors (columns):
       0.866  0.500 -0.000 -0.000  0.000
       0.000  0.000  0.258  0.966  0.000
      -0.000  0.000  0.000  0.000 -1.000
       0.500 -0.866  0.000  0.000 -0.000
      -0.000 -0.000 -0.966  0.258 -0.000
     occupation matrix ns (before diag.):
       0.175 -0.000 -0.000 -0.001  0.000
      -0.000  0.608 -0.000  0.000  0.000
      -0.000 -0.000  0.880  0.000  0.000
      -0.001  0.000  0.000  0.176 -0.000
       0.000  0.000  0.000 -0.000  0.608
     SPIN  2
     eigenvalues:
       0.038  0.038  0.038  0.124  0.124
     eigenvectors (columns):
       0.000 -0.000  0.000 -0.866 -0.500
       0.000 -0.280  0.960 -0.000  0.000
       1.000  0.000 -0.000 -0.000  0.000
      -0.000  0.000 -0.000 -0.500  0.866
      -0.000  0.960  0.280 -0.000 -0.000
     occupation matrix ns (before diag.):
       0.124 -0.000 -0.000 -0.000  0.000
      -0.000  0.038 -0.000  0.000  0.000
      -0.000 -0.000  0.038  0.000  0.000
      -0.000  0.000  0.000  0.124 -0.000
       0.000  0.000  0.000 -0.000  0.038

     Number of occupied Hubbard levels =   11.3263

     negative rho (up, down):  1.012E-03 2.042E-03

     total cpu time spent up to now is       39.3 secs

     total energy              =    -660.18204024 Ry
     estimated scf accuracy    <       3.06549749 Ry

     total magnetization       =     8.00 Bohr mag/cell
     absolute magnetization    =     8.85 Bohr mag/cell

     iteration #  2     ecut=    45.00 Ry     beta= 0.30
     Davidson diagonalization with overlap
     ethr =  4.26E-03,  avg # of iterations =  1.0

     negative rho (up, down):  4.776E-04 6.972E-03

     total cpu time spent up to now is       39.5 secs

     total energy              =    -659.76289707 Ry
     estimated scf accuracy    <       1.35960231 Ry

     total magnetization       =     7.99 Bohr mag/cell
     absolute magnetization    =     8.88 Bohr mag/cell

     iteration #  3     ecut=    45.00 Ry     beta= 0.30
     Davidson diagonalization with overlap
     ethr =  1.89E-03,  avg # of iterations =  2.8

     negative rho (up, down):  4.514E-04 6.543E-03

     total cpu time spent up to now is       39.8 secs

     total energy              =    -660.09261150 Ry
     estimated scf accuracy    <       0.21140247 Ry

     total magnetization       =     7.64 Bohr mag/cell
     absolute magnetization    =     9.88 Bohr mag/cell

     iteration #  4     ecut=    45.00 Ry     beta= 0.30
     Davidson diagonalization with overlap
     ethr =  2.94E-04,  avg # of iterations =  3.2

     negative rho (up, down):  1.611E-04 8.017E-03

     total cpu time spent up to now is       40.1 secs

     total energy              =    -660.14027578 Ry
     estimated scf accuracy    <       0.04031300 Ry

     total magnetization       =     7.75 Bohr mag/cell
     absolute magnetization    =     9.86 Bohr mag/cell

     iteration #  5     ecut=    45.00 Ry     beta= 0.30
     Davidson diagonalization with overlap
     ethr =  5.60E-05,  avg # of iterations =  7.2

     negative rho (up, down):  6.815E-06 9.161E-03

     total cpu time spent up to now is       40.5 secs

     total energy              =    -660.14622388 Ry
     estimated scf accuracy    <       0.01289773 Ry

     total magnetization       =     7.78 Bohr mag/cell
     absolute magnetization    =    10.08 Bohr mag/cell

     iteration #  6     ecut=    45.00 Ry     beta= 0.30
     Davidson diagonalization with overlap
     ethr =  1.79E-05,  avg # of iterations =  5.0

     negative rho (up, down):  0.000E+00 9.027E-03

     total cpu time spent up to now is       40.9 secs

     total energy              =    -660.14965362 Ry
     estimated scf accuracy    <       0.02857121 Ry

     total magnetization       =     7.71 Bohr mag/cell
     absolute magnetization    =    10.45 Bohr mag/cell

     iteration #  7     ecut=    45.00 Ry     beta= 0.30
     Davidson diagonalization with overlap
     ethr =  1.79E-05,  avg # of iterations =  4.5

     negative rho (up, down):  0.000E+00 9.052E-03

     total cpu time spent up to now is       41.2 secs

     total energy              =    -660.15245477 Ry
     estimated scf accuracy    <       0.00334848 Ry

     total magnetization       =     7.75 Bohr mag/cell
     absolute magnetization    =    10.51 Bohr mag/cell

     iteration #  8     ecut=    45.00 Ry     beta= 0.30
     Davidson diagonalization with overlap
     ethr =  4.65E-06,  avg # of iterations =  4.1

     negative rho (up, down):  0.000E+00 9.062E-03

     total cpu time spent up to now is       41.5 secs

     total energy              =    -660.15288149 Ry
     estimated scf accuracy    <       0.00340803 Ry

     total magnetization       =     7.75 Bohr mag/cell
     absolute magnetization    =    10.56 Bohr mag/cell

     iteration #  9     ecut=    45.00 Ry     beta= 0.30
     Davidson diagonalization with overlap
     ethr =  4.65E-06,  avg # of iterations =  5.6

     negative rho (up, down):  0.000E+00 9.099E-03

     total cpu time spent up to now is       41.8 secs

     total energy              =    -660.15421355 Ry
     estimated scf accuracy    <       0.00028162 Ry

     total magnetization       =     7.76 Bohr mag/cell
     absolute magnetization    =    10.68 Bohr mag/cell

     iteration # 10     ecut=    45.00 Ry     beta= 0.30
     Davidson diagonalization with overlap
     ethr =  3.91E-07,  avg # of iterations =  4.7

     negative rho (up, down):  0.000E+00 9.086E-03

     total cpu time spent up to now is       42.2 secs

     total energy              =    -660.15449706 Ry
     estimated scf accuracy    <       0.00039523 Ry

     total magnetization       =     7.76 Bohr mag/cell
     absolute magnetization    =    10.74 Bohr mag/cell

     iteration # 11     ecut=    45.00 Ry     beta= 0.30
     Davidson diagonalization with overlap
     ethr =  3.91E-07,  avg # of iterations =  2.8

     negative rho (up, down):  0.000E+00 9.096E-03

     total cpu time spent up to now is       42.4 secs

     total energy              =    -660.15450108 Ry
     estimated scf accuracy    <       0.00033889 Ry

     total magnetization       =     7.76 Bohr mag/cell
     absolute magnetization    =    10.76 Bohr mag/cell

     iteration # 12     ecut=    45.00 Ry     beta= 0.30
     Davidson diagonalization with overlap
     ethr =  3.91E-07,  avg # of iterations =  6.6

     negative rho (up, down):  0.000E+00 9.124E-03

     total cpu time spent up to now is       42.8 secs

     total energy              =    -660.15468660 Ry
     estimated scf accuracy    <       0.00006579 Ry

     total magnetization       =     7.76 Bohr mag/cell
     absolute magnetization    =    10.83 Bohr mag/cell

     iteration # 13     ecut=    45.00 Ry     beta= 0.30
     Davidson diagonalization with overlap
     ethr =  9.14E-08,  avg # of iterations =  6.0

     negative rho (up, down):  0.000E+00 9.144E-03

     total cpu time spent up to now is       43.2 secs

     total energy              =    -660.15484462 Ry
     estimated scf accuracy    <       0.00001686 Ry

     total magnetization       =     7.76 Bohr mag/cell
     absolute magnetization    =    10.87 Bohr mag/cell

     iteration # 14     ecut=    45.00 Ry     beta= 0.30
     Davidson diagonalization with overlap
     ethr =  2.34E-08,  avg # of iterations =  4.5

     negative rho (up, down):  0.000E+00 9.138E-03

     total cpu time spent up to now is       43.6 secs

     total energy              =    -660.15605590 Ry
     estimated scf accuracy    <       0.00017461 Ry

     total magnetization       =     7.75 Bohr mag/cell
     absolute magnetization    =    10.89 Bohr mag/cell

     iteration # 15     ecut=    45.00 Ry     beta= 0.30
     Davidson diagonalization with overlap
     ethr =  2.34E-08,  avg # of iterations =  6.0

     negative rho (up, down):  0.000E+00 9.139E-03

     total cpu time spent up to now is       44.0 secs

     total energy              =    -660.15608085 Ry
     estimated scf accuracy    <       0.00005094 Ry

     total magnetization       =     7.75 Bohr mag/cell
     absolute magnetization    =    10.90 Bohr mag/cell

     iteration # 16     ecut=    45.00 Ry     beta= 0.30
     Davidson diagonalization with overlap
     ethr =  2.34E-08,  avg # of iterations =  1.1

     negative rho (up, down):  0.000E+00 9.138E-03

     total cpu time spent up to now is       44.2 secs

     total energy              =    -660.15597582 Ry
     estimated scf accuracy    <       0.00005442 Ry

     total magnetization       =     7.75 Bohr mag/cell
     absolute magnetization    =    10.90 Bohr mag/cell

     iteration # 17     ecut=    45.00 Ry     beta= 0.30
     Davidson diagonalization with overlap
     ethr =  2.34E-08,  avg # of iterations =  5.5

     negative rho (up, down):  0.000E+00 9.142E-03

     total cpu time spent up to now is       44.6 secs

     total energy              =    -660.15595035 Ry
     estimated scf accuracy    <       0.00027931 Ry

     total magnetization       =     7.75 Bohr mag/cell
     absolute magnetization    =    10.88 Bohr mag/cell

     iteration # 18     ecut=    45.00 Ry     beta= 0.30
     Davidson diagonalization with overlap
     ethr =  2.34E-08,  avg # of iterations =  7.1

     negative rho (up, down):  0.000E+00 9.146E-03

     total cpu time spent up to now is       45.0 secs

     total energy              =    -660.15606143 Ry
     estimated scf accuracy    <       0.00002111 Ry

     total magnetization       =     7.75 Bohr mag/cell
     absolute magnetization    =    10.91 Bohr mag/cell

     iteration # 19     ecut=    45.00 Ry     beta= 0.30
     Davidson diagonalization with overlap
     ethr =  2.34E-08,  avg # of iterations =  5.1

     negative rho (up, down):  0.000E+00 9.146E-03

     total cpu time spent up to now is       45.4 secs

     total energy              =    -660.15610462 Ry
     estimated scf accuracy    <       0.00000892 Ry

     total magnetization       =     7.76 Bohr mag/cell
     absolute magnetization    =    10.92 Bohr mag/cell

     iteration # 20     ecut=    45.00 Ry     beta= 0.30
     Davidson diagonalization with overlap
     ethr =  1.24E-08,  avg # of iterations =  1.6

     negative rho (up, down):  0.000E+00 9.143E-03

     total cpu time spent up to now is       45.6 secs

     total energy              =    -660.15610367 Ry
     estimated scf accuracy    <       0.00000263 Ry

     total magnetization       =     7.75 Bohr mag/cell
     absolute magnetization    =    10.92 Bohr mag/cell

     iteration # 21     ecut=    45.00 Ry     beta= 0.30
     Davidson diagonalization with overlap
     ethr =  3.66E-09,  avg # of iterations =  4.6

     negative rho (up, down):  0.000E+00 9.143E-03

     total cpu time spent up to now is       46.0 secs

     total energy              =    -660.15610488 Ry
     estimated scf accuracy    <       0.00000168 Ry

     total magnetization       =     7.75 Bohr mag/cell
     absolute magnetization    =    10.92 Bohr mag/cell

     iteration # 22     ecut=    45.00 Ry     beta= 0.30
     Davidson diagonalization with overlap
     ethr =  2.33E-09,  avg # of iterations =  1.3

     negative rho (up, down):  0.000E+00 9.143E-03

     total cpu time spent up to now is       46.2 secs

     total energy              =    -660.15610488 Ry
     estimated scf accuracy    <       0.00000051 Ry

     total magnetization       =     7.75 Bohr mag/cell
     absolute magnetization    =    10.92 Bohr mag/cell

     iteration # 23     ecut=    45.00 Ry     beta= 0.30
     Davidson diagonalization with overlap
     ethr =  7.10E-10,  avg # of iterations =  4.6

     negative rho (up, down):  0.000E+00 9.143E-03

     total cpu time spent up to now is       46.5 secs

     total energy              =    -660.15610486 Ry
     estimated scf accuracy    <       0.00000015 Ry

     total magnetization       =     7.75 Bohr mag/cell
     absolute magnetization    =    10.92 Bohr mag/cell

     iteration # 24     ecut=    45.00 Ry     beta= 0.30
     Davidson diagonalization with overlap
     ethr =  2.12E-10,  avg # of iterations =  4.2

     negative rho (up, down):  0.000E+00 9.143E-03

     total cpu time spent up to now is       46.9 secs

     total energy              =    -660.15610497 Ry
     estimated scf accuracy    <       0.00000004 Ry

     total magnetization       =     7.75 Bohr mag/cell
     absolute magnetization    =    10.92 Bohr mag/cell

     iteration # 25     ecut=    45.00 Ry     beta= 0.30
     Davidson diagonalization with overlap
     ethr =  6.06E-11,  avg # of iterations =  4.1

     negative rho (up, down):  0.000E+00 9.143E-03

     total cpu time spent up to now is       47.1 secs

     total energy              =    -660.15618043 Ry
     estimated scf accuracy    <       0.00000585 Ry

     total magnetization       =     7.75 Bohr mag/cell
     absolute magnetization    =    10.92 Bohr mag/cell

     iteration # 26     ecut=    45.00 Ry     beta= 0.30
     Davidson diagonalization with overlap
     ethr =  6.06E-11,  avg # of iterations =  1.0

     negative rho (up, down):  0.000E+00 9.143E-03

     total cpu time spent up to now is       47.3 secs

     total energy              =    -660.15618043 Ry
     estimated scf accuracy    <       0.00000574 Ry

     total magnetization       =     7.75 Bohr mag/cell
     absolute magnetization    =    10.92 Bohr mag/cell

     iteration # 27     ecut=    45.00 Ry     beta= 0.30
     Davidson diagonalization with overlap
     ethr =  6.06E-11,  avg # of iterations =  1.1

     negative rho (up, down):  0.000E+00 9.143E-03

     total cpu time spent up to now is       47.5 secs

     total energy              =    -660.15618043 Ry
     estimated scf accuracy    <       0.00000573 Ry

     total magnetization       =     7.75 Bohr mag/cell
     absolute magnetization    =    10.92 Bohr mag/cell

     iteration # 28     ecut=    45.00 Ry     beta= 0.30
     Davidson diagonalization with overlap
     ethr =  6.06E-11,  avg # of iterations =  1.0

     negative rho (up, down):  0.000E+00 9.143E-03

     total cpu time spent up to now is       47.7 secs

     total energy              =    -660.15618044 Ry
     estimated scf accuracy    <       0.00000573 Ry

     total magnetization       =     7.75 Bohr mag/cell
     absolute magnetization    =    10.92 Bohr mag/cell

     iteration # 29     ecut=    45.00 Ry     beta= 0.30
     Davidson diagonalization with overlap
     ethr =  6.06E-11,  avg # of iterations =  1.1

     negative rho (up, down):  0.000E+00 9.143E-03

     total cpu time spent up to now is       47.9 secs

     total energy              =    -660.15618048 Ry
     estimated scf accuracy    <       0.00000575 Ry

     total magnetization       =     7.75 Bohr mag/cell
     absolute magnetization    =    10.92 Bohr mag/cell

     iteration # 30     ecut=    45.00 Ry     beta= 0.30
     Davidson diagonalization with overlap
     ethr =  6.06E-11,  avg # of iterations =  1.1

     negative rho (up, down):  0.000E+00 9.143E-03

     total cpu time spent up to now is       48.1 secs

     total energy              =    -660.15618048 Ry
     estimated scf accuracy    <       0.00000586 Ry

     total magnetization       =     7.75 Bohr mag/cell
     absolute magnetization    =    10.92 Bohr mag/cell

     iteration # 31     ecut=    45.00 Ry     beta= 0.30
     Davidson diagonalization with overlap
     ethr =  6.06E-11,  avg # of iterations =  1.1

     negative rho (up, down):  0.000E+00 9.143E-03

     total cpu time spent up to now is       48.3 secs

     total energy              =    -660.15618048 Ry
     estimated scf accuracy    <       0.00000605 Ry

     total magnetization       =     7.75 Bohr mag/cell
     absolute magnetization    =    10.92 Bohr mag/cell

     iteration # 32     ecut=    45.00 Ry     beta= 0.30
     Davidson diagonalization with overlap
     ethr =  6.06E-11,  avg # of iterations =  1.0

     negative rho (up, down):  0.000E+00 9.143E-03

     total cpu time spent up to now is       48.5 secs

     total energy              =    -660.15618042 Ry
     estimated scf accuracy    <       0.00000588 Ry

     total magnetization       =     7.75 Bohr mag/cell
     absolute magnetization    =    10.92 Bohr mag/cell

     iteration # 33     ecut=    45.00 Ry     beta= 0.30
     Davidson diagonalization with overlap
     ethr =  6.06E-11,  avg # of iterations =  2.8

     negative rho (up, down):  0.000E+00 9.144E-03

     total cpu time spent up to now is       48.8 secs

     total energy              =    -660.15617815 Ry
     estimated scf accuracy    <       0.00000653 Ry

     total magnetization       =     7.75 Bohr mag/cell
     absolute magnetization    =    10.92 Bohr mag/cell

     iteration # 34     ecut=    45.00 Ry     beta= 0.30
     Davidson diagonalization with overlap
     ethr =  6.06E-11,  avg # of iterations =  9.7

     negative rho (up, down):  0.000E+00 9.145E-03

     total cpu time spent up to now is       49.5 secs

     total energy              =    -660.15618117 Ry
     estimated scf accuracy    <       0.00000041 Ry

     total magnetization       =     7.76 Bohr mag/cell
     absolute magnetization    =    10.93 Bohr mag/cell

     iteration # 35     ecut=    45.00 Ry     beta= 0.30
     Davidson diagonalization with overlap
     ethr =  6.06E-11,  avg # of iterations =  6.0

     negative rho (up, down):  0.000E+00 9.145E-03

     total cpu time spent up to now is       49.9 secs

     total energy              =    -660.15618131 Ry
     estimated scf accuracy    <       0.00000004 Ry

     total magnetization       =     7.76 Bohr mag/cell
     absolute magnetization    =    10.93 Bohr mag/cell

     iteration # 36     ecut=    45.00 Ry     beta= 0.30
     Davidson diagonalization with overlap
     ethr =  5.65E-11,  avg # of iterations =  5.5

     negative rho (up, down):  0.000E+00 9.146E-03

     total cpu time spent up to now is       50.3 secs

     total energy              =    -660.15618158 Ry
     estimated scf accuracy    <       0.00000010 Ry

     total magnetization       =     7.75 Bohr mag/cell
     absolute magnetization    =    10.93 Bohr mag/cell

     iteration # 37     ecut=    45.00 Ry     beta= 0.30
     Davidson diagonalization with overlap
     ethr =  5.65E-11,  avg # of iterations =  4.3

     negative rho (up, down):  0.000E+00 9.146E-03

     Magnetic moment per site  (integrated on atomic sphere of radius R)
     atom   1 (R=0.206)  charge=  9.9925  magn=  1.8021
     atom   2 (R=0.206)  charge=  9.9924  magn=  1.7961
     atom   3 (R=0.206)  charge=  9.9924  magn=  1.7961
     atom   4 (R=0.206)  charge=  9.9924  magn=  1.7961
     atom   5 (R=0.206)  charge=  4.4826  magn= -0.3800
     atom   6 (R=0.206)  charge=  4.4826  magn= -0.3800
     atom   7 (R=0.206)  charge=  4.4826  magn= -0.3800
     atom   8 (R=0.206)  charge=  4.4832  magn= -0.3817

     total cpu time spent up to now is       50.6 secs

     End of self-consistent calculation

     =================== HUBBARD OCCUPATIONS ===================
     ------------------------ ATOM    1 ------------------------
     Tr[ns(  1)] (up, down, total) =   2.97154  0.54712  3.51867
     Atomic magnetic moment for atom   1 =   2.42442
     SPIN  1
     eigenvalues:
       0.280  0.280  0.804  0.804  0.804
     eigenvectors (columns):
      -0.334  0.943 -0.000  0.000  0.000
      -0.000  0.000  0.274 -0.829 -0.488
      -0.000  0.000  0.390 -0.368  0.844
       0.943  0.334  0.000 -0.000 -0.000
       0.000 -0.000 -0.879 -0.422  0.222
     occupation matrix ns (before diag.):
       0.280 -0.000 -0.000  0.000  0.000
      -0.000  0.804 -0.000  0.000  0.000
      -0.000 -0.000  0.804  0.000  0.000
       0.000  0.000  0.000  0.280 -0.000
       0.000  0.000  0.000 -0.000  0.804
     SPIN  2
     eigenvalues:
       0.056  0.056  0.056  0.189  0.189
     eigenvectors (columns):
      -0.000 -0.000 -0.000  0.452 -0.892
      -0.285  0.741 -0.608 -0.000 -0.000
      -0.393  0.489  0.779 -0.000 -0.000
       0.000  0.000  0.000 -0.892 -0.452
       0.874  0.461  0.152  0.000 -0.000
     occupation matrix ns (before diag.):
       0.189 -0.000 -0.000  0.000  0.000
      -0.000  0.056 -0.000  0.000  0.000
      -0.000 -0.000  0.056  0.000  0.000
       0.000  0.000  0.000  0.189 -0.000
       0.000  0.000  0.000 -0.000  0.056
     ------------------------ ATOM    2 ------------------------
     Tr[ns(  2)] (up, down, total) =   2.96436  0.55331  3.51767
     Atomic magnetic moment for atom   2 =   2.41105
     SPIN  1
     eigenvalues:
       0.267  0.273  0.761  0.761  0.903
     eigenvectors (columns):
       0.000 -1.000 -0.000  0.000  0.000
       0.000 -0.000  0.759 -0.651  0.000
       0.000 -0.000  0.651  0.759  0.000
      -1.000 -0.000  0.000 -0.000 -0.000
      -0.000  0.000 -0.000 -0.000  1.000
     occupation matrix ns (before diag.):
       0.273 -0.000 -0.000  0.000  0.000
      -0.000  0.761 -0.000  0.000  0.000
      -0.000 -0.000  0.761  0.000  0.000
       0.000  0.000  0.000  0.267 -0.000
       0.000  0.000  0.000 -0.000  0.903
     SPIN  2
     eigenvalues:
       0.058  0.058  0.058  0.189  0.190
     eigenvectors (columns):
      -0.000  0.000  0.000  0.000  1.000
      -0.000  0.601  0.799 -0.000 -0.000
      -0.000  0.799 -0.601 -0.000 -0.000
       0.000 -0.000 -0.000 -1.000  0.000
       1.000  0.000 -0.000  0.000  0.000
     occupation matrix ns (before diag.):
       0.190 -0.000 -0.000  0.000  0.000
      -0.000  0.058 -0.000  0.000  0.000
      -0.000 -0.000  0.058  0.000  0.000
       0.000  0.000  0.000  0.189 -0.000
       0.000  0.000  0.000 -0.000  0.058
     ------------------------ ATOM    3 ------------------------
     Tr[ns(  3)] (up, down, total) =   2.96436  0.55331  3.51767
     Atomic magnetic moment for atom   3 =   2.41105
     SPIN  1
     eigenvalues:
       0.267  0.273  0.761  0.761  0.903
     eigenvectors (columns):
       0.866  0.500 -0.000 -0.000  0.000
       0.000 -0.000  0.000 -0.000 -1.000
       0.000 -0.000  0.388 -0.922  0.000
      -0.500  0.866  0.000  0.000 -0.000
      -0.000  0.000 -0.922 -0.388 -0.000
     occupation matrix ns (before diag.):
       0.268 -0.000 -0.000  0.003  0.000
      -0.000  0.903 -0.000  0.000  0.000
      -0.000 -0.000  0.761  0.000  0.000
       0.003  0.000  0.000  0.272 -0.000
       0.000  0.000  0.000 -0.000  0.761
     SPIN  2
     eigenvalues:
       0.058  0.058  0.058  0.189  0.190
     eigenvectors (columns):
       0.000 -0.000 -0.000 -0.866 -0.500
       1.000  0.000 -0.000  0.000 -0.000
       0.000 -0.380  0.925  0.000 -0.000
      -0.000  0.000  0.000  0.500 -0.866
      -0.000  0.925  0.380 -0.000  0.000
     occupation matrix ns (before diag.):
       0.189 -0.000 -0.000  0.000  0.000
      -0.000  0.058 -0.000  0.000  0.000
      -0.000 -0.000  0.058  0.000  0.000
       0.000  0.000  0.000  0.190 -0.000
       0.000  0.000  0.000 -0.000  0.058
     ------------------------ ATOM    4 ------------------------
     Tr[ns(  4)] (up, down, total) =   2.96436  0.55331  3.51767
     Atomic magnetic moment for atom   4 =   2.41105
     SPIN  1
     eigenvalues:
       0.267  0.273  0.761  0.761  0.903
     eigenvectors (columns):
       0.866  0.500 -0.000 -0.000  0.000
       0.000  0.000  0.260  0.966  0.000
      -0.000  0.000  0.000  0.000 -1.000
       0.500 -0.866  0.000  0.000 -0.000
      -0.000 -0.000 -0.966  0.260 -0.000
     occupation matrix ns (before diag.):
       0.268 -0.000 -0.000 -0.003  0.000
      -0.000  0.761 -0.000  0.000  0.000
      -0.000 -0.000  0.903  0.000  0.000
      -0.003  0.000  0.000  0.272 -0.000
       0.000  0.000  0.000 -0.000  0.761
     SPIN  2
     eigenvalues:
       0.058  0.058  0.058  0.189  0.190
     eigenvectors (columns):
       0.000 -0.000  0.000 -0.866 -0.500
       0.000 -0.284  0.959  0.000  0.000
       1.000  0.000 -0.000 -0.000  0.000
      -0.000  0.000 -0.000 -0.500  0.866
      -0.000  0.959  0.284 -0.000 -0.000
     occupation matrix ns (before diag.):
       0.189 -0.000 -0.000 -0.000  0.000
      -0.000  0.058 -0.000  0.000  0.000
      -0.000 -0.000  0.058  0.000  0.000
      -0.000  0.000  0.000  0.190 -0.000
       0.000  0.000  0.000 -0.000  0.058

     Number of occupied Hubbard levels =   14.0717

 ------ SPIN UP ------------


          k = 0.0000 0.0000 0.0000 (  2721 PWs)   bands (ev):

   -50.0384 -49.9900 -49.9900 -49.8632 -24.0122 -24.0122 -24.0122 -23.8324
   -23.8324 -23.8324 -23.8263 -23.8263 -23.8263 -23.6779 -23.6779 -23.6779
    -0.5884   1.4614   1.5841   1.5841  10.1311  10.1311  10.1311  10.2466
    10.2466  10.2466  12.1348  12.1348  12.1348  13.1998  13.1998  13.1998
    13.2855  13.2855  13.2855  14.1069  14.1069  14.1069  14.5444  14.5444
    14.5444  14.7580  14.7580

          k = 0.0000 0.0000 0.1913 (  2709 PWs)   bands (ev):

   -50.0342 -49.9940 -49.9913 -49.8647 -24.0008 -24.0008 -23.9929 -23.8428
   -23.8428 -23.8375 -23.8272 -23.8221 -23.8221 -23.6974 -23.6859 -23.6859
    -0.3551   1.3964   1.6177   1.6829   9.9619   9.9619  10.0047  10.0851
    10.0851  10.3902  11.9432  12.0128  12.0128  12.4404  12.5247  12.7386
    12.7386  13.1638  13.6368  13.6368  14.1054  14.4339  14.4339  14.5451
    14.9277  14.9277  15.0370

          k = 0.0000 0.0000 0.3826 (  2734 PWs)   bands (ev):

   -50.0236 -50.0045 -49.9933 -49.8674 -23.9762 -23.9762 -23.9499 -23.8697
   -23.8697 -23.8552 -23.8286 -23.8093 -23.8093 -23.7315 -23.7007 -23.7007
     0.2477   0.9500   1.7761   1.8524   9.7219   9.7219   9.8702   9.8702
    10.1940  10.7495  11.2756  11.5069  11.5099  11.5748  11.9107  11.9107
    12.2046  12.2046  14.1034  14.3001  14.3001  14.5462  14.6436  14.6436
    15.4250  15.4250  15.4753

          k = 0.0000 0.1913 0.1913 (  2716 PWs)   bands (ev):

   -50.0308 -49.9965 -49.9943 -49.8666 -24.0064 -23.9897 -23.9679 -23.8730
   -23.8381 -23.8375 -23.8324 -23.8234 -23.8078 -23.7177 -23.6945 -23.6792
    -0.1295   1.4772   1.5711   1.7381   9.6657   9.8018   9.8028   9.8606
    10.1236  10.2198  11.4327  11.4964  12.2829  12.2990  12.3882  12.5416
    13.0660  13.1732  13.2780  13.4289  14.0821  14.1555  14.5614  14.6615
    14.8590  15.0052  15.0085

          k = 0.0000 0.1913 0.3826 (  2722 PWs)   bands (ev):

   -50.0220 -50.0058 -49.9973 -49.8697 -24.0018 -23.9660 -23.9250 -23.9027
   -23.8608 -23.8598 -23.8302 -23.8204 -23.7964 -23.7189 -23.7108 -23.6904
     0.4494   1.1115   1.7483   1.8574   9.2628   9.4127   9.6895   9.8069
     9.8912  10.4289  10.5615  10.9450  11.7516  11.8620  12.1093  12.2986
    12.3046  12.7322  13.6241  14.0486  14.0839  14.5362  14.7448  14.9538
    14.9962  15.2049  15.5119

          k = 0.0000 0.3826 0.3826 (  2702 PWs)   bands (ev):

   -50.0171 -50.0088 -50.0054 -49.8737 -24.0223 -23.9449 -23.9294 -23.9054
   -23.8819 -23.8466 -23.8436 -23.8421 -23.7644 -23.7305 -23.6970 -23.6848
     0.9509   1.4433   1.5280   1.7949   8.8381   9.0956   9.1761   9.6364
     9.6397   9.9642  10.1156  10.3957  11.7846  11.8083  11.8770  12.0359
    12.5998  13.2625  13.3968  13.7374  14.2392  14.6837  14.8022  14.9207
    15.3924  15.6453  15.7130

          k = 0.1913 0.1913 0.1913 (  2707 PWs)   bands (ev):

   -50.0281 -49.9982 -49.9982 -49.8687 -24.0255 -23.9617 -23.9617 -23.8739
   -23.8739 -23.8593 -23.8068 -23.8068 -23.8015 -23.7361 -23.6838 -23.6838
     0.0881   1.5543   1.6746   1.6746   9.1422   9.3386   9.3386  10.2279
    10.2279  10.2719  10.5548  11.9460  11.9460  12.1599  12.1599  12.2818
    13.3117  13.3117  13.3712  13.8413  13.8413  14.4086  14.4086  14.4306
    14.6749  14.8007  15.0729

          k = 0.1913 0.1913 0.3826 (  2709 PWs)   bands (ev):

   -50.0211 -50.0074 -50.0010 -49.8723 -24.0356 -23.9438 -23.9313 -23.9114
   -23.8969 -23.8612 -23.8145 -23.7961 -23.7884 -23.7228 -23.6931 -23.6919
     0.6426   1.2621   1.7807   1.8532   8.6345   8.8050   9.1392   9.6696
    10.1041  10.2260  10.7003  11.4475  11.6512  11.6736  11.7344  11.8279
    12.9704  13.2998  13.7766  13.9487  14.2946  14.4540  14.6041  14.7864
    14.8568  15.0732  15.2315

          k = 0.1913 0.3826 0.3826 (  2708 PWs)   bands (ev):

   -50.0178 -50.0108 -50.0084 -49.8766 -24.0626 -23.9566 -23.9453 -23.9321
   -23.8979 -23.8555 -23.7961 -23.7959 -23.7636 -23.7144 -23.6903 -23.6832
     1.1154   1.5560   1.6412   1.8397   8.1220   8.3591   8.4468   8.7838
    10.2815  10.5083  10.6290  11.0216  11.4304  11.4928  11.5541  11.6187
    13.2461  13.7521  13.7903  14.0802  14.1861  14.6059  14.6698  14.7997
    14.9771  15.2790  15.4121

          k = 0.3826 0.3826 0.3826 (  2710 PWs)   bands (ev):

   -50.0179 -50.0143 -50.0143 -49.8814 -24.1010 -23.9847 -23.9847 -23.9757
   -23.8558 -23.8558 -23.7635 -23.7635 -23.7613 -23.6910 -23.6790 -23.6790
     1.4852   1.7380   1.8393   1.8393   7.4655   7.7168   7.7168   7.9137
    10.8092  10.8092  10.8693  11.1405  11.1405  11.2066  11.2066  11.2854
    13.8917  13.8917  14.3073  14.3890  14.3890  14.4531  14.4531  14.5811
    15.0122  15.3914  15.5115

 ------ SPIN DOWN ----------


          k = 0.0000 0.0000 0.0000 (  2721 PWs)   bands (ev):

   -47.7670 -47.7141 -47.7141 -47.5782 -21.8398 -21.8398 -21.8398 -21.5929
   -21.5929 -21.5929 -21.5340 -21.5340 -21.5340 -21.4086 -21.4086 -21.4086
    -0.8602   1.0190   1.1384   1.1384  10.1493  10.1493  10.1493  12.8082
    12.8082  12.8082  12.8265  12.8265  12.8265  14.1065  14.1065  14.1065
    16.6886  16.6886  16.6886  18.4542  18.4542  18.8835  18.8835  18.8835
    19.3120  19.3120  19.3346

          k = 0.0000 0.0000 0.1913 (  2709 PWs)   bands (ev):

   -47.7625 -47.7185 -47.7158 -47.5801 -21.8299 -21.8299 -21.8273 -21.5903
   -21.5903 -21.5897 -21.5352 -21.5348 -21.5348 -21.4320 -21.4167 -21.4167
    -0.6421   0.9624   1.1614   1.2250  10.0628  10.3080  10.3080  12.2542
    12.2714  12.3232  12.3232  12.8767  12.8767  12.9810  13.8752  13.8752
    16.8588  17.4636  17.4636  18.5303  18.6248  19.2342  19.2514  19.3321
    19.3321  19.7366  19.7725

          k = 0.0000 0.0000 0.3826 (  2734 PWs)   bands (ev):

   -47.7509 -47.7303 -47.7186 -47.5834 -21.8128 -21.8128 -21.8049 -21.5910
   -21.5910 -21.5783 -21.5374 -21.5299 -21.5299 -21.4784 -21.4324 -21.4324
    -0.0842   0.5594   1.2933   1.3718  10.2770  10.7613  10.7613  11.2801
    11.4771  11.4771  11.5049  11.5311  13.0690  13.0690  13.4407  13.4407
    17.3277  18.0181  18.7257  19.0017  19.0017  19.0232  20.0617  20.1678
    20.2451  20.2718  20.2718

          k = 0.0000 0.1913 0.1913 (  2716 PWs)   bands (ev):

   -47.7581 -47.7202 -47.7182 -47.5810 -21.8519 -21.8209 -21.7905 -21.6020
   -21.5984 -21.5842 -21.5391 -21.5378 -21.5149 -21.4581 -21.4256 -21.4079
    -0.4313   1.0313   1.1237   1.2703  10.1270  10.1584  10.4590  11.4432
    12.3156  12.3628  12.3694  12.3960  12.4141  12.5418  13.1778  13.6067
    17.6067  17.6070  17.9914  18.8891  19.0845  19.1441  19.6505  19.6525
    19.6815  19.8926  20.3162

          k = 0.0000 0.1913 0.3826 (  2722 PWs)   bands (ev):

   -47.7470 -47.7290 -47.7200 -47.5828 -21.8601 -21.8055 -21.7539 -21.6222
   -21.5983 -21.5790 -21.5634 -21.5355 -21.5016 -21.4562 -21.4433 -21.4188
     0.1033   0.7074   1.2714   1.3746  10.2104  10.3101  10.6275  10.8938
    11.1214  11.5871  11.7382  11.9052  12.5109  12.6556  12.7811  13.0988
    18.0025  18.6005  19.1025  19.1544  19.2502  19.4575  20.0769  20.1362
    20.3917  20.4479  20.4637

          k = 0.0000 0.3826 0.3826 (  2702 PWs)   bands (ev):

   -47.7372 -47.7277 -47.7240 -47.5816 -21.8911 -21.7932 -21.7126 -21.6502
   -21.6223 -21.6109 -21.5552 -21.5440 -21.4667 -21.4649 -21.4270 -21.4117
     0.5623   1.0045   1.0850   1.3195   9.9583   9.9697  10.0711  10.4752
    11.2819  11.8448  11.8494  11.9065  11.9245  11.9437  12.1284  12.4650
    19.3702  19.3729  19.5643  19.7813  19.8372  19.8577  19.8712  19.9579
    20.4634  20.5699  20.5773

          k = 0.1913 0.1913 0.1913 (  2707 PWs)   bands (ev):

   -47.7538 -47.7203 -47.7203 -47.5811 -21.8797 -21.7835 -21.7835 -21.6234
   -21.6234 -21.5835 -21.5233 -21.5233 -21.5056 -21.4813 -21.4132 -21.4132
    -0.2287   1.0957   1.2148   1.2148  10.1398  10.1398  10.2059  11.6031
    11.6945  11.6945  12.0436  12.3937  12.3937  12.4074  13.0364  13.0364
    18.1096  18.1126  18.1126  19.2767  19.3965  19.3965  20.0240  20.0240
    20.2503  20.2503  20.2525

          k = 0.1913 0.1913 0.3826 (  2709 PWs)   bands (ev):

   -47.7430 -47.7274 -47.7204 -47.5815 -21.8999 -21.7695 -21.7442 -21.6558
   -21.6342 -21.6127 -21.5288 -21.5082 -21.4914 -21.4568 -21.4234 -21.4221
     0.2804   0.8419   1.2956   1.3701  10.0213  10.0328  10.1335  10.8254
    11.2342  11.3249  11.9239  11.9356  12.0318  12.4617  12.5050  12.7598
    18.4393  18.9458  19.3170  19.3229  19.7674  20.0494  20.2307  20.4178
    20.4519  20.5841  20.8445

          k = 0.1913 0.3826 0.3826 (  2708 PWs)   bands (ev):

   -47.7337 -47.7254 -47.7225 -47.5792 -21.9358 -21.7508 -21.7133 -21.6852
   -21.6703 -21.6617 -21.5030 -21.4996 -21.4637 -21.4462 -21.4218 -21.4117
     0.7060   1.0961   1.1791   1.3509   9.5873   9.6482   9.7397  10.0928
    11.4042  11.6430  11.6901  11.8345  11.9679  11.9877  12.0820  12.2594
    19.4951  19.5234  19.7266  20.0006  20.0639  20.4277  20.4686  20.5468
    20.5961  20.6723  20.8606

          k = 0.3826 0.3826 0.3826 (  2710 PWs)   bands (ev):

   -47.7260 -47.7211 -47.7211 -47.5750 -21.9817 -21.7256 -21.7256 -21.7146
   -21.7053 -21.7053 -21.4627 -21.4627 -21.4604 -21.4227 -21.4097 -21.4097
     1.0182   1.2400   1.3388   1.3388   9.1214   9.1214   9.2040   9.3962
    11.5614  11.6621  11.6621  11.8033  11.8033  11.8417  11.9615  11.9615
    20.1743  20.2030  20.2030  20.4079  20.5519  20.5520  20.6849  20.7221
    20.7221  20.9144  20.9498

     the Fermi energy is    14.9767 ev

!    total energy              =    -660.15618159 Ry
     estimated scf accuracy    <          5.8E-09 Ry
     smearing contrib. (-TS)   =       0.00021810 Ry
     internal energy E=F+TS    =    -660.15639969 Ry

     The total energy is F=E-TS. E is the sum of the following terms:
     one-electron contribution =    -182.64047735 Ry
     hartree contribution      =     131.04583156 Ry
     xc contribution           =    -100.64064563 Ry
     ewald contribution        =    -508.85544680 Ry
     DFT-D3 Dispersion         =      -0.21533121 Ry
     Hubbard energy            =       1.14966974 Ry

     total magnetization       =     7.76 Bohr mag/cell
     absolute magnetization    =    10.93 Bohr mag/cell

     convergence has been achieved in  37 iterations

     negative rho (up, down):  0.000E+00 9.146E-03
     force_hub    :      1.74s CPU      1.79s WALL (       6 calls)
     dndtau       :      1.59s CPU      1.64s WALL (    1440 calls)
     dprojdtau    :      0.38s CPU      0.39s WALL (    5760 calls)
     calc_doverla :      0.85s CPU      0.88s WALL (    1440 calls)
     matel_dSdtau :      0.80s CPU      0.82s WALL (    2880 calls)

     Forces acting on atoms (cartesian axes, Ry/au):

     atom    1 type  1   force =     0.00000000    0.00000000    0.00000000
     atom    2 type  1   force =     0.00000000    0.00000000    0.00000000
     atom    3 type  1   force =     0.00000000    0.00000000    0.00000000
     atom    4 type  1   force =     0.00000000    0.00000000    0.00000000
     atom    5 type  2   force =     0.00000000    0.00000000    0.00000000
     atom    6 type  2   force =     0.00000000    0.00000000    0.00000000
     atom    7 type  2   force =     0.00000000    0.00000000    0.00000000
     atom    8 type  2   force =     0.00000000    0.00000000    0.00000000

     Total force =     0.000000     Total SCF correction =     0.000000


     Computing stress (Cartesian axis) and pressure


     negative rho (up, down):  0.000E+00 9.146E-03
     stres_hub    :      3.17s CPU      3.25s WALL (       6 calls)
     dprojdepsilo :      2.96s CPU      3.03s WALL (     540 calls)
     dprojdeps1   :      0.25s CPU      0.26s WALL (     540 calls)
     dprojdeps2   :      1.75s CPU      1.79s WALL (     540 calls)
     dprojdeps3   :      0.95s CPU      0.98s WALL (     540 calls)
          total   stress  (Ry/bohr**3)                   (kbar)     P=       -0.60
  -0.00000407   0.00000000   0.00000000           -0.60        0.00        0.00
   0.00000000  -0.00000407   0.00000000            0.00       -0.60        0.00
   0.00000000   0.00000000  -0.00000407            0.00        0.00       -0.60


     Writing all to output data dir ./tmp/vn.save/ :
     XML data file, charge density, pseudopotentials, collected wavefunctions

     init_run     :      1.09s CPU      1.14s WALL (       2 calls)
     electrons    :     37.32s CPU     39.68s WALL (       6 calls)
     update_pot   :      0.06s CPU      0.06s WALL (       4 calls)
     forces       :      4.55s CPU      4.64s WALL (       6 calls)
     force_dftd3  :      2.52s CPU      2.55s WALL (       6 calls)
     stress       :      6.55s CPU      6.68s WALL (       6 calls)
     stres_dftd3  :      2.53s CPU      2.56s WALL (       6 calls)

     Called by init_run:
     wfcinit      :      0.18s CPU      0.19s WALL (       2 calls)
     potinit      :      0.25s CPU      0.26s WALL (       2 calls)
     hinit0       :      0.59s CPU      0.60s WALL (       2 calls)

     Called by electrons:
     c_bands      :     28.12s CPU     29.84s WALL (     123 calls)
     sum_band     :      4.35s CPU      4.64s WALL (     123 calls)
     v_of_rho     :      1.31s CPU      1.44s WALL (     127 calls)
     newd         :      1.12s CPU      1.16s WALL (     127 calls)
     mix_rho      :      0.41s CPU      0.46s WALL (     123 calls)
     energy_dftd3 :      1.89s CPU      1.91s WALL (       6 calls)

     Called by c_bands:
     init_us_2    :      0.14s CPU      0.16s WALL (    2780 calls)
     cegterg      :     26.55s CPU     27.76s WALL (    1230 calls)

     Called by *egterg:
     cdiaghg      :     10.50s CPU     10.71s WALL (    7043 calls)
     h_psi        :     12.45s CPU     13.36s WALL (    7123 calls)
     s_psi        :      0.58s CPU      0.61s WALL (    7423 calls)
     g_psi        :      0.04s CPU      0.04s WALL (    5873 calls)

     Called by h_psi:
     h_psi:calbec :      1.28s CPU      1.36s WALL (    7123 calls)
     vloc_psi     :      9.97s CPU     10.74s WALL (    7123 calls)
                                        0.00s GPU  (    7123 calls)
     add_vuspsi   :      0.54s CPU      0.57s WALL (    7123 calls)
     vhpsi        :      0.59s CPU      0.62s WALL (    7123 calls)

     General routines
     calbec       :      5.61s CPU      5.85s WALL (   64766 calls)
     fft          :      1.43s CPU      1.60s WALL (    3411 calls)
     ffts         :      0.37s CPU      0.38s WALL (    2879 calls)
     fftw         :     10.86s CPU     11.74s WALL (  347156 calls)
     interpolate  :      0.31s CPU      0.33s WALL (     254 calls)

     Parallel routines

     Hubbard U routines
     new_ns       :      0.25s CPU      0.26s WALL (     123 calls)
     vhpsi        :      0.59s CPU      0.62s WALL (    7123 calls)
     force_hub    :      1.74s CPU      1.79s WALL (       6 calls)
     stres_hub    :      3.17s CPU      3.25s WALL (       6 calls)

     PWSCF        :     49.88s CPU     52.66s WALL


   This run was terminated on:  20: 2:27  12Mar2026            

=------------------------------------------------------------------------------=
   JOB DONE.
=------------------------------------------------------------------------------=
