144
Lattice="12.892040396999999 0.0 0.0 0.0 12.892040396999999 0.0 0.0 0.0 26.446020193899997" Properties=species:S:1:pos:R:3:tags:I:1 pbc="T T F"
Ti       0.00000000       0.00000000      10.00000000        2
Ti       2.14867339       0.00000000      12.14867339        2
Ti       0.00000000       2.14867339      12.14867339        2
Ti       2.14867339       2.14867339      10.00000000        2
Ti       0.00000000       0.00000000      14.29734680        1
Ti       2.14867339       0.00000000      16.44602019        1
Ti       0.00000000       2.14867339      16.44602019        1
Ti       2.14867339       2.14867339      14.29734680        1
Ti       0.00000000       4.29734680      10.00000000        2
Ti       2.14867339       4.29734680      12.14867339        2
Ti       0.00000000       6.44602019      12.14867339        2
Ti       2.14867339       6.44602019      10.00000000        2
Ti       0.00000000       4.29734680      14.29734680        1
Ti       2.14867339       4.29734680      16.44602019        1
Ti       0.00000000       6.44602019      16.44602019        1
Ti       2.14867339       6.44602019      14.29734680        1
Ti       0.00000000       8.59469360      10.00000000        2
Ti       2.14867339       8.59469360      12.14867339        2
Ti       0.00000000      10.74336699      12.14867339        2
Ti       2.14867339      10.74336699      10.00000000        2
Ti       0.00000000       8.59469360      14.29734680        1
Ti       2.14867339       8.59469360      16.44602019        1
Ti       0.00000000      10.74336699      16.44602019        1
Ti       2.14867339      10.74336699      14.29734680        1
Ti       4.29734680       0.00000000      10.00000000        2
Ti       6.44602019       0.00000000      12.14867339        2
Ti       4.29734680       2.14867339      12.14867339        2
Ti       6.44602019       2.14867339      10.00000000        2
Ti       4.29734680       0.00000000      14.29734680        1
Ti       6.44602019       0.00000000      16.44602019        1
Ti       4.29734680       2.14867339      16.44602019        1
Ti       6.44602019       2.14867339      14.29734680        1
Ti       4.29734680       4.29734680      10.00000000        2
Ti       6.44602019       4.29734680      12.14867339        2
Ti       4.29734680       6.44602019      12.14867339        2
Ti       6.44602019       6.44602019      10.00000000        2
Ti       4.29734680       4.29734680      14.29734680        1
Ti       6.44602019       4.29734680      16.44602019        1
Ti       4.29734680       6.44602019      16.44602019        1
Ti       6.44602019       6.44602019      14.29734680        1
Ti       4.29734680       8.59469360      10.00000000        2
Ti       6.44602019       8.59469360      12.14867339        2
Ti       4.29734680      10.74336699      12.14867339        2
Ti       6.44602019      10.74336699      10.00000000        2
Ti       4.29734680       8.59469360      14.29734680        1
Ti       6.44602019       8.59469360      16.44602019        1
Ti       4.29734680      10.74336699      16.44602019        1
Ti       6.44602019      10.74336699      14.29734680        1
Ti       8.59469360       0.00000000      10.00000000        2
Ti      10.74336699       0.00000000      12.14867339        2
Ti       8.59469360       2.14867339      12.14867339        2
Ti      10.74336699       2.14867339      10.00000000        2
Ti       8.59469360       0.00000000      14.29734680        1
Ti      10.74336699       0.00000000      16.44602019        1
Ti       8.59469360       2.14867339      16.44602019        1
Ti      10.74336699       2.14867339      14.29734680        1
Ti       8.59469360       4.29734680      10.00000000        2
Ti      10.74336699       4.29734680      12.14867339        2
Ti       8.59469360       6.44602019      12.14867339        2
Ti      10.74336699       6.44602019      10.00000000        2
Ti       8.59469360       4.29734680      14.29734680        1
Ti      10.74336699       4.29734680      16.44602019        1
Ti       8.59469360       6.44602019      16.44602019        1
Ti      10.74336699       6.44602019      14.29734680        1
Ti       8.59469360       8.59469360      10.00000000        2
Ti      10.74336699       8.59469360      12.14867339        2
Ti       8.59469360      10.74336699      12.14867339        2
Ti      10.74336699      10.74336699      10.00000000        2
Ti       8.59469360       8.59469360      14.29734680        1
Ti      10.74336699       8.59469360      16.44602019        1
Ti       8.59469360      10.74336699      16.44602019        1
Ti      10.74336699      10.74336699      14.29734680        1
N        0.00000000       2.14867339      10.00000000        2
N        2.14867339       0.00000000      10.00000000        2
N        0.00000000       0.00000000      12.14867339        2
N        2.14867339       2.14867339      12.14867339        2
N        0.00000000       2.14867339      14.29734680        1
N        2.14867339       0.00000000      14.29734680        1
N        0.00000000       0.00000000      16.44602019        1
N        2.14867339       2.14867339      16.44602019        1
N        0.00000000       6.44602019      10.00000000        2
N        2.14867339       4.29734680      10.00000000        2
N        0.00000000       4.29734680      12.14867339        2
N        2.14867339       6.44602019      12.14867339        2
N        0.00000000       6.44602019      14.29734680        1
N        2.14867339       4.29734680      14.29734680        1
N        0.00000000       4.29734680      16.44602019        1
N        2.14867339       6.44602019      16.44602019        1
N        0.00000000      10.74336699      10.00000000        2
N        2.14867339       8.59469360      10.00000000        2
N        0.00000000       8.59469360      12.14867339        2
N        2.14867339      10.74336699      12.14867339        2
N        0.00000000      10.74336699      14.29734680        1
N        2.14867339       8.59469360      14.29734680        1
N        0.00000000       8.59469360      16.44602019        1
N        2.14867339      10.74336699      16.44602019        1
N        4.29734680       2.14867339      10.00000000        2
N        6.44602019       0.00000000      10.00000000        2
N        4.29734680       0.00000000      12.14867339        2
N        6.44602019       2.14867339      12.14867339        2
N        4.29734680       2.14867339      14.29734680        1
N        6.44602019       0.00000000      14.29734680        1
N        4.29734680       0.00000000      16.44602019        1
N        6.44602019       2.14867339      16.44602019        1
N        4.29734680       6.44602019      10.00000000        2
N        6.44602019       4.29734680      10.00000000        2
N        4.29734680       4.29734680      12.14867339        2
N        6.44602019       6.44602019      12.14867339        2
N        4.29734680       6.44602019      14.29734680        1
N        6.44602019       4.29734680      14.29734680        1
N        4.29734680       4.29734680      16.44602019        1
N        6.44602019       6.44602019      16.44602019        1
N        4.29734680      10.74336699      10.00000000        2
N        6.44602019       8.59469360      10.00000000        2
N        4.29734680       8.59469360      12.14867339        2
N        6.44602019      10.74336699      12.14867339        2
N        4.29734680      10.74336699      14.29734680        1
N        6.44602019       8.59469360      14.29734680        1
N        4.29734680       8.59469360      16.44602019        1
N        6.44602019      10.74336699      16.44602019        1
N        8.59469360       2.14867339      10.00000000        2
N       10.74336699       0.00000000      10.00000000        2
N        8.59469360       0.00000000      12.14867339        2
N       10.74336699       2.14867339      12.14867339        2
N        8.59469360       2.14867339      14.29734680        1
N       10.74336699       0.00000000      14.29734680        1
N        8.59469360       0.00000000      16.44602019        1
N       10.74336699       2.14867339      16.44602019        1
N        8.59469360       6.44602019      10.00000000        2
N       10.74336699       4.29734680      10.00000000        2
N        8.59469360       4.29734680      12.14867339        2
N       10.74336699       6.44602019      12.14867339        2
N        8.59469360       6.44602019      14.29734680        1
N       10.74336699       4.29734680      14.29734680        1
N        8.59469360       4.29734680      16.44602019        1
N       10.74336699       6.44602019      16.44602019        1
N        8.59469360      10.74336699      10.00000000        2
N       10.74336699       8.59469360      10.00000000        2
N        8.59469360       8.59469360      12.14867339        2
N       10.74336699      10.74336699      12.14867339        2
N        8.59469360      10.74336699      14.29734680        1
N       10.74336699       8.59469360      14.29734680        1
N        8.59469360       8.59469360      16.44602019        1
N       10.74336699      10.74336699      16.44602019        1
