144
Lattice="13.851204264 0.0 0.0 0.0 13.851204264 0.0 0.0 0.0 26.9256021333" Properties=species:S:1:pos:R:3:tags:I:1 pbc="T T F"
Zr       0.00000000       0.00000000      10.00000000        2
Zr       2.30853405       0.00000000      12.30853405        2
Zr       0.00000000       2.30853405      12.30853405        2
Zr       2.30853405       2.30853405      10.00000000        2
Zr       0.00000000       0.00000000      14.61706809        1
Zr       2.30853405       0.00000000      16.92560213        1
Zr       0.00000000       2.30853405      16.92560213        1
Zr       2.30853405       2.30853405      14.61706809        1
Zr       0.00000000       4.61706809      10.00000000        2
Zr       2.30853405       4.61706809      12.30853405        2
Zr       0.00000000       6.92560213      12.30853405        2
Zr       2.30853405       6.92560213      10.00000000        2
Zr       0.00000000       4.61706809      14.61706809        1
Zr       2.30853405       4.61706809      16.92560213        1
Zr       0.00000000       6.92560213      16.92560213        1
Zr       2.30853405       6.92560213      14.61706809        1
Zr       0.00000000       9.23413618      10.00000000        2
Zr       2.30853405       9.23413618      12.30853405        2
Zr       0.00000000      11.54267022      12.30853405        2
Zr       2.30853405      11.54267022      10.00000000        2
Zr       0.00000000       9.23413618      14.61706809        1
Zr       2.30853405       9.23413618      16.92560213        1
Zr       0.00000000      11.54267022      16.92560213        1
Zr       2.30853405      11.54267022      14.61706809        1
Zr       4.61706809       0.00000000      10.00000000        2
Zr       6.92560213       0.00000000      12.30853405        2
Zr       4.61706809       2.30853405      12.30853405        2
Zr       6.92560213       2.30853405      10.00000000        2
Zr       4.61706809       0.00000000      14.61706809        1
Zr       6.92560213       0.00000000      16.92560213        1
Zr       4.61706809       2.30853405      16.92560213        1
Zr       6.92560213       2.30853405      14.61706809        1
Zr       4.61706809       4.61706809      10.00000000        2
Zr       6.92560213       4.61706809      12.30853405        2
Zr       4.61706809       6.92560213      12.30853405        2
Zr       6.92560213       6.92560213      10.00000000        2
Zr       4.61706809       4.61706809      14.61706809        1
Zr       6.92560213       4.61706809      16.92560213        1
Zr       4.61706809       6.92560213      16.92560213        1
Zr       6.92560213       6.92560213      14.61706809        1
Zr       4.61706809       9.23413618      10.00000000        2
Zr       6.92560213       9.23413618      12.30853405        2
Zr       4.61706809      11.54267022      12.30853405        2
Zr       6.92560213      11.54267022      10.00000000        2
Zr       4.61706809       9.23413618      14.61706809        1
Zr       6.92560213       9.23413618      16.92560213        1
Zr       4.61706809      11.54267022      16.92560213        1
Zr       6.92560213      11.54267022      14.61706809        1
Zr       9.23413618       0.00000000      10.00000000        2
Zr      11.54267022       0.00000000      12.30853405        2
Zr       9.23413618       2.30853405      12.30853405        2
Zr      11.54267022       2.30853405      10.00000000        2
Zr       9.23413618       0.00000000      14.61706809        1
Zr      11.54267022       0.00000000      16.92560213        1
Zr       9.23413618       2.30853405      16.92560213        1
Zr      11.54267022       2.30853405      14.61706809        1
Zr       9.23413618       4.61706809      10.00000000        2
Zr      11.54267022       4.61706809      12.30853405        2
Zr       9.23413618       6.92560213      12.30853405        2
Zr      11.54267022       6.92560213      10.00000000        2
Zr       9.23413618       4.61706809      14.61706809        1
Zr      11.54267022       4.61706809      16.92560213        1
Zr       9.23413618       6.92560213      16.92560213        1
Zr      11.54267022       6.92560213      14.61706809        1
Zr       9.23413618       9.23413618      10.00000000        2
Zr      11.54267022       9.23413618      12.30853405        2
Zr       9.23413618      11.54267022      12.30853405        2
Zr      11.54267022      11.54267022      10.00000000        2
Zr       9.23413618       9.23413618      14.61706809        1
Zr      11.54267022       9.23413618      16.92560213        1
Zr       9.23413618      11.54267022      16.92560213        1
Zr      11.54267022      11.54267022      14.61706809        1
N        0.00000000       2.30853405      10.00000000        2
N        2.30853405       0.00000000      10.00000000        2
N        0.00000000       0.00000000      12.30853405        2
N        2.30853405       2.30853405      12.30853405        2
N        0.00000000       2.30853405      14.61706809        1
N        2.30853405       0.00000000      14.61706809        1
N        0.00000000       0.00000000      16.92560213        1
N        2.30853405       2.30853405      16.92560213        1
N        0.00000000       6.92560213      10.00000000        2
N        2.30853405       4.61706809      10.00000000        2
N        0.00000000       4.61706809      12.30853405        2
N        2.30853405       6.92560213      12.30853405        2
N        0.00000000       6.92560213      14.61706809        1
N        2.30853405       4.61706809      14.61706809        1
N        0.00000000       4.61706809      16.92560213        1
N        2.30853405       6.92560213      16.92560213        1
N        0.00000000      11.54267022      10.00000000        2
N        2.30853405       9.23413618      10.00000000        2
N        0.00000000       9.23413618      12.30853405        2
N        2.30853405      11.54267022      12.30853405        2
N        0.00000000      11.54267022      14.61706809        1
N        2.30853405       9.23413618      14.61706809        1
N        0.00000000       9.23413618      16.92560213        1
N        2.30853405      11.54267022      16.92560213        1
N        4.61706809       2.30853405      10.00000000        2
N        6.92560213       0.00000000      10.00000000        2
N        4.61706809       0.00000000      12.30853405        2
N        6.92560213       2.30853405      12.30853405        2
N        4.61706809       2.30853405      14.61706809        1
N        6.92560213       0.00000000      14.61706809        1
N        4.61706809       0.00000000      16.92560213        1
N        6.92560213       2.30853405      16.92560213        1
N        4.61706809       6.92560213      10.00000000        2
N        6.92560213       4.61706809      10.00000000        2
N        4.61706809       4.61706809      12.30853405        2
N        6.92560213       6.92560213      12.30853405        2
N        4.61706809       6.92560213      14.61706809        1
N        6.92560213       4.61706809      14.61706809        1
N        4.61706809       4.61706809      16.92560213        1
N        6.92560213       6.92560213      16.92560213        1
N        4.61706809      11.54267022      10.00000000        2
N        6.92560213       9.23413618      10.00000000        2
N        4.61706809       9.23413618      12.30853405        2
N        6.92560213      11.54267022      12.30853405        2
N        4.61706809      11.54267022      14.61706809        1
N        6.92560213       9.23413618      14.61706809        1
N        4.61706809       9.23413618      16.92560213        1
N        6.92560213      11.54267022      16.92560213        1
N        9.23413618       2.30853405      10.00000000        2
N       11.54267022       0.00000000      10.00000000        2
N        9.23413618       0.00000000      12.30853405        2
N       11.54267022       2.30853405      12.30853405        2
N        9.23413618       2.30853405      14.61706809        1
N       11.54267022       0.00000000      14.61706809        1
N        9.23413618       0.00000000      16.92560213        1
N       11.54267022       2.30853405      16.92560213        1
N        9.23413618       6.92560213      10.00000000        2
N       11.54267022       4.61706809      10.00000000        2
N        9.23413618       4.61706809      12.30853405        2
N       11.54267022       6.92560213      12.30853405        2
N        9.23413618       6.92560213      14.61706809        1
N       11.54267022       4.61706809      14.61706809        1
N        9.23413618       4.61706809      16.92560213        1
N       11.54267022       6.92560213      16.92560213        1
N        9.23413618      11.54267022      10.00000000        2
N       11.54267022       9.23413618      10.00000000        2
N        9.23413618       9.23413618      12.30853405        2
N       11.54267022      11.54267022      12.30853405        2
N        9.23413618      11.54267022      14.61706809        1
N       11.54267022       9.23413618      14.61706809        1
N        9.23413618       9.23413618      16.92560213        1
N       11.54267022      11.54267022      16.92560213        1
