
     Program PWSCF v.7.5 starts on 19Apr2026 at  0:28:28 

     This program is part of the open-source Quantum ESPRESSO suite
     for quantum simulation of materials; please cite
         "P. Giannozzi et al., J. Phys.:Condens. Matter 21 395502 (2009);
         "P. Giannozzi et al., J. Phys.:Condens. Matter 29 465901 (2017);
         "P. Giannozzi et al., J. Chem. Phys. 152 154105 (2020);
          URL http://www.quantum-espresso.org", 
     in publications or presentations arising from this work. More details at
     http://www.quantum-espresso.org/quote

     Parallel version (MPI & OpenMP), running on      64 processor cores
     Number of MPI processes:                64
     Threads/MPI process:                     1

     MPI processes distributed on     1 nodes
     696718 MiB available memory on the printing compute node when the environment starts

     Reading input from TiN_Li2S8_combi_u.in

     Current dimensions of program PWSCF are:
     Max number of different atomic species (ntypx) = 10
     Max number of k-points (npk) =  40000
     Max angular momentum in pseudopotentials (lmaxx) =  4
     Message from routine iosys:
     pot_extrapolation='second_order' not available, using 'atomic'
     Message from routine iosys:
     wfc_extrapolation='second_order' not available, using 'atomic'

     K-points division:     npool     =       4
     R & G space division:  proc/nbgrp/npool/nimage =      16
     Subspace diagonalization in iterative solution of the eigenvalue problem:
     one sub-group per band group will be used
     ELPA distributed-memory algorithm (size of sub-group:  4*  4 procs)


     Parallelization info
     --------------------
     sticks:   dense  smooth     PW     G-vecs:    dense   smooth      PW
     Min        1312     525    138               295020    74641   10122
     Max        1313     526    139               295029    74652   10133
     Sum       20993    8405   2217              4720353  1194337  162045

     Using Slab Decomposition



     bravais-lattice index     =            0
     lattice parameter (alat)  =      24.2220  a.u.
     unit-cell volume          =   29279.8673 (a.u.)^3
     number of atoms/cell      =          154
     number of atomic types    =            4
     number of electrons       =      1278.00
     number of Kohn-Sham states=          767
     kinetic-energy cutoff     =      45.0000  Ry
     charge density cutoff     =     450.0000  Ry
     scf convergence threshold =      1.0E-06
     mixing beta               =       0.2000
     number of iterations used =            8  local-TF  mixing
     energy convergence thresh.=      1.0E-04
     force convergence thresh. =      1.6E-03
     Exchange-correlation=  SLA  PW   PBX  PBC
                           (   1   4   3   4   0   0   0)
     nstep                     =          170

     Hubbard projectors: atomic
     Hubbard parameters of DFT+U (Dudarev formulation) in eV:
     U(Ti-3d) =  4.4400

     Internal variables: lda_plus_u =T, lda_plus_u_kind = 0

     Internal variables: orbital_resolved =F, hub_pot_fix =F, apply_U = F

     celldm(1)=  24.222000  celldm(2)=   0.000000  celldm(3)=   0.000000
     celldm(4)=   0.000000  celldm(5)=   0.000000  celldm(6)=   0.000000

     crystal axes: (cart. coord. in units of alat)
               a(1) = (   1.000000   0.000000   0.000000 )  
               a(2) = (   0.000000   1.000000   0.000000 )  
               a(3) = (   0.000000   0.000000   2.060341 )  

     reciprocal axes: (cart. coord. in units 2 pi/alat)
               b(1) = (  1.000000  0.000000  0.000000 )  
               b(2) = (  0.000000  1.000000  0.000000 )  
               b(3) = (  0.000000  0.000000  0.485357 )  


     PseudoPot. # 1 for Ti read from file:
     /scratch/anizami/QE_2/USPP/ti_pbe_v1.4.uspp.F.UPF
     MD5 check sum: 88a00a6731bd790ddea75d31a80cb452
     Pseudo is Ultrasoft + core correction, Zval = 12.0
     Generated by new atomic code, or converted to UPF format
     Using radial grid of  851 points,  6 beta functions with: 
                l(1) =   0
                l(2) =   0
                l(3) =   1
                l(4) =   1
                l(5) =   2
                l(6) =   2
     Q(r) pseudized with  6 coefficients,  rinner =    1.000   1.000   1.000
                                                       1.000   1.000

     PseudoPot. # 2 for N  read from file:
     /scratch/anizami/QE_2/USPP/n_pbe_v1.2.uspp.F.UPF
     MD5 check sum: 95339753478d7afb44899504a8723017
     Pseudo is Ultrasoft + core correction, Zval =  5.0
     Generated by new atomic code, or converted to UPF format
     Using radial grid of  729 points,  4 beta functions with: 
                l(1) =   0
                l(2) =   0
                l(3) =   1
                l(4) =   1
     Q(r) pseudized with  8 coefficients,  rinner =    0.900   0.900   0.900


     PseudoPot. # 3 for S  read from file:
     /scratch/anizami/QE_2/USPP/s_pbe_v1.4.uspp.F.UPF
     MD5 check sum: 88d86576ff6df21479756cfb9bdac1df
     Pseudo is Ultrasoft + core correction, Zval =  6.0
     Generated by new atomic code, or converted to UPF format
     Using radial grid of  907 points,  6 beta functions with: 
                l(1) =   0
                l(2) =   0
                l(3) =   1
                l(4) =   1
                l(5) =   2
                l(6) =   2
     Q(r) pseudized with  8 coefficients,  rinner =    1.300   1.300   1.300
                                                       1.300   1.300

     PseudoPot. # 4 for Li read from file:
     /scratch/anizami/QE_2/USPP/li_pbe_v1.4.uspp.F.UPF
     MD5 check sum: e912e257baa3777c20ea3d68f190483c
     Pseudo is Ultrasoft, Zval =  3.0
     Generated by new atomic code, or converted to UPF format
     Using radial grid of  751 points,  5 beta functions with: 
                l(1) =   0
                l(2) =   0
                l(3) =   0
                l(4) =   1
                l(5) =   1
     Q(r) pseudized with 10 coefficients,  rinner =    1.150   1.150   1.150


     atomic species   valence    mass     pseudopotential
     Ti               12.00     1.00000     Ti( 1.00)
     N                 5.00     1.00000     N ( 1.00)
     S                 6.00     1.00000     S ( 1.00)
     Li                3.00     1.00000     Li( 1.00)

     No symmetry found



   Cartesian axes

     site n.     atom                  positions (alat units)
         1        Ti     tau(   1) = (   0.0000000   0.0000000   0.7801693  )
         2        Ti     tau(   2) = (   0.1666664   0.0000000   0.9468357  )
         3        Ti     tau(   3) = (   0.0000000   0.1666664   0.9468357  )
         4        Ti     tau(   4) = (   0.1666664   0.1666664   0.7801693  )
         5        N      tau(   5) = (   0.0000000   0.1666664   0.7801693  )
         6        N      tau(   6) = (   0.1666664   0.0000000   0.7801693  )
         7        N      tau(   7) = (   0.0000000   0.0000000   0.9468357  )
         8        N      tau(   8) = (   0.1666664   0.1666664   0.9468357  )
         9        Ti     tau(   9) = (   0.0000000   0.0000000   1.1126691  )
        10        Ti     tau(  10) = (   0.1666664   0.0000000   1.2734683  )
        11        Ti     tau(  11) = (   0.0000000   0.1666664   1.2734683  )
        12        Ti     tau(  12) = (   0.1666664   0.1666664   1.1126684  )
        13        N      tau(  13) = (   0.0000000   0.1666664   1.1147903  )
        14        N      tau(  14) = (   0.1666664   0.0000000   1.1147903  )
        15        N      tau(  15) = (   0.0000000   0.0000000   1.2857892  )
        16        N      tau(  16) = (   0.1666664   0.1666664   1.2857888  )
        17        Ti     tau(  17) = (   0.0000000   0.3333328   0.7801693  )
        18        Ti     tau(  18) = (   0.1666664   0.3333328   0.9468357  )
        19        Ti     tau(  19) = (   0.0000000   0.4999991   0.9468357  )
        20        Ti     tau(  20) = (   0.1666664   0.4999991   0.7801693  )
        21        N      tau(  21) = (   0.0000000   0.4999991   0.7801693  )
        22        N      tau(  22) = (   0.1666664   0.3333328   0.7801693  )
        23        N      tau(  23) = (   0.0000000   0.3333328   0.9468357  )
        24        N      tau(  24) = (   0.1666664   0.4999991   0.9468357  )
        25        Ti     tau(  25) = (   0.0000000   0.3333328   1.1126692  )
        26        Ti     tau(  26) = (   0.1666664   0.3333327   1.2734683  )
        27        Ti     tau(  27) = (   0.0000000   0.4999991   1.2734683  )
        28        Ti     tau(  28) = (   0.1666664   0.4999991   1.1126684  )
        29        N      tau(  29) = (   0.0000000   0.4999991   1.1147903  )
        30        N      tau(  30) = (   0.1666664   0.3333328   1.1147904  )
        31        N      tau(  31) = (   0.0000000   0.3333328   1.2857892  )
        32        N      tau(  32) = (   0.1666664   0.4999991   1.2857888  )
        33        Ti     tau(  33) = (   0.0000000   0.6666655   0.7801693  )
        34        Ti     tau(  34) = (   0.1666664   0.6666655   0.9468357  )
        35        Ti     tau(  35) = (   0.0000000   0.8333319   0.9468357  )
        36        Ti     tau(  36) = (   0.1666664   0.8333319   0.7801693  )
        37        N      tau(  37) = (   0.0000000   0.8333319   0.7801693  )
        38        N      tau(  38) = (   0.1666664   0.6666655   0.7801693  )
        39        N      tau(  39) = (   0.0000000   0.6666655   0.9468357  )
        40        N      tau(  40) = (   0.1666664   0.8333319   0.9468357  )
        41        Ti     tau(  41) = (   0.0000000   0.6666655   1.1126692  )
        42        Ti     tau(  42) = (   0.1666664   0.6666655   1.2734683  )
        43        Ti     tau(  43) = (   0.0000000   0.8333319   1.2734683  )
        44        Ti     tau(  44) = (   0.1666664   0.8333319   1.1126684  )
        45        N      tau(  45) = (   0.0000000   0.8333319   1.1147903  )
        46        N      tau(  46) = (   0.1666664   0.6666655   1.1147904  )
        47        N      tau(  47) = (   0.0000000   0.6666655   1.2857892  )
        48        N      tau(  48) = (   0.1666664   0.8333319   1.2857888  )
        49        Ti     tau(  49) = (   0.3333328   0.0000000   0.7801693  )
        50        Ti     tau(  50) = (   0.4999991   0.0000000   0.9468357  )
        51        Ti     tau(  51) = (   0.3333328   0.1666664   0.9468357  )
        52        Ti     tau(  52) = (   0.4999991   0.1666664   0.7801693  )
        53        N      tau(  53) = (   0.3333328   0.1666664   0.7801693  )
        54        N      tau(  54) = (   0.4999991   0.0000000   0.7801693  )
        55        N      tau(  55) = (   0.3333328   0.0000000   0.9468357  )
        56        N      tau(  56) = (   0.4999991   0.1666664   0.9468357  )
        57        Ti     tau(  57) = (   0.3333328   0.0000000   1.1126692  )
        58        Ti     tau(  58) = (   0.4999991   0.0000000   1.2734683  )
        59        Ti     tau(  59) = (   0.3333327   0.1666664   1.2734683  )
        60        Ti     tau(  60) = (   0.4999991   0.1666664   1.1126684  )
        61        N      tau(  61) = (   0.3333328   0.1666664   1.1147904  )
        62        N      tau(  62) = (   0.4999991   0.0000000   1.1147903  )
        63        N      tau(  63) = (   0.3333328   0.0000000   1.2857892  )
        64        N      tau(  64) = (   0.4999991   0.1666664   1.2857888  )
        65        Ti     tau(  65) = (   0.3333328   0.3333328   0.7801693  )
        66        Ti     tau(  66) = (   0.4999991   0.3333328   0.9468357  )
        67        Ti     tau(  67) = (   0.3333328   0.4999991   0.9468357  )
        68        Ti     tau(  68) = (   0.4999991   0.4999991   0.7801693  )
        69        N      tau(  69) = (   0.3333328   0.4999991   0.7801693  )
        70        N      tau(  70) = (   0.4999991   0.3333328   0.7801693  )
        71        N      tau(  71) = (   0.3333328   0.3333328   0.9468357  )
        72        N      tau(  72) = (   0.4999991   0.4999991   0.9468357  )
        73        Ti     tau(  73) = (   0.3333328   0.3333328   1.1126692  )
        74        Ti     tau(  74) = (   0.4999991   0.3333327   1.2734683  )
        75        Ti     tau(  75) = (   0.3333327   0.4999991   1.2734683  )
        76        Ti     tau(  76) = (   0.4999991   0.4999991   1.1126684  )
        77        N      tau(  77) = (   0.3333328   0.4999991   1.1147904  )
        78        N      tau(  78) = (   0.4999991   0.3333328   1.1147904  )
        79        N      tau(  79) = (   0.3333328   0.3333328   1.2857892  )
        80        N      tau(  80) = (   0.4999991   0.4999991   1.2857887  )
        81        Ti     tau(  81) = (   0.3333328   0.6666655   0.7801693  )
        82        Ti     tau(  82) = (   0.4999991   0.6666655   0.9468357  )
        83        Ti     tau(  83) = (   0.3333328   0.8333319   0.9468357  )
        84        Ti     tau(  84) = (   0.4999991   0.8333319   0.7801693  )
        85        N      tau(  85) = (   0.3333328   0.8333319   0.7801693  )
        86        N      tau(  86) = (   0.4999991   0.6666655   0.7801693  )
        87        N      tau(  87) = (   0.3333328   0.6666655   0.9468357  )
        88        N      tau(  88) = (   0.4999991   0.8333319   0.9468357  )
        89        Ti     tau(  89) = (   0.3333328   0.6666655   1.1126692  )
        90        Ti     tau(  90) = (   0.4999991   0.6666655   1.2734683  )
        91        Ti     tau(  91) = (   0.3333327   0.8333319   1.2734683  )
        92        Ti     tau(  92) = (   0.4999991   0.8333319   1.1126684  )
        93        N      tau(  93) = (   0.3333328   0.8333319   1.1147904  )
        94        N      tau(  94) = (   0.4999991   0.6666655   1.1147904  )
        95        N      tau(  95) = (   0.3333328   0.6666655   1.2857892  )
        96        N      tau(  96) = (   0.4999991   0.8333319   1.2857888  )
        97        Ti     tau(  97) = (   0.6666655   0.0000000   0.7801693  )
        98        Ti     tau(  98) = (   0.8333319   0.0000000   0.9468357  )
        99        Ti     tau(  99) = (   0.6666655   0.1666664   0.9468357  )
       100        Ti     tau( 100) = (   0.8333319   0.1666664   0.7801693  )
       101        N      tau( 101) = (   0.6666655   0.1666664   0.7801693  )
       102        N      tau( 102) = (   0.8333319   0.0000000   0.7801693  )
       103        N      tau( 103) = (   0.6666655   0.0000000   0.9468357  )
       104        N      tau( 104) = (   0.8333319   0.1666664   0.9468357  )
       105        Ti     tau( 105) = (   0.6666655   0.0000000   1.1126692  )
       106        Ti     tau( 106) = (   0.8333319   0.0000000   1.2734683  )
       107        Ti     tau( 107) = (   0.6666655   0.1666664   1.2734683  )
       108        Ti     tau( 108) = (   0.8333319   0.1666664   1.1126684  )
       109        N      tau( 109) = (   0.6666655   0.1666664   1.1147904  )
       110        N      tau( 110) = (   0.8333319   0.0000000   1.1147903  )
       111        N      tau( 111) = (   0.6666655   0.0000000   1.2857892  )
       112        N      tau( 112) = (   0.8333319   0.1666664   1.2857888  )
       113        Ti     tau( 113) = (   0.6666655   0.3333328   0.7801693  )
       114        Ti     tau( 114) = (   0.8333319   0.3333328   0.9468357  )
       115        Ti     tau( 115) = (   0.6666655   0.4999991   0.9468357  )
       116        Ti     tau( 116) = (   0.8333319   0.4999991   0.7801693  )
       117        N      tau( 117) = (   0.6666655   0.4999991   0.7801693  )
       118        N      tau( 118) = (   0.8333319   0.3333328   0.7801693  )
       119        N      tau( 119) = (   0.6666655   0.3333328   0.9468357  )
       120        N      tau( 120) = (   0.8333319   0.4999991   0.9468357  )
       121        Ti     tau( 121) = (   0.6666655   0.3333328   1.1126692  )
       122        Ti     tau( 122) = (   0.8333319   0.3333327   1.2734683  )
       123        Ti     tau( 123) = (   0.6666655   0.4999991   1.2734683  )
       124        Ti     tau( 124) = (   0.8333319   0.4999991   1.1126684  )
       125        N      tau( 125) = (   0.6666655   0.4999991   1.1147904  )
       126        N      tau( 126) = (   0.8333319   0.3333328   1.1147904  )
       127        N      tau( 127) = (   0.6666655   0.3333328   1.2857892  )
       128        N      tau( 128) = (   0.8333319   0.4999991   1.2857888  )
       129        Ti     tau( 129) = (   0.6666655   0.6666655   0.7801693  )
       130        Ti     tau( 130) = (   0.8333319   0.6666655   0.9468357  )
       131        Ti     tau( 131) = (   0.6666655   0.8333319   0.9468357  )
       132        Ti     tau( 132) = (   0.8333319   0.8333319   0.7801693  )
       133        N      tau( 133) = (   0.6666655   0.8333319   0.7801693  )
       134        N      tau( 134) = (   0.8333319   0.6666655   0.7801693  )
       135        N      tau( 135) = (   0.6666655   0.6666655   0.9468357  )
       136        N      tau( 136) = (   0.8333319   0.8333319   0.9468357  )
       137        Ti     tau( 137) = (   0.6666655   0.6666655   1.1126692  )
       138        Ti     tau( 138) = (   0.8333319   0.6666655   1.2734683  )
       139        Ti     tau( 139) = (   0.6666655   0.8333319   1.2734683  )
       140        Ti     tau( 140) = (   0.8333319   0.8333319   1.1126684  )
       141        N      tau( 141) = (   0.6666655   0.8333319   1.1147904  )
       142        N      tau( 142) = (   0.8333319   0.6666655   1.1147904  )
       143        N      tau( 143) = (   0.6666655   0.6666655   1.2857892  )
       144        N      tau( 144) = (   0.8333319   0.8333319   1.2857888  )
       145        S      tau( 145) = (   0.2829635   0.5033448   1.4677077  )
       146        S      tau( 146) = (   0.5131051   0.3252657   1.5188298  )
       147        S      tau( 147) = (   0.5480430   0.2742453   1.6693368  )
       148        S      tau( 148) = (   0.6072394   0.3988293   1.7492863  )
       149        S      tau( 149) = (   0.4921644   0.4779920   1.8315876  )
       150        S      tau( 150) = (   0.4280265   0.5916811   1.7295446  )
       151        S      tau( 151) = (   0.2675559   0.5762779   1.7214721  )
       152        S      tau( 152) = (   0.2236850   0.4644654   1.6119332  )
       153        Li     tau( 153) = (   0.3333328   0.3333328   1.5198400  )
       154        Li     tau( 154) = (   0.4560787   0.4987375   1.5489125  )

     --------------------------------------------
     DFT-D3 Dispersion Correction (3-body terms):
     --------------------------------------------
       Reference C6 values for interpolation: 

         atom   Coordination number   C6
         Li         0.000          2326.89
         Li         0.987           170.64
         N          0.000            50.54
         N          0.994            44.25
         N          2.014            39.35
         N          2.990            31.16
         S          0.000           268.01
         S          0.995           261.99
         S          1.990           251.62
         Ti         0.000          2723.84
         Ti         1.830           604.00
         Ti         3.868           643.18

       Values used:

         atom   Coordination number  R0_AB[au]  C6      C8
         Ti        11.203            3.557    643.18  76289.64
         Ti        15.343            3.557    643.18  76289.64
         Ti        15.343            3.557    643.18  76289.64
         Ti        11.203            3.557    643.18  76289.64
         N          4.884            2.478     31.16    687.49
         N          4.884            2.478     31.16    687.49
         N          5.895            2.478     31.16    687.49
         N          5.895            2.478     31.16    687.49
         Ti        15.504            3.557    643.18  76289.64
         Ti        11.430            3.557    643.18  76289.64
         Ti        11.430            3.557    643.18  76289.64
         Ti        15.505            3.557    643.18  76289.64
         N          5.911            2.478     31.16    687.49
         N          5.911            2.478     31.16    687.49
         N          4.835            2.478     31.16    687.49
         N          4.837            2.478     31.16    687.49
         Ti        11.203            3.557    643.18  76289.64
         Ti        15.343            3.557    643.18  76289.64
         Ti        15.343            3.557    643.18  76289.64
         Ti        11.203            3.557    643.18  76289.64
         N          4.884            2.478     31.16    687.49
         N          4.884            2.478     31.16    687.49
         N          5.895            2.478     31.16    687.49
         N          5.895            2.478     31.16    687.49
         Ti        15.505            3.557    643.18  76289.64
         Ti        11.568            3.557    643.18  76289.64
         Ti        11.437            3.557    643.18  76289.64
         Ti        15.508            3.557    643.18  76289.64
         N          5.911            2.478     31.16    687.49
         N          5.911            2.478     31.16    687.49
         N          4.836            2.478     31.16    687.49
         N          4.903            2.478     31.16    687.49
         Ti        11.203            3.557    643.18  76289.64
         Ti        15.343            3.557    643.18  76289.64
         Ti        15.343            3.557    643.18  76289.64
         Ti        11.203            3.557    643.18  76289.64
         N          4.884            2.478     31.16    687.49
         N          4.884            2.478     31.16    687.49
         N          5.895            2.478     31.16    687.49
         N          5.895            2.478     31.16    687.49
         Ti        15.505            3.557    643.18  76289.64
         Ti        11.499            3.557    643.18  76289.64
         Ti        11.429            3.557    643.18  76289.64
         Ti        15.505            3.557    643.18  76289.64
         N          5.911            2.478     31.16    687.49
         N          5.911            2.478     31.16    687.49
         N          4.835            2.478     31.16    687.49
         N          4.835            2.478     31.16    687.49
         Ti        11.203            3.557    643.18  76289.64
         Ti        15.343            3.557    643.18  76289.64
         Ti        15.343            3.557    643.18  76289.64
         Ti        11.203            3.557    643.18  76289.64
         N          4.884            2.478     31.16    687.49
         N          4.884            2.478     31.16    687.49
         N          5.895            2.478     31.16    687.49
         N          5.895            2.478     31.16    687.49
         Ti        15.505            3.557    643.18  76289.64
         Ti        11.431            3.557    643.18  76289.64
         Ti        11.516            3.557    643.18  76289.64
         Ti        15.506            3.557    643.18  76289.64
         N          5.911            2.478     31.16    687.49
         N          5.911            2.478     31.16    687.49
         N          4.835            2.478     31.16    687.49
         N          4.840            2.478     31.16    687.49
         Ti        11.203            3.557    643.18  76289.64
         Ti        15.343            3.557    643.18  76289.64
         Ti        15.343            3.557    643.18  76289.64
         Ti        11.203            3.557    643.18  76289.64
         N          4.884            2.478     31.16    687.49
         N          4.884            2.478     31.16    687.49
         N          5.895            2.478     31.16    687.49
         N          5.895            2.478     31.16    687.49
         Ti        15.509            3.557    643.18  76289.64
         Ti        11.846            3.557    643.18  76289.64
         Ti        12.512            3.557    643.18  76289.64
         Ti        15.508            3.557    643.18  76289.64
         N          5.912            2.478     31.16    687.49
         N          5.911            2.478     31.16    687.49
         N          4.930            2.478     31.16    687.49
         N          4.858            2.478     31.16    687.49
         Ti        11.203            3.557    643.18  76289.64
         Ti        15.343            3.557    643.18  76289.64
         Ti        15.343            3.557    643.18  76289.64
         Ti        11.203            3.557    643.18  76289.64
         N          4.884            2.478     31.16    687.49
         N          4.884            2.478     31.16    687.49
         N          5.895            2.478     31.16    687.49
         N          5.895            2.478     31.16    687.49
         Ti        15.507            3.557    643.18  76289.64
         Ti        11.465            3.557    643.18  76289.64
         Ti        11.432            3.557    643.18  76289.64
         Ti        15.505            3.557    643.18  76289.64
         N          5.911            2.478     31.16    687.49
         N          5.911            2.478     31.16    687.49
         N          4.848            2.478     31.16    687.49
         N          4.835            2.478     31.16    687.49
         Ti        11.203            3.557    643.18  76289.64
         Ti        15.343            3.557    643.18  76289.64
         Ti        15.343            3.557    643.18  76289.64
         Ti        11.203            3.557    643.18  76289.64
         N          4.884            2.478     31.16    687.49
         N          4.884            2.478     31.16    687.49
         N          5.895            2.478     31.16    687.49
         N          5.895            2.478     31.16    687.49
         Ti        15.505            3.557    643.18  76289.64
         Ti        11.429            3.557    643.18  76289.64
         Ti        11.440            3.557    643.18  76289.64
         Ti        15.505            3.557    643.18  76289.64
         N          5.911            2.478     31.16    687.49
         N          5.911            2.478     31.16    687.49
         N          4.835            2.478     31.16    687.49
         N          4.835            2.478     31.16    687.49
         Ti        11.203            3.557    643.18  76289.64
         Ti        15.343            3.557    643.18  76289.64
         Ti        15.343            3.557    643.18  76289.64
         Ti        11.203            3.557    643.18  76289.64
         N          4.884            2.478     31.16    687.49
         N          4.884            2.478     31.16    687.49
         N          5.895            2.478     31.16    687.49
         N          5.895            2.478     31.16    687.49
         Ti        15.506            3.557    643.18  76289.64
         Ti        11.431            3.557    643.18  76289.64
         Ti        11.450            3.557    643.18  76289.64
         Ti        15.505            3.557    643.18  76289.64
         N          5.911            2.478     31.16    687.49
         N          5.911            2.478     31.16    687.49
         N          4.839            2.478     31.16    687.49
         N          4.835            2.478     31.16    687.49
         Ti        11.203            3.557    643.18  76289.64
         Ti        15.343            3.557    643.18  76289.64
         Ti        15.343            3.557    643.18  76289.64
         Ti        11.203            3.557    643.18  76289.64
         N          4.884            2.478     31.16    687.49
         N          4.884            2.478     31.16    687.49
         N          5.895            2.478     31.16    687.49
         N          5.895            2.478     31.16    687.49
         Ti        15.505            3.557    643.18  76289.64
         Ti        11.429            3.557    643.18  76289.64
         Ti        11.429            3.557    643.18  76289.64
         Ti        15.504            3.557    643.18  76289.64
         N          5.911            2.478     31.16    687.49
         N          5.911            2.478     31.16    687.49
         N          4.836            2.478     31.16    687.49
         N          4.835            2.478     31.16    687.49
         S          4.180            3.128    251.62  12327.25
         S          3.385            3.128    251.62  12327.25
         S          2.221            3.128    251.65  12328.77
         S          2.179            3.128    251.67  12329.37
         S          2.106            3.128    251.70  12331.01
         S          2.961            3.128    251.62  12327.26
         S          2.180            3.128    251.66  12329.34
         S          3.307            3.128    251.62  12327.25
         Li         4.429            3.303    170.64  12899.87
         Li         4.591            3.303    170.64  12899.87

         Molecular C6 ( Ry / a.u.^6 ) =   5558718.78


     number of k points=    10  Marzari-Vanderbilt smearing, width (Ry)=  0.0250
                       cart. coord. in units 2pi/alat
        k(    1) = (   0.0000000   0.0000000   0.0000000), wk =   0.1250000
        k(    2) = (   0.0000000   0.2500000   0.0000000), wk =   0.2500000
        k(    3) = (   0.0000000  -0.5000000   0.0000000), wk =   0.1250000
        k(    4) = (   0.2500000   0.2500000   0.0000000), wk =   0.2500000
        k(    5) = (   0.2500000  -0.5000000   0.0000000), wk =   0.2500000
        k(    6) = (  -0.5000000  -0.5000000   0.0000000), wk =   0.1250000
        k(    7) = (   0.2500000   0.0000000   0.0000000), wk =   0.2500000
        k(    8) = (  -0.5000000   0.0000000   0.0000000), wk =   0.1250000
        k(    9) = (  -0.2500000   0.2500000   0.0000000), wk =   0.2500000
        k(   10) = (  -0.5000000   0.2500000   0.0000000), wk =   0.2500000

     Dense  grid:  4720353 G-vectors     FFT dimensions: ( 180, 180, 360)

     Smooth grid:  1194337 G-vectors     FFT dimensions: ( 108, 108, 216)

     Estimated max dynamical RAM per process >       1.78 GB

     Estimated total dynamical RAM >     110.54 GB

     Atomic positions and unit cell read from directory:
     ./tmp/TiN_Li2S8_combi_u.save/
     Atomic positions from file used, from input discarded


     Check: negative core charge=   -0.000003

     The initial density is read from file :
     ./tmp/TiN_Li2S8_combi_u.save/charge-density


     negative rho (up, down):  7.089E-02 0.000E+00
     Number of Hubbard iterations with fixed ns = 20

     STARTING HUBBARD OCCUPATIONS:

     =================== HUBBARD OCCUPATIONS ===================
     ------------------------ ATOM    1 ------------------------
     Tr[ns(  1)] =   2.98510
     eigenvalues:
       0.232  0.261  0.296  0.318  0.385
     eigenvectors (columns):
       0.035  0.098 -0.993  0.063 -0.011
      -0.998  0.050 -0.029  0.024  0.011
      -0.046 -0.994 -0.098  0.014 -0.009
       0.011 -0.009 -0.012  0.001  1.000
      -0.022 -0.006 -0.064 -0.998  0.000
     occupation matrix ns (before diag.):
       0.296  0.002  0.004 -0.001 -0.001
       0.002  0.232 -0.001  0.002 -0.002
       0.004 -0.001  0.261 -0.001 -0.001
      -0.001  0.002 -0.001  0.385  0.000
      -0.001 -0.002 -0.001  0.000  0.318
     ------------------------ ATOM    2 ------------------------
     Tr[ns(  2)] =   3.19186
     eigenvalues:
       0.260  0.288  0.343  0.344  0.360
     eigenvectors (columns):
       0.033  0.004  0.246  0.170 -0.954
       0.998 -0.043 -0.016  0.021  0.034
      -0.028 -0.095 -0.709  0.695 -0.061
      -0.014 -0.002  0.656  0.695  0.293
       0.040  0.995 -0.069  0.068  0.000
     occupation matrix ns (before diag.):
       0.359 -0.003  0.001 -0.005 -0.000
      -0.003  0.261  0.002  0.001 -0.001
       0.001  0.002  0.343  0.000  0.005
      -0.005  0.001  0.000  0.345  0.000
      -0.000 -0.001  0.005  0.000  0.288
     ------------------------ ATOM    3 ------------------------
     Tr[ns(  3)] =   3.18567
     eigenvalues:
       0.252  0.289  0.342  0.345  0.364
     eigenvectors (columns):
       0.009  0.002 -0.133  0.299  0.945
      -0.003 -0.048  0.915  0.400  0.003
       1.000 -0.007  0.012 -0.020 -0.001
      -0.022  0.001  0.377 -0.866  0.327
       0.007  0.999  0.044  0.019 -0.002
     occupation matrix ns (before diag.):
       0.362  0.000 -0.001  0.006 -0.000
       0.000  0.343  0.000 -0.001  0.003
      -0.001  0.000  0.252  0.002 -0.000
       0.006 -0.001  0.002  0.347 -0.000
      -0.000  0.003 -0.000 -0.000  0.289
     ------------------------ ATOM    4 ------------------------
     Tr[ns(  4)] =   3.01255
     eigenvalues:
       0.258  0.270  0.295  0.302  0.382
     eigenvectors (columns):
      -0.046  0.998 -0.027  0.015  0.014
      -0.020  0.017  0.080 -0.996 -0.013
       0.992  0.043 -0.119 -0.029 -0.001
       0.001 -0.014  0.001 -0.013  1.000
       0.120  0.031  0.989  0.077  0.001
     occupation matrix ns (before diag.):
       0.270 -0.001  0.001  0.002 -0.001
      -0.001  0.302  0.001 -0.001 -0.000
       0.001  0.001  0.258 -0.000 -0.004
       0.002 -0.001 -0.000  0.382  0.000
      -0.001 -0.000 -0.004  0.000  0.294
     ------------------------ ATOM    9 ------------------------
     Tr[ns(  9)] =   3.21125
     eigenvalues:
       0.254  0.319  0.333  0.339  0.360
     eigenvectors (columns):
      -0.031  0.892 -0.435  0.122  0.003
       0.008  0.417  0.689 -0.590  0.052
      -0.012 -0.033 -0.063 -0.009  0.997
       0.006  0.171  0.576  0.798  0.050
       0.999  0.023 -0.023  0.003  0.012
     occupation matrix ns (before diag.):
       0.322 -0.006  0.000 -0.002  0.002
      -0.006  0.333  0.002 -0.004 -0.001
       0.000  0.002  0.360  0.001  0.001
      -0.002 -0.004  0.001  0.336 -0.001
       0.002 -0.001  0.001 -0.001  0.255
     ------------------------ ATOM   10 ------------------------
     Tr[ns( 10)] =   3.02573
     eigenvalues:
       0.206  0.286  0.300  0.334  0.386
     eigenvectors (columns):
      -0.011 -0.316 -0.906  0.271 -0.079
      -0.062  0.133 -0.330 -0.930  0.071
       0.997 -0.040 -0.019 -0.064  0.016
       0.011  0.015  0.054 -0.094 -0.994
       0.047  0.938 -0.260  0.221 -0.021
     occupation matrix ns (before diag.):
       0.302 -0.009  0.000  0.006  0.006
      -0.009  0.330  0.008 -0.003 -0.009
       0.000  0.008  0.207 -0.002 -0.004
       0.006 -0.003 -0.002  0.385  0.001
       0.006 -0.009 -0.004  0.001  0.289
     ------------------------ ATOM   11 ------------------------
     Tr[ns( 11)] =   3.03182
     eigenvalues:
       0.177  0.255  0.265  0.382  0.437
     eigenvectors (columns):
       0.032  0.130  0.981  0.141  0.023
      -0.999 -0.022  0.037 -0.014  0.004
       0.003  0.063 -0.019 -0.087  0.994
       0.018  0.010  0.142 -0.986 -0.084
      -0.027  0.989 -0.128 -0.004 -0.065
     occupation matrix ns (before diag.):
       0.267  0.003  0.002 -0.017 -0.002
       0.003  0.178  0.001  0.003 -0.002
       0.002  0.001  0.436 -0.004 -0.012
      -0.017  0.003 -0.004  0.380  0.001
      -0.002 -0.002 -0.012  0.001  0.255
     ------------------------ ATOM   12 ------------------------
     Tr[ns( 12)] =   3.18371
     eigenvalues:
       0.263  0.279  0.309  0.352  0.389
     eigenvectors (columns):
      -0.057 -0.048 -0.012 -0.033  0.997
       0.996  0.032  0.052  0.012  0.059
      -0.045 -0.178  0.982 -0.045 -0.001
       0.016  0.005 -0.044 -0.998 -0.033
      -0.043  0.982  0.176 -0.005  0.047
     occupation matrix ns (before diag.):
       0.388  0.007 -0.000 -0.001  0.005
       0.007  0.263  0.002 -0.001  0.001
      -0.000  0.002  0.308  0.002  0.005
      -0.001 -0.001  0.002  0.352 -0.000
       0.005  0.001  0.005 -0.000  0.280
     ------------------------ ATOM   17 ------------------------
     Tr[ns( 17)] =   2.98399
     eigenvalues:
       0.208  0.287  0.292  0.320  0.385
     eigenvectors (columns):
       0.008  0.090 -0.995  0.006  0.032
      -1.000 -0.003 -0.009  0.008 -0.009
      -0.004  0.996  0.090 -0.001  0.002
       0.009  0.005 -0.031  0.001 -0.999
       0.008  0.000  0.006  1.000  0.000
     occupation matrix ns (before diag.):
       0.292  0.001 -0.000 -0.003  0.000
       0.001  0.208 -0.000  0.002  0.001
      -0.000 -0.000  0.287 -0.000 -0.000
      -0.003  0.002 -0.000  0.384 -0.000
       0.000  0.001 -0.000 -0.000  0.320
     ------------------------ ATOM   18 ------------------------
     Tr[ns( 18)] =   3.18955
     eigenvalues:
       0.248  0.289  0.344  0.351  0.362
     eigenvectors (columns):
      -0.028 -0.002  0.260 -0.213  0.941
      -0.998  0.020 -0.052  0.005 -0.014
       0.004 -0.072 -0.152 -0.970 -0.178
      -0.047  0.003  0.952 -0.097 -0.286
       0.020  0.997 -0.012 -0.070 -0.010
     occupation matrix ns (before diag.):
       0.360 -0.003 -0.001 -0.005  0.000
      -0.003  0.248  0.000 -0.004  0.001
      -0.001  0.000  0.351  0.002  0.004
      -0.005 -0.004  0.002  0.346  0.000
       0.000  0.001  0.004  0.000  0.289
     ------------------------ ATOM   19 ------------------------
     Tr[ns( 19)] =   3.18352
     eigenvalues:
       0.256  0.292  0.335  0.345  0.364
     eigenvectors (columns):
      -0.003  0.003  0.013 -0.309 -0.951
       0.023  0.007  0.999  0.031  0.004
       0.999 -0.024 -0.022 -0.019  0.002
       0.018 -0.002 -0.029  0.950 -0.309
       0.024  1.000 -0.007  0.002  0.003
     occupation matrix ns (before diag.):
       0.362 -0.000  0.000  0.006 -0.000
      -0.000  0.335 -0.002  0.000 -0.000
       0.000 -0.002  0.256 -0.002 -0.001
       0.006  0.000 -0.002  0.347  0.000
      -0.000 -0.000 -0.001  0.000  0.292
     ------------------------ ATOM   20 ------------------------
     Tr[ns( 20)] =   3.01366
     eigenvalues:
       0.262  0.270  0.293  0.299  0.382
     eigenvectors (columns):
      -0.045 -0.984  0.010 -0.174 -0.011
      -0.010 -0.173  0.011  0.985  0.018
      -0.995  0.045 -0.087 -0.002 -0.000
       0.001  0.008  0.001  0.019 -1.000
      -0.086  0.016  0.996 -0.009  0.001
     occupation matrix ns (before diag.):
       0.271 -0.005 -0.000  0.001  0.000
      -0.005  0.299 -0.000 -0.001 -0.000
      -0.000 -0.000  0.263  0.000 -0.003
       0.001 -0.001  0.000  0.382 -0.000
       0.000 -0.000 -0.003 -0.000  0.293
     ------------------------ ATOM   25 ------------------------
     Tr[ns( 25)] =   3.21733
     eigenvalues:
       0.220  0.294  0.299  0.331  0.465
     eigenvectors (columns):
       0.003  0.362 -0.870  0.334  0.013
      -0.008 -0.002 -0.008  0.021 -1.000
       0.016  0.920  0.391  0.022 -0.005
      -0.001 -0.150  0.299  0.942  0.018
       1.000 -0.016 -0.003 -0.000 -0.008
     occupation matrix ns (before diag.):
       0.302 -0.002 -0.001  0.010 -0.000
      -0.002  0.465  0.001 -0.002  0.002
      -0.001  0.001  0.295  0.001 -0.001
       0.010 -0.002  0.001  0.327  0.000
      -0.000  0.002 -0.001  0.000  0.220
     ------------------------ ATOM   26 ------------------------
     Tr[ns( 26)] =   3.03721
     eigenvalues:
       0.200  0.284  0.286  0.362  0.387
     eigenvectors (columns):
      -0.031  0.217  0.883 -0.405 -0.086
       0.006  0.005 -0.421 -0.906 -0.046
       0.986 -0.153  0.062 -0.024  0.008
       0.010 -0.017 -0.057  0.077 -0.995
       0.163  0.964 -0.188  0.094  0.004
     occupation matrix ns (before diag.):
       0.299  0.028  0.003  0.006 -0.003
       0.028  0.348  0.001 -0.001 -0.007
       0.003  0.001  0.202 -0.002 -0.014
       0.006 -0.001 -0.002  0.387  0.000
      -0.003 -0.007 -0.014  0.000  0.282
     ------------------------ ATOM   27 ------------------------
     Tr[ns( 27)] =   3.03541
     eigenvalues:
       0.176  0.268  0.273  0.383  0.419
     eigenvectors (columns):
      -0.005 -0.741  0.656  0.134  0.055
      -1.000  0.004 -0.000 -0.014 -0.008
       0.004  0.002  0.041  0.213 -0.976
       0.015 -0.106  0.095 -0.968 -0.207
       0.002  0.663  0.748 -0.006  0.031
     occupation matrix ns (before diag.):
       0.272 -0.001 -0.005 -0.016  0.003
      -0.001  0.176  0.001  0.003  0.000
      -0.005  0.001  0.417  0.007 -0.005
      -0.016  0.003  0.007  0.382  0.000
       0.003  0.000 -0.005  0.000  0.271
     ------------------------ ATOM   28 ------------------------
     Tr[ns( 28)] =   3.18453
     eigenvalues:
       0.257  0.285  0.295  0.351  0.403
     eigenvectors (columns):
      -0.065  0.024  0.017  0.030 -0.997
       0.993  0.092 -0.021 -0.035 -0.064
       0.054 -0.362  0.931  0.000  0.003
       0.036  0.008  0.001  0.999  0.028
      -0.076  0.927  0.365 -0.006  0.033
     occupation matrix ns (before diag.):
       0.403  0.009 -0.000 -0.001 -0.004
       0.009  0.258 -0.002 -0.003  0.002
      -0.000 -0.002  0.294 -0.000  0.004
      -0.001 -0.003 -0.000  0.351 -0.000
      -0.004  0.002  0.004 -0.000  0.287
     ------------------------ ATOM   33 ------------------------
     Tr[ns( 33)] =   2.98576
     eigenvalues:
       0.229  0.265  0.296  0.319  0.385
     eigenvectors (columns):
       0.071  0.231  0.968  0.061  0.012
      -0.996  0.057  0.058  0.019 -0.020
       0.041  0.971 -0.231 -0.052 -0.006
       0.021 -0.004  0.011  0.001 -1.000
       0.017  0.035 -0.072  0.997  0.000
     occupation matrix ns (before diag.):
       0.294  0.004 -0.007 -0.001  0.001
       0.004  0.229  0.001  0.003  0.002
      -0.007  0.001  0.267  0.001 -0.002
      -0.001  0.003  0.001  0.384 -0.000
       0.001  0.002 -0.002 -0.000  0.319
     ------------------------ ATOM   34 ------------------------
     Tr[ns( 34)] =   3.19626
     eigenvalues:
       0.272  0.287  0.339  0.343  0.357
     eigenvectors (columns):
       0.034  0.007 -0.128 -0.264  0.955
       0.977  0.206  0.047  0.012 -0.026
       0.059 -0.072 -0.987  0.045 -0.122
       0.004  0.004 -0.011 -0.963 -0.268
      -0.202  0.976 -0.082  0.006 -0.009
     occupation matrix ns (before diag.):
       0.356 -0.003 -0.002 -0.004 -0.000
      -0.003  0.272 -0.003 -0.000  0.003
      -0.002 -0.003  0.339  0.000  0.004
      -0.004 -0.000  0.000  0.344 -0.000
      -0.000  0.003  0.004 -0.000  0.287
     ------------------------ ATOM   35 ------------------------
     Tr[ns( 35)] =   3.18573
     eigenvalues:
       0.240  0.282  0.344  0.361  0.366
     eigenvectors (columns):
       0.003 -0.004 -0.409 -0.879  0.243
      -0.006 -0.016 -0.102  0.309  0.945
       1.000 -0.015  0.004  0.002  0.005
      -0.004  0.002  0.907 -0.362  0.217
       0.015  1.000 -0.005  0.003  0.016
     occupation matrix ns (before diag.):
       0.358  0.000 -0.000  0.007  0.000
       0.000  0.365  0.001  0.003  0.001
      -0.000  0.001  0.240  0.000 -0.001
       0.007  0.003  0.000  0.347 -0.000
       0.000  0.001 -0.001 -0.000  0.282
     ------------------------ ATOM   36 ------------------------
     Tr[ns( 36)] =   3.00766
     eigenvalues:
       0.271  0.271  0.276  0.303  0.384
     eigenvectors (columns):
      -0.356  0.483  0.800 -0.003 -0.003
      -0.245  0.777 -0.578 -0.019 -0.028
       0.893  0.401  0.156  0.133  0.003
      -0.010  0.022 -0.014 -0.001  1.000
       0.126  0.037  0.029 -0.991 -0.000
     occupation matrix ns (before diag.):
       0.274 -0.002  0.001 -0.000  0.000
      -0.002  0.273 -0.000 -0.003  0.001
       0.001 -0.000  0.271  0.000 -0.004
      -0.000 -0.003  0.000  0.384  0.000
       0.000  0.001 -0.004  0.000  0.302
     ------------------------ ATOM   41 ------------------------
     Tr[ns( 41)] =   3.20717
     eigenvalues:
       0.247  0.315  0.325  0.339  0.378
     eigenvectors (columns):
       0.020  0.579  0.810  0.091  0.023
      -0.042  0.760 -0.576  0.292  0.056
      -0.024  0.046 -0.010  0.050 -0.997
      -0.010  0.291 -0.100 -0.951 -0.033
       0.999  0.024 -0.042  0.002 -0.023
     occupation matrix ns (before diag.):
       0.322 -0.004 -0.001 -0.003 -0.002
      -0.004  0.320 -0.003 -0.006  0.003
      -0.001 -0.003  0.377  0.001  0.003
      -0.003 -0.006  0.001  0.337  0.001
      -0.002  0.003  0.003  0.001  0.247
     ------------------------ ATOM   42 ------------------------
     Tr[ns( 42)] =   3.01037
     eigenvalues:
       0.200  0.279  0.304  0.335  0.388
     eigenvectors (columns):
       0.033 -0.211  0.919  0.330 -0.028
       0.083  0.886  0.037  0.455  0.017
       0.991 -0.030  0.000 -0.123 -0.038
      -0.033  0.005 -0.041  0.037 -0.998
       0.091 -0.413 -0.390  0.817  0.041
     occupation matrix ns (before diag.):
       0.306  0.009 -0.005  0.003  0.006
       0.009  0.290 -0.010 -0.001  0.020
      -0.005 -0.010  0.202  0.006 -0.013
       0.003 -0.001  0.006  0.387 -0.002
       0.006  0.020 -0.013 -0.002  0.319
     ------------------------ ATOM   43 ------------------------
     Tr[ns( 43)] =   3.02600
     eigenvalues:
       0.197  0.242  0.279  0.381  0.414
     eigenvectors (columns):
       0.070  0.001 -0.993  0.089 -0.006
       0.997  0.028  0.071  0.006  0.002
       0.001 -0.013  0.008  0.015 -1.000
       0.012  0.003 -0.089 -0.996 -0.016
      -0.028  1.000 -0.001  0.003 -0.013
     occupation matrix ns (before diag.):
       0.279 -0.006  0.001 -0.009  0.000
      -0.006  0.197 -0.000 -0.002  0.001
       0.001 -0.000  0.414  0.001  0.002
      -0.009 -0.002  0.001  0.381 -0.000
       0.000  0.001  0.002 -0.000  0.242
     ------------------------ ATOM   44 ------------------------
     Tr[ns( 44)] =   3.19388
     eigenvalues:
       0.257  0.302  0.327  0.346  0.364
     eigenvectors (columns):
       0.012 -0.008 -0.064  0.119 -0.991
      -0.012 -0.053  0.985 -0.145 -0.080
      -0.100 -0.993 -0.057 -0.020  0.008
       0.000  0.028 -0.152 -0.982 -0.109
       0.995 -0.100  0.007 -0.005  0.012
     occupation matrix ns (before diag.):
       0.364  0.003 -0.000  0.002 -0.001
       0.003  0.328 -0.001  0.003  0.001
      -0.000 -0.001  0.301  0.001  0.004
       0.002  0.003  0.001  0.346  0.000
      -0.001  0.001  0.004  0.000  0.258
     ------------------------ ATOM   49 ------------------------
     Tr[ns( 49)] =   2.99371
     eigenvalues:
       0.257  0.261  0.284  0.312  0.383
     eigenvectors (columns):
       0.085  0.184 -0.979 -0.025  0.017
      -0.985  0.158 -0.055 -0.044  0.000
       0.146  0.970  0.195 -0.018  0.008
       0.003  0.011 -0.016 -0.003 -1.000
       0.039 -0.029  0.024 -0.999  0.002
     occupation matrix ns (before diag.):
       0.283  0.002 -0.004 -0.002  0.001
       0.002  0.257  0.000  0.000  0.002
      -0.004  0.000  0.262 -0.001  0.001
      -0.002  0.000 -0.001  0.383 -0.000
       0.001  0.002  0.001 -0.000  0.312
     ------------------------ ATOM   50 ------------------------
     Tr[ns( 50)] =   3.18756
     eigenvalues:
       0.266  0.292  0.329  0.345  0.362
     eigenvectors (columns):
      -0.039 -0.015  0.009 -0.260 -0.965
       0.997  0.063 -0.017  0.009 -0.044
      -0.022  0.134 -0.976 -0.165  0.034
       0.023 -0.004  0.169 -0.951  0.257
      -0.061  0.989  0.134  0.014 -0.015
     occupation matrix ns (before diag.):
       0.361  0.004 -0.000 -0.004  0.001
       0.004  0.267  0.001 -0.002  0.002
      -0.000  0.001  0.328  0.003 -0.005
      -0.004 -0.002  0.003  0.346 -0.000
       0.001  0.002 -0.005 -0.000  0.292
     ------------------------ ATOM   51 ------------------------
     Tr[ns( 51)] =   3.20652
     eigenvalues:
       0.277  0.300  0.336  0.341  0.349
     eigenvectors (columns):
      -0.000 -0.035 -0.034  0.269 -0.962
       0.010  0.097  0.976 -0.175 -0.087
       0.060 -0.992  0.089 -0.061  0.016
      -0.000  0.037 -0.197 -0.945 -0.258
       0.998  0.058 -0.015  0.005 -0.001
     occupation matrix ns (before diag.):
       0.348  0.001 -0.002  0.002  0.000
       0.001  0.336  0.004  0.001 -0.001
      -0.002  0.004  0.300  0.002 -0.001
       0.002  0.001  0.002  0.341 -0.000
       0.000 -0.001 -0.001 -0.000  0.277
     ------------------------ ATOM   52 ------------------------
     Tr[ns( 52)] =   3.01015
     eigenvalues:
       0.267  0.272  0.285  0.299  0.383
     eigenvectors (columns):
       0.336  0.741 -0.575 -0.081 -0.004
      -0.908  0.414 -0.007  0.071 -0.002
       0.251  0.512  0.764  0.303  0.005
       0.002 -0.001  0.006  0.002 -1.000
       0.017 -0.132 -0.293  0.947  0.001
     occupation matrix ns (before diag.):
       0.276  0.001 -0.007  0.000  0.000
       0.001  0.268  0.002  0.000  0.002
      -0.007  0.002  0.281 -0.000  0.005
       0.000  0.000 -0.000  0.383 -0.000
       0.000  0.002  0.005 -0.000  0.297
     ------------------------ ATOM   57 ------------------------
     Tr[ns( 57)] =   3.20322
     eigenvalues:
       0.263  0.266  0.336  0.351  0.386
     eigenvectors (columns):
      -0.015  0.034 -0.474  0.877 -0.070
       0.004  0.064  0.034 -0.063 -0.995
      -0.067 -0.994  0.028  0.048 -0.066
      -0.000  0.047  0.879  0.474  0.003
       0.998 -0.066 -0.005  0.016 -0.001
     occupation matrix ns (before diag.):
       0.348  0.002  0.003  0.006  0.001
       0.002  0.385  0.008 -0.001  0.000
       0.003  0.008  0.267  0.004  0.000
       0.006 -0.001  0.004  0.339  0.000
       0.001  0.000  0.000  0.000  0.263
     ------------------------ ATOM   58 ------------------------
     Tr[ns( 58)] =   3.04747
     eigenvalues:
       0.201  0.283  0.305  0.340  0.395
     eigenvectors (columns):
       0.038  0.338  0.873 -0.332 -0.107
      -0.063  0.058 -0.380 -0.916 -0.094
      -0.995  0.068  0.040  0.055  0.014
      -0.011 -0.029 -0.062  0.127 -0.990
       0.062  0.937 -0.296  0.176  0.013
     occupation matrix ns (before diag.):
       0.307  0.012  0.003  0.008 -0.009
       0.012  0.335 -0.009  0.004 -0.007
       0.003 -0.009  0.202 -0.002  0.005
       0.008  0.004 -0.002  0.394  0.000
      -0.009 -0.007  0.005  0.000  0.286
     ------------------------ ATOM   59 ------------------------
     Tr[ns( 59)] =   2.91272
     eigenvalues:
       0.152  0.156  0.353  0.371  0.425
     eigenvectors (columns):
       0.240 -0.030 -0.861  0.391 -0.216
      -0.967  0.073 -0.207  0.116 -0.049
      -0.079 -0.994  0.020 -0.025 -0.073
       0.018 -0.018  0.410  0.911  0.039
      -0.003 -0.077 -0.217  0.054  0.972
     occupation matrix ns (before diag.):
       0.347  0.049 -0.001  0.005 -0.015
       0.049  0.164 -0.001  0.006 -0.003
      -0.001 -0.001  0.157 -0.004 -0.020
       0.005  0.006 -0.004  0.368  0.003
      -0.015 -0.003 -0.020  0.003  0.420
     ------------------------ ATOM   60 ------------------------
     Tr[ns( 60)] =   3.17586
     eigenvalues:
       0.257  0.262  0.309  0.355  0.404
     eigenvectors (columns):
       0.071 -0.019  0.019 -0.020 -0.997
       0.721  0.692 -0.004 -0.004  0.038
      -0.689  0.721 -0.020 -0.041 -0.063
       0.024 -0.032  0.019 -0.999  0.022
      -0.013  0.018  0.999  0.019  0.017
     occupation matrix ns (before diag.):
       0.404 -0.006  0.009 -0.001 -0.002
      -0.006  0.260  0.002  0.000 -0.000
       0.009  0.002  0.261  0.004 -0.001
      -0.001  0.000  0.004  0.355 -0.001
      -0.002 -0.000 -0.001 -0.001  0.309
     ------------------------ ATOM   65 ------------------------
     Tr[ns( 65)] =   3.00306
     eigenvalues:
       0.261  0.275  0.282  0.301  0.382
     eigenvectors (columns):
      -0.382 -0.480  0.789  0.043 -0.014
       0.903 -0.017  0.428 -0.010  0.037
      -0.193  0.873  0.442 -0.079 -0.005
      -0.039 -0.002 -0.003 -0.000  0.999
       0.010  0.089  0.005  0.996  0.001
     occupation matrix ns (before diag.):
       0.277  0.007  0.001 -0.002  0.001
       0.007  0.265  0.004  0.004 -0.000
       0.001  0.004  0.276 -0.001 -0.002
      -0.002  0.004 -0.001  0.382  0.000
       0.001 -0.000 -0.002  0.000  0.301
     ------------------------ ATOM   66 ------------------------
     Tr[ns( 66)] =   3.20208
     eigenvalues:
       0.272  0.302  0.323  0.345  0.360
     eigenvectors (columns):
       0.004  0.018  0.022  0.038 -0.999
       0.003  1.000  0.020  0.014  0.019
      -0.017 -0.019  0.998 -0.055  0.020
       0.001 -0.016  0.053  0.998  0.038
       1.000 -0.003  0.017 -0.002  0.004
     occupation matrix ns (before diag.):
       0.359 -0.001 -0.001 -0.001 -0.000
      -0.001  0.302  0.000  0.001 -0.000
      -0.001  0.000  0.323 -0.001  0.001
      -0.001  0.001 -0.001  0.345 -0.000
      -0.000 -0.000  0.001 -0.000  0.272
     ------------------------ ATOM   67 ------------------------
     Tr[ns( 67)] =   3.20872
     eigenvalues:
       0.277  0.307  0.319  0.342  0.359
     eigenvectors (columns):
      -0.009 -0.037 -0.006  0.027 -0.999
      -0.065 -0.216 -0.973 -0.050  0.013
       0.020  0.975 -0.218 -0.014 -0.035
      -0.001 -0.004  0.052 -0.998 -0.027
       0.998 -0.034 -0.059 -0.004 -0.007
     occupation matrix ns (before diag.):
       0.359 -0.001  0.002  0.000  0.001
      -0.001  0.318  0.003  0.001  0.003
       0.002  0.003  0.308  0.000 -0.000
       0.000  0.001  0.000  0.342  0.000
       0.001  0.003 -0.000  0.000  0.277
     ------------------------ ATOM   68 ------------------------
     Tr[ns( 68)] =   3.00270
     eigenvalues:
       0.259  0.270  0.281  0.307  0.385
     eigenvectors (columns):
      -0.125  0.161 -0.978  0.034  0.008
      -0.004 -0.987 -0.161  0.024  0.010
       0.989  0.018 -0.121  0.088  0.010
      -0.008  0.009  0.011 -0.004  1.000
      -0.083  0.016  0.048  0.995  0.002
     occupation matrix ns (before diag.):
       0.281  0.002  0.003  0.001  0.001
       0.002  0.270  0.000  0.001  0.001
       0.003  0.000  0.259  0.001  0.004
       0.001  0.001  0.001  0.385  0.000
       0.001  0.001  0.004  0.000  0.306
     ------------------------ ATOM   73 ------------------------
     Tr[ns( 73)] =   3.16432
     eigenvalues:
       0.230  0.250  0.349  0.366  0.387
     eigenvectors (columns):
       0.002  0.042 -0.001  0.029 -0.999
       0.038 -0.996 -0.064  0.011 -0.042
      -0.999 -0.039  0.013  0.010 -0.004
       0.016 -0.063  0.998 -0.000 -0.004
      -0.010 -0.011 -0.001 -0.999 -0.029
     occupation matrix ns (before diag.):
       0.387  0.006  0.001  0.000  0.001
       0.006  0.251  0.001 -0.006 -0.001
       0.001  0.001  0.230  0.002 -0.001
       0.000 -0.006  0.002  0.348 -0.000
       0.001 -0.001 -0.001 -0.000  0.366
     ------------------------ ATOM   74 ------------------------
     Tr[ns( 74)] =   3.02980
     eigenvalues:
       0.199  0.225  0.266  0.356  0.469
     eigenvectors (columns):
       0.162 -0.161 -0.058  0.028 -0.971
       0.787  0.604  0.118 -0.028  0.023
      -0.591  0.742  0.204  0.065 -0.232
       0.056 -0.028 -0.007  0.997  0.043
       0.039 -0.240  0.970 -0.001 -0.012
     occupation matrix ns (before diag.):
       0.455 -0.009  0.057 -0.007  0.000
      -0.009  0.210  0.012 -0.005  0.004
       0.057  0.012  0.231  0.007  0.009
      -0.007 -0.005  0.007  0.355 -0.001
       0.000  0.004  0.009 -0.001  0.263
     ------------------------ ATOM   75 ------------------------
     Tr[ns( 75)] =   2.98387
     eigenvalues:
       0.185  0.192  0.296  0.371  0.449
     eigenvectors (columns):
      -0.054  0.234 -0.017  0.023  0.970
      -0.343 -0.915  0.008 -0.055  0.203
      -0.937  0.322 -0.035  0.005 -0.131
      -0.013 -0.057  0.024  0.998 -0.011
      -0.031  0.024  0.999 -0.023  0.011
     occupation matrix ns (before diag.):
       0.434  0.050 -0.033  0.001  0.001
       0.050  0.202 -0.009 -0.010  0.002
      -0.033 -0.009  0.190  0.001 -0.004
       0.001 -0.010  0.001  0.370 -0.002
       0.001  0.002 -0.004 -0.002  0.296
     ------------------------ ATOM   76 ------------------------
     Tr[ns( 76)] =   3.14942
     eigenvalues:
       0.239  0.261  0.349  0.355  0.371
     eigenvectors (columns):
       0.010  0.047  0.046 -0.050  0.997
       0.999 -0.030 -0.013 -0.006 -0.008
       0.030  0.998  0.007  0.030 -0.047
      -0.003  0.025  0.184 -0.981 -0.058
      -0.013  0.015 -0.982 -0.186  0.035
     occupation matrix ns (before diag.):
       0.370 -0.001 -0.005 -0.001  0.001
      -0.001  0.239 -0.001  0.000  0.001
      -0.005 -0.001  0.261 -0.002 -0.001
      -0.001  0.000 -0.002  0.355  0.001
       0.001  0.001 -0.001  0.001  0.349
     ------------------------ ATOM   81 ------------------------
     Tr[ns( 81)] =   2.99912
     eigenvalues:
       0.263  0.268  0.282  0.305  0.382
     eigenvectors (columns):
      -0.134 -0.103 -0.983  0.070 -0.018
       0.841 -0.536 -0.055  0.044 -0.002
       0.523  0.837 -0.159  0.004  0.012
      -0.007 -0.013 -0.016  0.003  1.000
       0.030 -0.028 -0.073 -0.997  0.001
     occupation matrix ns (before diag.):
       0.281  0.001  0.002 -0.002 -0.002
       0.001  0.265 -0.002 -0.000 -0.002
       0.002 -0.002  0.267  0.001 -0.000
      -0.002 -0.000  0.001  0.382  0.000
      -0.002 -0.002 -0.000  0.000  0.304
     ------------------------ ATOM   82 ------------------------
     Tr[ns( 82)] =   3.18865
     eigenvalues:
       0.275  0.287  0.331  0.345  0.357
     eigenvectors (columns):
      -0.059 -0.004  0.158  0.258  0.951
       0.982  0.177  0.023  0.023  0.051
      -0.030  0.091  0.982 -0.075 -0.144
      -0.009 -0.002  0.034  0.963 -0.268
      -0.175  0.980 -0.094  0.006  0.008
     occupation matrix ns (before diag.):
       0.355  0.005 -0.004 -0.003 -0.000
       0.005  0.276  0.001  0.000  0.002
      -0.004  0.001  0.331  0.000 -0.004
      -0.003  0.000  0.000  0.345  0.000
      -0.000  0.002 -0.004  0.000  0.287
     ------------------------ ATOM   83 ------------------------
     Tr[ns( 83)] =   3.20766
     eigenvalues:
       0.291  0.298  0.317  0.341  0.356
     eigenvectors (columns):
      -0.001  0.003 -0.003 -0.033 -0.999
       0.002 -0.031 -0.998 -0.051  0.005
      -0.131 -0.991  0.031  0.003 -0.003
      -0.002  0.002 -0.051  0.998 -0.033
       0.991 -0.131  0.006  0.002 -0.001
     occupation matrix ns (before diag.):
       0.356 -0.000  0.000  0.001  0.000
      -0.000  0.318 -0.001 -0.001 -0.000
       0.000 -0.001  0.298  0.000  0.001
       0.001 -0.001  0.000  0.341  0.000
       0.000 -0.000  0.001  0.000  0.291
     ------------------------ ATOM   84 ------------------------
     Tr[ns( 84)] =   3.00970
     eigenvalues:
       0.269  0.275  0.279  0.299  0.383
     eigenvectors (columns):
       0.838  0.159  0.523 -0.004 -0.000
      -0.424 -0.412  0.805  0.035 -0.036
      -0.344  0.892  0.279 -0.095  0.005
       0.013  0.019 -0.028 -0.003 -0.999
       0.014 -0.100  0.000 -0.995  0.001
     occupation matrix ns (before diag.):
       0.272  0.004  0.002 -0.000  0.000
       0.004  0.277  0.000  0.004 -0.001
       0.002  0.000  0.275 -0.001  0.002
      -0.000  0.004 -0.001  0.383 -0.000
       0.000 -0.001  0.002 -0.000  0.299
     ------------------------ ATOM   89 ------------------------
     Tr[ns( 89)] =   3.19860
     eigenvalues:
       0.257  0.293  0.324  0.342  0.383
     eigenvectors (columns):
      -0.037  0.035 -0.043 -0.084  0.994
      -0.024 -0.246  0.968 -0.020  0.048
      -0.998 -0.004 -0.024 -0.040 -0.042
      -0.044 -0.000  0.015  0.995  0.084
      -0.009  0.969  0.247 -0.002 -0.024
     occupation matrix ns (before diag.):
       0.382  0.003 -0.005  0.003 -0.002
       0.003  0.323 -0.002 -0.000  0.007
      -0.005 -0.002  0.258 -0.004 -0.000
       0.003 -0.000 -0.004  0.342 -0.000
      -0.002  0.007 -0.000 -0.000  0.295
     ------------------------ ATOM   90 ------------------------
     Tr[ns( 90)] =   3.01934
     eigenvalues:
       0.221  0.263  0.308  0.319  0.398
     eigenvectors (columns):
       0.081  0.030 -0.991 -0.102 -0.020
      -0.040 -0.181 -0.110  0.976  0.011
       0.989  0.104  0.077  0.069 -0.011
      -0.013 -0.001  0.018  0.012 -1.000
      -0.115  0.977  0.002  0.177  0.003
     occupation matrix ns (before diag.):
       0.308 -0.001 -0.007  0.002 -0.001
      -0.001  0.317  0.005 -0.001  0.010
      -0.007  0.005  0.222  0.002  0.005
       0.002 -0.001  0.002  0.398 -0.000
      -0.001  0.010  0.005 -0.000  0.264
     ------------------------ ATOM   91 ------------------------
     Tr[ns( 91)] =   3.03894
     eigenvalues:
       0.242  0.245  0.307  0.324  0.402
     eigenvectors (columns):
      -0.037 -0.002  0.153  0.987  0.044
       0.939 -0.337 -0.049  0.041  0.009
      -0.336 -0.941  0.025 -0.019  0.009
      -0.003  0.011 -0.000 -0.045  0.999
      -0.060 -0.008 -0.987  0.150  0.006
     occupation matrix ns (before diag.):
       0.323  0.003 -0.001  0.003  0.002
       0.003  0.243  0.001  0.001  0.004
      -0.001  0.001  0.244  0.001 -0.002
       0.003  0.001  0.001  0.402  0.000
       0.002  0.004 -0.002  0.000  0.307
     ------------------------ ATOM   92 ------------------------
     Tr[ns( 92)] =   3.19485
     eigenvalues:
       0.261  0.308  0.318  0.346  0.364
     eigenvectors (columns):
      -0.002 -0.029 -0.027  0.027 -0.999
       0.014 -0.953 -0.274 -0.123  0.032
       0.091  0.262 -0.954  0.113  0.021
       0.004 -0.149  0.077  0.985  0.029
       0.996 -0.010  0.091 -0.013 -0.004
     occupation matrix ns (before diag.):
       0.364 -0.002 -0.001 -0.001  0.000
      -0.002  0.309  0.002 -0.005 -0.001
      -0.001  0.002  0.317  0.004 -0.005
      -0.001 -0.005  0.004  0.345 -0.001
       0.000 -0.001 -0.005 -0.001  0.262
     ------------------------ ATOM   97 ------------------------
     Tr[ns( 97)] =   2.98270
     eigenvalues:
       0.238  0.246  0.298  0.324  0.385
     eigenvectors (columns):
       0.093 -0.003 -0.995 -0.036 -0.001
       0.962  0.256  0.089  0.009 -0.008
      -0.255  0.967 -0.027 -0.002 -0.009
       0.006  0.011 -0.000  0.003  1.000
       0.006  0.001  0.037 -0.999  0.003
     occupation matrix ns (before diag.):
       0.298 -0.005  0.002 -0.000  0.001
      -0.005  0.239  0.002 -0.001 -0.001
       0.002  0.002  0.245 -0.001  0.000
      -0.000 -0.001 -0.001  0.385  0.000
       0.001 -0.001  0.000  0.000  0.324
     ------------------------ ATOM   98 ------------------------
     Tr[ns( 98)] =   3.18809
     eigenvalues:
       0.237  0.290  0.345  0.354  0.368
     eigenvectors (columns):
      -0.002  0.003 -0.304 -0.057  0.951
      -1.000 -0.002  0.003 -0.028 -0.003
      -0.029 -0.032 -0.057  0.997  0.041
      -0.001  0.003 -0.951 -0.042 -0.306
      -0.003  0.999  0.002  0.032 -0.001
     occupation matrix ns (before diag.):
       0.366 -0.000  0.000 -0.006 -0.000
      -0.000  0.237 -0.003 -0.000 -0.000
       0.000 -0.003  0.353 -0.001  0.002
      -0.006 -0.000 -0.001  0.347 -0.000
      -0.000 -0.000  0.002 -0.000  0.290
     ------------------------ ATOM   99 ------------------------
     Tr[ns( 99)] =   3.18686
     eigenvalues:
       0.249  0.288  0.344  0.350  0.362
     eigenvectors (columns):
       0.003 -0.015 -0.347  0.347 -0.871
      -0.029 -0.042  0.031  0.931  0.359
       0.997  0.075  0.015  0.031  0.009
      -0.014 -0.001  0.937  0.097 -0.335
      -0.076  0.996 -0.005  0.042  0.001
     occupation matrix ns (before diag.):
       0.358 -0.004 -0.000  0.006  0.001
      -0.004  0.352  0.003 -0.002  0.002
      -0.000  0.003  0.249  0.001  0.003
       0.006 -0.002  0.001  0.346 -0.000
       0.001  0.002  0.003 -0.000  0.288
     ------------------------ ATOM  100 ------------------------
     Tr[ns(100)] =   3.02014
     eigenvalues:
       0.263  0.277  0.287  0.303  0.381
     eigenvectors (columns):
       0.998 -0.030 -0.057  0.021 -0.007
       0.018  0.081 -0.086 -0.993 -0.006
      -0.034 -0.992 -0.096 -0.073 -0.009
      -0.007  0.008  0.000  0.007 -1.000
      -0.055  0.091 -0.990  0.092  0.002
     occupation matrix ns (before diag.):
       0.263 -0.001  0.000  0.001  0.001
      -0.001  0.302  0.002  0.000 -0.001
       0.000  0.002  0.277  0.001  0.001
       0.001  0.000  0.001  0.381 -0.000
       0.001 -0.001  0.001 -0.000  0.287
     ------------------------ ATOM  105 ------------------------
     Tr[ns(105)] =   3.21409
     eigenvalues:
       0.242  0.310  0.328  0.335  0.392
     eigenvectors (columns):
       0.042  0.938  0.321 -0.120  0.032
      -0.014 -0.242  0.863  0.433  0.097
       0.009 -0.005  0.113 -0.004 -0.994
      -0.002  0.244 -0.375  0.893 -0.047
       0.999 -0.042 -0.003  0.013  0.009
     occupation matrix ns (before diag.):
       0.312  0.004 -0.002 -0.005 -0.003
       0.004  0.329 -0.006  0.003  0.001
      -0.002 -0.006  0.391  0.003 -0.001
      -0.005  0.003  0.003  0.333  0.000
      -0.003  0.001 -0.001  0.000  0.242
     ------------------------ ATOM  106 ------------------------
     Tr[ns(106)] =   3.03027
     eigenvalues:
       0.174  0.223  0.234  0.368  0.516
     eigenvectors (columns):
      -0.000  0.080 -0.984 -0.161 -0.001
      -0.001  0.006  0.005 -0.023 -1.000
       1.000  0.017  0.001 -0.001 -0.001
      -0.001 -0.007  0.161 -0.987  0.023
      -0.017  0.997  0.080  0.006  0.006
     occupation matrix ns (before diag.):
       0.238  0.001  0.000  0.021 -0.001
       0.001  0.516  0.000 -0.004 -0.002
       0.000  0.000  0.174  0.000  0.001
       0.021 -0.004  0.000  0.364 -0.001
      -0.001 -0.002  0.001 -0.001  0.223
     ------------------------ ATOM  107 ------------------------
     Tr[ns(107)] =   3.00073
     eigenvalues:
       0.184  0.251  0.277  0.387  0.401
     eigenvectors (columns):
      -0.036  0.024  0.969  0.228  0.088
      -0.995 -0.075 -0.024 -0.026 -0.056
      -0.042 -0.125 -0.220  0.672  0.695
      -0.024  0.004  0.100 -0.699  0.707
      -0.079  0.989 -0.054  0.080  0.079
     occupation matrix ns (before diag.):
       0.284 -0.005  0.024 -0.010  0.002
      -0.005  0.185 -0.011 -0.005 -0.006
       0.024 -0.011  0.386  0.009  0.015
      -0.010 -0.005  0.009  0.393  0.000
       0.002 -0.006  0.015  0.000  0.253
     ------------------------ ATOM  108 ------------------------
     Tr[ns(108)] =   3.18943
     eigenvalues:
       0.287  0.292  0.302  0.345  0.370
     eigenvectors (columns):
       0.018  0.014  0.058 -0.010 -0.998
      -0.903  0.094  0.419  0.019  0.009
      -0.060  0.939 -0.340  0.006 -0.007
      -0.026  0.001 -0.012 -1.000  0.008
       0.425  0.332  0.840 -0.020  0.061
     occupation matrix ns (before diag.):
       0.370 -0.000  0.000 -0.000 -0.004
      -0.000  0.289 -0.002 -0.001  0.005
       0.000 -0.002  0.293 -0.000 -0.003
      -0.000 -0.001 -0.000  0.345  0.001
      -0.004  0.005 -0.003  0.001  0.298
     ------------------------ ATOM  113 ------------------------
     Tr[ns(113)] =   2.99349
     eigenvalues:
       0.240  0.268  0.295  0.311  0.383
     eigenvectors (columns):
      -0.269 -0.211  0.940  0.008 -0.001
      -0.962  0.066 -0.260 -0.019  0.036
       0.006  0.967  0.218  0.128  0.017
      -0.034  0.019 -0.006  0.002 -0.999
      -0.017 -0.122 -0.041  0.992  0.001
     occupation matrix ns (before diag.):
       0.290 -0.014  0.006 -0.000 -0.001
      -0.014  0.244 -0.001 -0.005 -0.001
       0.006 -0.001  0.270 -0.002  0.005
      -0.000 -0.005 -0.002  0.383 -0.000
      -0.001 -0.001  0.005 -0.000  0.311
     ------------------------ ATOM  114 ------------------------
     Tr[ns(114)] =   3.18592
     eigenvalues:
       0.233  0.299  0.344  0.353  0.364
     eigenvectors (columns):
      -0.011 -0.007 -0.310  0.025  0.950
       0.999  0.004 -0.035 -0.002 -0.000
      -0.001  0.044  0.028 -0.998  0.035
      -0.033 -0.000 -0.950 -0.037 -0.309
      -0.004  0.999 -0.004  0.044  0.005
     occupation matrix ns (before diag.):
       0.362  0.001  0.000 -0.006  0.000
       0.001  0.233  0.000  0.004  0.000
       0.000  0.000  0.353  0.000 -0.002
      -0.006  0.004  0.000  0.346 -0.000
       0.000  0.000 -0.002 -0.000  0.299
     ------------------------ ATOM  115 ------------------------
     Tr[ns(115)] =   3.18635
     eigenvalues:
       0.273  0.282  0.339  0.343  0.356
     eigenvectors (columns):
      -0.003  0.019 -0.633 -0.349  0.691
       0.068  0.029 -0.772  0.306 -0.553
       0.886  0.459  0.061 -0.019  0.038
      -0.002 -0.002  0.018  0.886  0.464
      -0.460  0.888  0.007  0.009 -0.016
     occupation matrix ns (before diag.):
       0.348 -0.007  0.000  0.004 -0.001
      -0.007  0.344 -0.005 -0.003  0.001
       0.000 -0.005  0.275  0.000  0.004
       0.004 -0.003  0.000  0.346 -0.000
      -0.001  0.001  0.004 -0.000  0.280
     ------------------------ ATOM  116 ------------------------
     Tr[ns(116)] =   3.01962
     eigenvalues:
       0.259  0.264  0.286  0.321  0.380
     eigenvectors (columns):
       0.196 -0.979 -0.053  0.020  0.015
       0.048 -0.009 -0.043 -0.998  0.002
       0.979  0.194  0.040  0.043 -0.004
       0.001  0.016 -0.000  0.002  1.000
      -0.027 -0.060  0.997 -0.044  0.001
     occupation matrix ns (before diag.):
       0.264 -0.001 -0.001  0.002 -0.001
      -0.001  0.320 -0.003  0.000  0.002
      -0.001 -0.003  0.260 -0.000  0.001
       0.002  0.000 -0.000  0.380  0.000
      -0.001  0.002  0.001  0.000  0.286
     ------------------------ ATOM  121 ------------------------
     Tr[ns(121)] =   3.17093
     eigenvalues:
       0.240  0.292  0.306  0.359  0.388
     eigenvectors (columns):
       0.024  0.063 -0.028 -0.080 -0.994
       0.998  0.024  0.001 -0.046  0.029
       0.020 -0.872  0.483 -0.051 -0.064
      -0.049  0.036 -0.027 -0.994  0.082
      -0.013  0.484  0.875 -0.005  0.006
     occupation matrix ns (before diag.):
       0.387 -0.004  0.006 -0.002 -0.001
      -0.004  0.241 -0.001  0.006  0.001
       0.006 -0.001  0.296  0.003  0.006
      -0.002  0.006  0.003  0.359  0.000
      -0.001  0.001  0.006  0.000  0.303
     ------------------------ ATOM  122 ------------------------
     Tr[ns(122)] =   3.03216
     eigenvalues:
       0.195  0.253  0.264  0.385  0.419
     eigenvectors (columns):
       0.006  0.189 -0.959  0.083 -0.195
       0.011  0.024 -0.191  0.036  0.981
       0.973  0.224  0.052  0.005 -0.007
      -0.003 -0.029  0.084  0.996 -0.019
      -0.230  0.955  0.185  0.012  0.015
     occupation matrix ns (before diag.):
       0.270 -0.029 -0.001  0.011 -0.002
      -0.029  0.413 -0.002  0.001  0.002
      -0.001 -0.002  0.198  0.001  0.013
       0.011  0.001  0.001  0.384  0.002
      -0.002  0.002  0.013  0.002  0.250
     ------------------------ ATOM  123 ------------------------
     Tr[ns(123)] =   2.91518
     eigenvalues:
       0.160  0.268  0.303  0.326  0.400
     eigenvectors (columns):
      -0.027 -0.032 -0.291 -0.953  0.066
       0.992  0.007 -0.127  0.011  0.009
      -0.119 -0.254 -0.914  0.293  0.025
       0.005 -0.015 -0.041 -0.056 -0.997
      -0.040  0.967 -0.250  0.044 -0.006
     occupation matrix ns (before diag.):
       0.324  0.004 -0.007 -0.005 -0.000
       0.004  0.162  0.017 -0.002  0.005
      -0.007  0.017  0.301 -0.003  0.008
      -0.005 -0.002 -0.003  0.400  0.001
      -0.000  0.005  0.008  0.001  0.270
     ------------------------ ATOM  124 ------------------------
     Tr[ns(124)] =   3.18440
     eigenvalues:
       0.268  0.293  0.314  0.346  0.371
     eigenvectors (columns):
       0.044  0.005 -0.049 -0.020 -0.998
       0.998 -0.023 -0.038  0.021  0.046
      -0.027 -0.989 -0.137 -0.045  0.002
       0.023  0.036  0.059 -0.997  0.018
       0.035 -0.140  0.987  0.053 -0.049
     occupation matrix ns (before diag.):
       0.371 -0.005  0.000 -0.000  0.003
      -0.005  0.268  0.001 -0.002 -0.002
       0.000  0.001  0.294  0.002 -0.003
      -0.000 -0.002  0.002  0.346 -0.002
       0.003 -0.002 -0.003 -0.002  0.314
     ------------------------ ATOM  129 ------------------------
     Tr[ns(129)] =   2.98388
     eigenvalues:
       0.227  0.253  0.307  0.320  0.385
     eigenvectors (columns):
      -0.139  0.276 -0.950 -0.048 -0.011
      -0.989 -0.018  0.137  0.047 -0.012
       0.023  0.960  0.272  0.065  0.018
      -0.014 -0.014 -0.014  0.000  1.000
       0.038 -0.048 -0.070  0.996 -0.001
     occupation matrix ns (before diag.):
       0.301 -0.011 -0.014 -0.001  0.000
      -0.011  0.229  0.003 -0.002  0.004
      -0.014  0.003  0.257  0.002  0.003
      -0.001 -0.002  0.002  0.385 -0.000
       0.000  0.004  0.003 -0.000  0.320
     ------------------------ ATOM  130 ------------------------
     Tr[ns(130)] =   3.18581
     eigenvalues:
       0.232  0.293  0.345  0.354  0.369
     eigenvectors (columns):
      -0.009  0.008  0.269 -0.300  0.915
      -1.000  0.022 -0.012 -0.007 -0.010
       0.011 -0.036 -0.198 -0.947 -0.251
      -0.007 -0.000  0.942 -0.114 -0.314
       0.022  0.999 -0.009 -0.032 -0.016
     occupation matrix ns (before diag.):
       0.366 -0.001 -0.003 -0.006 -0.001
      -0.001  0.232  0.001 -0.001  0.001
      -0.003  0.001  0.354  0.003  0.002
      -0.006 -0.001  0.003  0.348  0.000
      -0.001  0.001  0.002  0.000  0.293
     ------------------------ ATOM  131 ------------------------
     Tr[ns(131)] =   3.18565
     eigenvalues:
       0.233  0.285  0.343  0.361  0.370
     eigenvectors (columns):
      -0.005  0.004 -0.393 -0.887  0.243
       0.001 -0.016  0.071 -0.293 -0.953
      -1.000  0.019 -0.005  0.007 -0.004
      -0.008  0.001  0.917 -0.357  0.178
       0.019  1.000  0.002 -0.001 -0.016
     occupation matrix ns (before diag.):
       0.359 -0.002 -0.001  0.007 -0.000
      -0.002  0.369  0.000 -0.003  0.001
      -0.001  0.000  0.233 -0.001  0.001
       0.007 -0.003 -0.001  0.346 -0.000
      -0.000  0.001  0.001 -0.000  0.285
     ------------------------ ATOM  132 ------------------------
     Tr[ns(132)] =   3.02096
     eigenvalues:
       0.266  0.283  0.288  0.292  0.381
     eigenvectors (columns):
      -0.996  0.030  0.049 -0.068  0.003
      -0.070 -0.196  0.049  0.977 -0.008
      -0.053 -0.539 -0.837 -0.070 -0.004
       0.002 -0.004 -0.003  0.008  1.000
      -0.015  0.818 -0.542  0.190 -0.000
     occupation matrix ns (before diag.):
       0.266 -0.002 -0.001  0.000 -0.001
      -0.002  0.292 -0.001 -0.001  0.002
      -0.001 -0.001  0.287 -0.000  0.002
       0.000 -0.001 -0.000  0.381  0.000
      -0.001  0.002  0.002  0.000  0.285
     ------------------------ ATOM  137 ------------------------
     Tr[ns(137)] =   3.19790
     eigenvalues:
       0.266  0.284  0.336  0.346  0.368
     eigenvectors (columns):
      -0.036  0.073  0.920 -0.306 -0.233
       0.017  0.005 -0.166  0.229 -0.959
      -0.033  0.996 -0.059  0.044  0.025
       0.011  0.024 -0.349 -0.923 -0.160
       0.999  0.035  0.038 -0.003  0.010
     occupation matrix ns (before diag.):
       0.338  0.006 -0.004  0.004  0.002
       0.006  0.365 -0.001  0.003 -0.002
      -0.004 -0.001  0.285 -0.002  0.001
       0.004  0.003 -0.002  0.345 -0.001
       0.002 -0.002  0.001 -0.001  0.266
     ------------------------ ATOM  138 ------------------------
     Tr[ns(138)] =   3.01730
     eigenvalues:
       0.175  0.223  0.235  0.368  0.508
     eigenvectors (columns):
       0.037 -0.312  0.937  0.152  0.002
       0.011 -0.005 -0.003 -0.009  1.000
      -0.997  0.045  0.054  0.001  0.011
      -0.005  0.046 -0.145  0.988  0.009
       0.059  0.948  0.313  0.002  0.005
     occupation matrix ns (before diag.):
       0.236  0.000  0.002  0.020  0.003
       0.000  0.508  0.004  0.001  0.001
       0.002  0.004  0.175 -0.000  0.003
       0.020  0.001 -0.000  0.365 -0.000
       0.003  0.001  0.003 -0.000  0.224
     ------------------------ ATOM  139 ------------------------
     Tr[ns(139)] =   3.02628
     eigenvalues:
       0.188  0.237  0.261  0.380  0.447
     eigenvectors (columns):
      -0.054  0.036 -0.988  0.118 -0.079
       0.995  0.091 -0.050 -0.001 -0.007
       0.002  0.003 -0.080 -0.004  0.997
      -0.008  0.010 -0.117 -0.993 -0.013
      -0.089  0.995  0.042  0.005  0.000
     occupation matrix ns (before diag.):
       0.264  0.004 -0.015 -0.014 -0.001
       0.004  0.188 -0.001  0.001  0.004
      -0.015 -0.001  0.445 -0.002 -0.000
      -0.014  0.001 -0.002  0.379 -0.001
      -0.001  0.004 -0.000 -0.001  0.237
     ------------------------ ATOM  140 ------------------------
     Tr[ns(140)] =   3.19511
     eigenvalues:
       0.272  0.275  0.338  0.342  0.371
     eigenvectors (columns):
      -0.001 -0.008 -0.082  0.064  0.995
      -0.981 -0.196  0.005 -0.018 -0.001
       0.196 -0.980 -0.010 -0.033 -0.007
      -0.004  0.018 -0.971 -0.228 -0.065
       0.012  0.032  0.223 -0.971  0.081
     occupation matrix ns (before diag.):
       0.371 -0.000 -0.001 -0.002  0.002
      -0.000  0.272  0.001 -0.000  0.001
      -0.001  0.001  0.275  0.001  0.002
      -0.002 -0.000  0.001  0.339  0.001
       0.002  0.001  0.002  0.001  0.342

     Number of occupied Hubbard levels =  223.1370

     Atomic wfc used for Hubbard projectors are NOT orthogonalized

     Cannot read wfcs: file not found
     Starting wfcs are 1050 randomized atomic wfcs

     total cpu time spent up to now is     6086.1 secs

     per-process dynamical memory:  1230.5 Mb

     Self-consistent Calculation

     iteration #  1     ecut=    45.00 Ry     beta= 0.20
     Davidson diagonalization with overlap
     c_bands:  5 eigenvalues not converged
     c_bands:  2 eigenvalues not converged
     c_bands:  4 eigenvalues not converged
