Ti N  S                                 
   1.00000000000000     
    12.6417492850382587    0.0000000000000000    0.0000000000000000
     0.0000000000000000   12.6417492850382587    0.0000000000000000
     0.0000000000000000    0.0000000000000000   26.3208805164067527
   Ti   N    S 
    72    72     8
Selective dynamics
Direct
  0.0000000000000000  0.0000000000000000  0.3799264995624512   F   F   F
  0.1666666679186264  0.0000000000000000  0.4599754260672739   F   F   F
  0.0000000000000000  0.1666666679186264  0.4599754260672739   F   F   F
  0.1666666679186264  0.1666666679186264  0.3799264995624512   F   F   F
  0.9997947863611785  0.0000950134930306  0.5420178475565223   T   T   T
  0.1663430493567901  0.0001533993993093  0.6187124517211799   T   T   T
  0.0001605225095389  0.1668264165059767  0.6189703607183006   T   T   T
  0.1667235775220703  0.1666933283439249  0.5422973257321360   T   T   T
  0.0000000000000000  0.3333333366282787  0.3799264995624512   F   F   F
  0.1666666679186264  0.3333333366282787  0.4599754260672739   F   F   F
  0.0000000000000000  0.5000000045469051  0.4599754260672739   F   F   F
  0.1666666679186264  0.5000000045469051  0.3799264995624512   F   F   F
  0.9997969997427134  0.3334794248545876  0.5425321072512261   T   T   T
  0.1680519911708487  0.3333306950245429  0.6190082470615437   T   T   T
  0.0000196859509387  0.5000023208991351  0.6192626088111552   T   T   T
  0.1669547741832389  0.5000462054981725  0.5425043063243393   T   T   T
  0.0000000000000000  0.6666666732565645  0.3799264995624512   F   F   F
  0.1666666679186264  0.6666666732565645  0.4599754260672739   F   F   F
  0.0000000000000000  0.8333333411751909  0.4599754260672739   F   F   F
  0.1666666679186264  0.8333333411751909  0.3799264995624512   F   F   F
  0.9997237718831471  0.6666139366073480  0.5423439261528884   T   T   T
  0.1671344260275234  0.6666896971486054  0.6188852368069959   T   T   T
  0.9999829014092256  0.8336833181787853  0.6186847722720614   T   T   T
  0.1663348834376706  0.8334028444526780  0.5419915954131724   T   T   T
  0.3333333366282787  0.0000000000000000  0.3799264995624512   F   F   F
  0.5000000045469051  0.0000000000000000  0.4599754260672739   F   F   F
  0.3333333366282787  0.1666666679186264  0.4599754260672739   F   F   F
  0.5000000045469051  0.1666666679186264  0.3799264995624512   F   F   F
  0.3332237621727785  0.0001015643021205  0.5421394887177939   T   T   T
  0.4999599004089958  0.0005163935020462  0.6190037513018893   T   T   T
  0.3336377344218420  0.1675373071511927  0.6190671537278831   T   T   T
  0.5003164429872058  0.1671794126866146  0.5428352412629565   T   T   T
  0.3333333366282787  0.3333333366282787  0.3799264995624512   F   F   F
  0.5000000045469051  0.3333333366282787  0.4599754260672739   F   F   F
  0.3333333366282787  0.5000000045469051  0.4599754260672739   F   F   F
  0.5000000045469051  0.5000000045469051  0.3799264995624512   F   F   F
  0.3338516990433078  0.3335390821906685  0.5431637527419468   T   T   T
  0.5002154175419591  0.3340937011666369  0.6203471995996779   T   T   T
  0.3348228095445975  0.5000059521834714  0.6198559126230379   T   T   T
  0.5009327670076047  0.5000748066237577  0.5440365767307540   T   T   T
  0.3333333366282787  0.6666666732565645  0.3799264995624512   F   F   F
  0.5000000045469051  0.6666666732565645  0.4599754260672739   F   F   F
  0.3333333366282787  0.8333333411751909  0.4599754260672739   F   F   F
  0.5000000045469051  0.8333333411751909  0.3799264995624512   F   F   F
  0.3335707855023600  0.6666234297159903  0.5426535799403780   T   T   T
  0.5000715416815567  0.6657639719275963  0.6197158359290356   T   T   T
  0.3330600027451567  0.8331759296175250  0.6187098683622736   T   T   T
  0.5000707124171484  0.8333186174399358  0.5424907147384914   T   T   T
  0.6666666732565645  0.0000000000000000  0.3799264995624512   F   F   F
  0.8333333411751909  0.0000000000000000  0.4599754260672739   F   F   F
  0.6666666732565645  0.1666666679186264  0.4599754260672739   F   F   F
  0.8333333411751909  0.1666666679186264  0.3799264995624512   F   F   F
  0.6666748114039294  0.0001251575571217  0.5424687014726146   T   T   T
  0.8333712011513725  0.0000596704027771  0.6188348025713921   T   T   T
  0.6663503957151562  0.1673991852823136  0.6195999972102086   T   T   T
  0.8332236358955853  0.1669849373006969  0.5425210705843568   T   T   T
  0.6666666732565645  0.3333333366282787  0.3799264995624512   F   F   F
  0.8333333411751909  0.3333333366282787  0.4599754260672739   F   F   F
  0.6666666732565645  0.5000000045469051  0.4599754260672739   F   F   F
  0.8333333411751909  0.5000000045469051  0.3799264995624512   F   F   F
  0.6668379309234922  0.3342868388989402  0.5437246822401178   T   T   T
  0.8326665829402771  0.3337383437431996  0.6198052868184831   T   T   T
  0.6650462969355999  0.4996384355797545  0.6233494200612597   T   T   T
  0.8325556563795473  0.5001726764298269  0.5432140992692069   T   T   T
  0.6666666732565645  0.6666666732565645  0.3799264995624512   F   F   F
  0.8333333411751909  0.6666666732565645  0.4599754260672739   F   F   F
  0.6666666732565645  0.8333333411751909  0.4599754260672739   F   F   F
  0.8333333411751909  0.8333333411751909  0.3799264995624512   F   F   F
  0.6666393269258677  0.6660427850402897  0.5433713941029339   T   T   T
  0.8331718213538366  0.6667527162182765  0.6195018966603953   T   T   T
  0.6664622290534794  0.8332064638518375  0.6192802303252591   T   T   T
  0.8330942214828880  0.8333110461360960  0.5422410960908692   T   T   T
  0.0000000000000000  0.1666666679186264  0.3799264995624512   F   F   F
  0.1666666679186264  0.0000000000000000  0.3799264995624512   F   F   F
  0.0000000000000000  0.0000000000000000  0.4599754260672739   F   F   F
  0.1666666679186264  0.1666666679186264  0.4599754260672739   F   F   F
  0.0000870138526707  0.1666033009890882  0.5422786800389332   T   T   T
  0.1663429068303444  0.9999155498344265  0.5420612672922545   T   T   T
  0.9999773078436576  0.0000082075193717  0.6252892473580474   T   T   T
  0.1663498251337856  0.1662378136642175  0.6251334446420742   T   T   T
  0.0000000000000000  0.5000000045469051  0.3799264995624512   F   F   F
  0.1666666679186264  0.3333333366282787  0.3799264995624512   F   F   F
  0.0000000000000000  0.3333333366282787  0.4599754260672739   F   F   F
  0.1666666679186264  0.5000000045469051  0.4599754260672739   F   F   F
  0.0000706492858100  0.5001350913366522  0.5425548597795142   T   T   T
  0.1662590358100431  0.3332974198502612  0.5420582930150530   T   T   T
  0.0004079962178167  0.3333015731042508  0.6253435764592936   T   T   T
  0.1664300895052051  0.5003176918240513  0.6252230480488166   T   T   T
  0.0000000000000000  0.8333333411751909  0.3799264995624512   F   F   F
  0.1666666679186264  0.6666666732565645  0.3799264995624512   F   F   F
  0.0000000000000000  0.6666666732565645  0.4599754260672739   F   F   F
  0.1666666679186264  0.8333333411751909  0.4599754260672739   F   F   F
  0.9997084240322138  0.8334383122603484  0.5421281026524127   T   T   T
  0.1662542898522616  0.6669345776223921  0.5422578507344724   T   T   T
  0.0002541651853392  0.6673399283690671  0.6254762865295618   T   T   T
  0.1662483755493795  0.8336758290951494  0.6251751072732006   T   T   T
  0.3333333366282787  0.1666666679186264  0.3799264995624512   F   F   F
  0.5000000045469051  0.0000000000000000  0.3799264995624512   F   F   F
  0.3333333366282787  0.0000000000000000  0.4599754260672739   F   F   F
  0.5000000045469051  0.1666666679186264  0.4599754260672739   F   F   F
  0.3332236428367494  0.1662948034382623  0.5421575482558652   T   T   T
  0.4999100260588847  0.9998936932133589  0.5423291035198758   T   T   T
  0.3328236398139950  0.9999990184894330  0.6251073623494818   T   T   T
  0.4996333062587723  0.1658591150990318  0.6247915055464759   T   T   T
  0.3333333366282787  0.5000000045469051  0.3799264995624512   F   F   F
  0.5000000045469051  0.3333333366282787  0.3799264995624512   F   F   F
  0.3333333366282787  0.3333333366282787  0.4599754260672739   F   F   F
  0.5000000045469051  0.5000000045469051  0.4599754260672739   F   F   F
  0.3330170236831904  0.5001846686005109  0.5420173780939095   T   T   T
  0.5003636925848127  0.3333546515882873  0.5421750940883570   T   T   T
  0.3329300984069121  0.3328522719100491  0.6237156032509148   T   T   T
  0.4992880587601007  0.5003794300118543  0.6245769225375852   T   T   T
  0.3333333366282787  0.8333333411751909  0.3799264995624512   F   F   F
  0.5000000045469051  0.6666666732565645  0.3799264995624512   F   F   F
  0.3333333366282787  0.6666666732565645  0.4599754260672739   F   F   F
  0.5000000045469051  0.8333333411751909  0.4599754260672739   F   F   F
  0.3330704101294018  0.8337062231997905  0.5420111612233853   T   T   T
  0.5001344608054268  0.6673446528042248  0.5423913734422925   T   T   T
  0.3323423829927776  0.6681671916831249  0.6239418526399305   T   T   T
  0.4996145464662689  0.8339926495648555  0.6251134066947230   T   T   T
  0.6666666732565645  0.1666666679186264  0.3799264995624512   F   F   F
  0.8333333411751909  0.0000000000000000  0.3799264995624512   F   F   F
  0.6666666732565645  0.0000000000000000  0.4599754260672739   F   F   F
  0.8333333411751909  0.1666666679186264  0.4599754260672739   F   F   F
  0.6670124803093671  0.1663437455253884  0.5422645036141276   T   T   T
  0.8333949875468676  0.0000902879440901  0.5422221980663906   T   T   T
  0.6668507195974200  0.9999251184163782  0.6254939146849665   T   T   T
  0.8341481869496619  0.1663381735436928  0.6254734280144021   T   T   T
  0.6666666732565645  0.5000000045469051  0.3799264995624512   F   F   F
  0.8333333411751909  0.3333333366282787  0.3799264995624512   F   F   F
  0.6666666732565645  0.3333333366282787  0.4599754260672739   F   F   F
  0.8333333411751909  0.5000000045469051  0.4599754260672739   F   F   F
  0.6672928488429051  0.5005135418732536  0.5421256221244661   T   T   T
  0.8338598252246570  0.3334807901089789  0.5427692086797862   T   T   T
  0.6679365963115558  0.3330313126366846  0.6249768796920279   T   T   T
  0.8350078256609663  0.5002658605775778  0.6255107224013869   T   T   T
  0.6666666732565645  0.8333333411751909  0.3799264995624512   F   F   F
  0.8333333411751909  0.6666666732565645  0.3799264995624512   F   F   F
  0.6666666732565645  0.6666666732565645  0.4599754260672739   F   F   F
  0.8333333411751909  0.8333333411751909  0.4599754260672739   F   F   F
  0.6667116027155586  0.8337170767479876  0.5425316047287936   T   T   T
  0.8335054915771707  0.6669474986040100  0.5426311296798829   T   T   T
  0.6672361776641296  0.6685831072869277  0.6254869937811876   T   T   T
  0.8336074396388398  0.8339144050475866  0.6253615881043046   T   T   T
  0.6946551820037925  0.3676349685371250  0.7595107193792714   T   T   T
  0.6550745609609550  0.5053771111025043  0.7190618836633220   T   T   T
  0.5366487989133617  0.6084864202592186  0.7584988230283116   T   T   T
  0.3784122978673707  0.6017934594449343  0.7359166463264586   T   T   T
  0.3025309968602272  0.4891006752941607  0.7773811124188654   T   T   T
  0.3337648782960159  0.3448027387572594  0.7416721224939522   T   T   T
  0.4557302611451988  0.2585933340824269  0.7773113353972860   T   T   T
  0.5978571963929511  0.2535370661728962  0.7333541683952234   T   T   T
 
  0.00000000E+00  0.00000000E+00  0.00000000E+00
  0.00000000E+00  0.00000000E+00  0.00000000E+00
  0.00000000E+00  0.00000000E+00  0.00000000E+00
  0.00000000E+00  0.00000000E+00  0.00000000E+00
  0.00000000E+00  0.00000000E+00  0.00000000E+00
  0.00000000E+00  0.00000000E+00  0.00000000E+00
  0.00000000E+00  0.00000000E+00  0.00000000E+00
  0.00000000E+00  0.00000000E+00  0.00000000E+00
  0.00000000E+00  0.00000000E+00  0.00000000E+00
  0.00000000E+00  0.00000000E+00  0.00000000E+00
  0.00000000E+00  0.00000000E+00  0.00000000E+00
  0.00000000E+00  0.00000000E+00  0.00000000E+00
  0.00000000E+00  0.00000000E+00  0.00000000E+00
  0.00000000E+00  0.00000000E+00  0.00000000E+00
  0.00000000E+00  0.00000000E+00  0.00000000E+00
  0.00000000E+00  0.00000000E+00  0.00000000E+00
  0.00000000E+00  0.00000000E+00  0.00000000E+00
  0.00000000E+00  0.00000000E+00  0.00000000E+00
  0.00000000E+00  0.00000000E+00  0.00000000E+00
  0.00000000E+00  0.00000000E+00  0.00000000E+00
  0.00000000E+00  0.00000000E+00  0.00000000E+00
  0.00000000E+00  0.00000000E+00  0.00000000E+00
  0.00000000E+00  0.00000000E+00  0.00000000E+00
  0.00000000E+00  0.00000000E+00  0.00000000E+00
  0.00000000E+00  0.00000000E+00  0.00000000E+00
  0.00000000E+00  0.00000000E+00  0.00000000E+00
  0.00000000E+00  0.00000000E+00  0.00000000E+00
  0.00000000E+00  0.00000000E+00  0.00000000E+00
  0.00000000E+00  0.00000000E+00  0.00000000E+00
  0.00000000E+00  0.00000000E+00  0.00000000E+00
  0.00000000E+00  0.00000000E+00  0.00000000E+00
  0.00000000E+00  0.00000000E+00  0.00000000E+00
  0.00000000E+00  0.00000000E+00  0.00000000E+00
  0.00000000E+00  0.00000000E+00  0.00000000E+00
  0.00000000E+00  0.00000000E+00  0.00000000E+00
  0.00000000E+00  0.00000000E+00  0.00000000E+00
  0.00000000E+00  0.00000000E+00  0.00000000E+00
  0.00000000E+00  0.00000000E+00  0.00000000E+00
  0.00000000E+00  0.00000000E+00  0.00000000E+00
  0.00000000E+00  0.00000000E+00  0.00000000E+00
  0.00000000E+00  0.00000000E+00  0.00000000E+00
  0.00000000E+00  0.00000000E+00  0.00000000E+00
  0.00000000E+00  0.00000000E+00  0.00000000E+00
  0.00000000E+00  0.00000000E+00  0.00000000E+00
  0.00000000E+00  0.00000000E+00  0.00000000E+00
  0.00000000E+00  0.00000000E+00  0.00000000E+00
  0.00000000E+00  0.00000000E+00  0.00000000E+00
  0.00000000E+00  0.00000000E+00  0.00000000E+00
  0.00000000E+00  0.00000000E+00  0.00000000E+00
  0.00000000E+00  0.00000000E+00  0.00000000E+00
  0.00000000E+00  0.00000000E+00  0.00000000E+00
  0.00000000E+00  0.00000000E+00  0.00000000E+00
  0.00000000E+00  0.00000000E+00  0.00000000E+00
  0.00000000E+00  0.00000000E+00  0.00000000E+00
  0.00000000E+00  0.00000000E+00  0.00000000E+00
  0.00000000E+00  0.00000000E+00  0.00000000E+00
  0.00000000E+00  0.00000000E+00  0.00000000E+00
  0.00000000E+00  0.00000000E+00  0.00000000E+00
  0.00000000E+00  0.00000000E+00  0.00000000E+00
  0.00000000E+00  0.00000000E+00  0.00000000E+00
  0.00000000E+00  0.00000000E+00  0.00000000E+00
  0.00000000E+00  0.00000000E+00  0.00000000E+00
  0.00000000E+00  0.00000000E+00  0.00000000E+00
  0.00000000E+00  0.00000000E+00  0.00000000E+00
  0.00000000E+00  0.00000000E+00  0.00000000E+00
  0.00000000E+00  0.00000000E+00  0.00000000E+00
  0.00000000E+00  0.00000000E+00  0.00000000E+00
  0.00000000E+00  0.00000000E+00  0.00000000E+00
  0.00000000E+00  0.00000000E+00  0.00000000E+00
  0.00000000E+00  0.00000000E+00  0.00000000E+00
  0.00000000E+00  0.00000000E+00  0.00000000E+00
  0.00000000E+00  0.00000000E+00  0.00000000E+00
  0.00000000E+00  0.00000000E+00  0.00000000E+00
  0.00000000E+00  0.00000000E+00  0.00000000E+00
  0.00000000E+00  0.00000000E+00  0.00000000E+00
  0.00000000E+00  0.00000000E+00  0.00000000E+00
  0.00000000E+00  0.00000000E+00  0.00000000E+00
  0.00000000E+00  0.00000000E+00  0.00000000E+00
  0.00000000E+00  0.00000000E+00  0.00000000E+00
  0.00000000E+00  0.00000000E+00  0.00000000E+00
  0.00000000E+00  0.00000000E+00  0.00000000E+00
  0.00000000E+00  0.00000000E+00  0.00000000E+00
  0.00000000E+00  0.00000000E+00  0.00000000E+00
  0.00000000E+00  0.00000000E+00  0.00000000E+00
  0.00000000E+00  0.00000000E+00  0.00000000E+00
  0.00000000E+00  0.00000000E+00  0.00000000E+00
  0.00000000E+00  0.00000000E+00  0.00000000E+00
  0.00000000E+00  0.00000000E+00  0.00000000E+00
  0.00000000E+00  0.00000000E+00  0.00000000E+00
  0.00000000E+00  0.00000000E+00  0.00000000E+00
  0.00000000E+00  0.00000000E+00  0.00000000E+00
  0.00000000E+00  0.00000000E+00  0.00000000E+00
  0.00000000E+00  0.00000000E+00  0.00000000E+00
  0.00000000E+00  0.00000000E+00  0.00000000E+00
  0.00000000E+00  0.00000000E+00  0.00000000E+00
  0.00000000E+00  0.00000000E+00  0.00000000E+00
  0.00000000E+00  0.00000000E+00  0.00000000E+00
  0.00000000E+00  0.00000000E+00  0.00000000E+00
  0.00000000E+00  0.00000000E+00  0.00000000E+00
  0.00000000E+00  0.00000000E+00  0.00000000E+00
  0.00000000E+00  0.00000000E+00  0.00000000E+00
  0.00000000E+00  0.00000000E+00  0.00000000E+00
  0.00000000E+00  0.00000000E+00  0.00000000E+00
  0.00000000E+00  0.00000000E+00  0.00000000E+00
  0.00000000E+00  0.00000000E+00  0.00000000E+00
  0.00000000E+00  0.00000000E+00  0.00000000E+00
  0.00000000E+00  0.00000000E+00  0.00000000E+00
  0.00000000E+00  0.00000000E+00  0.00000000E+00
  0.00000000E+00  0.00000000E+00  0.00000000E+00
  0.00000000E+00  0.00000000E+00  0.00000000E+00
  0.00000000E+00  0.00000000E+00  0.00000000E+00
  0.00000000E+00  0.00000000E+00  0.00000000E+00
  0.00000000E+00  0.00000000E+00  0.00000000E+00
  0.00000000E+00  0.00000000E+00  0.00000000E+00
  0.00000000E+00  0.00000000E+00  0.00000000E+00
  0.00000000E+00  0.00000000E+00  0.00000000E+00
  0.00000000E+00  0.00000000E+00  0.00000000E+00
  0.00000000E+00  0.00000000E+00  0.00000000E+00
  0.00000000E+00  0.00000000E+00  0.00000000E+00
  0.00000000E+00  0.00000000E+00  0.00000000E+00
  0.00000000E+00  0.00000000E+00  0.00000000E+00
  0.00000000E+00  0.00000000E+00  0.00000000E+00
  0.00000000E+00  0.00000000E+00  0.00000000E+00
  0.00000000E+00  0.00000000E+00  0.00000000E+00
  0.00000000E+00  0.00000000E+00  0.00000000E+00
  0.00000000E+00  0.00000000E+00  0.00000000E+00
  0.00000000E+00  0.00000000E+00  0.00000000E+00
  0.00000000E+00  0.00000000E+00  0.00000000E+00
  0.00000000E+00  0.00000000E+00  0.00000000E+00
  0.00000000E+00  0.00000000E+00  0.00000000E+00
  0.00000000E+00  0.00000000E+00  0.00000000E+00
  0.00000000E+00  0.00000000E+00  0.00000000E+00
  0.00000000E+00  0.00000000E+00  0.00000000E+00
  0.00000000E+00  0.00000000E+00  0.00000000E+00
  0.00000000E+00  0.00000000E+00  0.00000000E+00
  0.00000000E+00  0.00000000E+00  0.00000000E+00
  0.00000000E+00  0.00000000E+00  0.00000000E+00
  0.00000000E+00  0.00000000E+00  0.00000000E+00
  0.00000000E+00  0.00000000E+00  0.00000000E+00
  0.00000000E+00  0.00000000E+00  0.00000000E+00
  0.00000000E+00  0.00000000E+00  0.00000000E+00
  0.00000000E+00  0.00000000E+00  0.00000000E+00
  0.00000000E+00  0.00000000E+00  0.00000000E+00
  0.00000000E+00  0.00000000E+00  0.00000000E+00
  0.00000000E+00  0.00000000E+00  0.00000000E+00
  0.00000000E+00  0.00000000E+00  0.00000000E+00
  0.00000000E+00  0.00000000E+00  0.00000000E+00
  0.00000000E+00  0.00000000E+00  0.00000000E+00
  0.00000000E+00  0.00000000E+00  0.00000000E+00
  0.00000000E+00  0.00000000E+00  0.00000000E+00
  0.00000000E+00  0.00000000E+00  0.00000000E+00
  0.00000000E+00  0.00000000E+00  0.00000000E+00
