 vasp.6.4.2 20Jul23 (build Jul 14 2025 18:17:13) complex                        
  
 executed on             LinuxIFC date 2026.04.12  04:37:42
 running   32 mpi-ranks, on    1 nodes
 distrk:  each k-point on   32 cores,    1 groups
 distr:  one band on NCORE=   1 cores,   32 groups


--------------------------------------------------------------------------------------------------------


 INCAR:
   AMIX = 0.200000
   ENCUT = 600.000000
   SIGMA = 0.200000
   GGA = PE
   PREC = Normal
   IBRION = -1
   ISMEAR = 1
   NSW = 0
   IVDW = 12
   LCHARG = .FALSE.
   LWAVE = .FALSE.

 POTCAR:    PAW_PBE Ti 08Apr2002                  
 POTCAR:    PAW_PBE N 08Apr2002                   
 POTCAR:    PAW_PBE S 06Sep2000                   
 -----------------------------------------------------------------------------
|                                                                             |
|           W    W    AA    RRRRR   N    N  II  N    N   GGGG   !!!           |
|           W    W   A  A   R    R  NN   N  II  NN   N  G    G  !!!           |
|           W    W  A    A  R    R  N N  N  II  N N  N  G       !!!           |
|           W WW W  AAAAAA  RRRRR   N  N N  II  N  N N  G  GGG   !            |
|           WW  WW  A    A  R   R   N   NN  II  N   NN  G    G                |
|           W    W  A    A  R    R  N    N  II  N    N   GGGG   !!!           |
|                                                                             |
|     For optimal performance we recommend to set                             |
|       NCORE = 2 up to number-of-cores-per-socket                            |
|     NCORE specifies how many cores store one orbital (NPAR=cpu/NCORE).      |
|     This setting can greatly improve the performance of VASP for DFT.       |
|     The default, NCORE=1 might be grossly inefficient on modern             |
|     multi-core architectures or massively parallel machines. Do your        |
|     own testing! More info at https://www.vasp.at/wiki/index.php/NCORE      |
|     Unfortunately you need to use the default for GW and RPA                |
|     calculations (for HF NCORE is supported but not extensively tested      |
|     yet).                                                                   |
|                                                                             |
 -----------------------------------------------------------------------------

 POTCAR:    PAW_PBE Ti 08Apr2002                  
   SHA256 =  f8e8f1d080d9e9b45e792f1068744b07aba8441d1e7ce11486a5d4c0f5a1479e Ti/POTCAR             
   COPYR  = (c) Copyright 08Apr2002 Georg Kresse                                                    
   COPYR  = This file is part of the software VASP. Any use, copying, and all other rights are regul
   COPYR  = If you do not have a valid VASP license, you may not use, copy or distribute this file. 
   VRHFIN =Ti: d3 s1                                                                                
   LEXCH  = PE                                                                                      
   EATOM  =    94.7928 eV,    6.9671 Ry                                                             
                                                                                                    
   TITEL  = PAW_PBE Ti 08Apr2002                                                                    
   LULTRA =        F    use ultrasoft PP ?                                                          
   IUNSCR =        1    unscreen: 0-lin 1-nonlin 2-no                                               
   RPACOR =    2.200    partial core radius                                                         
   POMASS =   47.880; ZVAL   =    4.000    mass and valenz                                          
   RCORE  =    2.800    outmost cutoff radius                                                       
   RWIGS  =    2.500; RWIGS  =    1.323    wigner-seitz radius (au A)                               
   ENMAX  =  178.330; ENMIN  =  133.747 eV                                                          
   RCLOC  =    2.215    cutoff for local pot                                                        
   LCOR   =        T    correct aug charges                                                         
   LPAW   =        T    paw PP                                                                      
   EAUG   =  328.883                                                                                
   DEXC   =    0.000                                                                                
   RMAX   =    2.868    core radius for proj-oper                                                   
   RAUG   =    1.300    factor for augmentation sphere                                              
   RDEP   =    2.885    radius for radial grids                                                     
   RDEPT  =    2.320    core radius for aug-charge                                                  
                                                                                                    
   Atomic configuration                                                                             
    9 entries                                                                                       
     n  l   j            E        occ.                                                              
     1  0  0.50     -4865.3608   2.0000                                                             
     2  0  0.50      -533.1367   2.0000                                                             
     2  1  1.50      -440.5031   6.0000                                                             
     3  0  0.50       -59.3186   2.0000                                                             
     3  1  1.50       -35.7012   6.0000                                                             
     3  2  2.50        -1.9157   3.0000                                                             
     4  0  0.50        -3.7291   1.0000                                                             
     4  1  1.50        -4.0817   0.0000                                                             
     4  3  2.50        -1.3606   0.0000                                                             
   Description                                                                                      
     l       E           TYP  RCUT    TYP  RCUT                                                     
     2     -1.9156924     23  2.800                                                                 
     2     -0.4062961     23  2.800                                                                 
     0     -3.7290832     23  2.800                                                                 
     0     20.4087390     23  2.800                                                                 
     1     -5.4423304     23  2.800                                                                 
  local pseudopotential read in
  partial core-charges read in
  partial kinetic energy density read in
  atomic valenz-charges read in
  non local Contribution for L=           2  read in
    real space projection operators read in
  non local Contribution for L=           2  read in
    real space projection operators read in
  non local Contribution for L=           0  read in
    real space projection operators read in
  non local Contribution for L=           0  read in
    real space projection operators read in
  non local Contribution for L=           1  read in
    real space projection operators read in
    PAW grid and wavefunctions read in
 
   number of l-projection  operators is LMAX  =           5
   number of lm-projection operators is LMMAX =          15
 
 POTCAR:    PAW_PBE N 08Apr2002                   
   SHA256 =  e053789ff3a61a86a1b75d8a110fcc91f86041011e7b0817c7c99e4e8a6349d7 N/POTCAR              
   COPYR  = (c) Copyright 08Apr2002 Georg Kresse                                                    
   COPYR  = This file is part of the software VASP. Any use, copying, and all other rights are regul
   COPYR  = If you do not have a valid VASP license, you may not use, copy or distribute this file. 
   VRHFIN =N: s2p3                                                                                  
   LEXCH  = PE                                                                                      
   EATOM  =   264.5486 eV,   19.4438 Ry                                                             
                                                                                                    
   TITEL  = PAW_PBE N 08Apr2002                                                                     
   LULTRA =        F    use ultrasoft PP ?                                                          
   IUNSCR =        1    unscreen: 0-lin 1-nonlin 2-no                                               
   RPACOR =    1.200    partial core radius                                                         
   POMASS =   14.001; ZVAL   =    5.000    mass and valenz                                          
   RCORE  =    1.500    outmost cutoff radius                                                       
   RWIGS  =    1.400; RWIGS  =    0.741    wigner-seitz radius (au A)                               
   ENMAX  =  400.000; ENMIN  =  300.000 eV                                                          
   ICORE  =        2    local potential                                                             
   LCOR   =        T    correct aug charges                                                         
   LPAW   =        T    paw PP                                                                      
   EAUG   =  627.112                                                                                
   DEXC   =    0.000                                                                                
   RMAX   =    1.529    core radius for proj-oper                                                   
   RAUG   =    1.300    factor for augmentation sphere                                              
   RDEP   =    1.514    radius for radial grids                                                     
   RDEPT  =    1.338    core radius for aug-charge                                                  
                                                                                                    
   Atomic configuration                                                                             
    4 entries                                                                                       
     n  l   j            E        occ.                                                              
     1  0  0.50      -384.7179   2.0000                                                             
     2  0  0.50       -18.5828   2.0000                                                             
     2  1  0.50        -7.0898   3.0000                                                             
     3  2  1.50        -6.8029   0.0000                                                             
   Description                                                                                      
     l       E           TYP  RCUT    TYP  RCUT                                                     
     0    -18.5828119     23  1.200                                                                 
     0    -13.5018863     23  1.200                                                                 
     1     -7.0897853     23  1.500                                                                 
     1      9.5240782     23  1.500                                                                 
     2     -6.8029130      7  1.500                                                                 
  local pseudopotential read in
  partial core-charges read in
  partial kinetic energy density read in
  atomic valenz-charges read in
  non local Contribution for L=           0  read in
    real space projection operators read in
  non local Contribution for L=           0  read in
    real space projection operators read in
  non local Contribution for L=           1  read in
    real space projection operators read in
  non local Contribution for L=           1  read in
    real space projection operators read in
    PAW grid and wavefunctions read in
 
   number of l-projection  operators is LMAX  =           4
   number of lm-projection operators is LMMAX =           8
 
 POTCAR:    PAW_PBE S 06Sep2000                   
   SHA256 =  0fc7481fb0695f01bdc6462160264c5c84044ae9ec85a907d398b887a2bc3132 S/POTCAR              
   COPYR  = (c) Copyright 06Sep2000 Georg Kresse                                                    
   COPYR  = This file is part of the software VASP. Any use, copying, and all other rights are regul
   COPYR  = If you do not have a valid VASP license, you may not use, copy or distribute this file. 
   VRHFIN =S : s2p4                                                                                 
   LEXCH  = PE                                                                                      
   EATOM  =   276.8230 eV,   20.3459 Ry                                                             
                                                                                                    
   TITEL  = PAW_PBE S 06Sep2000                                                                     
   LULTRA =        F    use ultrasoft PP ?                                                          
   IUNSCR =        1    unscreen: 0-lin 1-nonlin 2-no                                               
   RPACOR =    1.500    partial core radius                                                         
   POMASS =   32.066; ZVAL   =    6.000    mass and valenz                                          
   RCORE  =    1.900    outmost cutoff radius                                                       
   RWIGS  =    2.200; RWIGS  =    1.164    wigner-seitz radius (au A)                               
   ENMAX  =  258.689; ENMIN  =  194.016 eV                                                          
   ICORE  =        2    local potential                                                             
   LCOR   =        T    correct aug charges                                                         
   LPAW   =        T    paw PP                                                                      
   EAUG   =  335.092                                                                                
   DEXC   =    0.000                                                                                
   RMAX   =    1.942    core radius for proj-oper                                                   
   RAUG   =    1.300    factor for augmentation sphere                                              
   RDEP   =    1.954    radius for radial grids                                                     
   RDEPT  =    1.744    core radius for aug-charge                                                  
                                                                                                    
   Atomic configuration                                                                             
    6 entries                                                                                       
     n  l   j            E        occ.                                                              
     1  0  0.50     -2405.8406   2.0000                                                             
     2  0  0.50      -211.7007   2.0000                                                             
     2  1  1.50      -156.4958   6.0000                                                             
     3  0  0.50       -17.2562   2.0000                                                             
     3  1  0.50        -7.0085   4.0000                                                             
     3  2  1.50        -6.8029   0.0000                                                             
   Description                                                                                      
     l       E           TYP  RCUT    TYP  RCUT                                                     
     0    -17.2561641     23  1.900                                                                 
     0    -15.8743224     23  1.900                                                                 
     1     -7.0085400     23  1.900                                                                 
     1     -2.7779785     23  1.900                                                                 
     2     -6.8029130     23  1.900                                                                 
  local pseudopotential read in
  partial core-charges read in
  partial kinetic energy density read in
  atomic valenz-charges read in
  non local Contribution for L=           0  read in
    real space projection operators read in
  non local Contribution for L=           0  read in
    real space projection operators read in
  non local Contribution for L=           1  read in
    real space projection operators read in
  non local Contribution for L=           1  read in
    real space projection operators read in
    PAW grid and wavefunctions read in
 
   number of l-projection  operators is LMAX  =           4
   number of lm-projection operators is LMMAX =           8
 
 -----------------------------------------------------------------------------
|                                                                             |
|               ----> ADVICE to this user running VASP <----                  |
|                                                                             |
|     You have a (more or less) 'large supercell' and for larger cells it     |
|     might be more efficient to use real-space projection operators.         |
|     Therefore, try LREAL= Auto in the INCAR file.                           |
|     Mind: For very accurate calculation, you might also keep the            |
|     reciprocal projection scheme (i.e. LREAL=.FALSE.).                      |
|                                                                             |
 -----------------------------------------------------------------------------

  PAW_PBE Ti 08Apr2002                  :
 energy of atom  1       EATOM=  -94.7928
 kinetic energy error for atom=    0.0001 (will be added to EATOM!!)
  PAW_PBE N 08Apr2002                   :
 energy of atom  2       EATOM= -264.5486
 kinetic energy error for atom=    0.0103 (will be added to EATOM!!)
  PAW_PBE S 06Sep2000                   :
 energy of atom  3       EATOM= -276.8230
 kinetic energy error for atom=    0.0009 (will be added to EATOM!!)
 
 
 POSCAR: Ti N  S
  positions in cartesian coordinates
  No initial velocities read in
 exchange correlation table for  LEXCH =        8
   RHO(1)=    0.500       N(1)  =     2000
   RHO(2)=  100.500       N(2)  =     4000
 


--------------------------------------------------------------------------------------------------------


 ion  position               nearest neighbor table
   1  0.000  0.000  0.380-  89 2.11 122 2.11  73 2.11  74 2.11  75 2.11  68 2.98  20 2.98  52 2.98
                            50 2.98  19 2.98   4 2.98   3 2.98   2 2.98
   2  0.167  0.000  0.460-  92 2.11  76 2.11  75 2.11  74 2.11  99 2.11  78 2.14  19 2.98  20 2.98
                            43 2.98   3 2.98   4 2.98   1 2.98  27 2.98  25 2.98  24 3.00  29 3.01
   3  0.000  0.167  0.460- 124 2.11  76 2.11  75 2.11  73 2.11  83 2.11  77 2.15  50 2.98  52 2.98
                            58 2.98   2 2.98   4 2.98   1 2.98  10 2.98   9 2.98   5 3.01   8 3.01
   4  0.167  0.167  0.380-  73 2.11  74 2.11  76 2.11  82 2.11  97 2.11   1 2.98   3 2.98   2 2.98
                            25 2.98   9 2.98  27 2.98  10 2.98  33 2.98
   5  1.000  0.000  0.541- 126 2.10  78 2.10  77 2.10  93 2.11  75 2.14  79 2.18  23 2.91   6 2.91
                            54 2.91   7 2.91  24 2.98  72 2.98  56 2.98   8 2.98  50 3.00   3 3.01
   6  0.166  0.000  0.618-  78 2.01  80 2.11  79 2.11  96 2.11 103 2.11   8 2.90  29 2.91   5 2.91
                            24 2.91  23 2.98   7 2.98  47 2.98  31 2.99
   7  0.000  0.167  0.618-  77 2.01 128 2.11  80 2.11  87 2.11  79 2.12  13 2.90  56 2.91   8 2.91
                             5 2.91   6 2.98  54 2.98  62 2.99  14 2.99
   8  0.167  0.167  0.542- 101 2.11  77 2.11  86 2.11  78 2.11  76 2.15  80 2.16   6 2.90   7 2.91
                            14 2.91  31 2.91  29 2.98   5 2.98  13 2.98  37 2.98  27 3.01   2 3.01
   9  0.000  0.333  0.380- 130 2.11  82 2.11  81 2.11  83 2.11  73 2.11  60 2.98  58 2.98  52 2.98
                            12 2.98  11 2.98  10 2.98   4 2.98   3 2.98
  10  0.167  0.333  0.460-  83 2.11  84 2.11  82 2.11  76 2.11 107 2.11  86 2.14  11 2.98   9 2.98
                            12 2.98   3 2.98  35 2.98  33 2.98   4 2.98  27 2.98   8 3.01  16 3.01
  11  0.000  0.500  0.460- 132 2.11  84 2.11  83 2.11  81 2.11  91 2.11  85 2.15  58 2.98  60 2.98
                            66 2.98  10 2.98  12 2.98   9 2.98  18 2.98  17 2.98  21 3.01  13 3.02
  12  0.167  0.500  0.380-  81 2.11  82 2.11  84 2.11 105 2.11  90 2.11   9 2.98  11 2.98  10 2.98
                            33 2.98  35 2.98  17 2.98  18 2.98  41 2.98
  13  1.000  0.333  0.542- 134 2.10  86 2.10  85 2.11  77 2.11  83 2.16  87 2.16   7 2.90  15 2.91
                            14 2.91  62 2.92  56 2.98   8 2.98  16 2.98  64 2.99  58 3.02  11 3.02
  14  0.168  0.333  0.618-  86 2.01 111 2.09  88 2.12  80 2.12  87 2.13  37 2.88  16 2.90   8 2.91
                            13 2.91  31 2.96  39 2.98   7 2.99  15 2.99
  15  1.000  0.500  0.618-  85 2.01 136 2.09  88 2.11  87 2.11  95 2.12  64 2.90  13 2.91  21 2.91
                            16 2.91  70 2.98  62 2.98  22 2.99  14 2.99
  16  0.167  0.500  0.542- 109 2.10  86 2.11  94 2.11  85 2.11  84 2.15  88 2.16  22 2.90  14 2.90
                            15 2.91  39 2.93  45 2.98  37 2.98  13 2.98  21 2.99  35 3.01  18 3.01
  17  0.000  0.667  0.380- 138 2.11  90 2.11  89 2.11  91 2.11  81 2.11  68 2.98  66 2.98  60 2.98
                            20 2.98  19 2.98  18 2.98  12 2.98  11 2.98
  18  0.167  0.667  0.460-  91 2.11  92 2.11  90 2.11 115 2.11  84 2.11  94 2.15  19 2.98  17 2.98
                            20 2.98  43 2.98  41 2.98  11 2.98  12 2.98  35 2.98  24 3.01  16 3.01
  19  0.000  0.833  0.460-  75 2.11 140 2.11  92 2.11  91 2.11  89 2.11  93 2.14  50 2.98   2 2.98
                            66 2.98   1 2.98  68 2.98  18 2.98  20 2.98  17 2.98  24 3.00   5 3.01
  20  0.167  0.833  0.380-  74 2.11  89 2.11  90 2.11  92 2.11 113 2.11   1 2.98   2 2.98  25 2.98
                            17 2.98  18 2.98  19 2.98  41 2.98  43 2.98
  21  1.000  0.667  0.542- 142 2.10  94 2.11  85 2.11  93 2.11  91 2.15  95 2.17  23 2.90  22 2.91
                            15 2.91  70 2.91  72 2.98  24 2.98  64 2.98  16 2.99  66 3.01  19 3.01
  22  0.167  0.667  0.618-  94 2.01 119 2.09  88 2.11  95 2.12  96 2.12  45 2.90  16 2.90  21 2.91
                            24 2.91  47 2.97  15 2.99  23 2.99  39 2.99
  23  1.000  0.834  0.618-  93 2.01 144 2.11  79 2.11  96 2.11  95 2.11  21 2.90  72 2.90   5 2.91
                            24 2.91   6 2.98  54 2.98  70 2.98  22 2.99
  24  0.166  0.833  0.541-  78 2.10  94 2.10  93 2.11 117 2.11  92 2.14  96 2.18  23 2.91   6 2.91
                            22 2.91  47 2.91   5 2.98  21 2.98  29 2.98  45 2.99  19 3.00   2 3.00
  25  0.333  0.000  0.380- 113 2.11  98 2.11  97 2.11  99 2.11  74 2.11  44 2.98  43 2.98  20 2.98
                            28 2.98  26 2.98  27 2.98   4 2.98   2 2.98
  26  0.500  0.000  0.460- 116 2.11 100 2.11  99 2.11  98 2.11 123 2.11 102 2.15  43 2.98  44 2.98
                            67 2.98  27 2.98  28 2.98  25 2.98  51 2.98  49 2.98  29 3.01  53 3.02
  27  0.333  0.167  0.460-  99 2.11 100 2.11  97 2.11  76 2.11 107 2.11 101 2.14  26 2.98  25 2.98
                            28 2.98   2 2.98  34 2.98  33 2.98   4 2.98  10 2.98  29 3.01   8 3.01
  28  0.500  0.167  0.380-  97 2.11  98 2.11 100 2.11 106 2.11 121 2.11  25 2.98  27 2.98  26 2.98
                            33 2.98  34 2.98  49 2.98  51 2.98  57 2.98
  29  0.333  0.000  0.542- 101 2.10 117 2.10  78 2.11 102 2.11  99 2.15 103 2.17   6 2.91  47 2.91
                            30 2.91  31 2.92   8 2.98  24 2.98  48 2.98  32 2.99   2 3.01  27 3.01
  30  0.500  0.000  0.618- 102 2.01 104 2.10 120 2.11 127 2.12 103 2.12  32 2.90  53 2.91  48 2.91
                            29 2.91  55 2.98  31 2.98  71 2.98  47 2.99
  31  0.334  0.168  0.618- 101 2.01 111 2.09 104 2.10  80 2.12 103 2.12  37 2.88  32 2.90   8 2.91
                            29 2.92  14 2.96  38 2.98  30 2.98   6 2.99
  32  0.500  0.167  0.542- 110 2.10 125 2.11 101 2.11 102 2.12 104 2.13 100 2.16  31 2.90  30 2.90
                            55 2.90  38 2.92  37 2.98  61 2.98  53 2.98  29 2.99  34 3.01  51 3.01
  33  0.333  0.333  0.380- 105 2.11 106 2.11 107 2.11  97 2.11  82 2.11  36 2.98  34 2.98  35 2.98
                            12 2.98  28 2.98  27 2.98  10 2.98   4 2.98
  34  0.500  0.333  0.460- 107 2.11 108 2.11 106 2.11 100 2.11 131 2.11 110 2.15  35 2.98  33 2.98
                            36 2.98  27 2.98  28 2.98  59 2.98  57 2.98  51 2.98  32 3.01  37 3.03
  35  0.333  0.500  0.460- 107 2.11 108 2.11 105 2.11  84 2.11 115 2.11 109 2.14  34 2.98  33 2.98
                            36 2.98  10 2.98  12 2.98  42 2.98  41 2.98  18 2.98  16 3.01  45 3.02
  36  0.500  0.500  0.380- 105 2.11 106 2.11 108 2.11 114 2.11 129 2.11  33 2.98  35 2.98  34 2.98
                            57 2.98  41 2.98  59 2.98  42 2.98  65 2.98
  37  0.334  0.334  0.543- 110 2.11 109 2.11 111 2.11 101 2.11  86 2.12 107 2.18  14 2.88  31 2.88
                            39 2.90  38 2.91  32 2.98  16 2.98  40 2.98   8 2.98  34 3.03  35 3.03
  38  0.500  0.334  0.619- 110 2.04 112 2.10 111 2.12 135 2.12 104 2.13  40 2.89  61 2.91  37 2.91
                            32 2.92  63 2.95  39 2.96  55 2.97  31 2.98
  39  0.335  0.500  0.619- 109 2.03 112 2.08 111 2.12 119 2.13  88 2.13  40 2.89  37 2.90  45 2.92
                            16 2.93  46 2.96  38 2.96  14 2.98  22 2.99
  40  0.501  0.500  0.543- 112 2.10 133 2.10 110 2.11 118 2.11 109 2.12 108 2.19  46 2.88  39 2.89
                            38 2.89  63 2.93  61 2.97  69 2.97  37 2.98  45 2.99  59 3.03  42 3.04
  41  0.333  0.667  0.380- 113 2.11 114 2.11 115 2.11  90 2.11 105 2.11  44 2.98  42 2.98  43 2.98
                            20 2.98  18 2.98  36 2.98  35 2.98  12 2.98
  42  0.500  0.667  0.460- 115 2.11 116 2.11 114 2.11 108 2.11 139 2.11 118 2.15  43 2.98  41 2.98
                            44 2.98  35 2.98  67 2.98  65 2.98  36 2.98  59 2.98  48 3.01  45 3.02
  43  0.333  0.833  0.460-  99 2.11 115 2.11 116 2.11 113 2.11  92 2.11 117 2.14  26 2.98  25 2.98
                             2 2.98  42 2.98  41 2.98  44 2.98  18 2.98  20 2.98  24 3.01  29 3.01
  44  0.500  0.833  0.380-  98 2.11 113 2.11 114 2.11 116 2.11 137 2.11  25 2.98  26 2.98  49 2.98
                            41 2.98  42 2.98  43 2.98  65 2.98  67 2.98
  45  0.334  0.667  0.542- 109 2.10 118 2.11 117 2.11  94 2.11 119 2.12 115 2.16  47 2.89  22 2.90
                            46 2.91  39 2.92  16 2.98  48 2.98  40 2.99  24 2.99  42 3.02  35 3.02
  46  0.500  0.666  0.619- 118 2.02 112 2.10 143 2.12 119 2.12 120 2.13  40 2.88  69 2.90  45 2.91
                            48 2.92  39 2.96  63 2.96  71 2.98  47 2.99
  47  0.333  0.833  0.618- 117 2.01 119 2.09 120 2.11  96 2.12 103 2.12  45 2.89  48 2.90  29 2.91
                            24 2.91  22 2.97   6 2.98  30 2.99  46 2.99
  48  0.500  0.833  0.542- 118 2.10 141 2.11 102 2.11 117 2.11 120 2.16 116 2.16  47 2.90  71 2.91
                            30 2.91  46 2.92  45 2.98  53 2.98  29 2.98  69 2.98  67 3.01  42 3.01
  49  0.667  0.000  0.380- 137 2.11 122 2.11 121 2.11 123 2.11  98 2.11  68 2.98  67 2.98  44 2.98
                            52 2.98  50 2.98  51 2.98  28 2.98  26 2.98
  50  0.833  0.000  0.460-  75 2.11 140 2.11 124 2.11 123 2.11 122 2.11 126 2.14  19 2.98   3 2.98
                            67 2.98   1 2.98  68 2.98  51 2.98  49 2.98  52 2.98   5 3.00  72 3.01
  51  0.667  0.167  0.460- 123 2.11 124 2.11 121 2.11 131 2.11 100 2.11 125 2.15  50 2.98  49 2.98
                            52 2.98  58 2.98  57 2.98  26 2.98  28 2.98  34 2.98  53 3.01  56 3.01
  52  0.833  0.167  0.380-  73 2.11 121 2.11 122 2.11 124 2.11 130 2.11   1 2.98   3 2.98   9 2.98
                            49 2.98  51 2.98  50 2.98  57 2.98  58 2.98
  53  0.667  0.000  0.542- 125 2.10 141 2.10 126 2.11 102 2.11 123 2.16 127 2.17  54 2.90  30 2.91
                            71 2.91  55 2.92  72 2.98  56 2.98  48 2.98  32 2.98  50 3.01  51 3.01
  54  0.833  0.000  0.618- 126 2.01 144 2.11 128 2.11 127 2.11  79 2.11  53 2.90  56 2.90  72 2.91
                             5 2.91  23 2.98   7 2.98  71 2.98  55 2.99
  55  0.666  0.167  0.618- 125 2.02 135 2.10 104 2.11 127 2.12 128 2.13  61 2.90  32 2.90  56 2.92
                            53 2.92  38 2.97  62 2.97  30 2.98  54 2.99
  56  0.833  0.167  0.542- 125 2.10 134 2.11 126 2.11  77 2.11 124 2.16 128 2.17  54 2.90   7 2.91
                            55 2.92  62 2.92  13 2.98  53 2.98   5 2.98  61 2.98  58 3.01  51 3.01
  57  0.667  0.333  0.380- 129 2.11 130 2.11 131 2.11 121 2.11 106 2.11  60 2.98  58 2.98  59 2.98
                            52 2.98  51 2.98  36 2.98  34 2.98  28 2.98
  58  0.833  0.333  0.460-  83 2.11 131 2.11 132 2.11 130 2.11 124 2.11 134 2.16  11 2.98   9 2.98
                             3 2.98  59 2.98  57 2.98  60 2.98  51 2.98  52 2.98  56 3.01  13 3.02
  59  0.667  0.500  0.460- 131 2.11 132 2.11 129 2.11 108 2.11 139 2.11 133 2.13  58 2.98  57 2.98
                            60 2.98  34 2.98  66 2.98  65 2.98  36 2.98  42 2.98  64 3.02  69 3.02
  60  0.833  0.500  0.380-  81 2.11 129 2.11 130 2.11 132 2.11 138 2.11   9 2.98  11 2.98  17 2.98
                            57 2.98  59 2.98  58 2.98  65 2.98  66 2.98
  61  0.667  0.334  0.543- 133 2.10 110 2.11 134 2.11 135 2.11 125 2.12 131 2.18  62 2.89  55 2.90
                            38 2.91  63 2.94  64 2.96  40 2.97  32 2.98  56 2.98  59 3.03  58 3.03
  62  0.833  0.334  0.619- 134 2.01 135 2.09 136 2.11 128 2.12  87 2.12  61 2.89  64 2.91  56 2.92
                            13 2.92  55 2.97  63 2.98  15 2.98   7 2.99
  63  0.665  0.499  0.622- 112 2.10 135 2.10 133 2.12 143 2.14 136 2.15 146 2.58  40 2.93  61 2.94
                            38 2.95  46 2.96  69 2.96  64 2.97  62 2.98  70 3.00
  64  0.832  0.500  0.542- 133 2.09 134 2.11 142 2.11  85 2.12 136 2.14 132 2.17  70 2.90  15 2.90
                            62 2.91  69 2.96  61 2.96  63 2.97  21 2.98  13 2.99  59 3.02  66 3.02
  65  0.667  0.667  0.380- 137 2.11 138 2.11 139 2.11 129 2.11 114 2.11  68 2.98  66 2.98  67 2.98
                            44 2.98  60 2.98  59 2.98  42 2.98  36 2.98
  66  0.833  0.667  0.460-  91 2.11 139 2.11 140 2.11 138 2.11 132 2.11 142 2.15  19 2.98  17 2.98
                            11 2.98  67 2.98  65 2.98  68 2.98  59 2.98  60 2.98  21 3.01  72 3.01
  67  0.667  0.833  0.460- 123 2.11 139 2.11 140 2.11 137 2.11 116 2.11 141 2.15  50 2.98  49 2.98
                            26 2.98  66 2.98  65 2.98  68 2.98  42 2.98  44 2.98  72 3.01  48 3.01
  68  0.833  0.833  0.380-  89 2.11 122 2.11 137 2.11 138 2.11 140 2.11   1 2.98  49 2.98  17 2.98
                            50 2.98  19 2.98  65 2.98  67 2.98  66 2.98
  69  0.667  0.666  0.543- 133 2.09 118 2.11 142 2.11 141 2.12 143 2.14 139 2.17  70 2.89  71 2.90
                            46 2.90  63 2.96  64 2.96  40 2.97  72 2.98  48 2.98  59 3.02  66 3.03
  70  0.833  0.667  0.618- 142 2.01 143 2.10 136 2.11  95 2.12 144 2.12  69 2.89  64 2.90  21 2.91
                            72 2.91  71 2.98  15 2.98  23 2.98  63 3.00
  71  0.666  0.833  0.618- 141 2.01 143 2.09 120 2.11 127 2.11 144 2.12  69 2.90  48 2.91  53 2.91
                            72 2.91  70 2.98  46 2.98  30 2.98  54 2.98
  72  0.833  0.833  0.542- 141 2.10 142 2.10  93 2.11 126 2.11 140 2.15 144 2.17  23 2.90  54 2.91
                            71 2.91  70 2.91  53 2.98  21 2.98   5 2.98  69 2.98  67 3.01  50 3.01
  73  0.000  0.167  0.380-  52 2.11   4 2.11   1 2.11   3 2.11   9 2.11
  74  0.167  0.000  0.380-  20 2.11   4 2.11   1 2.11   2 2.11  25 2.11
  75  0.000  0.000  0.460-  19 2.11  50 2.11   2 2.11   3 2.11   1 2.11   5 2.14
  76  0.167  0.167  0.460-   2 2.11   3 2.11   4 2.11  10 2.11  27 2.11   8 2.15
  77  0.000  0.167  0.541-   7 2.01   5 2.10   8 2.11  13 2.11  56 2.11   3 2.15
  78  0.166  1.000  0.541-   6 2.01  24 2.10   5 2.10   8 2.11  29 2.11   2 2.14
  79  1.000  0.000  0.624-  23 2.11   6 2.11  54 2.11   7 2.12   5 2.18
  80  0.166  0.166  0.624-   6 2.11   7 2.11  14 2.12  31 2.12   8 2.16
  81  0.000  0.500  0.380-  60 2.11  12 2.11   9 2.11  11 2.11  17 2.11
  82  0.167  0.333  0.380-   9 2.11  12 2.11  10 2.11   4 2.11  33 2.11
  83  0.000  0.333  0.460-  58 2.11  11 2.11  10 2.11   9 2.11   3 2.11  13 2.16
  84  0.167  0.500  0.460-  10 2.11  11 2.11  12 2.11  35 2.11  18 2.11  16 2.15
  85  0.000  0.500  0.542-  15 2.01  21 2.11  13 2.11  16 2.11  64 2.12  11 2.15
  86  0.166  0.333  0.541-  14 2.01  13 2.10   8 2.11  16 2.11  37 2.12  10 2.14
  87  0.000  0.333  0.624-   7 2.11  15 2.11  62 2.12  14 2.13  13 2.16
  88  0.166  0.500  0.624-  22 2.11  15 2.11  14 2.12  39 2.13  16 2.16
  89  0.000  0.833  0.380-   1 2.11  68 2.11  20 2.11  17 2.11  19 2.11
  90  0.167  0.667  0.380-  17 2.11  20 2.11  18 2.11  41 2.11  12 2.11
  91  0.000  0.667  0.460-  66 2.11  19 2.11  18 2.11  17 2.11  11 2.11  21 2.15
  92  0.167  0.833  0.460-   2 2.11  18 2.11  19 2.11  20 2.11  43 2.11  24 2.14
  93  1.000  0.834  0.541-  23 2.01  72 2.11   5 2.11  24 2.11  21 2.11  19 2.14
  94  0.166  0.667  0.541-  22 2.01  24 2.10  21 2.11  16 2.11  45 2.11  18 2.15
  95  0.000  0.667  0.624-  23 2.11  22 2.12  70 2.12  15 2.12  21 2.17
  96  0.166  0.834  0.624-  23 2.11   6 2.11  47 2.12  22 2.12  24 2.18
  97  0.333  0.167  0.380-  25 2.11  28 2.11  27 2.11   4 2.11  33 2.11
  98  0.500  0.000  0.380-  44 2.11  28 2.11  25 2.11  26 2.11  49 2.11
  99  0.333  0.000  0.460-  43 2.11  27 2.11  26 2.11  25 2.11   2 2.11  29 2.15
 100  0.500  0.167  0.460-  26 2.11  27 2.11  28 2.11  34 2.11  51 2.11  32 2.16
 101  0.333  0.166  0.541-  31 2.01  29 2.10   8 2.11  32 2.11  37 2.11  27 2.14
 102  0.500  1.000  0.542-  30 2.01  48 2.11  29 2.11  53 2.11  32 2.12  26 2.15
 103  0.333  0.000  0.624-   6 2.11  47 2.12  30 2.12  31 2.12  29 2.17
 104  0.500  0.166  0.623-  30 2.10  31 2.10  55 2.11  38 2.13  32 2.13
 105  0.333  0.500  0.380-  33 2.11  36 2.11  35 2.11  12 2.11  41 2.11
 106  0.500  0.333  0.380-  33 2.11  36 2.11  34 2.11  28 2.11  57 2.11
 107  0.333  0.333  0.460-  34 2.11  35 2.11  33 2.11  27 2.11  10 2.11  37 2.18
 108  0.500  0.500  0.460-  34 2.11  35 2.11  36 2.11  42 2.11  59 2.11  40 2.19
 109  0.333  0.500  0.541-  39 2.03  16 2.10  45 2.10  37 2.11  40 2.12  35 2.14
 110  0.500  0.333  0.542-  38 2.04  32 2.10  61 2.11  37 2.11  40 2.11  34 2.15
 111  0.333  0.333  0.623-  14 2.09  31 2.09  37 2.11  38 2.12  39 2.12
 112  0.499  0.500  0.623-  39 2.08  46 2.10  63 2.10  40 2.10  38 2.10
 113  0.333  0.833  0.380-  25 2.11  41 2.11  44 2.11  43 2.11  20 2.11
 114  0.500  0.667  0.380-  41 2.11  44 2.11  42 2.11  36 2.11  65 2.11
 115  0.333  0.667  0.460-  42 2.11  43 2.11  41 2.11  18 2.11  35 2.11  45 2.16
 116  0.500  0.833  0.460-  26 2.11  42 2.11  43 2.11  44 2.11  67 2.11  48 2.16
 117  0.333  0.834  0.541-  47 2.01  29 2.10  24 2.11  45 2.11  48 2.11  43 2.14
 118  0.500  0.667  0.542-  46 2.02  48 2.10  69 2.11  45 2.11  40 2.11  42 2.15
 119  0.332  0.668  0.623-  47 2.09  22 2.09  45 2.12  46 2.12  39 2.13
 120  0.500  0.834  0.624-  47 2.11  30 2.11  71 2.11  46 2.13  48 2.16
 121  0.667  0.167  0.380-  49 2.11  52 2.11  51 2.11  57 2.11  28 2.11
 122  0.833  0.000  0.380-   1 2.11  68 2.11  52 2.11  49 2.11  50 2.11
 123  0.667  0.000  0.460-  67 2.11  51 2.11  50 2.11  49 2.11  26 2.11  53 2.16
 124  0.833  0.167  0.460-   3 2.11  50 2.11  51 2.11  52 2.11  58 2.11  56 2.16
 125  0.667  0.166  0.542-  55 2.02  53 2.10  56 2.10  32 2.11  61 2.12  51 2.15
 126  0.833  0.000  0.541-  54 2.01   5 2.10  53 2.11  72 2.11  56 2.11  50 2.14
 127  0.667  0.000  0.624-  54 2.11  71 2.11  30 2.12  55 2.12  53 2.17
 128  0.834  0.166  0.624-   7 2.11  54 2.11  62 2.12  55 2.13  56 2.17
 129  0.667  0.500  0.380-  57 2.11  60 2.11  59 2.11  36 2.11  65 2.11
 130  0.833  0.333  0.380-   9 2.11  57 2.11  60 2.11  58 2.11  52 2.11
 131  0.667  0.333  0.460-  58 2.11  59 2.11  57 2.11  51 2.11  34 2.11  61 2.18
 132  0.833  0.500  0.460-  11 2.11  58 2.11  59 2.11  60 2.11  66 2.11  64 2.17
 133  0.667  0.500  0.541-  64 2.09  69 2.09  61 2.10  40 2.10  63 2.12  59 2.13
 134  0.834  0.333  0.542-  62 2.01  13 2.10  56 2.11  64 2.11  61 2.11  58 2.16
 135  0.668  0.333  0.623-  62 2.09  55 2.10  63 2.10  61 2.11  38 2.12
 136  0.835  0.500  0.624-  15 2.09  62 2.11  70 2.11  64 2.14  63 2.15
 137  0.667  0.833  0.380-  49 2.11  65 2.11  68 2.11  67 2.11  44 2.11
 138  0.833  0.667  0.380-  17 2.11  65 2.11  68 2.11  66 2.11  60 2.11
 139  0.667  0.667  0.460-  66 2.11  67 2.11  65 2.11  59 2.11  42 2.11  69 2.17
 140  0.833  0.833  0.460-  19 2.11  50 2.11  66 2.11  67 2.11  68 2.11  72 2.15
 141  0.667  0.834  0.542-  71 2.01  53 2.10  72 2.10  48 2.11  69 2.12  67 2.15
 142  0.834  0.667  0.542-  70 2.01  21 2.10  72 2.10  64 2.11  69 2.11  66 2.15
 143  0.667  0.668  0.624-  71 2.09  70 2.10  46 2.12  69 2.14  63 2.14
 144  0.834  0.834  0.624-  54 2.11  23 2.11  71 2.12  70 2.12  72 2.17
 145  0.694  0.369  0.759- 152 2.01 146 2.09
 146  0.655  0.506  0.719- 145 2.09 147 2.25  63 2.58
 147  0.536  0.608  0.759- 148 2.06 146 2.25
 148  0.380  0.601  0.736- 149 2.03 147 2.06
 149  0.304  0.489  0.778- 148 2.03 150 2.09
 150  0.334  0.344  0.742- 149 2.09 151 2.09
 151  0.455  0.260  0.778- 150 2.09 152 2.14
 152  0.598  0.253  0.734- 145 2.01 151 2.14
 
  LATTYP: Found a simple tetragonal cell.
 ALAT       =    12.6417492850
 C/A-ratio  =     2.0820600000
  
  Lattice vectors:
  
 A1 = (  12.6417492850,   0.0000000000,   0.0000000000)
 A2 = (   0.0000000000,  12.6417492850,   0.0000000000)
 A3 = (   0.0000000000,   0.0000000000,  26.3208805164)


Analysis of symmetry for initial positions (statically):
=====================================================================
 Subroutine PRICEL returns:
 Original cell was already a primitive cell.
 

 Routine SETGRP: Setting up the symmetry group for a 
 simple tetragonal supercell.


 Subroutine GETGRP returns: Found  1 space group operations
 (whereof  1 operations were pure point group operations)
 out of a pool of 16 trial point group operations.


The static configuration has the point symmetry C_1 .


Analysis of symmetry for dynamics (positions and initial velocities):
=====================================================================
 Subroutine PRICEL returns:
 Original cell was already a primitive cell.
 

 Routine SETGRP: Setting up the symmetry group for a 
 simple tetragonal supercell.


 Subroutine GETGRP returns: Found  1 space group operations
 (whereof  1 operations were pure point group operations)
 out of a pool of 16 trial point group operations.


The dynamic configuration has the point symmetry C_1 .


Analysis of constrained symmetry for selective dynamics:
=====================================================================
 Subroutine PRICEL returns:
 Original cell was already a primitive cell.
 

 Routine SETGRP: Setting up the symmetry group for a 
 simple tetragonal supercell.


 Subroutine GETGRP returns: Found  1 space group operations
 (whereof  1 operations were pure point group operations)
 out of a pool of 16 trial point group operations.


The constrained configuration has the point symmetry C_1 .


 Subroutine INISYM returns: Found  1 space group operations
 (whereof  1 operations are pure point group operations),
 and found     1 'primitive' translations


----------------------------------------------------------------------------------------

                                     Primitive cell                                     

  volume of cell :    4206.4406

  direct lattice vectors                    reciprocal lattice vectors
    12.641749285  0.000000000  0.000000000     0.079102977  0.000000000  0.000000000
     0.000000000 12.641749285  0.000000000     0.000000000  0.079102977  0.000000000
     0.000000000  0.000000000 26.320880516     0.000000000  0.000000000  0.037992650

  length of vectors
    12.641749285 12.641749285 26.320880516     0.079102977  0.079102977  0.037992650

  position of ions in fractional coordinates (direct lattice)
     0.000000000  0.000000000  0.379926500
     0.166666668  0.000000000  0.459975426
     0.000000000  0.166666668  0.459975426
     0.166666668  0.166666668  0.379926500
     0.999796751  0.000065883  0.541432977
     0.166421435  0.000112124  0.617592892
     0.000082557  0.166932932  0.617819289
     0.166712433  0.166666468  0.541645171
     0.000000000  0.333333337  0.379926500
     0.166666668  0.333333337  0.459975426
     0.000000000  0.500000005  0.459975426
     0.166666668  0.500000005  0.379926500
     0.999847049  0.333387642  0.541984927
     0.167948762  0.333427171  0.617778008
     0.999883925  0.499977940  0.618013517
     0.167033657  0.500079007  0.541796488
     0.000000000  0.666666673  0.379926500
     0.166666668  0.666666673  0.459975426
     0.000000000  0.833333341  0.459975426
     0.166666668  0.833333341  0.379926500
     0.999752262  0.666796138  0.541792853
     0.167110936  0.666684642  0.617700532
     0.999947952  0.833664039  0.617580011
     0.166299715  0.833450937  0.541387452
     0.333333337  0.000000000  0.379926500
     0.500000005  0.000000000  0.459975426
     0.333333337  0.166666668  0.459975426
     0.500000005  0.166666668  0.379926500
     0.333100232  0.000059676  0.541570529
     0.500033623  0.000476333  0.617771118
     0.333690294  0.167580015  0.617861307
     0.500297282  0.167266551  0.542034245
     0.333333337  0.333333337  0.379926500
     0.500000005  0.333333337  0.459975426
     0.333333337  0.500000005  0.459975426
     0.500000005  0.500000005  0.379926500
     0.333709305  0.333582248  0.542649958
     0.500171829  0.333983142  0.618846578
     0.334754611  0.500140430  0.618678079
     0.500869821  0.500071021  0.543227170
     0.333333337  0.666666673  0.379926500
     0.500000005  0.666666673  0.459975426
     0.333333337  0.833333341  0.459975426
     0.500000005  0.833333341  0.379926500
     0.333508459  0.666661142  0.542061625
     0.500253041  0.665722296  0.618520752
     0.333276735  0.833093023  0.617599883
     0.500103721  0.833234053  0.541895968
     0.666666673  0.000000000  0.379926500
     0.833333341  0.000000000  0.459975426
     0.666666673  0.166666668  0.459975426
     0.833333341  0.166666668  0.379926500
     0.666855971  0.000131247  0.541851620
     0.833358461  0.000102222  0.617704108
     0.666234125  0.167411617  0.618354944
     0.833281877  0.166868477  0.541879334
     0.666666673  0.333333337  0.379926500
     0.833333341  0.333333337  0.459975426
     0.666666673  0.500000005  0.459975426
     0.833333341  0.500000005  0.379926500
     0.666836729  0.334195342  0.542858374
     0.832663945  0.333655101  0.618534171
     0.664906280  0.499237848  0.621602517
     0.832480231  0.500190183  0.542461809
     0.666666673  0.666666673  0.379926500
     0.833333341  0.666666673  0.459975426
     0.666666673  0.833333341  0.459975426
     0.833333341  0.833333341  0.379926500
     0.666739518  0.666042415  0.542600399
     0.833134691  0.666685019  0.618158436
     0.666499099  0.833194951  0.618061472
     0.833191463  0.833394547  0.541668375
     0.000000000  0.166666668  0.379926500
     0.166666668  0.000000000  0.379926500
     0.000000000  0.000000000  0.459975426
     0.166666668  0.166666668  0.459975426
     0.000114950  0.166558585  0.541493039
     0.166281300  0.999924996  0.541281474
     0.999988934  0.000049611  0.624171685
     0.166379765  0.166307644  0.623887692
     0.000000000  0.500000005  0.379926500
     0.166666668  0.333333337  0.379926500
     0.000000000  0.333333337  0.459975426
     0.166666668  0.500000005  0.459975426
     0.000112740  0.500180930  0.541794657
     0.166246005  0.333320966  0.541330102
     0.000351821  0.333395489  0.624122189
     0.166432691  0.500320301  0.623683093
     0.000000000  0.833333341  0.379926500
     0.166666668  0.666666673  0.379926500
     0.000000000  0.666666673  0.459975426
     0.166666668  0.833333341  0.459975426
     0.999737159  0.833510545  0.541304771
     0.166282925  0.666955357  0.541484279
     0.000214753  0.667244830  0.624299318
     0.166358380  0.833654160  0.624031167
     0.333333337  0.166666668  0.379926500
     0.500000005  0.000000000  0.379926500
     0.333333337  0.000000000  0.459975426
     0.500000005  0.166666668  0.459975426
     0.333233847  0.166338332  0.541445326
     0.499952515  0.999954705  0.541588935
     0.333007745  0.000067264  0.623866768
     0.499538874  0.165989835  0.623086368
     0.333333337  0.500000005  0.379926500
     0.500000005  0.333333337  0.379926500
     0.333333337  0.333333337  0.459975426
     0.500000005  0.500000005  0.459975426
     0.333041131  0.500204455  0.541430835
     0.500312422  0.333474150  0.541521093
     0.333005699  0.332966533  0.622712108
     0.499177657  0.500256295  0.622985559
     0.333333337  0.833333341  0.379926500
     0.500000005  0.666666673  0.379926500
     0.333333337  0.666666673  0.459975426
     0.500000005  0.833333341  0.459975426
     0.333073669  0.833660056  0.541324076
     0.500183187  0.667201541  0.541689684
     0.332441519  0.668119740  0.622591772
     0.499762018  0.833823947  0.623805592
     0.666666673  0.166666668  0.379926500
     0.833333341  0.000000000  0.379926500
     0.666666673  0.000000000  0.459975426
     0.833333341  0.166666668  0.459975426
     0.666986429  0.166304862  0.541534654
     0.833467079  0.000100861  0.541412476
     0.666799934  0.000003230  0.624230852
     0.834047097  0.166412175  0.624167519
     0.666666673  0.500000005  0.379926500
     0.833333341  0.333333337  0.379926500
     0.666666673  0.333333337  0.459975426
     0.833333341  0.500000005  0.459975426
     0.667197602  0.500453273  0.541078101
     0.833779654  0.333435580  0.541985829
     0.667795288  0.333068132  0.623135175
     0.834964866  0.500180816  0.623921901
     0.666666673  0.833333341  0.379926500
     0.833333341  0.666666673  0.379926500
     0.666666673  0.666666673  0.459975426
     0.833333341  0.833333341  0.459975426
     0.666765672  0.833718298  0.541748952
     0.833531761  0.666953761  0.541739503
     0.667266913  0.668437217  0.623819569
     0.833602038  0.833827192  0.624228633
     0.693503434  0.368547304  0.759483054
     0.654629585  0.505768429  0.719321690
     0.535504494  0.607769174  0.759397897
     0.379636477  0.601099028  0.736149794
     0.304413206  0.488612494  0.777974173
     0.333808575  0.344475334  0.742033930
     0.455136106  0.259825329  0.777858107
     0.597877477  0.253268303  0.734054934

  ion indices of the primitive-cell ions
   primitive index   ion index
                 1           1
                 2           2
                 3           3
                 4           4
                 5           5
                 6           6
                 7           7
                 8           8
                 9           9
                10          10
                11          11
                12          12
                13          13
                14          14
                15          15
                16          16
                17          17
                18          18
                19          19
                20          20
                21          21
                22          22
                23          23
                24          24
                25          25
                26          26
                27          27
                28          28
                29          29
                30          30
                31          31
                32          32
                33          33
                34          34
                35          35
                36          36
                37          37
                38          38
                39          39
                40          40
                41          41
                42          42
                43          43
                44          44
                45          45
                46          46
                47          47
                48          48
                49          49
                50          50
                51          51
                52          52
                53          53
                54          54
                55          55
                56          56
                57          57
                58          58
                59          59
                60          60
                61          61
                62          62
                63          63
                64          64
                65          65
                66          66
                67          67
                68          68
                69          69
                70          70
                71          71
                72          72
                73          73
                74          74
                75          75
                76          76
                77          77
                78          78
                79          79
                80          80
                81          81
                82          82
                83          83
                84          84
                85          85
                86          86
                87          87
                88          88
                89          89
                90          90
                91          91
                92          92
                93          93
                94          94
                95          95
                96          96
                97          97
                98          98
                99          99
               100         100
               101         101
               102         102
               103         103
               104         104
               105         105
               106         106
               107         107
               108         108
               109         109
               110         110
               111         111
               112         112
               113         113
               114         114
               115         115
               116         116
               117         117
               118         118
               119         119
               120         120
               121         121
               122         122
               123         123
               124         124
               125         125
               126         126
               127         127
               128         128
               129         129
               130         130
               131         131
               132         132
               133         133
               134         134
               135         135
               136         136
               137         137
               138         138
               139         139
               140         140
               141         141
               142         142
               143         143
               144         144
               145         145
               146         146
               147         147
               148         148
               149         149
               150         150
               151         151
               152         152

----------------------------------------------------------------------------------------

 
 
 KPOINTS: KPOINTS created by Atomic Simulation Env

Automatic generation of k-mesh.
 Grid dimensions read from file:
 generate k-points for:    4    4    1

 Generating k-lattice:

  Cartesian coordinates                     Fractional coordinates (reciprocal lattice)
     0.019775744  0.000000000  0.000000000     0.250000000  0.000000000  0.000000000
     0.000000000  0.019775744  0.000000000     0.000000000  0.250000000  0.000000000
     0.000000000  0.000000000  0.037992650     0.000000000  0.000000000  1.000000000

  Length of vectors
     0.019775744  0.019775744  0.037992650

  Shift w.r.t. Gamma in fractional coordinates (k-lattice)
     0.500000000  0.500000000  0.000000000

 
 Subroutine IBZKPT returns following result:
 ===========================================
 
 Found      8 irreducible k-points:
 
 Following reciprocal coordinates:
            Coordinates               Weight
  0.125000  0.125000  0.000000      2.000000
 -0.125000  0.125000  0.000000      2.000000
  0.375000  0.125000  0.000000      2.000000
 -0.125000  0.375000  0.000000      2.000000
 -0.375000  0.125000  0.000000      2.000000
  0.125000  0.375000  0.000000      2.000000
  0.375000  0.375000  0.000000      2.000000
 -0.375000  0.375000  0.000000      2.000000
 
 Following cartesian coordinates:
            Coordinates               Weight
  0.009888  0.009888  0.000000      2.000000
 -0.009888  0.009888  0.000000      2.000000
  0.029664  0.009888  0.000000      2.000000
 -0.009888  0.029664  0.000000      2.000000
 -0.029664  0.009888  0.000000      2.000000
  0.009888  0.029664  0.000000      2.000000
  0.029664  0.029664  0.000000      2.000000
 -0.029664  0.029664  0.000000      2.000000
 


--------------------------------------------------------------------------------------------------------




 Dimension of arrays:
   k-points           NKPTS =      8   k-points in BZ     NKDIM =      8   number of bands    NBANDS=    448
   number of dos      NEDOS =    301   number of ions     NIONS =    152
   non local maximal  LDIM  =      5   non local SUM 2l+1 LMDIM =     15
   total plane-waves  NPLWV = ******
   max r-space proj   IRMAX =      1   max aug-charges    IRDMAX=  17010
   dimension x,y,z NGX =    80 NGY =   80 NGZ =  160
   dimension x,y,z NGXF=   160 NGYF=  160 NGZF=  320
   support grid    NGXF=   160 NGYF=  160 NGZF=  320
   ions per type =              72  72   8
   NGX,Y,Z   is equivalent  to a cutoff of  10.52, 10.52, 10.11 a.u.
   NGXF,Y,Z  is equivalent  to a cutoff of  21.04, 21.04, 20.21 a.u.

 SYSTEM =  unknown system                          
 POSCAR =  Ti N  S                                 

 Startparameter for this run:
   NWRITE =      2    write-flag & timer
   PREC   = normal    normal or accurate (medium, high low for compatibility)
   ISTART =      0    job   : 0-new  1-cont  2-samecut
   ICHARG =      2    charge: 1-file 2-atom 10-const
   ISPIN  =      1    spin polarized calculation?
   LNONCOLLINEAR =      F non collinear calculations
   LSORBIT =      F    spin-orbit coupling
   INIWAV =      1    electr: 0-lowe 1-rand  2-diag
   LASPH  =      F    aspherical Exc in radial PAW
 Electronic Relaxation 1
   ENCUT  =  600.0 eV  44.10 Ry    6.64 a.u.  25.25 25.25 52.57*2*pi/ulx,y,z
   ENINI  =  600.0     initial cutoff
   ENAUG  =  627.1 eV  augmentation charge cutoff
   NELM   =     60;   NELMIN=  2; NELMDL=  0     # of ELM steps 
   EDIFF  = 0.1E-03   stopping-criterion for ELM
   LREAL  =      F    real-space projection
   NLSPLINE    = F    spline interpolate recip. space projectors
   LCOMPAT=      F    compatible to vasp.4.4
   GGA_COMPAT  = T    GGA compatible to vasp.4.4-vasp.4.6
   LMAXPAW     = -100 max onsite density
   LMAXMIX     =    2 max onsite mixed and CHGCAR
   VOSKOWN=      0    Vosko Wilk Nusair interpolation
   ROPT   =    0.00000   0.00000   0.00000
 Ionic relaxation
   EDIFFG = 0.1E-02   stopping-criterion for IOM
   NSW    =      0    number of steps for IOM
   NBLOCK =      1;   KBLOCK =      1    inner block; outer block 
   IBRION =     -1    ionic relax: 0-MD 1-quasi-New 2-CG
   NFREE  =      0    steps in history (QN), initial steepest desc. (CG)
   ISIF   =      2    stress and relaxation
   IWAVPR =     10    prediction:  0-non 1-charg 2-wave 3-comb
   ISYM   =      2    0-nonsym 1-usesym 2-fastsym
   LCORR  =      T    Harris-Foulkes like correction to forces

   POTIM  = 0.5000    time-step for ionic-motion
   TEIN   =    0.0    initial temperature
   TEBEG  =    0.0;   TEEND  =   0.0 temperature during run
   SMASS  =  -3.00    Nose mass-parameter (am)
   estimated Nose-frequenzy (Omega)   =  0.10E-29 period in steps = 0.13E+47 mass=  -0.365E-26a.u.
   SCALEE = 1.0000    scale energy and forces
   NPACO  =    256;   APACO  = 10.0  distance and # of slots for P.C.
   PSTRESS=    0.0 pullay stress

  Mass of Ions in am
   POMASS =  47.88 14.00 32.07
  Ionic Valenz
   ZVAL   =   4.00  5.00  6.00
  Atomic Wigner-Seitz radii
   RWIGS  =  -1.00 -1.00 -1.00
  virtual crystal weights 
   VCA    =   1.00  1.00  1.00
   NELECT =     696.0000    total number of electrons
   NUPDOWN=      -1.0000    fix difference up-down

 DOS related values:
   EMIN   =  10.00;   EMAX   =-10.00  energy-range for DOS
   EFERMI =   0.00;   METHOD = LEGACY      
   ISMEAR =     1;   SIGMA  =   0.20  broadening in eV -4-tet -1-fermi 0-gaus

 Electronic relaxation 2 (details)
   IALGO  =     38    algorithm
   LDIAG  =      T    sub-space diagonalisation (order eigenvalues)
   LSUBROT=      F    optimize rotation matrix (better conditioning)
   TURBO    =      0    0=normal 1=particle mesh
   IRESTART =      0    0=no restart 2=restart with 2 vectors
   NREBOOT  =      0    no. of reboots
   NMIN     =      0    reboot dimension
   EREF     =   0.00    reference energy to select bands
   IMIX   =      4    mixing-type and parameters
     AMIX     =   0.20;   BMIX     =  1.00
     AMIX_MAG =   0.80;   BMIX_MAG =  1.00
     AMIN     =   0.10
     WC   =   100.;   INIMIX=   1;  MIXPRE=   1;  MAXMIX= -45

 Intra band minimization:
   WEIMIN = 0.0000     energy-eigenvalue tresh-hold
   EBREAK =  0.56E-07  absolut break condition
   DEPER  =   0.30     relativ break condition  

   TIME   =   0.40     timestep for ELM

  volume/ion in A,a.u.               =      27.67       186.75
  Fermi-wavevector in a.u.,A,eV,Ry     =   0.898752  1.698394 10.990165  0.807754
  Thomas-Fermi vector in A             =   2.021500
 
 Write flags
   LWAVE        =      F    write WAVECAR
   LDOWNSAMPLE  =      F    k-point downsampling of WAVECAR
   LCHARG       =      F    write CHGCAR
   LVTOT        =      F    write LOCPOT, total local potential
   LVHAR        =      F    write LOCPOT, Hartree potential only
   LELF         =      F    write electronic localiz. function (ELF)
   LORBIT       =      0    0 simple, 1 ext, 2 COOP (PROOUT), +10 PAW based schemes


 Dipole corrections
   LMONO  =      F    monopole corrections only (constant potential shift)
   LDIPOL =      F    correct potential (dipole corrections)
   IDIPOL =      0    1-x, 2-y, 3-z, 4-all directions 
   EPSILON=  1.0000000 bulk dielectric constant

 Exchange correlation treatment:
   GGA     =    PE    GGA type
   LEXCH   =     8    internal setting for exchange type
   LIBXC   =     F    Libxc                    
   VOSKOWN =     0    Vosko Wilk Nusair interpolation
   LHFCALC =     F    Hartree Fock is set to
   LHFONE  =     F    Hartree Fock one center treatment
   AEXX    =    0.0000 exact exchange contribution

 Linear response parameters
   LEPSILON=     F    determine dielectric tensor
   LRPA    =     F    only Hartree local field effects (RPA)
   LNABLA  =     F    use nabla operator in PAW spheres
   LVEL    =     F    velocity operator in full k-point grid
   CSHIFT  =0.1000    complex shift for real part using Kramers Kronig
   OMEGAMAX=  -1.0    maximum frequency
   DEG_THRESHOLD= 0.2000000E-02 threshold for treating states as degnerate
   RTIME   =   -0.100 relaxation time in fs
  (WPLASMAI=    0.000 imaginary part of plasma frequency in eV, 0.658/RTIME)
   DFIELD  = 0.0000000 0.0000000 0.0000000 field for delta impulse in time
 
  Optional k-point grid parameters
   LKPOINTS_OPT  =     F    use optional k-point grid
   KPOINTS_OPT_MODE=     1    mode for optional k-point grid
 
 Orbital magnetization related:
   ORBITALMAG=     F  switch on orbital magnetization
   LCHIMAG   =     F  perturbation theory with respect to B field
   DQ        =  0.001000  dq finite difference perturbation B field
   LLRAUG    =     F  two centre corrections for induced B field
   LBONE     =     F  B-component reconstruction in AE one-centre
   LVGVCALC  =     T  calculate vGv susceptibility
   LVGVAPPL  =     F  apply vGv susceptibility instead of pGv for G=0

 Random number generation:
   RANDOM_GENERATOR = DEFAULT
   PCG_SEED         = not used


--------------------------------------------------------------------------------------------------------


 Static calculation
 charge density and potential will be updated during run
 non-spin polarized calculation
 Variant of blocked Davidson
 Davidson routine will perform the subspace rotation
 perform sub-space diagonalisation
    after iterative eigenvector-optimisation
 modified Broyden-mixing scheme, WC =      100.0
 initial mixing is a Kerker type mixing with AMIX =  0.2000 and BMIX =      1.0000
 Hartree-type preconditioning will be used
 using additional bands          100
 reciprocal scheme for non local part
 use partial core corrections
 calculate Harris-corrections to forces 
   (improved forces if not selfconsistent)
 use gradient corrections 
 use of overlap-Matrix (Vanderbilt PP)
 Methfessel and Paxton  Order N= 1 SIGMA  =   0.20


--------------------------------------------------------------------------------------------------------


  energy-cutoff  :      600.00
  volume of cell :     4206.44
      direct lattice vectors                 reciprocal lattice vectors
    12.641749285  0.000000000  0.000000000     0.079102977  0.000000000  0.000000000
     0.000000000 12.641749285  0.000000000     0.000000000  0.079102977  0.000000000
     0.000000000  0.000000000 26.320880516     0.000000000  0.000000000  0.037992650

  length of vectors
    12.641749285 12.641749285 26.320880516     0.079102977  0.079102977  0.037992650


 
 k-points in units of 2pi/SCALE and weight: KPOINTS created by Atomic Simulation Env
   0.00988787  0.00988787  0.00000000       0.125
  -0.00988787  0.00988787  0.00000000       0.125
   0.02966362  0.00988787  0.00000000       0.125
  -0.00988787  0.02966362  0.00000000       0.125
  -0.02966362  0.00988787  0.00000000       0.125
   0.00988787  0.02966362  0.00000000       0.125
   0.02966362  0.02966362  0.00000000       0.125
  -0.02966362  0.02966362  0.00000000       0.125
 
 k-points in reciprocal lattice and weights: KPOINTS created by Atomic Simulation Env
   0.12500000  0.12500000  0.00000000       0.125
  -0.12500000  0.12500000  0.00000000       0.125
   0.37500000  0.12500000  0.00000000       0.125
  -0.12500000  0.37500000  0.00000000       0.125
  -0.37500000  0.12500000  0.00000000       0.125
   0.12500000  0.37500000  0.00000000       0.125
   0.37500000  0.37500000  0.00000000       0.125
  -0.37500000  0.37500000  0.00000000       0.125
 
 position of ions in fractional coordinates (direct lattice) 
   0.00000000  0.00000000  0.37992650
   0.16666667  0.00000000  0.45997543
   0.00000000  0.16666667  0.45997543
   0.16666667  0.16666667  0.37992650
   0.99979675  0.00006588  0.54143298
   0.16642143  0.00011212  0.61759289
   0.00008256  0.16693293  0.61781929
   0.16671243  0.16666647  0.54164517
   0.00000000  0.33333334  0.37992650
   0.16666667  0.33333334  0.45997543
   0.00000000  0.50000000  0.45997543
   0.16666667  0.50000000  0.37992650
   0.99984705  0.33338764  0.54198493
   0.16794876  0.33342717  0.61777801
   0.99988392  0.49997794  0.61801352
   0.16703366  0.50007901  0.54179649
   0.00000000  0.66666667  0.37992650
   0.16666667  0.66666667  0.45997543
   0.00000000  0.83333334  0.45997543
   0.16666667  0.83333334  0.37992650
   0.99975226  0.66679614  0.54179285
   0.16711094  0.66668464  0.61770053
   0.99994795  0.83366404  0.61758001
   0.16629971  0.83345094  0.54138745
   0.33333334  0.00000000  0.37992650
   0.50000000  0.00000000  0.45997543
   0.33333334  0.16666667  0.45997543
   0.50000000  0.16666667  0.37992650
   0.33310023  0.00005968  0.54157053
   0.50003362  0.00047633  0.61777112
   0.33369029  0.16758002  0.61786131
   0.50029728  0.16726655  0.54203425
   0.33333334  0.33333334  0.37992650
   0.50000000  0.33333334  0.45997543
   0.33333334  0.50000000  0.45997543
   0.50000000  0.50000000  0.37992650
   0.33370931  0.33358225  0.54264996
   0.50017183  0.33398314  0.61884658
   0.33475461  0.50014043  0.61867808
   0.50086982  0.50007102  0.54322717
   0.33333334  0.66666667  0.37992650
   0.50000000  0.66666667  0.45997543
   0.33333334  0.83333334  0.45997543
   0.50000000  0.83333334  0.37992650
   0.33350846  0.66666114  0.54206162
   0.50025304  0.66572230  0.61852075
   0.33327673  0.83309302  0.61759988
   0.50010372  0.83323405  0.54189597
   0.66666667  0.00000000  0.37992650
   0.83333334  0.00000000  0.45997543
   0.66666667  0.16666667  0.45997543
   0.83333334  0.16666667  0.37992650
   0.66685597  0.00013125  0.54185162
   0.83335846  0.00010222  0.61770411
   0.66623412  0.16741162  0.61835494
   0.83328188  0.16686848  0.54187933
   0.66666667  0.33333334  0.37992650
   0.83333334  0.33333334  0.45997543
   0.66666667  0.50000000  0.45997543
   0.83333334  0.50000000  0.37992650
   0.66683673  0.33419534  0.54285837
   0.83266395  0.33365510  0.61853417
   0.66490628  0.49923785  0.62160252
   0.83248023  0.50019018  0.54246181
   0.66666667  0.66666667  0.37992650
   0.83333334  0.66666667  0.45997543
   0.66666667  0.83333334  0.45997543
   0.83333334  0.83333334  0.37992650
   0.66673952  0.66604241  0.54260040
   0.83313469  0.66668502  0.61815844
   0.66649910  0.83319495  0.61806147
   0.83319146  0.83339455  0.54166838
   0.00000000  0.16666667  0.37992650
   0.16666667  0.00000000  0.37992650
   0.00000000  0.00000000  0.45997543
   0.16666667  0.16666667  0.45997543
   0.00011495  0.16655859  0.54149304
   0.16628130  0.99992500  0.54128147
   0.99998893  0.00004961  0.62417168
   0.16637977  0.16630764  0.62388769
   0.00000000  0.50000000  0.37992650
   0.16666667  0.33333334  0.37992650
   0.00000000  0.33333334  0.45997543
   0.16666667  0.50000000  0.45997543
   0.00011274  0.50018093  0.54179466
   0.16624601  0.33332097  0.54133010
   0.00035182  0.33339549  0.62412219
   0.16643269  0.50032030  0.62368309
   0.00000000  0.83333334  0.37992650
   0.16666667  0.66666667  0.37992650
   0.00000000  0.66666667  0.45997543
   0.16666667  0.83333334  0.45997543
   0.99973716  0.83351054  0.54130477
   0.16628293  0.66695536  0.54148428
   0.00021475  0.66724483  0.62429932
   0.16635838  0.83365416  0.62403117
   0.33333334  0.16666667  0.37992650
   0.50000000  0.00000000  0.37992650
   0.33333334  0.00000000  0.45997543
   0.50000000  0.16666667  0.45997543
   0.33323385  0.16633833  0.54144533
   0.49995251  0.99995471  0.54158893
   0.33300774  0.00006726  0.62386677
   0.49953887  0.16598983  0.62308637
   0.33333334  0.50000000  0.37992650
   0.50000000  0.33333334  0.37992650
   0.33333334  0.33333334  0.45997543
   0.50000000  0.50000000  0.45997543
   0.33304113  0.50020446  0.54143084
   0.50031242  0.33347415  0.54152109
   0.33300570  0.33296653  0.62271211
   0.49917766  0.50025630  0.62298556
   0.33333334  0.83333334  0.37992650
   0.50000000  0.66666667  0.37992650
   0.33333334  0.66666667  0.45997543
   0.50000000  0.83333334  0.45997543
   0.33307367  0.83366006  0.54132408
   0.50018319  0.66720154  0.54168968
   0.33244152  0.66811974  0.62259177
   0.49976202  0.83382395  0.62380559
   0.66666667  0.16666667  0.37992650
   0.83333334  0.00000000  0.37992650
   0.66666667  0.00000000  0.45997543
   0.83333334  0.16666667  0.45997543
   0.66698643  0.16630486  0.54153465
   0.83346708  0.00010086  0.54141248
   0.66679993  0.00000323  0.62423085
   0.83404710  0.16641218  0.62416752
   0.66666667  0.50000000  0.37992650
   0.83333334  0.33333334  0.37992650
   0.66666667  0.33333334  0.45997543
   0.83333334  0.50000000  0.45997543
   0.66719760  0.50045327  0.54107810
   0.83377965  0.33343558  0.54198583
   0.66779529  0.33306813  0.62313517
   0.83496487  0.50018082  0.62392190
   0.66666667  0.83333334  0.37992650
   0.83333334  0.66666667  0.37992650
   0.66666667  0.66666667  0.45997543
   0.83333334  0.83333334  0.45997543
   0.66676567  0.83371830  0.54174895
   0.83353176  0.66695376  0.54173950
   0.66726691  0.66843722  0.62381957
   0.83360204  0.83382719  0.62422863
   0.69350343  0.36854730  0.75948305
   0.65462958  0.50576843  0.71932169
   0.53550449  0.60776917  0.75939790
   0.37963648  0.60109903  0.73614979
   0.30441321  0.48861249  0.77797417
   0.33380857  0.34447533  0.74203393
   0.45513611  0.25982533  0.77785811
   0.59787748  0.25326830  0.73405493
 
 position of ions in cartesian coordinates  (Angst):
   0.00000000  0.00000000 10.00000000
   2.10695823  0.00000000 12.10695823
   0.00000000  2.10695823 12.10695823
   2.10695823  2.10695823 10.00000000
  12.63917986  0.00083287 14.25099270
   2.10385805  0.00141744 16.25558871
   0.00104366  2.11032427 16.26154769
   2.10753678  2.10695570 14.25657783
   0.00000000  4.21391647 10.00000000
   2.10695823  4.21391647 12.10695823
   0.00000000  6.32087470 12.10695823
   2.10695823  6.32087470 10.00000000
  12.63981571  4.21460298 14.26552052
   2.12316615  4.21510270 16.26046113
  12.64028189  6.32059576 16.26665995
   2.11159761  6.32187343 14.26056063
   0.00000000  8.42783294 10.00000000
   2.10695823  8.42783294 12.10695823
   0.00000000 10.53479117 12.10695823
   2.10695823 10.53479117 10.00000000
  12.63861745  8.42946961 14.26046496
   2.11257456  8.42806010 16.25842190
  12.64109130 10.53897177 16.25524967
   2.10231930 10.53627778 14.24979443
   4.21391647  0.00000000 10.00000000
   6.32087470  0.00000000 12.10695823
   4.21391647  2.10695823 12.10695823
   6.32087470  2.10695823 10.00000000
   4.21096962  0.00075441 14.25461319
   6.32129970  0.00602169 16.26027978
   4.21842904  2.11850454 16.26265363
   6.32463281  2.11454180 14.26681861
   4.21391647  4.21391647 10.00000000
   6.32087470  4.21391647 12.10695823
   4.21391647  6.32087470 12.10695823
   6.32087470  6.32087470 10.00000000
   4.21866937  4.21706314 14.28302471
   6.32304687  4.22213114 16.28858683
   4.23188387  6.32264992 16.28415180
   6.33187071  6.32177247 14.29821744
   4.21391647  8.42783294 10.00000000
   6.32087470  8.42783294 12.10695823
   4.21391647 10.53479117 12.10695823
   6.32087470 10.53479117 10.00000000
   4.21613032  8.42776301 14.26753926
   6.32407352  8.41589436 16.28001082
   4.21320092 10.53175313 16.25577272
   6.32218586 10.53353600 14.26317902
   8.42783294  0.00000000 10.00000000
  10.53479117  0.00000000 12.10695823
   8.42783294  2.10695823 12.10695823
  10.53479117  2.10695823 10.00000000
   8.43022600  0.00165919 14.26201174
  10.53510873  0.00129227 16.25851601
   8.42236477  2.11637569 16.27564661
  10.53414058  2.10950946 14.26274121
   8.42783294  4.21391647 10.00000000
  10.53479117  4.21391647 12.10695823
   8.42783294  6.32087470 12.10695823
  10.53479117  6.32087470 10.00000000
   8.42998274  4.22481373 14.28851039
  10.52632883  4.21798413 16.28036401
   8.40557850  6.31123971 16.36112557
  10.52400637  6.32327889 14.27807245
   8.42783294  8.42783294 10.00000000
  10.53479117  8.42783294 12.10695823
   8.42783294 10.53479117 12.10695823
  10.53479117 10.53479117 10.00000000
   8.42875383  8.41994122 14.28172028
  10.53227988  8.42806486 16.27047433
   8.42571450 10.53304167 16.26792216
  10.53299758 10.53556492 14.25718858
   0.00000000  2.10695823 10.00000000
   2.10695823  0.00000000 10.00000000
   0.00000000  0.00000000 12.10695823
   2.10695823  2.10695823 12.10695823
   0.00145317  2.10559187 14.25257358
   2.10208651 12.64080110 14.24700501
  12.64160940  0.00062717 16.42874834
   2.10333128  2.10241955 16.42127340
   0.00000000  6.32087470 10.00000000
   2.10695823  4.21391647 10.00000000
   0.00000000  4.21391647 12.10695823
   2.10695823  6.32087470 12.10695823
   0.00142523  6.32316191 14.26051244
   2.10164032  4.21376009 14.24828492
   0.00444764  4.21470219 16.42744556
   2.10400036  6.32492381 16.41588817
   0.00000000 10.53479117 10.00000000
   2.10695823  8.42783294 10.00000000
   0.00000000  8.42783294 12.10695823
   2.10695823 10.53479117 12.10695823
  12.63842651 10.53703133 14.24761819
   2.10210705  8.43148241 14.25234302
   0.00271485  8.43514185 16.43210776
   2.10306093 10.53884688 16.42504979
   4.21391647  2.10695823 10.00000000
   6.32087470  0.00000000 10.00000000
   4.21391647  0.00000000 12.10695823
   6.32087470  2.10695823 12.10695823
   4.21265875  2.10280749 14.25131774
   6.32027435 12.64117668 14.25509764
   4.20980042  0.00085034 16.42072265
   6.31504521  2.09840187 16.40018185
   4.21391647  6.32087470 10.00000000
   6.32087470  4.21391647 10.00000000
   4.21391647  4.21391647 12.10695823
   6.32087470  6.32087470 12.10695823
   4.21022249  6.32345931 14.25093632
   6.32482420  4.21569659 14.25331198
   4.20977455  4.20927943 16.39033100
   6.31047879  6.32411466 16.39752846
   4.21391647 10.53479117 10.00000000
   6.32087470  8.42783294 10.00000000
   4.21391647  8.42783294 12.10695823
   6.32087470 10.53479117 12.10695823
   4.21063381 10.53892142 14.24812633
   6.32319045  8.43459460 14.25774944
   4.20264233  8.44620225 16.38716364
   6.31786614 10.54099328 16.41911245
   8.42783294  2.10695823 10.00000000
  10.53479117  0.00000000 10.00000000
   8.42783294  0.00000000 12.10695823
  10.53479117  2.10695823 12.10695823
   8.43187521  2.10238437 14.25366893
  10.53648185  0.00127506 14.25045310
   8.42951758  0.00004084 16.43030567
  10.54381430  2.10374099 16.42863869
   8.42783294  6.32087470 10.00000000
  10.53479117  4.21391647 10.00000000
   8.42783294  4.21391647 12.10695823
  10.53479117  6.32087470 12.10695823
   8.43454481  6.32660481 14.24165204
  10.54043335  4.21520901 14.26554425
   8.44210061  4.21056382 16.40146648
  10.55541649  6.32316047 16.42217380
   8.42783294 10.53479117 10.00000000
  10.53479117  8.42783294 10.00000000
   8.42783294  8.42783294 12.10695823
  10.53479117 10.53479117 12.10695823
   8.42908446 10.53965770 14.25930944
  10.53729955  8.43146223 14.25906074
   8.43542102  8.45021571 16.41948033
  10.53818797 10.54103431 16.43024728
   8.76709654  4.65908261 19.99026271
   8.27566309  6.39379767 18.93318024
   6.76971355  7.68326552 19.98802131
   4.79926916  7.59894320 19.37611077
   3.84831543  6.17691665 20.47696524
   4.21992431  4.35477080 19.53098642
   5.75371655  3.28464667 20.47391028
   7.55821717  3.20175439 19.32097221
 


--------------------------------------------------------------------------------------------------------


 k-point   1 :   0.1250 0.1250 0.0000  plane waves:  140443
 k-point   2 :  -0.1250 0.1250 0.0000  plane waves:  140443
 k-point   3 :   0.3750 0.1250 0.0000  plane waves:  140385
 k-point   4 :  -0.1250 0.3750 0.0000  plane waves:  140385
 k-point   5 :  -0.3750 0.1250 0.0000  plane waves:  140385
 k-point   6 :   0.1250 0.3750 0.0000  plane waves:  140385
 k-point   7 :   0.3750 0.3750 0.0000  plane waves:  140402
 k-point   8 :  -0.3750 0.3750 0.0000  plane waves:  140402

 maximum and minimum number of plane-waves per node :    140443   140385

 maximum number of plane-waves:    140443
 maximum index in each direction: 
   IXMAX=   25   IYMAX=   25   IZMAX=   52
   IXMIN=  -25   IYMIN=  -25   IZMIN=  -52


 serial   3D FFT for wavefunctions
 parallel 3D FFT for charge:
    minimum data exchange during FFTs selected (reduces bandwidth)


 total amount of memory used by VASP MPI-rank0  1102865. kBytes
=======================================================================

   base      :      30000. kBytes
   nonl-proj :     746059. kBytes
   fftplans  :      12863. kBytes
   grid      :      57523. kBytes
   one-center:       1641. kBytes
   wavefun   :     254779. kBytes
 
     INWAV:  cpu time      0.0001: real time      0.0000
 Broyden mixing: mesh for mixing (old mesh)
   NGX = 51   NGY = 51   NGZ =105
  (NGX  =160   NGY  =160   NGZ  =320)
  gives a total of 273105 points

 initial charge density was supplied:
 charge density of overlapping atoms calculated
 number of electron     696.0000000 magnetization 
 keeping initial charge density in first step


--------------------------------------------------------------------------------------------------------


 Maximum index for augmentation-charges          770 (set IRDMAX)


--------------------------------------------------------------------------------------------------------


 First call to EWALD:  gamma=   0.110
 Maximum number of real-space cells 3x 3x 2
 Maximum number of reciprocal cells 2x 2x 4

    FEWALD:  cpu time      0.0048: real time      0.0049


--------------------------------------- Ionic step        1  -------------------------------------------




--------------------------------------- Iteration      1(   1)  ---------------------------------------


    POTLOK:  cpu time      0.1316: real time      0.1330
    SETDIJ:  cpu time      0.0107: real time      0.0107
     EDDAV:  cpu time    197.0999: real time    198.1027
       DOS:  cpu time      0.0029: real time      0.0029
    --------------------------------------------
      LOOP:  cpu time    197.2451: real time    198.2494

 eigenvalue-minimisations  :  7168
 total energy-change (2. order) : 0.8720756E+04  (-0.2711087E+05)
 number of electron     696.0000000 magnetization 
 augmentation part      696.0000000 magnetization 

 Free energy of the ion-electron system (eV)
  ---------------------------------------------------
  alpha Z        PSCENC =      1339.64328565
  Ewald energy   TEWEN  =    214862.87248215
  -Hartree energ DENC   =   -240356.26025408
  -exchange      EXHF   =         0.00000000
  -V(xc)+E(xc)   XCENC  =     -1141.02109529
  PAW double counting   =     25532.16627659   -22678.97756717
  entropy T*S    EENTRO =        -0.01138174
  eigenvalues    EBANDS =      3075.93422403
  atomic energy  EATOM  =     28086.40965788
  Solvation  Ediel_sol  =         0.00000000
  ---------------------------------------------------
  free energy    TOTEN  =      8720.75562801 eV

  energy without entropy =     8720.76700975  energy(sigma->0) =     8720.75942192


--------------------------------------------------------------------------------------------------------




--------------------------------------- Iteration      1(   2)  ---------------------------------------


     EDDAV:  cpu time    219.2159: real time    220.3708
       DOS:  cpu time      0.0044: real time      0.0047
    --------------------------------------------
      LOOP:  cpu time    219.2205: real time    220.3756

 eigenvalue-minimisations  :  8192
 total energy-change (2. order) :-0.7621928E+04  (-0.7366008E+04)
 number of electron     696.0000000 magnetization 
 augmentation part      696.0000000 magnetization 

 Free energy of the ion-electron system (eV)
  ---------------------------------------------------
  alpha Z        PSCENC =      1339.64328565
  Ewald energy   TEWEN  =    214862.87248215
  -Hartree energ DENC   =   -240356.26025408
  -exchange      EXHF   =         0.00000000
  -V(xc)+E(xc)   XCENC  =     -1141.02109529
  PAW double counting   =     25532.16627659   -22678.97756717
  entropy T*S    EENTRO =         0.01381917
  eigenvalues    EBANDS =     -4546.01912194
  atomic energy  EATOM  =     28086.40965788
  Solvation  Ediel_sol  =         0.00000000
  ---------------------------------------------------
  free energy    TOTEN  =      1098.82748295 eV

  energy without entropy =     1098.81366378  energy(sigma->0) =     1098.82287656


--------------------------------------------------------------------------------------------------------




--------------------------------------- Iteration      1(   3)  ---------------------------------------


     EDDAV:  cpu time    307.5562: real time    309.0953
       DOS:  cpu time      0.0012: real time      0.0012
    --------------------------------------------
      LOOP:  cpu time    307.5572: real time    309.0963

 eigenvalue-minimisations  : 12320
 total energy-change (2. order) :-0.2713712E+04  (-0.2665668E+04)
 number of electron     696.0000000 magnetization 
 augmentation part      696.0000000 magnetization 

 Free energy of the ion-electron system (eV)
  ---------------------------------------------------
  alpha Z        PSCENC =      1339.64328565
  Ewald energy   TEWEN  =    214862.87248215
  -Hartree energ DENC   =   -240356.26025408
  -exchange      EXHF   =         0.00000000
  -V(xc)+E(xc)   XCENC  =     -1141.02109529
  PAW double counting   =     25532.16627659   -22678.97756717
  entropy T*S    EENTRO =         0.01548532
  eigenvalues    EBANDS =     -7259.73258303
  atomic energy  EATOM  =     28086.40965788
  Solvation  Ediel_sol  =         0.00000000
  ---------------------------------------------------
  free energy    TOTEN  =     -1614.88431199 eV

  energy without entropy =    -1614.89979731  energy(sigma->0) =    -1614.88947376


--------------------------------------------------------------------------------------------------------




--------------------------------------- Iteration      1(   4)  ---------------------------------------


     EDDAV:  cpu time    259.6197: real time    260.9256
       DOS:  cpu time      0.0011: real time      0.0011
    --------------------------------------------
      LOOP:  cpu time    259.6208: real time    260.9267

 eigenvalue-minimisations  : 10080
 total energy-change (2. order) :-0.1947020E+03  (-0.1922098E+03)
 number of electron     696.0000000 magnetization 
 augmentation part      696.0000000 magnetization 

 Free energy of the ion-electron system (eV)
  ---------------------------------------------------
  alpha Z        PSCENC =      1339.64328565
  Ewald energy   TEWEN  =    214862.87248215
  -Hartree energ DENC   =   -240356.26025408
  -exchange      EXHF   =         0.00000000
  -V(xc)+E(xc)   XCENC  =     -1141.02109529
  PAW double counting   =     25532.16627659   -22678.97756717
  entropy T*S    EENTRO =        -0.00348163
  eigenvalues    EBANDS =     -7454.41563778
  atomic energy  EATOM  =     28086.40965788
  Solvation  Ediel_sol  =         0.00000000
  ---------------------------------------------------
  free energy    TOTEN  =     -1809.58633369 eV

  energy without entropy =    -1809.58285206  energy(sigma->0) =    -1809.58517315


--------------------------------------------------------------------------------------------------------




--------------------------------------- Iteration      1(   5)  ---------------------------------------


     EDDAV:  cpu time    269.7066: real time    271.0523
       DOS:  cpu time      0.0012: real time      0.0012
    CHARGE:  cpu time      1.8203: real time      1.8287
    MIXING:  cpu time      0.0049: real time      0.0051
    --------------------------------------------
      LOOP:  cpu time    271.5330: real time    272.8873

 eigenvalue-minimisations  : 10560
 total energy-change (2. order) :-0.4015085E+01  (-0.3995688E+01)
 number of electron     696.0000079 magnetization 
 augmentation part       61.3361880 magnetization 

 Broyden mixing:
  rms(total) = 0.20510E+02    rms(broyden)= 0.20510E+02
  rms(prec ) = 0.20963E+02
  weight for this iteration     100.00

 Free energy of the ion-electron system (eV)
  ---------------------------------------------------
  alpha Z        PSCENC =      1339.64328565
  Ewald energy   TEWEN  =    214862.87248215
  -Hartree energ DENC   =   -240356.26025408
  -exchange      EXHF   =         0.00000000
  -V(xc)+E(xc)   XCENC  =     -1141.02109529
  PAW double counting   =     25532.16627659   -22678.97756717
  entropy T*S    EENTRO =         0.00902975
  eigenvalues    EBANDS =     -7458.44323452
  atomic energy  EATOM  =     28086.40965788
  Solvation  Ediel_sol  =         0.00000000
  ---------------------------------------------------
  free energy    TOTEN  =     -1813.60141905 eV

  energy without entropy =    -1813.61044879  energy(sigma->0) =    -1813.60442896


--------------------------------------------------------------------------------------------------------




--------------------------------------- Iteration      1(   6)  ---------------------------------------


    POTLOK:  cpu time      0.1262: real time      0.1273
    SETDIJ:  cpu time      0.0129: real time      0.0132
     EDDAV:  cpu time    283.8487: real time    285.2748
       DOS:  cpu time      0.0012: real time      0.0012
    CHARGE:  cpu time      1.8356: real time      1.8433
    MIXING:  cpu time      0.0041: real time      0.0042
    --------------------------------------------
      LOOP:  cpu time    285.8287: real time    287.2639

 eigenvalue-minimisations  : 11200
 total energy-change (2. order) : 0.3299876E+03  (-0.7781865E+02)
 number of electron     696.0000058 magnetization 
 augmentation part       74.3194555 magnetization 

 Broyden mixing:
  rms(total) = 0.13118E+02    rms(broyden)= 0.13118E+02
  rms(prec ) = 0.13426E+02
  weight for this iteration     100.00

 eigenvalues of (default mixing * dielectric matrix)
  average eigenvalue GAMMA=   2.1168
  2.1168

 Free energy of the ion-electron system (eV)
  ---------------------------------------------------
  alpha Z        PSCENC =      1339.64328565
  Ewald energy   TEWEN  =    214862.87248215
  -Hartree energ DENC   =   -241741.77319136
  -exchange      EXHF   =         0.00000000
  -V(xc)+E(xc)   XCENC  =     -1073.51931048
  PAW double counting   =     32713.54888918   -29846.78048582
  entropy T*S    EENTRO =        -0.07471931
  eigenvalues    EBANDS =     -5823.94038080
  atomic energy  EATOM  =     28086.40965788
  Solvation  Ediel_sol  =         0.00000000
  ---------------------------------------------------
  free energy    TOTEN  =     -1483.61377292 eV

  energy without entropy =    -1483.53905361  energy(sigma->0) =    -1483.58886648


--------------------------------------------------------------------------------------------------------




--------------------------------------- Iteration      1(   7)  ---------------------------------------


    POTLOK:  cpu time      0.1238: real time      0.1244
    SETDIJ:  cpu time      0.0091: real time      0.0092
     EDDAV:  cpu time    304.6968: real time    306.2363
       DOS:  cpu time      0.0011: real time      0.0011
    CHARGE:  cpu time      1.8600: real time      1.8677
    MIXING:  cpu time      0.0046: real time      0.0047
    --------------------------------------------
      LOOP:  cpu time    306.6956: real time    308.2435

 eigenvalue-minimisations  : 12160
 total energy-change (2. order) :-0.3848570E+03  (-0.2789364E+03)
 number of electron     695.9999980 magnetization 
 augmentation part      144.4846511 magnetization 

 Broyden mixing:
  rms(total) = 0.16200E+02    rms(broyden)= 0.16200E+02
  rms(prec ) = 0.26289E+02
  weight for this iteration     100.00

 eigenvalues of (default mixing * dielectric matrix)
  average eigenvalue GAMMA=   1.1300
  2.0617  0.1982

 Free energy of the ion-electron system (eV)
  ---------------------------------------------------
  alpha Z        PSCENC =      1339.64328565
  Ewald energy   TEWEN  =    214862.87248215
  -Hartree energ DENC   =   -242065.17289330
  -exchange      EXHF   =         0.00000000
  -V(xc)+E(xc)   XCENC  =     -1015.82937651
  PAW double counting   =     45220.77699181   -42353.48691959
  entropy T*S    EENTRO =        -0.06437415
  eigenvalues    EBANDS =     -5943.61962490
  atomic energy  EATOM  =     28086.40965788
  Solvation  Ediel_sol  =         0.00000000
  ---------------------------------------------------
  free energy    TOTEN  =     -1868.47077095 eV

  energy without entropy =    -1868.40639681  energy(sigma->0) =    -1868.44931291


--------------------------------------------------------------------------------------------------------




--------------------------------------- Iteration      1(   8)  ---------------------------------------


    POTLOK:  cpu time      0.1219: real time      0.1225
    SETDIJ:  cpu time      0.0092: real time      0.0093
     EDDAV:  cpu time    287.4186: real time    288.8978
       DOS:  cpu time      0.0011: real time      0.0011
    CHARGE:  cpu time      1.8290: real time      1.8367
    MIXING:  cpu time      0.0031: real time      0.0031
    --------------------------------------------
      LOOP:  cpu time    289.3829: real time    290.8704

 eigenvalue-minimisations  : 11360
 total energy-change (2. order) : 0.4711394E+03  (-0.2187158E+03)
 number of electron     696.0000020 magnetization 
 augmentation part      101.7507001 magnetization 

 Broyden mixing:
  rms(total) = 0.67477E+01    rms(broyden)= 0.67475E+01
  rms(prec ) = 0.73540E+01
  weight for this iteration     100.00

 eigenvalues of (default mixing * dielectric matrix)
  average eigenvalue GAMMA=   0.9893
  2.1138  0.6710  0.1832

 Free energy of the ion-electron system (eV)
  ---------------------------------------------------
  alpha Z        PSCENC =      1339.64328565
  Ewald energy   TEWEN  =    214862.87248215
  -Hartree energ DENC   =   -242312.86259112
  -exchange      EXHF   =         0.00000000
  -V(xc)+E(xc)   XCENC  =     -1021.98220746
  PAW double counting   =     46372.24168306   -43513.60669161
  entropy T*S    EENTRO =         0.06006799
  eigenvalues    EBANDS =     -5210.10706928
  atomic energy  EATOM  =     28086.40965788
  Solvation  Ediel_sol  =         0.00000000
  ---------------------------------------------------
  free energy    TOTEN  =     -1397.33138275 eV

  energy without entropy =    -1397.39145074  energy(sigma->0) =    -1397.35140541


--------------------------------------------------------------------------------------------------------




--------------------------------------- Iteration      1(   9)  ---------------------------------------


    POTLOK:  cpu time      0.1225: real time      0.1232
    SETDIJ:  cpu time      0.0091: real time      0.0091
     EDDAV:  cpu time    290.0014: real time    291.4729
       DOS:  cpu time      0.0011: real time      0.0012
    CHARGE:  cpu time      1.8200: real time      1.8280
    MIXING:  cpu time      0.0035: real time      0.0035
    --------------------------------------------
      LOOP:  cpu time    291.9577: real time    293.4379

 eigenvalue-minimisations  : 11488
 total energy-change (2. order) :-0.1291656E+02  (-0.9349603E+02)
 number of electron     696.0000035 magnetization 
 augmentation part       86.4293514 magnetization 

 Broyden mixing:
  rms(total) = 0.55787E+01    rms(broyden)= 0.55786E+01
  rms(prec ) = 0.56565E+01
  weight for this iteration     100.00

 eigenvalues of (default mixing * dielectric matrix)
  average eigenvalue GAMMA=   1.3046
  3.3926  1.1507  0.4930  0.1820

 Free energy of the ion-electron system (eV)
  ---------------------------------------------------
  alpha Z        PSCENC =      1339.64328565
  Ewald energy   TEWEN  =    214862.87248215
  -Hartree energ DENC   =   -242734.47735098
  -exchange      EXHF   =         0.00000000
  -V(xc)+E(xc)   XCENC  =     -1031.82498475
  PAW double counting   =     49345.79965715   -46496.65301196
  entropy T*S    EENTRO =         0.00465281
  eigenvalues    EBANDS =     -4782.02233167
  atomic energy  EATOM  =     28086.40965788
  Solvation  Ediel_sol  =         0.00000000
  ---------------------------------------------------
  free energy    TOTEN  =     -1410.24794372 eV

  energy without entropy =    -1410.25259653  energy(sigma->0) =    -1410.24949466


--------------------------------------------------------------------------------------------------------




--------------------------------------- Iteration      1(  10)  ---------------------------------------


    POTLOK:  cpu time      0.1248: real time      0.1254
    SETDIJ:  cpu time      0.0091: real time      0.0091
     EDDAV:  cpu time    275.5330: real time    276.9330
       DOS:  cpu time      0.0011: real time      0.0011
    CHARGE:  cpu time      1.8057: real time      1.8132
    MIXING:  cpu time      0.0039: real time      0.0039
    --------------------------------------------
      LOOP:  cpu time    277.4776: real time    278.8857

 eigenvalue-minimisations  : 10816
 total energy-change (2. order) : 0.4116682E+00  (-0.1213891E+02)
 number of electron     696.0000036 magnetization 
 augmentation part       84.0196719 magnetization 

 Broyden mixing:
  rms(total) = 0.28018E+01    rms(broyden)= 0.28017E+01
  rms(prec ) = 0.29187E+01
  weight for this iteration     100.00

 eigenvalues of (default mixing * dielectric matrix)
  average eigenvalue GAMMA=   1.4725
  4.5815  1.0351  1.0351  0.5292  0.1816

 Free energy of the ion-electron system (eV)
  ---------------------------------------------------
  alpha Z        PSCENC =      1339.64328565
  Ewald energy   TEWEN  =    214862.87248215
  -Hartree energ DENC   =   -242820.28333391
  -exchange      EXHF   =         0.00000000
  -V(xc)+E(xc)   XCENC  =     -1031.13762454
  PAW double counting   =     60240.06296562   -57404.83155707
  entropy T*S    EENTRO =        -0.00547867
  eigenvalues    EBANDS =     -4682.56667263
  atomic energy  EATOM  =     28086.40965788
  Solvation  Ediel_sol  =         0.00000000
  ---------------------------------------------------
  free energy    TOTEN  =     -1409.83627553 eV

  energy without entropy =    -1409.83079686  energy(sigma->0) =    -1409.83444930


--------------------------------------------------------------------------------------------------------




--------------------------------------- Iteration      1(  11)  ---------------------------------------


    POTLOK:  cpu time      0.1195: real time      0.1200
    SETDIJ:  cpu time      0.0092: real time      0.0092
     EDDAV:  cpu time    274.0360: real time    275.4162
       DOS:  cpu time      0.0012: real time      0.0012
    CHARGE:  cpu time      1.8117: real time      1.8198
    MIXING:  cpu time      0.0039: real time      0.0039
    --------------------------------------------
      LOOP:  cpu time    275.9814: real time    277.3704

 eigenvalue-minimisations  : 10752
 total energy-change (2. order) :-0.1781074E+01  (-0.5646112E+01)
 number of electron     696.0000028 magnetization 
 augmentation part       88.1305218 magnetization 

 Broyden mixing:
  rms(total) = 0.17896E+01    rms(broyden)= 0.17895E+01
  rms(prec ) = 0.24233E+01
  weight for this iteration     100.00

 eigenvalues of (default mixing * dielectric matrix)
  average eigenvalue GAMMA=   1.3100
  4.6211  1.0689  1.0689  0.1818  0.5004  0.4188

 Free energy of the ion-electron system (eV)
  ---------------------------------------------------
  alpha Z        PSCENC =      1339.64328565
  Ewald energy   TEWEN  =    214862.87248215
  -Hartree energ DENC   =   -242803.25997577
  -exchange      EXHF   =         0.00000000
  -V(xc)+E(xc)   XCENC  =     -1023.14978240
  PAW double counting   =     68703.05281887   -65874.36285646
  entropy T*S    EENTRO =        -0.04370647
  eigenvalues    EBANDS =     -4702.77927272
  atomic energy  EATOM  =     28086.40965788
  Solvation  Ediel_sol  =         0.00000000
  ---------------------------------------------------
  free energy    TOTEN  =     -1411.61734928 eV

  energy without entropy =    -1411.57364280  energy(sigma->0) =    -1411.60278045


--------------------------------------------------------------------------------------------------------




--------------------------------------- Iteration      1(  12)  ---------------------------------------


    POTLOK:  cpu time      0.1258: real time      0.1264
    SETDIJ:  cpu time      0.0093: real time      0.0093
