Ti N  S 
 1.0000000000000000
    12.6417492850382587    0.0000000000000000    0.0000000000000000
     0.0000000000000000   12.6417492850382587    0.0000000000000000
     0.0000000000000000    0.0000000000000000   26.3208805164067527
 Ti  N   S  
  72  72   8
Selective dynamics
Cartesian
  0.0000000000000000  0.0000000000000000 10.0000000000000000   F   F   F
  2.1069582300000000  0.0000000000000000 12.1069582300000000   F   F   F
  0.0000000000000000  2.1069582300000000 12.1069582300000000   F   F   F
  2.1069582300000000  2.1069582300000000 10.0000000000000000   F   F   F
 -0.0025694263045267  0.0008328702843579 14.2509927032932371   T   T   T
  2.1038580533427815  0.0014174391935999 16.2555887075214898   T   T   T
  0.0010436615205676  2.1103242702599947 16.2615476857865318   T   T   T
  2.1075367753647387  2.1069556999004631 14.2565778330028667   T   T   T
  0.0000000000000000  4.2139164700000000 10.0000000000000000   F   F   F
  2.1069582300000000  4.2139164700000000 12.1069582300000000   F   F   F
  0.0000000000000000  6.3208747000000001 12.1069582300000000   F   F   F
  2.1069582300000000  6.3208747000000001 10.0000000000000000   F   F   F
 -0.0019335702463506  4.2146029823677615 14.2655205150032298   T   T   T
  2.1231661457853890  4.2151026957028535 16.2604611333500273   T   T   T
 -0.0014673939935001  6.3205957623509708 16.2666599472209334   T   T   T
  2.1115976139613659  6.3218734324221169 14.2605606345488773   T   T   T
  0.0000000000000000  8.4278329400000001 10.0000000000000000   F   F   F
  2.1069582300000000  8.4278329400000001 12.1069582300000000   F   F   F
  0.0000000000000000 10.5347911700000001 12.1069582300000000   F   F   F
  2.1069582300000000 10.5347911700000001 10.0000000000000000   F   F   F
 -0.0031318376005397  8.4294696068945871 14.2604649585854411   T   T   T
  2.1125745585636113  8.4280601008540277 16.2584218968362073   T   T   T
 -0.0006579839129448 10.5389717687608240 16.2552496693239945   T   T   T
  2.1023193017622317 10.5362777845562068 14.2497944264969814   T   T   T
  4.2139164700000000  0.0000000000000000 10.0000000000000000   F   F   F
  6.3208747000000001  0.0000000000000000 12.1069582300000000   F   F   F
  4.2139164700000000  2.1069582300000000 12.1069582300000000   F   F   F
  6.3208747000000001  2.1069582300000000 10.0000000000000000   F   F   F
  4.2109696231177178  0.0007544074424290 14.2546131914279322   T   T   T
  6.3212996987954790  0.0060216861283508 16.2602797815950240   T   T   T
  4.2184290383592540  2.1185045373506139 16.2626536349663873   T   T   T
  6.3246328080017866  2.1145417957623054 14.2668186056700357   T   T   T
  4.2139164700000000  4.2139164700000000 10.0000000000000000   F   F   F
  6.3208747000000001  4.2139164700000000 12.1069582300000000   F   F   F
  4.2139164700000000  6.3208747000000001 12.1069582300000000   F   F   F
  6.3208747000000001  6.3208747000000001 10.0000000000000000   F   F   F
  4.2186693679733427  4.2170631407194747 14.2830247076476731   T   T   T
  6.3230468669140496  4.2221311447637060 16.2885868297982483   T   T   T
  4.2318838696566505  6.3226499228333530 16.2841517954862525   T   T   T
  6.3318707074442644  6.3217724693510409 14.2982174435129910   T   T   T
  4.2139164700000000  8.4278329400000001 10.0000000000000000   F   F   F
  6.3208747000000001  8.4278329400000001 12.1069582300000000   F   F   F
  4.2139164700000000 10.5347911700000001 12.1069582300000000   F   F   F
  6.3208747000000001 10.5347911700000001 10.0000000000000000   F   F   F
  4.2161303184181840  8.4277630113016340 14.2675392616970047   T   T   T
  6.3240735176249503  8.4158943604369050 16.2800108218916435   T   T   T
  4.2132009244316011 10.5317531250255225 16.2557727152201252   T   T   T
  6.3221858568396101 10.5335359964664654 14.2631790219877139   T   T   T
  8.4278329400000001  0.0000000000000000 10.0000000000000000   F   F   F
 10.5347911700000001  0.0000000000000000 12.1069582300000000   F   F   F
  8.4278329400000001  2.1069582300000000 12.1069582300000000   F   F   F
 10.5347911700000001  2.1069582300000000 10.0000000000000000   F   F   F
  8.4302259979193614  0.0016591857077853 14.2620117354781879   T   T   T
 10.5351087312214631  0.0012922662729904 16.2585160089796652   T   T   T
  8.4223647729889546  2.1163756896712158 16.2756466095242374   T   T   T
 10.5341405789639033  2.1095094556834395 14.2627412090266716   T   T   T
  8.4278329400000001  4.2139164700000000 10.0000000000000000   F   F   F
 10.5347911700000001  4.2139164700000000 12.1069582300000000   F   F   F
  8.4278329400000001  6.3208747000000001 12.1069582300000000   F   F   F
 10.5347911700000001  6.3208747000000001 10.0000000000000000   F   F   F
  8.4299827381396231  4.2248137270911927 14.2885103874221286   T   T   T
 10.5263288316277688  4.2179841326067269 16.2803640060423866   T   T   T
  8.4055784960975828  6.3112397125743751 16.3611255682225050   T   T   T
 10.5240063658426379  6.3232788889492531 14.2780724506804049   T   T   T
  8.4278329400000001  8.4278329400000001 10.0000000000000000   F   F   F
 10.5347911700000001  8.4278329400000001 12.1069582300000000   F   F   F
  8.4278329400000001 10.5347911700000001 12.1069582300000000   F   F   F
 10.5347911700000001 10.5347911700000001 10.0000000000000000   F   F   F
  8.4287538295698532  8.4199412179626236 14.2817202832868109   T   T   T
 10.5322798840622838  8.4280648568853174 16.2704743269572916   T   T   T
  8.4257145034732090 10.5330416728911072 16.2679221620971504   T   T   T
 10.5329975847154707 10.5355649211170270 14.2571885790882309   T   T   T
  0.0000000000000000  2.1069582300000000 10.0000000000000000   F   F   F
  2.1069582300000000  0.0000000000000000 10.0000000000000000   F   F   F
  0.0000000000000000  0.0000000000000000 12.1069582300000000   F   F   F
  2.1069582300000000  2.1069582300000000 12.1069582300000000   F   F   F
  0.0014531668936752  2.1055918742552513 14.2525735828079281   T   T   T
  2.1020865099150763 -0.0009481833275432 14.2470050105691364   T   T   T
 -0.0001398896503134  0.0006271683886562 16.4287483408070507   T   T   T
  2.1033312783905305  2.1024195453708079 16.4212734018296160   T   T   T
  0.0000000000000000  6.3208747000000001 10.0000000000000000   F   F   F
  2.1069582300000000  4.2139164700000000 10.0000000000000000   F   F   F
  0.0000000000000000  4.2139164700000000 12.1069582300000000   F   F   F
  2.1069582300000000  6.3208747000000001 12.1069582300000000   F   F   F
  0.0014252302295105  6.3231619113976327 14.2605124433243002   T   T   T
  2.1016403182670000  4.2137600851930035 14.2482849217498284   T   T   T
  0.0044476350457221  4.2147021870163153 16.4274455556049439   T   T   T
  2.1040003564862388  6.3249238136157588 16.4158881667977745   T   T   T
  0.0000000000000000 10.5347911700000001 10.0000000000000000   F   F   F
  2.1069582300000000  8.4278329400000001 10.0000000000000000   F   F   F
  0.0000000000000000  8.4278329400000001 12.1069582300000000   F   F   F
  2.1069582300000000 10.5347911700000001 12.1069582300000000   F   F   F
 -0.0033227710077143 10.5370313315298354 14.2476181890042763   T   T   T
  2.1021070508192827  8.4314824082343272 14.2523430187455951   T   T   T
  0.0027148513042365  8.4351418480661859 16.4321077585359099   T   T   T
  2.1030609320442455 10.5388468806940789 16.4250497917852485   T   T   T
  4.2139164700000000  2.1069582300000000 10.0000000000000000   F   F   F
  6.3208747000000001  0.0000000000000000 10.0000000000000000   F   F   F
  4.2139164700000000  0.0000000000000000 12.1069582300000000   F   F   F
  6.3208747000000001  2.1069582300000000 12.1069582300000000   F   F   F
  4.2126587512852476  2.1028074918900246 14.2513177433342175   T   T   T
  6.3202743478812655 -0.0005726051467439 14.2550976351912322   T   T   T
  4.2098004195908008  0.0008503366675781 16.4207226519192382   T   T   T
  6.3150452082179331  2.0984018740353214 16.4001818547177152   T   T   T
  4.2139164700000000  6.3208747000000001 10.0000000000000000   F   F   F
  6.3208747000000001  4.2139164700000000 10.0000000000000000   F   F   F
  4.2139164700000000  4.2139164700000000 12.1069582300000000   F   F   F
  6.3208747000000001  6.3208747000000001 12.1069582300000000   F   F   F
  4.2102224858175328  6.3234593148957767 14.2509363171730907   T   T   T
  6.3248242017998395  4.2156965944838234 14.2533119808913398   T   T   T
  4.2097745528396882  4.2092794266888669 16.3903310021080486   T   T   T
  6.3104787886380977  6.3241146620608593 16.3975284613209276   T   T   T
  4.2139164700000000 10.5347911700000001 10.0000000000000000   F   F   F
  6.3208747000000001  8.4278329400000001 10.0000000000000000   F   F   F
  4.2139164700000000  8.4278329400000001 12.1069582300000000   F   F   F
  6.3208747000000001 10.5347911700000001 12.1069582300000000   F   F   F
  4.2106338118408351 10.5389214230394170 14.2481263254025805   T   T   T
  6.3231904502272895  8.4345945992953162 14.2577494378024223   T   T   T
  4.2026423327390123  8.4462022480369310 16.3871636408832195   T   T   T
  6.3178661356105774 10.5409932824181674 16.4191124545451608   T   T   T
  8.4278329400000001  2.1069582300000000 10.0000000000000000   F   F   F
 10.5347911700000001  0.0000000000000000 10.0000000000000000   F   F   F
  8.4278329400000001  0.0000000000000000 12.1069582300000000   F   F   F
 10.5347911700000001  2.1069582300000000 12.1069582300000000   F   F   F
  8.4318752068933858  2.1023843710723988 14.2536689334196929   T   T   T
 10.5364818512450444  0.0012750553992550 14.2504530989696807   T   T   T
  8.4295175829205888  0.0000408390138839 16.4303056710426851   T   T   T
 10.5438142977424096  2.1037409947081560 16.4286386872059467   T   T   T
  8.4278329400000001  6.3208747000000001 10.0000000000000000   F   F   F
 10.5347911700000001  4.2139164700000000 10.0000000000000000   F   F   F
  8.4278329400000001  4.2139164700000000 12.1069582300000000   F   F   F
 10.5347911700000001  6.3208747000000001 12.1069582300000000   F   F   F
  8.4345448133991869  6.3266048068313676 14.2416520377935356   T   T   T
 10.5404333492941564  4.2152090093398851 14.2655442452118173   T   T   T
  8.4421006069291540  4.2105638208331309 16.4014664771323382   T   T   T
 10.5554164918053690  6.3231604725355419 16.4221737982427385   T   T   T
  8.4278329400000001 10.5347911700000001 10.0000000000000000   F   F   F
 10.5347911700000001  8.4278329400000001 10.0000000000000000   F   F   F
  8.4278329400000001  8.4278329400000001 12.1069582300000000   F   F   F
 10.5347911700000001 10.5347911700000001 12.1069582300000000   F   F   F
  8.4290844626173396 10.5396577030615344 14.2593094428930023   T   T   T
 10.5372995459997707  8.4314622322631436 14.2590607378992260   T   T   T
  8.4354210202750117  8.4502157076234283 16.4194803305243475   T   T   T
 10.5381879667024698 10.5410343114581107 16.4302472764006815   T   T   T
  8.7670965432894779  4.6590826148424584 19.9902627068226053   T   T   T
  8.2756630853805113  6.3937976741970441 18.9331802445618855   T   T   T
  6.7697135507736768  7.6832655195929132 19.9880213131408624   T   T   T
  4.7992691620650332  7.5989432031011042 19.3761107685468055   T   T   T
  3.8483154330509497  6.1769166474071744 20.4769652447531563   T   T   T
  4.2199243111279463  4.3547708010394865 19.5309864169234366   T   T   T
  5.7537165470632576  3.2846466714858953 20.4739102838962239   T   T   T
  7.5582171656434580  3.2017543887557407 19.3209722128813155   T   T   T
