 ANIMSTEPS   5
 CRYSTAL 
 PRIMVEC 
 13.6917876819  0.0000000000  0.0000000000
  0.0000000000 13.6917876819  0.0000000000
  0.0000000000  0.0000000000 26.8458988616
 PRIMCOORD   1
  145  1
Zr    0.0000000000    0.0000000000   10.0000000000   -0.0000000000   -0.0000000000    0.0000000000
Zr    2.2819646600    0.0000000000   12.2819646600    0.0000000000    0.0000000000    0.0000000000
Zr    0.0000000000    2.2819646600   12.2819646600    0.0000000000    0.0000000000    0.0000000000
Zr    2.2819646600    2.2819646600   10.0000000000    0.0000000000    0.0000000000    0.0000000000
Zr   -0.0014349240   -0.0014381840   14.5577017190    0.0000641417    0.0000641417   -0.0000350748
Zr    2.2764474910   -0.0022290610   16.7532933150   -0.0000367494    0.0005058648    0.0000449119
Zr   -0.0022307710    2.2764454710   16.7532866350    0.0005058648   -0.0000367494    0.0000449119
Zr    2.2859506400    2.2859489300   14.5588720550    0.0000511294    0.0000511294   -0.0004082230
Zr    0.0000000000    4.5639293200   10.0000000000   -0.0000000000    0.0000000000    0.0000000000
Zr    2.2819646600    4.5639293200   12.2819646600    0.0000000000    0.0000000000    0.0000000000
Zr    0.0000000000    6.8458939800   12.2819646600    0.0000000000   -0.0000000000    0.0000000000
Zr    2.2819646600    6.8458939800   10.0000000000    0.0000000000   -0.0000000000    0.0000000000
Zr    0.0030891040    4.5638990930   14.5608939790    0.0001617137    0.0000000000   -0.0003708124
Zr    2.2508047550    4.5639598320   16.7910892560   -0.0000533523    0.0000000000   -0.0004944398
Zr   -0.0021869910    6.8514087990   16.7533272540    0.0005058648    0.0000367494    0.0000449119
Zr    2.2859939510    6.8418943790   14.5589569840    0.0000511294   -0.0000511294   -0.0004082230
Zr    0.0000000000    9.1278586400   10.0000000000   -0.0000000000    0.0000000000    0.0000000000
Zr    2.2819646600    9.1278586400   12.2819646600    0.0000000000   -0.0000000000    0.0000000000
Zr    0.0000000000   11.4098233000   12.2819646600    0.0000000000    0.0000000000    0.0000000000
Zr    2.2819646600   11.4098233000   10.0000000000    0.0000000000    0.0000000000    0.0000000000
Zr   -0.0013916370    9.1293284470   14.5577611120    0.0000641417   -0.0000641417   -0.0000350748
Zr    2.2764820910    9.1300514910   16.7533006140   -0.0000367494   -0.0005058648    0.0000449119
Zr   -0.0015805930   11.4098251870   16.7517912510    0.0005272187    0.0000000000    0.0001679636
Zr    2.2816167280   11.4098333770   14.5578999490    0.0001443679    0.0000000000    0.0003014521
Zr    4.5639293200    0.0000000000   10.0000000000    0.0000000000   -0.0000000000    0.0000000000
Zr    6.8458939800    0.0000000000   12.2819646600   -0.0000000000    0.0000000000    0.0000000000
Zr    4.5639293200    2.2819646600   12.2819646600    0.0000000000    0.0000000000    0.0000000000
Zr    6.8458939800    2.2819646600   10.0000000000   -0.0000000000    0.0000000000    0.0000000000
Zr    4.5638997030    0.0030806340   14.5608941200    0.0000000000    0.0001617137   -0.0003708124
Zr    6.8514110490   -0.0021875610   16.7533257040    0.0000367494    0.0005058648    0.0000449119
Zr    4.5639617120    2.2508045350   16.7910860460    0.0000000000   -0.0000533523   -0.0004944398
Zr    6.8419019390    2.2859904610   14.5589465640   -0.0000511294    0.0000511294   -0.0004082230
Zr    4.5639293200    4.5639293200   10.0000000000    0.0000000000    0.0000000000    0.0000000000
Zr    6.8458939800    4.5639293200   12.2819646600   -0.0000000000    0.0000000000    0.0000000000
Zr    4.5639293200    6.8458939800   12.2819646600    0.0000000000   -0.0000000000    0.0000000000
Zr    6.8458939800    6.8458939800   10.0000000000   -0.0000000000   -0.0000000000    0.0000000000
Zr    4.5639424600    4.5639421900   14.6175453590    0.0000000000    0.0000000000   -0.0002228135
Zr    6.8770869550    4.5639620680   16.7910752860    0.0000533523    0.0000000000   -0.0004944398
Zr    4.5639619280    6.8770910650   16.7910650860    0.0000000000    0.0000533523   -0.0004944398
Zr    6.8418581800    6.8418540000   14.5590344050   -0.0000511294   -0.0000511294   -0.0004082230
Zr    4.5639293200    9.1278586400   10.0000000000    0.0000000000    0.0000000000    0.0000000000
Zr    6.8458939800    9.1278586400   12.2819646600   -0.0000000000   -0.0000000000    0.0000000000
Zr    4.5639293200   11.4098233000   12.2819646600    0.0000000000    0.0000000000    0.0000000000
Zr    6.8458939800   11.4098233000   10.0000000000   -0.0000000000   -0.0000000000    0.0000000000
Zr    4.5639027170    9.1247643760   14.5609720700    0.0000000000   -0.0001617137   -0.0003708124
Zr    6.8513742690    9.1300154910   16.7533246350    0.0000367494   -0.0005058648    0.0000449119
Zr    4.5639172400   11.4097944700   16.7525136780    0.0000000000    0.0000000000    0.0001601571
Zr    6.8461852320   11.4098313530   14.5579298190   -0.0001443679    0.0000000000    0.0003014521
Zr    9.1278586400    0.0000000000   10.0000000000    0.0000000000   -0.0000000000    0.0000000000
Zr   11.4098233000    0.0000000000   12.2819646600    0.0000000000    0.0000000000    0.0000000000
Zr    9.1278586400    2.2819646600   12.2819646600   -0.0000000000    0.0000000000    0.0000000000
Zr   11.4098233000    2.2819646600   10.0000000000   -0.0000000000    0.0000000000    0.0000000000
Zr    9.1293289960   -0.0013908260   14.5577556020   -0.0000641417    0.0000641417   -0.0000350748
Zr   11.4098217370   -0.0015787730   16.7517693210    0.0000000000    0.0005272187    0.0001679636
Zr    9.1300572110    2.2764812810   16.7533182440   -0.0005058648   -0.0000367494    0.0000449119
Zr   11.4098286870    2.2816178880   14.5578932990    0.0000000000    0.0001443679    0.0003014521
Zr    9.1278586400    4.5639293200   10.0000000000    0.0000000000    0.0000000000    0.0000000000
Zr   11.4098233000    4.5639293200   12.2819646600    0.0000000000    0.0000000000    0.0000000000
Zr    9.1278586400    6.8458939800   12.2819646600   -0.0000000000   -0.0000000000    0.0000000000
Zr   11.4098233000    6.8458939800   10.0000000000    0.0000000000   -0.0000000000    0.0000000000
Zr    9.1247641060    4.5638989470   14.5609701090   -0.0001617137    0.0000000000   -0.0003708124
Zr   11.4097927200    4.5639175200   16.7525232580    0.0000000000    0.0000000000    0.0001601571
Zr    9.1300120810    6.8513741490   16.7533426050   -0.0005058648    0.0000367494    0.0000449119
Zr   11.4098261930    6.8461835220   14.5579300690    0.0000000000   -0.0001443679    0.0003014521
Zr    9.1278586400    9.1278586400   10.0000000000    0.0000000000    0.0000000000    0.0000000000
Zr   11.4098233000    9.1278586400   12.2819646600    0.0000000000   -0.0000000000    0.0000000000
Zr    9.1278586400   11.4098233000   12.2819646600   -0.0000000000    0.0000000000    0.0000000000
Zr   11.4098233000   11.4098233000   10.0000000000    0.0000000000    0.0000000000    0.0000000000
Zr    9.1292820440    9.1292814740   14.5578135390   -0.0000641417   -0.0000641417   -0.0000350748
Zr   11.4098229630    9.1294461830   16.7518108810   -0.0000000000   -0.0005272187    0.0001679636
Zr    9.1294511630   11.4098281230   16.7517976010   -0.0005272187   -0.0000000000    0.0001679636
Zr   11.4098788700   11.4098756600   14.5604676590    0.0000000000    0.0000000000   -0.0000303927
 N    0.0000000000    2.2819646600   10.0000000000   -0.0000000000    0.0000000000   -0.0000000000
 N    2.2819646600    0.0000000000   10.0000000000    0.0000000000   -0.0000000000   -0.0000000000
 N    0.0000000000    0.0000000000   12.2819646600    0.0000000000    0.0000000000   -0.0000000000
 N    2.2819646600    2.2819646600   12.2819646600    0.0000000000    0.0000000000   -0.0000000000
 N    0.0012688020    2.2814516620   14.5861641850   -0.0004522946    0.0000520154    0.0006002461
 N    2.2814547420    0.0012705520   14.5861618750    0.0000520154   -0.0004522946    0.0006002461
 N   -0.0020857740   -0.0020864540   16.9101792930    0.0000846751    0.0000846751   -0.0002130974
 N    2.2696497350    2.2696504750   16.8962445010   -0.0003412618   -0.0003412618   -0.0007049588
 N    0.0000000000    6.8458939800   10.0000000000   -0.0000000000   -0.0000000000   -0.0000000000
 N    2.2819646600    4.5639293200   10.0000000000    0.0000000000    0.0000000000   -0.0000000000
 N    0.0000000000    4.5639293200   12.2819646600    0.0000000000   -0.0000000000   -0.0000000000
 N    2.2819646600    6.8458939800   12.2819646600    0.0000000000   -0.0000000000   -0.0000000000
 N    0.0012726770    6.8463960440   14.5861666730   -0.0004522946   -0.0000520154    0.0006002461
 N    2.2838412460    4.5639197700   14.6065714510    0.0000522819    0.0000000000   -0.0003508487
 N   -0.0045324450    4.5639376890   16.9102903930   -0.0000668214    0.0000000000   -0.0002080483
 N    2.2696371190    6.8582116810   16.8963230240   -0.0003412618    0.0003412618   -0.0007049588
 N    0.0000000000   11.4098233000   10.0000000000   -0.0000000000    0.0000000000   -0.0000000000
 N    2.2819646600    9.1278586400   10.0000000000    0.0000000000    0.0000000000   -0.0000000000
 N    0.0000000000    9.1278586400   12.2819646600    0.0000000000   -0.0000000000   -0.0000000000
 N    2.2819646600   11.4098233000   12.2819646600   -0.0000000000   -0.0000000000   -0.0000000000
 N    0.0000378610   11.4098292610   14.5856888500    0.0001370918    0.0000000000    0.0003614341
 N    2.2814646350    9.1265971430   14.5861371730    0.0000520154    0.0004522946    0.0006002461
 N   -0.0020987330    9.1299419840   16.9101852160    0.0000846751   -0.0000846751   -0.0002130974
 N    2.2805511820   11.4098223000   16.9082685140    0.0000467981    0.0000000000   -0.0002765288
 N    4.5639293200    2.2819646600   10.0000000000    0.0000000000    0.0000000000   -0.0000000000
 N    6.8458939800    0.0000000000   10.0000000000   -0.0000000000   -0.0000000000   -0.0000000000
 N    4.5639293200    0.0000000000   12.2819646600    0.0000000000    0.0000000000   -0.0000000000
 N    6.8458939800    2.2819646600   12.2819646600   -0.0000000000    0.0000000000   -0.0000000000
 N    4.5639209900    2.2838403260   14.6065425910    0.0000000000    0.0000522819   -0.0003508487
 N    6.8463934450    0.0012694270   14.5861796730   -0.0000520154   -0.0004522946    0.0006002461
 N    4.5639339890   -0.0045362550   16.9102863230    0.0000000000   -0.0000668214   -0.0002080483
 N    6.8582113010    2.2696390190   16.8963095240    0.0003412618   -0.0003412618   -0.0007049588
 N    4.5639293200    6.8458939800   10.0000000000    0.0000000000   -0.0000000000   -0.0000000000
 N    6.8458939800    4.5639293200   10.0000000000   -0.0000000000    0.0000000000   -0.0000000000
 N    4.5639293200    4.5639293200   12.2819646600    0.0000000000    0.0000000000   -0.0000000000
 N    6.8458939800    6.8458939800   12.2819646600   -0.0000000000   -0.0000000000   -0.0000000000
 N    4.5639270500    6.8440168140   14.6064718310   -0.0000000000   -0.0000522819   -0.0003508487
 N    6.8440145140    4.5639256500   14.6064777700   -0.0000522819   -0.0000000000   -0.0003508487
 N    4.5639220700    4.5639188600   16.9317056950    0.0000000000    0.0000000000   -0.0000204522
 N    6.8582218150    6.8582218850   16.8963902210    0.0003412618    0.0003412618   -0.0007049588
 N    4.5639293200   11.4098233000   10.0000000000    0.0000000000    0.0000000000   -0.0000000000
 N    6.8458939800    9.1278586400   10.0000000000   -0.0000000000    0.0000000000   -0.0000000000
 N    4.5639293200    9.1278586400   12.2819646600   -0.0000000000   -0.0000000000   -0.0000000000
 N    6.8458939800   11.4098233000   12.2819646600    0.0000000000    0.0000000000   -0.0000000000
 N    4.5639170900   11.4098226800   14.5877630170    0.0000000000    0.0000000000    0.0003685304
 N    6.8463928980    9.1265900180   14.5861358350   -0.0000520154    0.0004522946    0.0006002461
 N    4.5639312610    9.1323988350   16.9103149430    0.0000000000    0.0000668214   -0.0002080483
 N    6.8473211170   11.4098229900   16.9082124440   -0.0000467981    0.0000000000   -0.0002765288
 N    9.1278586400    2.2819646600   10.0000000000    0.0000000000    0.0000000000   -0.0000000000
 N   11.4098233000    0.0000000000   10.0000000000    0.0000000000   -0.0000000000   -0.0000000000
 N    9.1278586400    0.0000000000   12.2819646600   -0.0000000000    0.0000000000   -0.0000000000
 N   11.4098233000    2.2819646600   12.2819646600    0.0000000000   -0.0000000000   -0.0000000000
 N    9.1265946330    2.2814624860   14.5861454530    0.0004522946    0.0000520154    0.0006002461
 N   11.4098291610    0.0000355110   14.5856597100    0.0000000000    0.0001370918    0.0003614341
 N    9.1299390730   -0.0020974830   16.9101897850   -0.0000846751    0.0000846751   -0.0002130974
 N   11.4098211700    2.2805497730   16.9082438640   -0.0000000000    0.0000467981   -0.0002765288
 N    9.1278586400    6.8458939800   10.0000000000    0.0000000000   -0.0000000000   -0.0000000000
 N   11.4098233000    4.5639293200   10.0000000000    0.0000000000    0.0000000000   -0.0000000000
 N    9.1278586400    4.5639293200   12.2819646600   -0.0000000000    0.0000000000   -0.0000000000
 N   11.4098233000    6.8458939800   12.2819646600   -0.0000000000    0.0000000000   -0.0000000000
 N    9.1265897480    6.8463911480   14.5861405650    0.0004522946   -0.0000520154    0.0006002461
 N   11.4098228300    4.5639174900   14.5877639270    0.0000000000    0.0000000000    0.0003685304
 N    9.1323972250    4.5639338310   16.9103019430    0.0000668214    0.0000000000   -0.0002080483
 N   11.4098224500    6.8473196080   16.9082139540   -0.0000000000   -0.0000467981   -0.0002765288
 N    9.1278586400   11.4098233000   10.0000000000    0.0000000000    0.0000000000   -0.0000000000
 N   11.4098233000    9.1278586400   10.0000000000    0.0000000000    0.0000000000   -0.0000000000
 N    9.1278586400    9.1278586400   12.2819646600   -0.0000000000   -0.0000000000   -0.0000000000
 N   11.4098233000   11.4098233000   12.2819646600    0.0000000000    0.0000000000   -0.0000000000
 N    9.1278344290   11.4098218290   14.5856879900   -0.0001370918    0.0000000000    0.0003614341
 N   11.4098254190    9.1278321690   14.5856896900    0.0000000000   -0.0001370918    0.0003614341
 N    9.1299533240    9.1299542640   16.9101873120   -0.0000846751   -0.0000846751   -0.0002130974
 N   11.4098090200   11.4098121000   16.9123302010    0.0000000000    0.0000000000   -0.0002748819
Li    4.5639220700    4.5639188600   18.8585940570    0.0000000000    0.0000000000   -0.0006139211
 PRIMCOORD   2
  145  1
Zr    0.0000000000    0.0000000000   10.0000000000   -0.0000000000   -0.0000000000    0.0000000000
Zr    2.2819646600    0.0000000000   12.2819646600    0.0000000000    0.0000000000    0.0000000000
Zr    0.0000000000    2.2819646600   12.2819646600    0.0000000000    0.0000000000    0.0000000000
Zr    2.2819646600    2.2819646600   10.0000000000    0.0000000000    0.0000000000    0.0000000000
Zr    0.0016788469    0.0016755869   14.5594352411    0.0000911146    0.0000911146    0.0000421377
Zr    2.2850587222    0.0072965549   16.7551931019    0.0000675388    0.0001142514   -0.0001015459
Zr    0.0072948449    2.2850567022   16.7551864219    0.0001142514    0.0000675388   -0.0001015459
Zr    2.2899351764    2.2899334664   14.5612206993    0.0000820971    0.0000820971    0.0000280332
Zr    0.0000000000    4.5639293200   10.0000000000   -0.0000000000   -0.0000000000    0.0000000000
Zr    2.2819646600    4.5639293200   12.2819646600    0.0000000000   -0.0000000000    0.0000000000
Zr    0.0000000000    6.8458939800   12.2819646600    0.0000000000   -0.0000000000    0.0000000000
Zr    2.2819646600    6.8458939800   10.0000000000    0.0000000000   -0.0000000000    0.0000000000
Zr    0.0081161882    4.5649829924   14.5609970563    0.0000680199    0.0001086245    0.0000686059
Zr    2.2870125537    4.5778715048   16.7838560476   -0.0002296213    0.0002267267    0.0005087009
Zr    0.0039211817    6.8514314849   16.7519244220    0.0001848207    0.0001239059   -0.0000472143
Zr    2.2842514832    6.8469242354   14.5530613469    0.0002520968    0.0001231847    0.0000603199
Zr    0.0000000000    9.1278586400   10.0000000000   -0.0000000000    0.0000000000    0.0000000000
Zr    2.2819646600    9.1278586400   12.2819646600   -0.0000000000    0.0000000000    0.0000000000
Zr    0.0000000000   11.4098233000   12.2819646600    0.0000000000    0.0000000000    0.0000000000
Zr    2.2819646600   11.4098233000   10.0000000000    0.0000000000   -0.0000000000    0.0000000000
Zr   -0.0034568959    9.1312874018   14.5575865581    0.0001483687    0.0000834920    0.0000151357
Zr    2.2733795641    9.1380098047   16.7510649140    0.0000860822    0.0001536100    0.0000719682
Zr    0.0001995877   11.4134253832   16.7533407052    0.0001941672    0.0001321203   -0.0000176089
Zr    2.2806873749   11.4152412121   14.5584875582    0.0001240472    0.0000773095    0.0000475079
Zr    4.5639293200    0.0000000000   10.0000000000   -0.0000000000   -0.0000000000    0.0000000000
Zr    6.8458939800    0.0000000000   12.2819646600   -0.0000000000    0.0000000000    0.0000000000
Zr    4.5639293200    2.2819646600   12.2819646600   -0.0000000000    0.0000000000    0.0000000000
Zr    6.8458939800    2.2819646600   10.0000000000   -0.0000000000    0.0000000000    0.0000000000
Zr    4.5649836024    0.0081077182   14.5609971966    0.0001086245    0.0000680199    0.0000686059
Zr    6.8514337349    0.0039206117   16.7519228716    0.0001239059    0.0001848207   -0.0000472143
Zr    4.5778733848    2.2870123337   16.7838528376    0.0002267267   -0.0002296213    0.0005087009
Zr    6.8469317954    2.2842479932   14.5530509269    0.0001231847    0.0002520968    0.0000603199
Zr    4.5639293200    4.5639293200   10.0000000000    0.0000000000    0.0000000000    0.0000000000
Zr    6.8458939800    4.5639293200   12.2819646600   -0.0000000000    0.0000000000    0.0000000000
Zr    4.5639293200    6.8458939800   12.2819646600    0.0000000000   -0.0000000000    0.0000000000
Zr    6.8458939800    6.8458939800   10.0000000000   -0.0000000000   -0.0000000000    0.0000000000
Zr    4.5721673992    4.5721671292   14.6109391776    0.0002310640    0.0002310640    0.0008300684
Zr    6.9035762928    4.5526426843   16.7614096821    0.0001605002    0.0009760147    0.0006672088
Zr    4.5526425443    6.9035804028   16.7613994821    0.0009760147    0.0001605002    0.0006672088
Zr    6.8439714745    6.8439672945   14.5613585219    0.0000253663    0.0000253663   -0.0003681073
Zr    4.5639293200    9.1278586400   10.0000000000    0.0000000000    0.0000000000    0.0000000000
Zr    6.8458939800    9.1278586400   12.2819646600   -0.0000000000   -0.0000000000    0.0000000000
Zr    4.5639293200   11.4098233000   12.2819646600    0.0000000000    0.0000000000    0.0000000000
Zr    6.8458939800   11.4098233000   10.0000000000   -0.0000000000   -0.0000000000    0.0000000000
Zr    4.5639740702    9.1308595557   14.5532246376    0.0000274338   -0.0000603243    0.0001139902
Zr    6.8493541408    9.1244280830   16.7570524195    0.0004328503    0.0004655117   -0.0002977221
Zr    4.5639835722   11.4130780136   16.7523847160    0.0001588202    0.0001252788   -0.0000626676
Zr    6.8463013808   11.4092072954   14.5588191236    0.0000056566    0.0002919747   -0.0000401860
Zr    9.1278586400    0.0000000000   10.0000000000    0.0000000000   -0.0000000000    0.0000000000
Zr   11.4098233000    0.0000000000   12.2819646600    0.0000000000    0.0000000000    0.0000000000
Zr    9.1278586400    2.2819646600   12.2819646600    0.0000000000   -0.0000000000    0.0000000000
Zr   11.4098233000    2.2819646600   10.0000000000   -0.0000000000    0.0000000000    0.0000000000
Zr    9.1312879511   -0.0034560853   14.5575810484    0.0000834920    0.0001483687    0.0000151357
Zr   11.4134219332    0.0002014077   16.7533187752    0.0001321203    0.0001941672   -0.0000176089
Zr    9.1380155247    2.2733787541   16.7510825440    0.0001536100    0.0000860822    0.0000719682
Zr   11.4152365221    2.2806885349   14.5584809079    0.0000773095    0.0001240472    0.0000475079
Zr    9.1278586400    4.5639293200   10.0000000000    0.0000000000    0.0000000000    0.0000000000
Zr   11.4098233000    4.5639293200   12.2819646600    0.0000000000    0.0000000000    0.0000000000
Zr    9.1278586400    6.8458939800   12.2819646600   -0.0000000000   -0.0000000000    0.0000000000
Zr   11.4098233000    6.8458939800   10.0000000000   -0.0000000000   -0.0000000000    0.0000000000
Zr    9.1308592857    4.5639703002   14.5532226770   -0.0000603243    0.0000274338    0.0001139902
Zr   11.4130762636    4.5639838522   16.7523942960    0.0001252788    0.0001588202   -0.0000626676
Zr    9.1244246730    6.8493540208   16.7570703895    0.0004655117    0.0004328503   -0.0002977221
Zr   11.4092021354    6.8462996708   14.5588193736    0.0002919747    0.0000056566   -0.0000401860
Zr    9.1278586400    9.1278586400   10.0000000000    0.0000000000    0.0000000000    0.0000000000
Zr   11.4098233000    9.1278586400   12.2819646600   -0.0000000000   -0.0000000000    0.0000000000
Zr    9.1278586400   11.4098233000   12.2819646600   -0.0000000000   -0.0000000000    0.0000000000
Zr   11.4098233000   11.4098233000   10.0000000000    0.0000000000    0.0000000000    0.0000000000
Zr    9.1285056136    9.1285050436   14.5579310316    0.0001967919    0.0001967919   -0.0001009036
Zr   11.4091857945    9.1270627816   16.7535958816    0.0002825198    0.0002208542   -0.0000703649
Zr    9.1270677616   11.4091909545   16.7535826016    0.0002208542    0.0002825198   -0.0000703649
Zr   11.4100453867   11.4100421767   14.5609807073    0.0001259115    0.0001259115    0.0001169897
 N    0.0000000000    2.2819646600   10.0000000000   -0.0000000000    0.0000000000   -0.0000000000
 N    2.2819646600    0.0000000000   10.0000000000    0.0000000000   -0.0000000000   -0.0000000000
 N    0.0000000000    0.0000000000   12.2819646600    0.0000000000    0.0000000000   -0.0000000000
 N    2.2819646600    2.2819646600   12.2819646600    0.0000000000    0.0000000000   -0.0000000000
 N    0.0055150967    2.2841505720   14.5900983305    0.0000071486    0.0001113906   -0.0000086269
 N    2.2841536520    0.0055168467   14.5900960205    0.0001113906    0.0000071486   -0.0000086269
 N    0.0030282352    0.0030275552   16.9097732337    0.0001017069    0.0001017069    0.0000684011
 N    2.2878994244    2.2879001644   16.9104152772    0.0000524269    0.0000524269   -0.0000646943
 N    0.0000000000    6.8458939800   10.0000000000   -0.0000000000   -0.0000000000   -0.0000000000
 N    2.2819646600    4.5639293200   10.0000000000    0.0000000000    0.0000000000   -0.0000000000
 N    0.0000000000    4.5639293200   12.2819646600    0.0000000000    0.0000000000   -0.0000000000
 N    2.2819646600    6.8458939800   12.2819646600    0.0000000000   -0.0000000000   -0.0000000000
 N   -0.0005126852    6.8471594800   14.5878931776    0.0000690443    0.0001423950   -0.0000863520
 N    2.2863457411    4.5690384069   14.6043553833    0.0001197968    0.0001606106    0.0001520458
 N    0.0095507301    4.5690017521   16.9072363149    0.0001124750    0.0000860656    0.0000634989
 N    2.2706480394    6.8665970115   16.8898952317    0.0002908104    0.0002288794    0.0001423701
 N    0.0000000000   11.4098233000   10.0000000000   -0.0000000000   -0.0000000000   -0.0000000000
 N    2.2819646600    9.1278586400   10.0000000000    0.0000000000    0.0000000000   -0.0000000000
 N    0.0000000000    9.1278586400   12.2819646600    0.0000000000   -0.0000000000   -0.0000000000
 N    2.2819646600   11.4098233000   12.2819646600   -0.0000000000    0.0000000000   -0.0000000000
 N   -0.0001937070   11.4120348177   14.5881800886    0.0000954453    0.0000552359   -0.0000244434
 N    2.2795466787    9.1326370701   14.5854042698    0.0001396487    0.0000280820    0.0000575297
 N   -0.0040772156    9.1320130781   16.9095545767    0.0002039191    0.0001076500    0.0000003815
 N    2.2815651233   11.4193493492   16.9093895430    0.0001618467    0.0000755653    0.0000060683
 N    4.5639293200    2.2819646600   10.0000000000    0.0000000000    0.0000000000   -0.0000000000
 N    6.8458939800    0.0000000000   10.0000000000   -0.0000000000   -0.0000000000   -0.0000000000
 N    4.5639293200    0.0000000000   12.2819646600    0.0000000000    0.0000000000   -0.0000000000
 N    6.8458939800    2.2819646600   12.2819646600   -0.0000000000    0.0000000000   -0.0000000000
 N    4.5690396269    2.2863448211   14.6043265233    0.0001606106    0.0001197968    0.0001520458
 N    6.8471568807   -0.0005159352   14.5879061776    0.0001423950    0.0000690443   -0.0000863520
 N    4.5689980521    0.0095469201   16.9072322449    0.0000860656    0.0001124750    0.0000634989
 N    6.8665966315    2.2706499394   16.8898817317    0.0002288794    0.0002908104    0.0001423701
 N    4.5639293200    6.8458939800   10.0000000000    0.0000000000   -0.0000000000   -0.0000000000
 N    6.8458939800    4.5639293200   10.0000000000   -0.0000000000    0.0000000000   -0.0000000000
 N    4.5639293200    4.5639293200   12.2819646600    0.0000000000    0.0000000000   -0.0000000000
 N    6.8458939800    6.8458939800   12.2819646600   -0.0000000000   -0.0000000000   -0.0000000000
 N    4.5641943939    6.8499859685   14.5841870732    0.0001515332    0.0001225120    0.0003719206
 N    6.8499836685    4.5641929939   14.5841930126    0.0001225120    0.0001515332    0.0003719206
 N    4.5852772578    4.5852740478   17.0064473731    0.0001346541    0.0001346541    0.0003944999
 N    6.8605676130    6.8605676830   16.9090095310    0.0009273563    0.0009273563   -0.0023580764
 N    4.5639293200   11.4098233000   10.0000000000    0.0000000000    0.0000000000   -0.0000000000
 N    6.8458939800    9.1278586400   10.0000000000   -0.0000000000    0.0000000000   -0.0000000000
 N    4.5639293200    9.1278586400   12.2819646600   -0.0000000000   -0.0000000000   -0.0000000000
 N    6.8458939800   11.4098233000   12.2819646600    0.0000000000   -0.0000000000   -0.0000000000
 N    4.5636470027   11.4154502616   14.5890917084    0.0000350295    0.0001127544   -0.0000504545
 N    6.8461171293    9.1302082513   14.5876953116    0.0000901068    0.0001198494   -0.0001141248
 N    4.5597438051    9.1461736003   16.8971420018    0.0004001316    0.0003112369    0.0004032750
 N    6.8450643537   11.4118901268   16.9059403083    0.0002490772    0.0003288814    0.0000211217
 N    9.1278586400    2.2819646600   10.0000000000    0.0000000000    0.0000000000   -0.0000000000
 N   11.4098233000    0.0000000000   10.0000000000   -0.0000000000   -0.0000000000   -0.0000000000
 N    9.1278586400    0.0000000000   12.2819646600   -0.0000000000    0.0000000000   -0.0000000000
 N   11.4098233000    2.2819646600   12.2819646600    0.0000000000   -0.0000000000   -0.0000000000
 N    9.1326345601    2.2795445293   14.5854125498    0.0000280820    0.0001396487    0.0000575297
 N   11.4120347177   -0.0001960570   14.5881509486    0.0000552359    0.0000954453   -0.0000244434
 N    9.1320101675   -0.0040759656   16.9095591460    0.0001076500    0.0002039191    0.0000003815
 N   11.4193482192    2.2815637139   16.9093648930    0.0000755653    0.0001618467    0.0000060683
 N    9.1278586400    6.8458939800   10.0000000000    0.0000000000   -0.0000000000   -0.0000000000
 N   11.4098233000    4.5639293200   10.0000000000    0.0000000000    0.0000000000   -0.0000000000
 N    9.1278586400    4.5639293200   12.2819646600   -0.0000000000   -0.0000000000   -0.0000000000
 N   11.4098233000    6.8458939800   12.2819646600   -0.0000000000    0.0000000000   -0.0000000000
 N    9.1302079813    6.8461153793   14.5877000416    0.0001198494    0.0000901068   -0.0001141248
 N   11.4154504116    4.5636474027   14.5890926184    0.0001127544    0.0000350295   -0.0000504545
 N    9.1461719903    4.5597463751   16.8971290018    0.0003112369    0.0004001316    0.0004032750
 N   11.4118895868    6.8450628443   16.9059418183    0.0003288814    0.0002490772    0.0000211217
 N    9.1278586400   11.4098233000   10.0000000000    0.0000000000    0.0000000000   -0.0000000000
 N   11.4098233000    9.1278586400   10.0000000000    0.0000000000    0.0000000000   -0.0000000000
 N    9.1278586400    9.1278586400   12.2819646600   -0.0000000000   -0.0000000000   -0.0000000000
 N   11.4098233000   11.4098233000   12.2819646600   -0.0000000000   -0.0000000000   -0.0000000000
 N    9.1274243879   11.4082769891   14.5887496492    0.0000746986    0.0001615240   -0.0000420216
 N   11.4082805791    9.1274221279   14.5887513492    0.0001615240    0.0000746986   -0.0000420216
 N    9.1271518286    9.1271527686   16.9097392949    0.0002631744    0.0002631744   -0.0001063988
 N   11.4094912060   11.4094942860   16.9103069454    0.0001308624    0.0001308624   -0.0000161406
Li    5.1338779917    5.1338759866   18.9269221869   -0.0150870016   -0.0150870016   -0.0006560276
 PRIMCOORD   3
  145  1
Zr    0.0000000000    0.0000000000   10.0000000000   -0.0000000000   -0.0000000000    0.0000000000
Zr    2.2819646600    0.0000000000   12.2819646600    0.0000000000    0.0000000000    0.0000000000
Zr    0.0000000000    2.2819646600   12.2819646600    0.0000000000    0.0000000000    0.0000000000
Zr    2.2819646600    2.2819646600   10.0000000000    0.0000000000    0.0000000000    0.0000000000
Zr    0.0014435384    0.0014402784   14.5606569141   -0.0000025369   -0.0000025369    0.0000069143
Zr    2.2862125081    0.0066062981   16.7549315898   -0.0000360359    0.0000268054   -0.0000941035
Zr    0.0066045881    2.2862104881   16.7549249098    0.0000268054   -0.0000360359   -0.0000941035
Zr    2.2881677059    2.2881659959   14.5608129550    0.0000076299    0.0000076299   -0.0000340381
Zr    0.0000000000    4.5639293200   10.0000000000   -0.0000000000   -0.0000000000    0.0000000000
Zr    2.2819646600    4.5639293200   12.2819646600    0.0000000000   -0.0000000000    0.0000000000
Zr    0.0000000000    6.8458939800   12.2819646600    0.0000000000   -0.0000000000    0.0000000000
Zr    2.2819646600    6.8458939800   10.0000000000    0.0000000000   -0.0000000000    0.0000000000
Zr    0.0065958758    4.5642139800   14.5608873144   -0.0000611471    0.0000241833    0.0000879607
Zr    2.2964177460    4.5733235388   16.7719686522    0.0000164873   -0.0000536135    0.0002317893
Zr    0.0004335786    6.8488791029   16.7520444600    0.0001072408   -0.0001149572   -0.0000705546
Zr    2.2784053070    6.8472558686   14.5498732853    0.0003931163    0.0000270108    0.0000851595
Zr    0.0000000000    9.1278586400   10.0000000000   -0.0000000000    0.0000000000    0.0000000000
Zr    2.2819646600    9.1278586400   12.2819646600   -0.0000000000    0.0000000000    0.0000000000
Zr    0.0000000000   11.4098233000   12.2819646600   -0.0000000000    0.0000000000    0.0000000000
Zr    2.2819646600   11.4098233000   10.0000000000   -0.0000000000    0.0000000000    0.0000000000
Zr   -0.0059818924    9.1312025962   14.5578041793   -0.0000844381   -0.0000034601   -0.0000824843
Zr    2.2689176751    9.1409177973   16.7496163353   -0.0001613131    0.0001613131    0.0000783136
Zr   -0.0021980333   11.4120275961   16.7536136523   -0.0000632523    0.0000632523    0.0000085210
Zr    2.2786252529   11.4158332205   14.5577988571    0.0000034601    0.0000844381   -0.0000824843
Zr    4.5639293200    0.0000000000   10.0000000000   -0.0000000000   -0.0000000000    0.0000000000
Zr    6.8458939800    0.0000000000   12.2819646600   -0.0000000000    0.0000000000    0.0000000000
Zr    4.5639293200    2.2819646600   12.2819646600   -0.0000000000    0.0000000000    0.0000000000
Zr    6.8458939800    2.2819646600   10.0000000000   -0.0000000000    0.0000000000    0.0000000000
Zr    4.5642145900    0.0065874058   14.5608874544    0.0000241833   -0.0000611471    0.0000879607
Zr    6.8488813529    0.0004330086   16.7520429095   -0.0001149572    0.0001072408   -0.0000705546
Zr    4.5733254188    2.2964175260   16.7719654422   -0.0000536135    0.0000164873    0.0002317893
Zr    6.8472634286    2.2784018170   14.5498628653    0.0000270108    0.0003931163    0.0000851595
Zr    4.5639293200    4.5639293200   10.0000000000    0.0000000000    0.0000000000    0.0000000000
Zr    6.8458939800    4.5639293200   12.2819646600   -0.0000000000    0.0000000000    0.0000000000
Zr    4.5639293200    6.8458939800   12.2819646600    0.0000000000   -0.0000000000    0.0000000000
Zr    6.8458939800    6.8458939800   10.0000000000   -0.0000000000   -0.0000000000    0.0000000000
Zr    4.5693488427    4.5693485727   14.5849097789    0.0002240621    0.0002240621    0.0002985660
Zr    6.8931574234    4.5166920906   16.7460228693   -0.0000455968    0.0000455968   -0.0009033815
Zr    4.5166919506    6.8931615334   16.7460126693    0.0000455968   -0.0000455968   -0.0009033815
Zr    6.8404714499    6.8404672699   14.5849506176   -0.0002240621   -0.0002240621    0.0002985660
Zr    4.5639293200    9.1278586400   10.0000000000    0.0000000000   -0.0000000000    0.0000000000
Zr    6.8458939800    9.1278586400   12.2819646600    0.0000000000   -0.0000000000    0.0000000000
Zr    4.5639293200   11.4098233000   12.2819646600    0.0000000000   -0.0000000000    0.0000000000
Zr    6.8458939800   11.4098233000   10.0000000000    0.0000000000    0.0000000000    0.0000000000
Zr    4.5625615465    9.1314242937   14.5498875341   -0.0000270108   -0.0003931163    0.0000851595
Zr    6.8365085365    9.1133982051   16.7719609861    0.0000536135   -0.0000164873    0.0002317893
Zr    4.5609424881   11.4093764573   16.7520300061    0.0001149572   -0.0001072408   -0.0000705546
Zr    6.8455780082   11.4032330645   14.5609158409   -0.0000241833    0.0000611471    0.0000879607
Zr    9.1278586400    0.0000000000   10.0000000000    0.0000000000   -0.0000000000    0.0000000000
Zr   11.4098233000    0.0000000000   12.2819646600    0.0000000000   -0.0000000000    0.0000000000
Zr    9.1278586400    2.2819646600   12.2819646600    0.0000000000   -0.0000000000    0.0000000000
Zr   11.4098233000    2.2819646600   10.0000000000    0.0000000000   -0.0000000000    0.0000000000
Zr    9.1312031457   -0.0059810819   14.5577986698   -0.0000034601   -0.0000844381   -0.0000824843
Zr   11.4120241461   -0.0021962133   16.7535917223    0.0000632523   -0.0000632523    0.0000085210
Zr    9.1409235173    2.2689168651   16.7496339653    0.0001613131   -0.0001613131    0.0000783136
Zr   11.4158285305    2.2786264129   14.5577922066    0.0000844381    0.0000034601   -0.0000824843
Zr    9.1278586400    4.5639293200   10.0000000000   -0.0000000000    0.0000000000    0.0000000000
Zr   11.4098233000    4.5639293200   12.2819646600   -0.0000000000    0.0000000000    0.0000000000
Zr    9.1278586400    6.8458939800   12.2819646600   -0.0000000000    0.0000000000    0.0000000000
Zr   11.4098233000    6.8458939800   10.0000000000    0.0000000000    0.0000000000    0.0000000000
Zr    9.1314240237    4.5625577765   14.5498855736   -0.0003931163   -0.0000270108    0.0000851595
Zr   11.4093747073    4.5609427681   16.7520395861   -0.0001072408    0.0001149572   -0.0000705546
Zr    9.1133947951    6.8365084165   16.7719789561   -0.0000164873    0.0000536135    0.0002317893
Zr   11.4032279045    6.8455762982   14.5609160909    0.0000611471   -0.0000241833    0.0000879607
Zr    9.1278586400    9.1278586400   10.0000000000   -0.0000000000   -0.0000000000    0.0000000000
Zr   11.4098233000    9.1278586400   12.2819646600   -0.0000000000   -0.0000000000    0.0000000000
Zr    9.1278586400   11.4098233000   12.2819646600   -0.0000000000   -0.0000000000    0.0000000000
Zr   11.4098233000   11.4098233000   10.0000000000    0.0000000000    0.0000000000    0.0000000000
Zr    9.1216357249    9.1216351549   14.5608911609   -0.0000076299   -0.0000076299   -0.0000340381
Zr   11.4031891117    9.1236004504   16.7549554400   -0.0000268054    0.0000360359   -0.0000941035
Zr    9.1236054304   11.4031942717   16.7549421600    0.0000360359   -0.0000268054   -0.0000941035
Zr   11.4084100022   11.4084067922   14.5606891636    0.0000025369    0.0000025369    0.0000069143
 N    0.0000000000    2.2819646600   10.0000000000   -0.0000000000    0.0000000000   -0.0000000000
 N    2.2819646600    0.0000000000   10.0000000000    0.0000000000   -0.0000000000   -0.0000000000
 N    0.0000000000    0.0000000000   12.2819646600    0.0000000000    0.0000000000   -0.0000000000
 N    2.2819646600    2.2819646600   12.2819646600    0.0000000000    0.0000000000   -0.0000000000
 N    0.0055522333    2.2840606181   14.5904779461   -0.0001313499   -0.0000599485   -0.0000306136
 N    2.2840636981    0.0055539833   14.5904756361   -0.0000599485   -0.0001313499   -0.0000306136
 N    0.0027905583    0.0027898783   16.9096564428   -0.0000359440   -0.0000359440   -0.0000440122
 N    2.2899272105    2.2899279505   16.9120770210   -0.0000800256   -0.0000800256   -0.0000308969
 N    0.0000000000    6.8458939800   10.0000000000   -0.0000000000   -0.0000000000   -0.0000000000
 N    2.2819646600    4.5639293200   10.0000000000    0.0000000000    0.0000000000   -0.0000000000
 N    0.0000000000    4.5639293200   12.2819646600    0.0000000000    0.0000000000   -0.0000000000
 N    2.2819646600    6.8458939800   12.2819646600    0.0000000000   -0.0000000000   -0.0000000000
 N   -0.0049543334    6.8470686042   14.5887499355   -0.0002845493    0.0000930206   -0.0000737365
 N    2.2825618400    4.5682468853   14.5952088396   -0.0001886643    0.0001039146   -0.0000167681
 N    0.0067011147    4.5688950955   16.9057713242   -0.0000827021   -0.0001352127    0.0000406938
 N    2.2635049684    6.8619833802   16.8887143494   -0.0002830096    0.0000511226    0.0003077718
 N    0.0000000000   11.4098233000   10.0000000000   -0.0000000000    0.0000000000   -0.0000000000
 N    2.2819646600    9.1278586400   10.0000000000   -0.0000000000    0.0000000000   -0.0000000000
 N    0.0000000000    9.1278586400   12.2819646600   -0.0000000000    0.0000000000   -0.0000000000
 N    2.2819646600   11.4098233000   12.2819646600   -0.0000000000    0.0000000000   -0.0000000000
 N   -0.0018455876   11.4116764503   14.5887555264   -0.0000310055    0.0000310055   -0.0000387580
 N    2.2768361602    9.1329942843   14.5844462074    0.0000544379   -0.0000544379   -0.0000511753
 N   -0.0097629430    9.1305744783   16.9094488205   -0.0000489999    0.0000021082    0.0000785305
 N    2.2792488880   11.4195803144   16.9094919711   -0.0000021082    0.0000489999    0.0000785305
 N    4.5639293200    2.2819646600   10.0000000000    0.0000000000    0.0000000000   -0.0000000000
 N    6.8458939800    0.0000000000   10.0000000000   -0.0000000000   -0.0000000000   -0.0000000000
 N    4.5639293200    0.0000000000   12.2819646600    0.0000000000    0.0000000000   -0.0000000000
 N    6.8458939800    2.2819646600   12.2819646600   -0.0000000000    0.0000000000   -0.0000000000
 N    4.5682481053    2.2825609200   14.5951799796    0.0001039146   -0.0001886643   -0.0000167681
 N    6.8470660047   -0.0049575834   14.5887629355    0.0000930206   -0.0002845493   -0.0000737365
 N    4.5688913955    0.0066973047   16.9057672542   -0.0001352127   -0.0000827021    0.0000406938
 N    6.8619830002    2.2635068684   16.8887008494    0.0000511226   -0.0002830096    0.0003077718
 N    4.5639293200    6.8458939800   10.0000000000    0.0000000000   -0.0000000000   -0.0000000000
 N    6.8458939800    4.5639293200   10.0000000000   -0.0000000000    0.0000000000   -0.0000000000
 N    4.5639293200    4.5639293200   12.2819646600    0.0000000000    0.0000000000   -0.0000000000
 N    6.8458939800    6.8458939800   12.2819646600   -0.0000000000   -0.0000000000   -0.0000000000
 N    4.5610192842    6.8488017140   14.5736444385   -0.0001035649    0.0001035649    0.0013115096
 N    6.8487994140    4.5610178842   14.5736503780    0.0001035649   -0.0001035649    0.0013115096
 N    4.5824264042    4.5824231942   16.9957848053   -0.0001510155   -0.0001510155   -0.0003063358
 N    6.8273953033    6.8273953733   16.9958020912    0.0001510155    0.0001510155   -0.0003063358
 N    4.5639293200   11.4098233000   10.0000000000    0.0000000000    0.0000000000   -0.0000000000
 N    6.8458939800    9.1278586400   10.0000000000   -0.0000000000   -0.0000000000   -0.0000000000
 N    4.5639293200    9.1278586400   12.2819646600    0.0000000000   -0.0000000000   -0.0000000000
 N    6.8458939800   11.4098233000   12.2819646600   -0.0000000000   -0.0000000000   -0.0000000000
 N    4.5627464965   11.4147790587   14.5887389617   -0.0000930206    0.0002845493   -0.0000737365
 N    6.8415668808    9.1272616970   14.5951573371   -0.0001039146    0.0001886643   -0.0000167681
 N    4.5478381451    9.1463172455   16.8887103864   -0.0000511226    0.0002830096    0.0003077718
 N    6.8409383905   11.4031258899   16.9057598013    0.0001352127    0.0000827021    0.0000406938
 N    9.1278586400    2.2819646600   10.0000000000    0.0000000000   -0.0000000000   -0.0000000000
 N   11.4098233000    0.0000000000   10.0000000000    0.0000000000   -0.0000000000   -0.0000000000
 N    9.1278586400    0.0000000000   12.2819646600    0.0000000000   -0.0000000000   -0.0000000000
 N   11.4098233000    2.2819646600   12.2819646600    0.0000000000   -0.0000000000   -0.0000000000
 N    9.1329917743    2.2768340107   14.5844544874   -0.0000544379    0.0000544379   -0.0000511753
 N   11.4116763503   -0.0018479376   14.5887263864    0.0000310055   -0.0000310055   -0.0000387580
 N    9.1305715678   -0.0097616930   16.9094533900    0.0000021082   -0.0000489999    0.0000785305
 N   11.4195791844    2.2792474785   16.9094673211    0.0000489999   -0.0000021082    0.0000785305
 N    9.1278586400    6.8458939800   10.0000000000   -0.0000000000   -0.0000000000   -0.0000000000
 N   11.4098233000    4.5639293200   10.0000000000    0.0000000000    0.0000000000   -0.0000000000
 N    9.1278586400    4.5639293200   12.2819646600   -0.0000000000    0.0000000000   -0.0000000000
 N   11.4098233000    6.8458939800   12.2819646600   -0.0000000000   -0.0000000000   -0.0000000000
 N    9.1272614270    6.8415651308   14.5951620671    0.0001886643   -0.0001039146   -0.0000167681
 N   11.4147792087    4.5627468965   14.5887398717    0.0002845493   -0.0000930206   -0.0000737365
 N    9.1463156355    4.5478407151   16.8886973864    0.0002830096   -0.0000511226    0.0003077718
 N   11.4031253499    6.8409368810   16.9057613113    0.0000827021    0.0001352127    0.0000406938
 N    9.1278586400   11.4098233000   10.0000000000   -0.0000000000    0.0000000000   -0.0000000000
 N   11.4098233000    9.1278586400   10.0000000000    0.0000000000   -0.0000000000   -0.0000000000
 N    9.1278586400    9.1278586400   12.2819646600   -0.0000000000   -0.0000000000   -0.0000000000
 N   11.4098233000   11.4098233000   12.2819646600   -0.0000000000   -0.0000000000   -0.0000000000
 N    9.1257603021   11.4042693235   14.5904718244    0.0000599485    0.0001313499   -0.0000306136
 N   11.4042729135    9.1257580421   14.5904735244    0.0001313499    0.0000599485   -0.0000306136
 N    9.1199036205    9.1199045605   16.9121492482    0.0000800256    0.0000800256   -0.0000308969
 N   11.4070270583   11.4070301383   16.9096682361    0.0000359440    0.0000359440   -0.0000440122
Li    5.7049121664    5.7049105964   18.9795549185    0.0000000000    0.0000000000    0.0013005666
 PRIMCOORD   4
  145  1
Zr    0.0000000000    0.0000000000   10.0000000000   -0.0000000000   -0.0000000000    0.0000000000
Zr    2.2819646600    0.0000000000   12.2819646600    0.0000000000    0.0000000000    0.0000000000
Zr    0.0000000000    2.2819646600   12.2819646600    0.0000000000    0.0000000000    0.0000000000
Zr    2.2819646600    2.2819646600   10.0000000000   -0.0000000000   -0.0000000000    0.0000000000
Zr   -0.0002207545   -0.0002240145   14.5609742762   -0.0001324146   -0.0001324146    0.0001130150
Zr    2.2827585873    0.0006262140   16.7535952084   -0.0002212951   -0.0002871904   -0.0000654559
Zr    0.0006245040    2.2827565673   16.7535885284   -0.0002871904   -0.0002212951   -0.0000654559
Zr    2.2813105642    2.2813088542   14.5579205066   -0.0001938608   -0.0001938608   -0.0001033816
Zr    0.0000000000    4.5639293200   10.0000000000    0.0000000000    0.0000000000    0.0000000000
Zr    2.2819646600    4.5639293200   12.2819646600    0.0000000000    0.0000000000    0.0000000000
Zr    0.0000000000    6.8458939800   12.2819646600   -0.0000000000   -0.0000000000    0.0000000000
Zr    2.2819646600    6.8458939800   10.0000000000   -0.0000000000   -0.0000000000    0.0000000000
Zr    0.0006120310    4.5635243197   14.5588122075   -0.0002992164    0.0000024609   -0.0000430474
Zr    2.2853849410    4.5604703196   16.7570726464   -0.0004617503   -0.0004291442   -0.0002950272
Zr   -0.0032621069    6.8458409887   16.7523971788   -0.0001304250   -0.0001543248   -0.0000620564
Zr    2.2789548508    6.8458566459   14.5532217520    0.0000679426   -0.0000269956    0.0001158796
Zr    0.0000000000    9.1278586400   10.0000000000    0.0000000000   -0.0000000000    0.0000000000
Zr    2.2819646600    9.1278586400   12.2819646600   -0.0000000000    0.0000000000    0.0000000000
Zr    0.0000000000   11.4098233000   12.2819646600   -0.0000000000   -0.0000000000    0.0000000000
Zr    2.2819646600   11.4098233000   10.0000000000   -0.0000000000    0.0000000000    0.0000000000
Zr   -0.0054206856    9.1291353155   14.5584800133   -0.0000907523   -0.0001277058    0.0000457866
Zr    2.2718079374    9.1364479509   16.7510734184   -0.0001496595   -0.0000871952    0.0000748687
Zr   -0.0036029521   11.4096208779   16.7533479068   -0.0001425536   -0.0002021899   -0.0000193340
Zr    2.2785370759   11.4132793976   14.5575804707   -0.0000803160   -0.0001552086    0.0000113488
Zr    4.5639293200    0.0000000000   10.0000000000    0.0000000000    0.0000000000    0.0000000000
Zr    6.8458939800    0.0000000000   12.2819646600   -0.0000000000   -0.0000000000    0.0000000000
Zr    4.5639293200    2.2819646600   12.2819646600    0.0000000000    0.0000000000    0.0000000000
Zr    6.8458939800    2.2819646600   10.0000000000   -0.0000000000   -0.0000000000    0.0000000000
Zr    4.5635249297    0.0006035610   14.5588123472    0.0000024609   -0.0002992164   -0.0000430474
Zr    6.8458432387   -0.0032626769   16.7523956281   -0.0001543248   -0.0001304250   -0.0000620564
Zr    4.5604721996    2.2853847210   16.7570694364   -0.0004291442   -0.0004617503   -0.0002950272
Zr    6.8458642059    2.2789513608   14.5532113320   -0.0000269956    0.0000679426    0.0001158796
Zr    4.5639293200    4.5639293200   10.0000000000    0.0000000000    0.0000000000    0.0000000000
Zr    6.8458939800    4.5639293200   12.2819646600   -0.0000000000    0.0000000000    0.0000000000
Zr    4.5639293200    6.8458939800   12.2819646600    0.0000000000   -0.0000000000    0.0000000000
Zr    6.8458939800    6.8458939800   10.0000000000   -0.0000000000   -0.0000000000    0.0000000000
Zr    4.5658550536    4.5658547836   14.5613473712   -0.0000143930   -0.0000143930   -0.0003542619
Zr    6.8571910543    4.5062468553   16.7614207267   -0.0009701369   -0.0001362578    0.0006667057
Zr    4.5062467153    6.8571951643   16.7614105267   -0.0001362578   -0.0009701369    0.0006667057
Zr    6.8376666391    6.8376624591   14.6109438249   -0.0002196925   -0.0002196925    0.0008404070
Zr    4.5639293200    9.1278586400   10.0000000000    0.0000000000   -0.0000000000    0.0000000000
Zr    6.8458939800    9.1278586400   12.2819646600    0.0000000000   -0.0000000000    0.0000000000
Zr    4.5639293200   11.4098233000   12.2819646600    0.0000000000   -0.0000000000    0.0000000000
Zr    6.8458939800   11.4098233000   10.0000000000    0.0000000000    0.0000000000    0.0000000000
Zr    4.5628982577    9.1255838482   14.5530535600   -0.0001037085   -0.0002569378    0.0000625675
Zr    6.8319566880    9.1228211520   16.7838553324   -0.0002109675    0.0002269666    0.0005012665
Zr    4.5583923920   11.4059026942   16.7519212808   -0.0001086882   -0.0001966642   -0.0000437877
Zr    6.8448417125   11.4017173675   14.5609984786   -0.0000963302   -0.0000850653    0.0000686504
Zr    9.1278586400    0.0000000000   10.0000000000   -0.0000000000    0.0000000000    0.0000000000
Zr   11.4098233000    0.0000000000   12.2819646600   -0.0000000000   -0.0000000000    0.0000000000
Zr    9.1278586400    2.2819646600   12.2819646600    0.0000000000   -0.0000000000    0.0000000000
Zr   11.4098233000    2.2819646600   10.0000000000    0.0000000000   -0.0000000000    0.0000000000
Zr    9.1291358651   -0.0054198752   14.5584745039   -0.0001277058   -0.0000907523    0.0000457866
Zr   11.4096174279   -0.0036011321   16.7533259768   -0.0002021899   -0.0001425536   -0.0000193340
Zr    9.1364536709    2.2718071274   16.7510910484   -0.0000871952   -0.0001496595    0.0000748687
Zr   11.4132747076    2.2785382359   14.5575738201   -0.0001552086   -0.0000803160    0.0000113488
Zr    9.1278586400    4.5639293200   10.0000000000   -0.0000000000    0.0000000000    0.0000000000
Zr   11.4098233000    4.5639293200   12.2819646600   -0.0000000000    0.0000000000    0.0000000000
Zr    9.1278586400    6.8458939800   12.2819646600   -0.0000000000    0.0000000000    0.0000000000
Zr   11.4098233000    6.8458939800   10.0000000000    0.0000000000    0.0000000000    0.0000000000
Zr    9.1255835782    4.5628944877   14.5530515996   -0.0002569378   -0.0001037085    0.0000625675
Zr   11.4059009442    4.5583926720   16.7519308608   -0.0001966642   -0.0001086882   -0.0000437877
Zr    9.1228177420    6.8319565680   16.7838733024    0.0002269666   -0.0002109675    0.0005012665
Zr   11.4017122075    6.8448400025   14.5609987286   -0.0000850653   -0.0000963302    0.0000686504
Zr    9.1278586400    9.1278586400   10.0000000000   -0.0000000000   -0.0000000000    0.0000000000
Zr   11.4098233000    9.1278586400   12.2819646600   -0.0000000000   -0.0000000000    0.0000000000
Zr    9.1278586400   11.4098233000   12.2819646600   -0.0000000000   -0.0000000000    0.0000000000
Zr   11.4098233000   11.4098233000   10.0000000000    0.0000000000    0.0000000000    0.0000000000
Zr    9.1198951191    9.1198945491   14.5612253345   -0.0000855265   -0.0000855265    0.0000305213
Zr   11.4025227515    9.1247621413   16.7552047505   -0.0001301207   -0.0000679841   -0.0001141915
Zr    9.1247671213   11.4025279115   16.7551914705   -0.0000679841   -0.0001301207   -0.0001141915
Zr   11.4081446832   11.4081414732   14.5594298125   -0.0001053920   -0.0001053920    0.0000419579
 N    0.0000000000    2.2819646600   10.0000000000   -0.0000000000   -0.0000000000   -0.0000000000
 N    2.2819646600    0.0000000000   10.0000000000   -0.0000000000   -0.0000000000   -0.0000000000
 N    0.0000000000    0.0000000000   12.2819646600    0.0000000000    0.0000000000   -0.0000000000
 N    2.2819646600    2.2819646600   12.2819646600    0.0000000000    0.0000000000   -0.0000000000
 N    0.0015433935    2.2823965897   14.5887635494   -0.0001623800   -0.0000745751   -0.0000444229
 N    2.2823996697    0.0015451435   14.5887612394   -0.0000745751   -0.0001623800   -0.0000444229
 N    0.0003300286    0.0003293486   16.9103075811   -0.0001313171   -0.0001313171   -0.0000190083
 N    2.2826705043    2.2826712443   16.9097288144   -0.0002639572   -0.0002639572   -0.0001084641
 N    0.0000000000    6.8458939800   10.0000000000   -0.0000000000   -0.0000000000   -0.0000000000
 N    2.2819646600    4.5639293200   10.0000000000   -0.0000000000    0.0000000000   -0.0000000000
 N    0.0000000000    4.5639293200   12.2819646600    0.0000000000   -0.0000000000   -0.0000000000
 N    2.2819646600    6.8458939800   12.2819646600    0.0000000000    0.0000000000   -0.0000000000
 N   -0.0056248203    6.8461766290   14.5890974073   -0.0001128416   -0.0000347059   -0.0000539391
 N    2.2796175977    4.5637060848   14.5877287691   -0.0001216358   -0.0000894852   -0.0001152442
 N   -0.0020639234    4.5647624015   16.9059469678   -0.0003289521   -0.0002495654    0.0000197028
 N    2.2636514338    6.8500779080   16.8971413158   -0.0003137235   -0.0003998758    0.0004024011
 N    0.0000000000   11.4098233000   10.0000000000    0.0000000000    0.0000000000   -0.0000000000
 N    2.2819646600    9.1278586400   10.0000000000   -0.0000000000   -0.0000000000   -0.0000000000
 N    0.0000000000    9.1278586400   12.2819646600   -0.0000000000    0.0000000000   -0.0000000000
 N    2.2819646600   11.4098233000   12.2819646600    0.0000000000   -0.0000000000   -0.0000000000
 N   -0.0022101939   11.4100195505   14.5881846826   -0.0000546808   -0.0000957077   -0.0000238602
 N    2.2771889121    9.1302781030   14.5854140323   -0.0000294935   -0.0001389394    0.0000553003
 N   -0.0095256783    9.1282602500   16.9093751439   -0.0000747362   -0.0001614080    0.0000068814
 N    2.2778115322   11.4138998065   16.9095762823   -0.0001083775   -0.0002036747   -0.0000013874
 N    4.5639293200    2.2819646600   10.0000000000    0.0000000000   -0.0000000000   -0.0000000000
 N    6.8458939800    0.0000000000   10.0000000000   -0.0000000000   -0.0000000000   -0.0000000000
 N    4.5639293200    0.0000000000   12.2819646600   -0.0000000000    0.0000000000   -0.0000000000
 N    6.8458939800    2.2819646600   12.2819646600    0.0000000000    0.0000000000   -0.0000000000
 N    4.5637073048    2.2796166777   14.5876999091   -0.0000894852   -0.0001216358   -0.0001152442
 N    6.8461740293   -0.0056280703   14.5891104073   -0.0000347059   -0.0001128416   -0.0000539391
 N    4.5647587015   -0.0020677334   16.9059428978   -0.0002495654   -0.0003289521    0.0000197028
 N    6.8500775280    2.2636533338   16.8971278158   -0.0003998758   -0.0003137235    0.0004024011
 N    4.5639293200    6.8458939800   10.0000000000    0.0000000000   -0.0000000000   -0.0000000000
 N    6.8458939800    4.5639293200   10.0000000000   -0.0000000000    0.0000000000   -0.0000000000
 N    4.5639293200    4.5639293200   12.2819646600    0.0000000000    0.0000000000   -0.0000000000
 N    6.8458939800    6.8458939800   12.2819646600   -0.0000000000   -0.0000000000   -0.0000000000
 N    4.5598380344    6.8456303288   14.5842009528   -0.0001237329   -0.0001510261    0.0003702424
 N    6.8456280288    4.5598366344   14.5842068924   -0.0001510261   -0.0001237329    0.0003702424
 N    4.5492553981    4.5492521881   16.9090047705   -0.0009283952   -0.0009283952   -0.0023618574
 N    6.8245447660    6.8245448360   17.0064579500   -0.0001356794   -0.0001356794    0.0003944093
 N    4.5639293200   11.4098233000   10.0000000000    0.0000000000    0.0000000000   -0.0000000000
 N    6.8458939800    9.1278586400   10.0000000000   -0.0000000000   -0.0000000000   -0.0000000000
 N    4.5639293200    9.1278586400   12.2819646600    0.0000000000   -0.0000000000   -0.0000000000
 N    6.8458939800   11.4098233000   12.2819646600   -0.0000000000   -0.0000000000   -0.0000000000
 N    4.5626635342   11.4103362941   14.5879081270   -0.0001427017   -0.0000684235   -0.0000910165
 N    6.8407851799    9.1234776228   14.6043482146   -0.0001613482   -0.0001180118    0.0001482575
 N    4.5432247150    9.1391756123   16.8898994668   -0.0002303455   -0.0002904954    0.0001432315
 N    6.8408252734   11.4002745567   16.9072388493   -0.0000871245   -0.0001116537    0.0000658588
 N    9.1278586400    2.2819646600   10.0000000000   -0.0000000000   -0.0000000000   -0.0000000000
 N   11.4098233000    0.0000000000   10.0000000000    0.0000000000    0.0000000000   -0.0000000000
 N    9.1278586400    0.0000000000   12.2819646600    0.0000000000   -0.0000000000   -0.0000000000
 N   11.4098233000    2.2819646600   12.2819646600   -0.0000000000    0.0000000000   -0.0000000000
 N    9.1302755930    2.2771867625   14.5854223123   -0.0001389394   -0.0000294935    0.0000553003
 N   11.4100194505   -0.0022125439   14.5881555426   -0.0000957077   -0.0000546808   -0.0000238602
 N    9.1282573396   -0.0095244283   16.9093797135   -0.0001614080   -0.0000747362    0.0000068814
 N   11.4138986765    2.2778101225   16.9095516323   -0.0002036747   -0.0001083775   -0.0000013874
 N    9.1278586400    6.8458939800   10.0000000000   -0.0000000000   -0.0000000000   -0.0000000000
 N   11.4098233000    4.5639293200   10.0000000000    0.0000000000    0.0000000000   -0.0000000000
 N    9.1278586400    4.5639293200   12.2819646600   -0.0000000000    0.0000000000   -0.0000000000
 N   11.4098233000    6.8458939800   12.2819646600   -0.0000000000   -0.0000000000   -0.0000000000
 N    9.1234773528    6.8407834299   14.6043529446   -0.0001180118   -0.0001613482    0.0001482575
 N   11.4103364441    4.5626639342   14.5879090370   -0.0000684235   -0.0001427017   -0.0000910165
 N    9.1391740023    4.5432272850   16.8898864668   -0.0002904954   -0.0002303455    0.0001432315
 N   11.4002740167    6.8408237638   16.9072403593   -0.0001116537   -0.0000871245    0.0000658588
 N    9.1278586400   11.4098233000   10.0000000000   -0.0000000000    0.0000000000   -0.0000000000
 N   11.4098233000    9.1278586400   10.0000000000    0.0000000000   -0.0000000000   -0.0000000000
 N    9.1278586400    9.1278586400   12.2819646600   -0.0000000000   -0.0000000000   -0.0000000000
 N   11.4098233000   11.4098233000   12.2819646600   -0.0000000000   -0.0000000000   -0.0000000000
 N    9.1256728848   11.4043056643   14.5901011225   -0.0001117300   -0.0000049820   -0.0000104030
 N   11.4043092543    9.1256706248   14.5901028225   -0.0000049820   -0.0001117300   -0.0000104030
 N    9.1219235654    9.1219245054   16.9104370069   -0.0000522470   -0.0000522470   -0.0000630546
 N   11.4067932197   11.4067962997   16.9097829979   -0.0001004649   -0.0001004649    0.0000684363
Li    6.2759452277    6.2759440927   18.9269335697    0.0150889215    0.0150889215   -0.0006507631
 PRIMCOORD   5
  145  1
Zr    0.0000000000    0.0000000000   10.0000000000    0.0000000000    0.0000000000    0.0000000000
Zr    2.2819646600    0.0000000000   12.2819646600    0.0000000000    0.0000000000    0.0000000000
Zr    0.0000000000    2.2819646600   12.2819646600    0.0000000000    0.0000000000    0.0000000000
Zr    2.2819646600    2.2819646600   10.0000000000   -0.0000000000   -0.0000000000    0.0000000000
Zr    0.0000002100   -0.0000030500   14.5604566750    0.0000000000    0.0000000000   -0.0000238825
Zr    2.2803762050   -0.0000049100   16.7517847450    0.0005254278    0.0000000000    0.0001603371
Zr   -0.0000066200    2.2803741850   16.7517780650    0.0000000000    0.0005254278    0.0001603371
Zr    2.2805308330    2.2805291230   14.5577421040    0.0000612802    0.0000612802   -0.0000314294
Zr    0.0000000000    4.5639293200   10.0000000000    0.0000000000    0.0000000000    0.0000000000
Zr    2.2819646600    4.5639293200   12.2819646600    0.0000000000    0.0000000000    0.0000000000
Zr    0.0000000000    6.8458939800   12.2819646600    0.0000000000    0.0000000000    0.0000000000
Zr    2.2819646600    6.8458939800   10.0000000000   -0.0000000000    0.0000000000    0.0000000000
Zr    0.0000065600    4.5636057520   14.5579140430   -0.0000000000    0.0001416682    0.0003039198
Zr    2.2797755440    4.5584294180   16.7533249720    0.0005045738   -0.0000398418    0.0000404628
Zr   -0.0000086800    6.8458868900   16.7525233660    0.0000000000    0.0000000000    0.0001553048
Zr    2.2850574880    6.8458907100   14.5609341410    0.0001593152    0.0000000000   -0.0003672371
Zr    0.0000000000    9.1278586400   10.0000000000   -0.0000000000   -0.0000000000    0.0000000000
Zr    2.2819646600    9.1278586400   12.2819646600    0.0000000000   -0.0000000000    0.0000000000
Zr    0.0000000000   11.4098233000   12.2819646600   -0.0000000000   -0.0000000000    0.0000000000
Zr    2.2819646600   11.4098233000   10.0000000000   -0.0000000000    0.0000000000    0.0000000000
Zr    0.0000028800    9.1281865180   14.5579100020    0.0000000000   -0.0001416682    0.0003039198
Zr    2.2797772040    9.1333601320   16.7533073120    0.0005045738    0.0000398418    0.0000404628
Zr   -0.0000034700   11.4114179950   16.7518108350    0.0000000000   -0.0005254278    0.0001603371
Zr    2.2805240130   11.4112580270   14.5577605240    0.0000612802   -0.0000612802   -0.0000314294
Zr    4.5639293200    0.0000000000   10.0000000000    0.0000000000    0.0000000000    0.0000000000
Zr    6.8458939800    0.0000000000   12.2819646600    0.0000000000    0.0000000000    0.0000000000
Zr    4.5639293200    2.2819646600   12.2819646600    0.0000000000    0.0000000000    0.0000000000
Zr    6.8458939800    2.2819646600   10.0000000000    0.0000000000   -0.0000000000    0.0000000000
Zr    4.5636063620   -0.0000019100   14.5579141820    0.0001416682    0.0000000000    0.0003039198
Zr    6.8458891400   -0.0000092500   16.7525218150    0.0000000000    0.0000000000    0.0001553048
Zr    4.5584312980    2.2797753240   16.7533217620   -0.0000398418    0.0005045738    0.0000404628
Zr    6.8458982700    2.2850539980   14.5609237210    0.0000000000    0.0001593152   -0.0003672371
Zr    4.5639293200    4.5639293200   10.0000000000    0.0000000000    0.0000000000    0.0000000000
Zr    6.8458939800    4.5639293200   12.2819646600    0.0000000000    0.0000000000    0.0000000000
Zr    4.5639293200    6.8458939800   12.2819646600    0.0000000000    0.0000000000    0.0000000000
Zr    6.8458939800    6.8458939800   10.0000000000    0.0000000000    0.0000000000    0.0000000000
Zr    4.5679459910    4.5679457210   14.5589576570    0.0000479872    0.0000479872   -0.0004033056
Zr    6.8458893700    4.5327609370   16.7910845440   -0.0000000000   -0.0000543000   -0.0004994396
Zr    4.5327607970    6.8458934800   16.7910743440   -0.0000543000    0.0000000000   -0.0004994396
Zr    6.8458939400    6.8458897600   14.6175498840    0.0000000000    0.0000000000   -0.0002172144
Zr    4.5639293200    9.1278586400   10.0000000000    0.0000000000   -0.0000000000    0.0000000000
Zr    6.8458939800    9.1278586400   12.2819646600   -0.0000000000   -0.0000000000    0.0000000000
Zr    4.5639293200   11.4098233000   12.2819646600    0.0000000000   -0.0000000000    0.0000000000
Zr    6.8458939800   11.4098233000   10.0000000000    0.0000000000    0.0000000000    0.0000000000
Zr    4.5679470010    9.1238433890   14.5589475670    0.0000479872   -0.0000479872   -0.0004033056
Zr    6.8459006900    9.1590359330   16.7910740140    0.0000000000    0.0000543000   -0.0004994396
Zr    4.5584302880   11.4120212660   16.7533080320   -0.0000398418   -0.0005045738    0.0000404628
Zr    6.8458939000   11.4067308820   14.5609352410    0.0000000000   -0.0001593152   -0.0003672371
Zr    9.1278586400    0.0000000000   10.0000000000   -0.0000000000    0.0000000000    0.0000000000
Zr   11.4098233000    0.0000000000   12.2819646600   -0.0000000000    0.0000000000    0.0000000000
Zr    9.1278586400    2.2819646600   12.2819646600   -0.0000000000    0.0000000000    0.0000000000
Zr   11.4098233000    2.2819646600   10.0000000000    0.0000000000   -0.0000000000    0.0000000000
Zr    9.1281870680    0.0000036900   14.5579044930   -0.0001416682    0.0000000000    0.0003039198
Zr   11.4114145450   -0.0000016500   16.7517889050   -0.0005254278    0.0000000000    0.0001603371
Zr    9.1333658520    2.2797763940   16.7533249420    0.0000398418    0.0005045738    0.0000404628
Zr   11.4112533370    2.2805251730   14.5577538730   -0.0000612802    0.0000612802   -0.0000314294
Zr    9.1278586400    4.5639293200   10.0000000000   -0.0000000000    0.0000000000    0.0000000000
Zr   11.4098233000    4.5639293200   12.2819646600   -0.0000000000    0.0000000000    0.0000000000
Zr    9.1278586400    6.8458939800   12.2819646600   -0.0000000000    0.0000000000    0.0000000000
Zr   11.4098233000    6.8458939800   10.0000000000    0.0000000000    0.0000000000    0.0000000000
Zr    9.1238431190    4.5679432310   14.5589456070   -0.0000479872    0.0000479872   -0.0004033056
Zr   11.4120195160    4.5584305680   16.7533176120   -0.0005045738   -0.0000398418    0.0000404628
Zr    9.1590325230    6.8459005700   16.7910919840    0.0000543000   -0.0000000000   -0.0004994396
Zr   11.4067257220    6.8458921900   14.5609354910   -0.0001593152   -0.0000000000   -0.0003672371
Zr    9.1278586400    9.1278586400   10.0000000000   -0.0000000000   -0.0000000000    0.0000000000
Zr   11.4098233000    9.1278586400   12.2819646600   -0.0000000000   -0.0000000000    0.0000000000
Zr    9.1278586400   11.4098233000   12.2819646600   -0.0000000000   -0.0000000000    0.0000000000
Zr   11.4098233000   11.4098233000   10.0000000000    0.0000000000    0.0000000000    0.0000000000
Zr    9.1238433790    9.1238428090   14.5589570270   -0.0000479872   -0.0000479872   -0.0004033056
Zr   11.4120018160    9.1333560120   16.7533148720   -0.0005045738    0.0000398418    0.0000404628
Zr    9.1333609920   11.4120069760   16.7533015920    0.0000398418   -0.0005045738    0.0000404628
Zr   11.4112629170   11.4112597070   14.5577552530   -0.0000612802   -0.0000612802   -0.0000314294
 N    0.0000000000    2.2819646600   10.0000000000    0.0000000000   -0.0000000000   -0.0000000000
 N    2.2819646600    0.0000000000   10.0000000000   -0.0000000000    0.0000000000   -0.0000000000
 N    0.0000000000    0.0000000000   12.2819646600    0.0000000000    0.0000000000   -0.0000000000
 N    2.2819646600    2.2819646600   12.2819646600    0.0000000000    0.0000000000   -0.0000000000
 N   -0.0000019700    2.2819894460   14.5856742910   -0.0000000000    0.0001391235    0.0003542845
 N    2.2819925260   -0.0000002200   14.5856719810    0.0001391235    0.0000000000    0.0003542845
 N    0.0000005500   -0.0000001300   16.9123212310    0.0000000000    0.0000000000   -0.0002743745
 N    2.2798742160    2.2798749560   16.9101347620    0.0000849156    0.0000849156   -0.0002150074
 N    0.0000000000    6.8458939800   10.0000000000    0.0000000000    0.0000000000   -0.0000000000
 N    2.2819646600    4.5639293200   10.0000000000   -0.0000000000    0.0000000000   -0.0000000000
 N    0.0000000000    4.5639293200   12.2819646600   -0.0000000000   -0.0000000000   -0.0000000000
 N    2.2819646600    6.8458939800   12.2819646600    0.0000000000   -0.0000000000   -0.0000000000
 N   -0.0000001200    6.8458955400   14.5877622800    0.0000000000    0.0000000000    0.0003639897
 N    2.2832331020    4.5634246400   14.5861784590   -0.0004519226    0.0000538679    0.0005949816
 N    0.0000023500    4.5625118550   16.9082643110    0.0000000000    0.0000473178   -0.0002808689
 N    2.2774270530    6.8458984600   16.9102885870   -0.0000663640   -0.0000000000   -0.0002110860
 N    0.0000000000   11.4098233000   10.0000000000    0.0000000000    0.0000000000   -0.0000000000
 N    2.2819646600    9.1278586400   10.0000000000   -0.0000000000   -0.0000000000   -0.0000000000
 N    0.0000000000    9.1278586400   12.2819646600    0.0000000000    0.0000000000   -0.0000000000
 N    2.2819646600   11.4098233000   12.2819646600    0.0000000000   -0.0000000000   -0.0000000000
 N    0.0000015500   11.4097930540   14.5857077910    0.0000000000   -0.0001391235    0.0003542845
 N    2.2832336020    9.1283655000   14.5861740390   -0.0004519226   -0.0000538679    0.0005949816
 N    0.0000012800    9.1292799950   16.9082156110   -0.0000000000   -0.0000473178   -0.0002808689
 N    2.2798735760   11.4119098840   16.9102186020    0.0000849156   -0.0000849156   -0.0002150074
 N    4.5639293200    2.2819646600   10.0000000000    0.0000000000   -0.0000000000   -0.0000000000
 N    6.8458939800    0.0000000000   10.0000000000    0.0000000000    0.0000000000   -0.0000000000
 N    4.5639293200    0.0000000000   12.2819646600   -0.0000000000    0.0000000000   -0.0000000000
 N    6.8458939800    2.2819646600   12.2819646600    0.0000000000    0.0000000000   -0.0000000000
 N    4.5634258600    2.2832321820   14.5861495990    0.0000538679   -0.0004519226    0.0005949816
 N    6.8458929400   -0.0000033700   14.5877752800    0.0000000000    0.0000000000    0.0003639897
 N    4.5625081550   -0.0000014600   16.9082602410    0.0000473178   -0.0000000000   -0.0002808689
 N    6.8458980800    2.2774289530   16.9102750870    0.0000000000   -0.0000663640   -0.0002110860
 N    4.5639293200    6.8458939800   10.0000000000    0.0000000000   -0.0000000000   -0.0000000000
 N    6.8458939800    4.5639293200   10.0000000000    0.0000000000    0.0000000000   -0.0000000000
 N    4.5639293200    4.5639293200   12.2819646600    0.0000000000    0.0000000000   -0.0000000000
 N    6.8458939800    6.8458939800   12.2819646600    0.0000000000    0.0000000000   -0.0000000000
 N    4.5658046940    6.8458934200   14.6065125220    0.0000535320   -0.0000000000   -0.0003550279
 N    6.8458911200    4.5658032940   14.6065184620    0.0000000000    0.0000535320   -0.0003550279
 N    4.5516047380    4.5516015280   16.8963377700   -0.0003400043   -0.0003400043   -0.0007043507
 N    6.8458949300    6.8458950000   16.9316874200    0.0000000000    0.0000000000   -0.0000184360
 N    4.5639293200   11.4098233000   10.0000000000    0.0000000000    0.0000000000   -0.0000000000
 N    6.8458939800    9.1278586400   10.0000000000   -0.0000000000   -0.0000000000   -0.0000000000
 N    4.5639293200    9.1278586400   12.2819646600    0.0000000000   -0.0000000000   -0.0000000000
 N    6.8458939800   11.4098233000   12.2819646600   -0.0000000000   -0.0000000000   -0.0000000000
 N    4.5634215300   11.4085542180   14.5861439990    0.0000538679    0.0004519226    0.0005949816
 N    6.8458902300    9.1259827160   14.6065109320    0.0000000000   -0.0000535320   -0.0003550279
 N    4.5516017380    9.1401813720   16.8962888400   -0.0003400043    0.0003400043   -0.0007043507
 N    6.8458963200   11.4143610970   16.9103191970    0.0000000000    0.0000663640   -0.0002110860
 N    9.1278586400    2.2819646600   10.0000000000   -0.0000000000   -0.0000000000   -0.0000000000
 N   11.4098233000    0.0000000000   10.0000000000    0.0000000000    0.0000000000   -0.0000000000
 N    9.1278586400    0.0000000000   12.2819646600    0.0000000000    0.0000000000   -0.0000000000
 N   11.4098233000    2.2819646600   12.2819646600   -0.0000000000    0.0000000000   -0.0000000000
 N    9.1283629900    2.2832314520   14.5861823190   -0.0000538679   -0.0004519226    0.0005949816
 N   11.4097929540   -0.0000008000   14.5856786510   -0.0001391235    0.0000000000    0.0003542845
 N    9.1292770850    0.0000025300   16.9082201810   -0.0000473178    0.0000000000   -0.0002808689
 N   11.4119087540    2.2798721660   16.9101939520   -0.0000849156    0.0000849156   -0.0002150074
 N    9.1278586400    6.8458939800   10.0000000000   -0.0000000000    0.0000000000   -0.0000000000
 N   11.4098233000    4.5639293200   10.0000000000    0.0000000000    0.0000000000   -0.0000000000
 N    9.1278586400    4.5639293200   12.2819646600   -0.0000000000    0.0000000000   -0.0000000000
 N   11.4098233000    6.8458939800   12.2819646600   -0.0000000000    0.0000000000   -0.0000000000
 N    9.1259824460    6.8458884800   14.6065156620   -0.0000535320    0.0000000000   -0.0003550279
 N   11.4085543680    4.5634219300   14.5861449090    0.0004519226    0.0000538679    0.0005949816
 N    9.1401797620    4.5516043080   16.8962758400    0.0003400043   -0.0003400043   -0.0007043507
 N   11.4143605570    6.8458948100   16.9103207070    0.0000663640    0.0000000000   -0.0002110860
 N    9.1278586400   11.4098233000   10.0000000000   -0.0000000000    0.0000000000   -0.0000000000
 N   11.4098233000    9.1278586400   10.0000000000    0.0000000000   -0.0000000000   -0.0000000000
 N    9.1278586400    9.1278586400   12.2819646600   -0.0000000000   -0.0000000000   -0.0000000000
 N   11.4098233000   11.4098233000   12.2819646600   -0.0000000000   -0.0000000000   -0.0000000000
 N    9.1283663000   11.4085544580   14.5861382390   -0.0000538679    0.0004519226    0.0005949816
 N   11.4085580480    9.1283640400   14.5861399390    0.0004519226   -0.0000538679    0.0005949816
 N    9.1401843320    9.1401852720   16.8963364800    0.0003400043    0.0003400043   -0.0007043507
 N   11.4119114240   11.4119145040   16.9101939220   -0.0000849156   -0.0000849156   -0.0002150074
Li    6.8458949300    6.8458950000   18.8585715420    0.0000000000    0.0000000000   -0.0006155357
