
     Program PWSCF v.7.5 starts on 30Mar2026 at 22:57:26 

     This program is part of the open-source Quantum ESPRESSO suite
     for quantum simulation of materials; please cite
         "P. Giannozzi et al., J. Phys.:Condens. Matter 21 395502 (2009);
         "P. Giannozzi et al., J. Phys.:Condens. Matter 29 465901 (2017);
         "P. Giannozzi et al., J. Chem. Phys. 152 154105 (2020);
          URL http://www.quantum-espresso.org", 
     in publications or presentations arising from this work. More details at
     http://www.quantum-espresso.org/quote

     Parallel version (MPI & OpenMP), running on      16 processor cores
     Number of MPI processes:                16
     Threads/MPI process:                     1

     MPI processes distributed on     1 nodes
     552108 MiB available memory on the printing compute node when the environment starts

     Waiting for input...
     Reading input from standard input

     Current dimensions of program PWSCF are:
     Max number of different atomic species (ntypx) = 10
     Max number of k-points (npk) =  40000
     Max angular momentum in pseudopotentials (lmaxx) =  4
     Found identity + (  0.5000  0.5000  0.0000) symmetry
     This is a supercell, fractional translations are disabled
     Message from routine setup:
     using ibrav=0 with symmetry is DISCOURAGED, use correct ibrav instead

     R & G space division:  proc/nbgrp/npool/nimage =      16
     Subspace diagonalization in iterative solution of the eigenvalue problem:
     a serial algorithm will be used


     Parallelization info
     --------------------
     sticks:   dense  smooth     PW     G-vecs:    dense   smooth      PW
     Min         142      56     16                 5112     1294     202
     Max         144      59     17                 5113     1296     204
     Sum        2285     917    261                81793    20719    3239

     Using Slab Decomposition



     bravais-lattice index     =            0
     lattice parameter (alat)  =       7.9776  a.u.
     unit-cell volume          =     507.7062 (a.u.)^3
     number of atoms/cell      =            8
     number of atomic types    =            2
     number of electrons       =        68.00
     number of Kohn-Sham states=           41
     kinetic-energy cutoff     =      45.0000  Ry
     charge density cutoff     =     450.0000  Ry
     scf convergence threshold =      1.0E-07
     mixing beta               =       0.2000
     number of iterations used =            8  local-TF  mixing
     energy convergence thresh.=      1.0E-04
     force convergence thresh. =      1.0E-03
     press convergence thresh. =      5.0E-01
     Exchange-correlation= SLA  PW   PBE  PBE
                           (   1   4   3   4   0   0   0)
     nstep                     =           50

     Hubbard projectors: atomic
     Hubbard parameters of DFT+U (Dudarev formulation) in eV:
     U(Ti-3d) =  4.4400

     Internal variables: lda_plus_u =T, lda_plus_u_kind = 0

     Internal variables: orbital_resolved =F, hub_pot_fix =F, apply_U = F

     celldm(1)=   7.977574  celldm(2)=   0.000000  celldm(3)=   0.000000
     celldm(4)=   0.000000  celldm(5)=   0.000000  celldm(6)=   0.000000

     crystal axes: (cart. coord. in units of alat)
               a(1) = (   1.000000   0.000000   0.000000 )  
               a(2) = (   0.000000   1.000000   0.000000 )  
               a(3) = (   0.000000   0.000000   1.000000 )  

     reciprocal axes: (cart. coord. in units 2 pi/alat)
               b(1) = (  1.000000  0.000000  0.000000 )  
               b(2) = (  0.000000  1.000000  0.000000 )  
               b(3) = (  0.000000  0.000000  1.000000 )  


     PseudoPot. # 1 for Ti read from file:
     /scratch/anizami/QE_2/USPP/ti_pbe_v1.4.uspp.F.UPF
     MD5 check sum: 88a00a6731bd790ddea75d31a80cb452
     Pseudo is Ultrasoft + core correction, Zval = 12.0
     Generated by new atomic code, or converted to UPF format
     Using radial grid of  851 points,  6 beta functions with: 
                l(1) =   0
                l(2) =   0
                l(3) =   1
                l(4) =   1
                l(5) =   2
                l(6) =   2
     Q(r) pseudized with  6 coefficients,  rinner =    1.000   1.000   1.000
                                                       1.000   1.000

     PseudoPot. # 2 for N  read from file:
     /scratch/anizami/QE_2/USPP/n_pbe_v1.2.uspp.F.UPF
     MD5 check sum: 95339753478d7afb44899504a8723017
     Pseudo is Ultrasoft + core correction, Zval =  5.0
     Generated by new atomic code, or converted to UPF format
     Using radial grid of  729 points,  4 beta functions with: 
                l(1) =   0
                l(2) =   0
                l(3) =   1
                l(4) =   1
     Q(r) pseudized with  8 coefficients,  rinner =    0.900   0.900   0.900


     atomic species   valence    mass     pseudopotential
     Ti               12.00     1.00000     Ti( 1.00)
     N                 5.00     1.00000     N ( 1.00)

     48 Sym. Ops., with inversion, found



   Cartesian axes

     site n.     atom                  positions (alat units)
         1        Ti     tau(   1) = (   0.0000000   0.0000000   0.0000000  )
         2        Ti     tau(   2) = (   0.5000000   0.5000000   0.0000000  )
         3        Ti     tau(   3) = (   0.5000000   0.0000000   0.5000000  )
         4        Ti     tau(   4) = (   0.0000000   0.5000000   0.5000000  )
         5        N      tau(   5) = (   0.0000000   0.0000000   0.5000000  )
         6        N      tau(   6) = (   0.0000000   0.5000000   0.0000000  )
         7        N      tau(   7) = (   0.5000000   0.0000000   0.0000000  )
         8        N      tau(   8) = (   0.5000000   0.5000000   0.5000000  )

     --------------------------------------------
     DFT-D3 Dispersion Correction (3-body terms):
     --------------------------------------------
       Reference C6 values for interpolation: 

         atom   Coordination number   C6
         N          0.000            50.54
         N          0.994            44.25
         N          2.014            39.35
         N          2.990            31.16
         Ti         0.000          2723.84
         Ti         1.830           604.00
         Ti         3.868           643.18

       Values used:

         atom   Coordination number  R0_AB[au]  C6      C8
         Ti        15.859            3.557    643.18  76289.64
         Ti        15.859            3.557    643.18  76289.64
         Ti        15.859            3.557    643.18  76289.64
         Ti        15.859            3.557    643.18  76289.64
         N          5.958            2.478     31.16    687.49
         N          5.958            2.478     31.16    687.49
         N          5.958            2.478     31.16    687.49
         N          5.958            2.478     31.16    687.49

         Molecular C6 ( Ry / a.u.^6 ) =     15030.15


     number of k points=    10  Marzari-Vanderbilt smearing, width (Ry)=  0.0200
                       cart. coord. in units 2pi/alat
        k(    1) = (   0.0000000   0.0000000   0.0000000), wk =   0.0160000
        k(    2) = (   0.0000000   0.0000000   0.2000000), wk =   0.0960000
        k(    3) = (   0.0000000   0.0000000   0.4000000), wk =   0.0960000
        k(    4) = (   0.0000000   0.2000000   0.2000000), wk =   0.1920000
        k(    5) = (   0.0000000   0.2000000   0.4000000), wk =   0.3840000
        k(    6) = (   0.0000000   0.4000000   0.4000000), wk =   0.1920000
        k(    7) = (   0.2000000   0.2000000   0.2000000), wk =   0.1280000
        k(    8) = (   0.2000000   0.2000000   0.4000000), wk =   0.3840000
        k(    9) = (   0.2000000   0.4000000   0.4000000), wk =   0.3840000
        k(   10) = (   0.4000000   0.4000000   0.4000000), wk =   0.1280000

     Dense  grid:    81793 G-vectors     FFT dimensions: (  54,  54,  54)

     Smooth grid:    20719 G-vectors     FFT dimensions: (  36,  36,  36)

     Estimated max dynamical RAM per process >      27.45 MB

     Estimated total dynamical RAM >     439.18 MB

     Check: negative core charge=   -0.000006

     Initial potential from superposition of free atoms

     starting charge      63.9998, renormalised to      68.0000

     negative rho (up, down):  4.558E-03 0.000E+00

     STARTING HUBBARD OCCUPATIONS:

     =================== HUBBARD OCCUPATIONS ===================
     ------------------------ ATOM    1 ------------------------
     Tr[ns(  1)] =   1.00000
     eigenvalues:
       0.100  0.100  0.100  0.100  0.100
     eigenvectors (columns):
       1.000  0.000  0.000  0.000  0.000
       0.000  1.000  0.000  0.000  0.000
       0.000  0.000  1.000  0.000  0.000
       0.000  0.000  0.000  1.000  0.000
       0.000  0.000  0.000  0.000  1.000
     occupation matrix ns (before diag.):
       0.100  0.000  0.000  0.000  0.000
       0.000  0.100  0.000  0.000  0.000
       0.000  0.000  0.100  0.000  0.000
       0.000  0.000  0.000  0.100  0.000
       0.000  0.000  0.000  0.000  0.100
     ------------------------ ATOM    2 ------------------------
     Tr[ns(  2)] =   1.00000
     eigenvalues:
       0.100  0.100  0.100  0.100  0.100
     eigenvectors (columns):
       1.000  0.000  0.000  0.000  0.000
       0.000  1.000  0.000  0.000  0.000
       0.000  0.000  1.000  0.000  0.000
       0.000  0.000  0.000  1.000  0.000
       0.000  0.000  0.000  0.000  1.000
     occupation matrix ns (before diag.):
       0.100  0.000  0.000  0.000  0.000
       0.000  0.100  0.000  0.000  0.000
       0.000  0.000  0.100  0.000  0.000
       0.000  0.000  0.000  0.100  0.000
       0.000  0.000  0.000  0.000  0.100
     ------------------------ ATOM    3 ------------------------
     Tr[ns(  3)] =   1.00000
     eigenvalues:
       0.100  0.100  0.100  0.100  0.100
     eigenvectors (columns):
       1.000  0.000  0.000  0.000  0.000
       0.000  1.000  0.000  0.000  0.000
       0.000  0.000  1.000  0.000  0.000
       0.000  0.000  0.000  1.000  0.000
       0.000  0.000  0.000  0.000  1.000
     occupation matrix ns (before diag.):
       0.100  0.000  0.000  0.000  0.000
       0.000  0.100  0.000  0.000  0.000
       0.000  0.000  0.100  0.000  0.000
       0.000  0.000  0.000  0.100  0.000
       0.000  0.000  0.000  0.000  0.100
     ------------------------ ATOM    4 ------------------------
     Tr[ns(  4)] =   1.00000
     eigenvalues:
       0.100  0.100  0.100  0.100  0.100
     eigenvectors (columns):
       1.000  0.000  0.000  0.000  0.000
       0.000  1.000  0.000  0.000  0.000
       0.000  0.000  1.000  0.000  0.000
       0.000  0.000  0.000  1.000  0.000
       0.000  0.000  0.000  0.000  1.000
     occupation matrix ns (before diag.):
       0.100  0.000  0.000  0.000  0.000
       0.000  0.100  0.000  0.000  0.000
       0.000  0.000  0.100  0.000  0.000
       0.000  0.000  0.000  0.100  0.000
       0.000  0.000  0.000  0.000  0.100

     Number of occupied Hubbard levels =    4.0000

     Atomic wfc used for Hubbard projectors are NOT orthogonalized

     Starting wfcs are   56 randomized atomic wfcs

     total cpu time spent up to now is        0.7 secs

     per-process dynamical memory:   103.5 Mb

     Self-consistent Calculation

     iteration #  1     ecut=    45.00 Ry     beta= 0.20
     Davidson diagonalization with overlap
     ethr =  1.00E-02,  avg # of iterations =  3.1

     =================== HUBBARD OCCUPATIONS ===================
     ------------------------ ATOM    1 ------------------------
     Tr[ns(  1)] =   2.30023
     eigenvalues:
       0.230  0.230  0.230  0.230  0.230
     eigenvectors (columns):
       0.190  0.982 -0.000 -0.000  0.000
       0.000  0.000  0.273  0.895 -0.352
       0.000  0.000  0.378  0.237  0.895
      -0.982  0.190  0.000  0.000 -0.000
      -0.000 -0.000 -0.884  0.378  0.274
     occupation matrix ns (before diag.):
       0.230 -0.000 -0.000  0.000  0.000
      -0.000  0.230 -0.000  0.000  0.000
      -0.000 -0.000  0.230  0.000  0.000
       0.000  0.000  0.000  0.230 -0.000
       0.000  0.000  0.000 -0.000  0.230
     ------------------------ ATOM    2 ------------------------
     Tr[ns(  2)] =   2.30232
     eigenvalues:
       0.230  0.230  0.230  0.230  0.231
     eigenvectors (columns):
       1.000 -0.000  0.000  0.000  0.000
       0.000  0.000 -0.708 -0.707  0.000
       0.000  0.000 -0.707  0.708  0.000
      -0.000 -1.000 -0.000 -0.000 -0.000
      -0.000 -0.000  0.000 -0.000  1.000
     occupation matrix ns (before diag.):
       0.230 -0.000 -0.000  0.000  0.000
      -0.000  0.230 -0.000  0.000  0.000
      -0.000 -0.000  0.230  0.000  0.000
       0.000  0.000  0.000  0.230 -0.000
       0.000  0.000  0.000 -0.000  0.231
     ------------------------ ATOM    3 ------------------------
     Tr[ns(  3)] =   2.30232
     eigenvalues:
       0.230  0.230  0.230  0.230  0.231
     eigenvectors (columns):
       0.500 -0.866 -0.000  0.000  0.000
      -0.000 -0.000  0.000  0.000 -1.000
      -0.000 -0.000  0.424  0.906  0.000
       0.866  0.500  0.000 -0.000 -0.000
       0.000  0.000 -0.906  0.424 -0.000
     occupation matrix ns (before diag.):
       0.230 -0.000 -0.000 -0.000  0.000
      -0.000  0.231 -0.000  0.000  0.000
      -0.000 -0.000  0.230  0.000  0.000
      -0.000  0.000  0.000  0.230 -0.000
       0.000  0.000  0.000 -0.000  0.230
     ------------------------ ATOM    4 ------------------------
     Tr[ns(  4)] =   2.30232
     eigenvalues:
       0.230  0.230  0.230  0.230  0.231
     eigenvectors (columns):
      -0.500  0.866 -0.000  0.000  0.000
      -0.000  0.000  0.234 -0.972  0.000
      -0.000 -0.000  0.000 -0.000 -1.000
       0.866  0.500  0.000 -0.000 -0.000
       0.000 -0.000 -0.972 -0.234 -0.000
     occupation matrix ns (before diag.):
       0.230 -0.000 -0.000  0.000  0.000
      -0.000  0.230 -0.000  0.000  0.000
      -0.000 -0.000  0.231  0.000  0.000
       0.000  0.000  0.000  0.230 -0.000
       0.000  0.000  0.000 -0.000  0.230

     Number of occupied Hubbard levels =    9.2072

     negative rho (up, down):  4.577E-03 0.000E+00

     total cpu time spent up to now is        1.3 secs

     total energy              =    -557.73382962 Ry
     estimated scf accuracy    <       3.55045564 Ry

     iteration #  2     ecut=    45.00 Ry     beta= 0.20
     Davidson diagonalization with overlap
     ethr =  5.22E-03,  avg # of iterations =  1.0

     negative rho (up, down):  4.476E-03 0.000E+00

     total cpu time spent up to now is        1.5 secs

     total energy              =    -557.05544254 Ry
     estimated scf accuracy    <       1.86700619 Ry

     iteration #  3     ecut=    45.00 Ry     beta= 0.20
     Davidson diagonalization with overlap
     ethr =  2.75E-03,  avg # of iterations =  2.0

     negative rho (up, down):  3.962E-03 0.000E+00

     total cpu time spent up to now is        1.7 secs

     total energy              =    -557.36427625 Ry
     estimated scf accuracy    <       0.12496667 Ry

     iteration #  4     ecut=    45.00 Ry     beta= 0.20
     Davidson diagonalization with overlap
     ethr =  1.84E-04,  avg # of iterations =  4.5

     negative rho (up, down):  3.003E-03 0.000E+00

     total cpu time spent up to now is        1.9 secs

     total energy              =    -557.37970069 Ry
     estimated scf accuracy    <       0.03997421 Ry

     iteration #  5     ecut=    45.00 Ry     beta= 0.20
     Davidson diagonalization with overlap
     ethr =  5.88E-05,  avg # of iterations =  3.0

     negative rho (up, down):  2.858E-03 0.000E+00

     total cpu time spent up to now is        2.2 secs

     total energy              =    -557.38801452 Ry
     estimated scf accuracy    <       0.00198446 Ry

     iteration #  6     ecut=    45.00 Ry     beta= 0.20
     Davidson diagonalization with overlap
     c_bands:  2 eigenvalues not converged
     c_bands:  1 eigenvalues not converged
     ethr =  2.92E-06,  avg # of iterations = 13.5

     negative rho (up, down):  2.582E-03 0.000E+00

     total cpu time spent up to now is        2.6 secs

     total energy              =    -557.38828369 Ry
     estimated scf accuracy    <       0.00205409 Ry

     iteration #  7     ecut=    45.00 Ry     beta= 0.20
     Davidson diagonalization with overlap
     ethr =  2.92E-06,  avg # of iterations =  4.3

     negative rho (up, down):  2.579E-03 0.000E+00

     total cpu time spent up to now is        2.9 secs

     total energy              =    -557.38819605 Ry
     estimated scf accuracy    <       0.00169337 Ry

     iteration #  8     ecut=    45.00 Ry     beta= 0.20
     Davidson diagonalization with overlap
     ethr =  2.49E-06,  avg # of iterations =  4.0

     negative rho (up, down):  2.569E-03 0.000E+00

     total cpu time spent up to now is        3.2 secs

     total energy              =    -557.38857766 Ry
     estimated scf accuracy    <       0.00119934 Ry

     iteration #  9     ecut=    45.00 Ry     beta= 0.20
     Davidson diagonalization with overlap
     ethr =  1.76E-06,  avg # of iterations =  2.2

     negative rho (up, down):  2.568E-03 0.000E+00

     total cpu time spent up to now is        3.4 secs

     total energy              =    -557.38866136 Ry
     estimated scf accuracy    <       0.00012386 Ry

     iteration # 10     ecut=    45.00 Ry     beta= 0.20
     Davidson diagonalization with overlap
     ethr =  1.82E-07,  avg # of iterations =  5.0

     negative rho (up, down):  2.566E-03 0.000E+00

     total cpu time spent up to now is        3.6 secs

     total energy              =    -557.38872569 Ry
     estimated scf accuracy    <       0.00007537 Ry

     iteration # 11     ecut=    45.00 Ry     beta= 0.20
     Davidson diagonalization with overlap
     ethr =  1.11E-07,  avg # of iterations =  1.2

     negative rho (up, down):  2.566E-03 0.000E+00

     total cpu time spent up to now is        3.8 secs

     total energy              =    -557.38872576 Ry
     estimated scf accuracy    <       0.00005100 Ry

     iteration # 12     ecut=    45.00 Ry     beta= 0.20
     Davidson diagonalization with overlap
     ethr =  7.50E-08,  avg # of iterations =  1.2

     negative rho (up, down):  2.565E-03 0.000E+00

     total cpu time spent up to now is        4.0 secs

     total energy              =    -557.38871913 Ry
     estimated scf accuracy    <       0.00004347 Ry

     iteration # 13     ecut=    45.00 Ry     beta= 0.20
     Davidson diagonalization with overlap
     ethr =  6.39E-08,  avg # of iterations =  1.6

     negative rho (up, down):  2.564E-03 0.000E+00

     total cpu time spent up to now is        4.2 secs

     total energy              =    -557.38873514 Ry
     estimated scf accuracy    <       0.00001678 Ry

     iteration # 14     ecut=    45.00 Ry     beta= 0.20
     Davidson diagonalization with overlap
     ethr =  2.47E-08,  avg # of iterations =  4.1

     negative rho (up, down):  2.570E-03 0.000E+00

     total cpu time spent up to now is        4.4 secs

     total energy              =    -557.38869730 Ry
     estimated scf accuracy    <       0.00013974 Ry

     iteration # 15     ecut=    45.00 Ry     beta= 0.20
     Davidson diagonalization with overlap
     ethr =  2.47E-08,  avg # of iterations =  4.9

     negative rho (up, down):  2.570E-03 0.000E+00

     total cpu time spent up to now is        4.7 secs

     total energy              =    -557.38871991 Ry
     estimated scf accuracy    <       0.00000034 Ry

     iteration # 16     ecut=    45.00 Ry     beta= 0.20
     Davidson diagonalization with overlap
     ethr =  4.94E-10,  avg # of iterations =  5.3

     negative rho (up, down):  2.570E-03 0.000E+00

     total cpu time spent up to now is        5.0 secs

     total energy              =    -557.38872001 Ry
     estimated scf accuracy    <       0.00000014 Ry

     iteration # 17     ecut=    45.00 Ry     beta= 0.20
     Davidson diagonalization with overlap
     ethr =  2.06E-10,  avg # of iterations =  1.6

     negative rho (up, down):  2.569E-03 0.000E+00

     total cpu time spent up to now is        5.1 secs

     End of self-consistent calculation

     =================== HUBBARD OCCUPATIONS ===================
     ------------------------ ATOM    1 ------------------------
     Tr[ns(  1)] =   3.25880
     eigenvalues:
       0.305  0.305  0.305  0.358  0.358
     eigenvectors (columns):
      -0.000 -0.000 -0.000  0.374 -0.927
      -0.263  0.629 -0.732 -0.000  0.000
      -0.408  0.615  0.675 -0.000  0.000
       0.000 -0.000  0.000 -0.927 -0.374
       0.874  0.476  0.095  0.000 -0.000
     occupation matrix ns (before diag.):
       0.358 -0.000 -0.000  0.000  0.000
      -0.000  0.305 -0.000  0.000  0.000
      -0.000 -0.000  0.305  0.000  0.000
       0.000  0.000  0.000  0.358 -0.000
       0.000  0.000  0.000 -0.000  0.305
     ------------------------ ATOM    2 ------------------------
     Tr[ns(  2)] =   3.25869
     eigenvalues:
       0.305  0.305  0.305  0.358  0.358
     eigenvectors (columns):
      -0.000 -0.000  0.000 -0.000  1.000
      -0.706 -0.708 -0.000  0.000 -0.000
      -0.708  0.706 -0.000  0.000 -0.000
       0.000  0.000 -0.000  1.000  0.000
       0.000 -0.000 -1.000 -0.000  0.000
     occupation matrix ns (before diag.):
       0.358 -0.000 -0.000  0.000  0.000
      -0.000  0.305 -0.000  0.000  0.000
      -0.000 -0.000  0.305  0.000  0.000
       0.000  0.000  0.000  0.358 -0.000
       0.000  0.000  0.000 -0.000  0.305
     ------------------------ ATOM    3 ------------------------
     Tr[ns(  3)] =   3.25869
     eigenvalues:
       0.305  0.305  0.305  0.358  0.358
     eigenvectors (columns):
      -0.000 -0.000  0.000 -0.866 -0.500
      -0.000  0.000  1.000  0.000 -0.000
      -0.386  0.922 -0.000  0.000 -0.000
       0.000  0.000 -0.000  0.500 -0.866
       0.922  0.386  0.000 -0.000  0.000
     occupation matrix ns (before diag.):
       0.358 -0.000 -0.000  0.000  0.000
      -0.000  0.305 -0.000  0.000  0.000
      -0.000 -0.000  0.305  0.000  0.000
       0.000  0.000  0.000  0.358 -0.000
       0.000  0.000  0.000 -0.000  0.305
     ------------------------ ATOM    4 ------------------------
     Tr[ns(  4)] =   3.25869
     eigenvalues:
       0.305  0.305  0.305  0.358  0.358
     eigenvectors (columns):
      -0.000  0.000  0.000 -0.866 -0.500
      -0.268  0.964 -0.000  0.000  0.000
      -0.000  0.000  1.000 -0.000  0.000
       0.000 -0.000 -0.000 -0.500  0.866
       0.964  0.268  0.000 -0.000 -0.000
     occupation matrix ns (before diag.):
       0.358 -0.000 -0.000 -0.000  0.000
      -0.000  0.305 -0.000  0.000  0.000
      -0.000 -0.000  0.305  0.000  0.000
      -0.000  0.000  0.000  0.358 -0.000
       0.000  0.000  0.000 -0.000  0.305

     Number of occupied Hubbard levels =   13.0349

          k = 0.0000 0.0000 0.0000 (  2553 PWs)   bands (ev):

   -40.7645 -40.6279 -40.6278 -40.6278 -17.2688 -17.2688 -17.2688 -16.9313
   -16.9313 -16.9313 -16.9312 -16.9312 -16.9312 -16.7206 -16.7206 -16.7206
     0.4189   2.1740   2.1740   2.1740  11.6807  11.6807  11.6807  14.3772
    14.3772  14.3772  14.3772  14.3772  14.3772  15.1077  15.1077  15.1077
    15.6117  15.6117  15.6117  17.4521  17.4521  17.4521  18.3695  18.3695
    19.4014

          k = 0.0000 0.0000 0.2000 (  2593 PWs)   bands (ev):

   -40.7517 -40.6410 -40.6287 -40.6286 -17.2350 -17.2350 -17.2248 -16.9620
   -16.9620 -16.9365 -16.9364 -16.9106 -16.9106 -16.7822 -16.7402 -16.7402
     0.6776   2.1441   2.3075   2.3076  11.3970  11.7511  11.7511  13.4005
    13.4005  13.5498  13.5498  14.0473  14.3506  14.3506  15.1588  15.1588
    15.2856  16.4166  16.4166  17.1647  18.1712  18.1712  18.4605  19.2944
    19.6525

          k = 0.0000 0.0000 0.4000 (  2593 PWs)   bands (ev):

   -40.7178 -40.6754 -40.6300 -40.6300 -17.1481 -17.1481 -17.1021 -17.0440
   -17.0440 -16.9449 -16.9448 -16.9336 -16.8572 -16.8572 -16.7921 -16.7921
     1.3029   1.8954   2.5401   2.5401  11.2650  12.0026  12.0026  12.1677
    12.4878  12.4879  12.5260  12.5260  14.3722  14.3722  14.6195  14.6195
    15.7867  16.4942  18.1149  18.1149  18.7056  19.0236  19.3300  19.3300
    19.4818

          k = 0.0000 0.2000 0.2000 (  2590 PWs)   bands (ev):

   -40.7397 -40.6401 -40.6400 -40.6301 -17.2124 -17.2124 -17.2026 -17.0304
   -16.9404 -16.9403 -16.9045 -16.9044 -16.8947 -16.8684 -16.7609 -16.7243
     0.9284   2.2931   2.2931   2.4307  11.4034  11.4034  11.8208  12.4521
    13.4505  13.4505  13.5270  13.5587  13.5587  13.6035  14.1099  14.6684
    16.5113  16.5113  16.9383  17.7317  18.1219  18.3338  19.2318  19.8674
    19.8675

          k = 0.0000 0.2000 0.4000 (  2606 PWs)   bands (ev):

   -40.7085 -40.6703 -40.6374 -40.6336 -17.1750 -17.1365 -17.1193 -17.1120
   -17.0193 -17.0094 -16.8892 -16.8841 -16.8789 -16.8308 -16.8156 -16.7582
     1.5299   2.0836   2.5713   2.6279  11.1830  11.3761  11.5784  11.9973
    12.0702  12.5893  12.6885  12.8463  13.5571  13.6328  13.6839  14.0282
    16.8305  17.3477  18.1736  18.3203  19.0100  19.2048  19.4875  19.5149
    19.5508

          k = 0.0000 0.4000 0.4000 (  2592 PWs)   bands (ev):

   -40.6849 -40.6578 -40.6577 -40.6438 -17.1814 -17.1813 -17.1763 -17.1196
   -17.0451 -16.9553 -16.9552 -16.8775 -16.8156 -16.8017 -16.8016 -16.7505
     2.0564   2.4836   2.4836   2.7086  10.8614  10.8994  10.8994  11.3402
    12.3126  12.6288  12.6689  12.6689  12.7818  12.8162  12.8163  13.2866
    18.3675  18.3675  18.4713  19.1323  19.1396  19.3807  19.5124  19.7315
    19.7316

          k = 0.2000 0.2000 0.2000 (  2602 PWs)   bands (ev):

   -40.7285 -40.6398 -40.6397 -40.6397 -17.2160 -17.2160 -17.2159 -16.9664
   -16.9663 -16.9663 -16.9545 -16.8781 -16.8781 -16.8780 -16.7402 -16.7402
     1.1714   2.4320   2.4320   2.4320  11.3367  11.3367  11.3367  12.6606
    12.6606  12.6606  13.0576  13.4850  13.4850  13.4851  13.9065  13.9065
    17.0266  17.0266  17.0266  18.1635  18.1635  18.3322  20.0336  20.0336
    20.0337

          k = 0.2000 0.2000 0.4000 (  2591 PWs)   bands (ev):

   -40.6999 -40.6659 -40.6393 -40.6393 -17.2239 -17.2238 -17.1892 -17.0908
   -16.9839 -16.9838 -16.8579 -16.8578 -16.8540 -16.8349 -16.7822 -16.7667
     1.7490   2.2628   2.6758   2.6758  11.0155  11.0361  11.0361  11.7139
    12.2555  12.2555  12.8165  12.8165  12.8854  13.2265  13.4558  13.5936
    17.3078  17.7655  18.3611  18.3611  19.0118  19.2841  19.5813  19.5813
    19.7012

          k = 0.2000 0.4000 0.4000 (  2573 PWs)   bands (ev):

   -40.6788 -40.6557 -40.6556 -40.6455 -17.2742 -17.2604 -17.2604 -17.2069
   -16.9315 -16.8824 -16.8823 -16.8177 -16.8092 -16.8007 -16.8006 -16.7565
     2.2500   2.6324   2.6325   2.8042  10.4751  10.5609  10.5609  10.9449
    12.3025  12.4291  12.4291  12.5629  12.6769  12.7664  12.7664  12.9890
    18.5392  18.5392  18.7879  18.9263  19.0964  19.5422  19.6681  19.6681
    19.7159

          k = 0.4000 0.4000 0.4000 (  2557 PWs)   bands (ev):

   -40.6649 -40.6523 -40.6521 -40.6521 -17.3461 -17.3461 -17.3461 -17.3178
   -16.8132 -16.8131 -16.8131 -16.7926 -16.7926 -16.7925 -16.7725 -16.7725
     2.6651   2.8973   2.8974   2.8974   9.9758   9.9759   9.9759  10.1992
    12.2999  12.2999  12.2999  12.4717  12.4717  12.4718  12.5102  12.5102
    19.2260  19.2260  19.2260  19.4019  19.4019  19.7051  19.7051  19.7052
    19.7586

     the Fermi energy is    18.1429 ev

!    total energy              =    -557.38871998 Ry
     estimated scf accuracy    <       0.00000008 Ry
     smearing contrib. (-TS)   =      -0.00485232 Ry
     internal energy E=F+TS    =    -557.38386766 Ry

     The total energy is F=E-TS. E is the sum of the following terms:
     one-electron contribution =     -99.99431677 Ry
     hartree contribution      =      89.86054791 Ry
     xc contribution           =     -94.35236327 Ry
     ewald contribution        =    -454.07772785 Ry
     DFT-D3 Dispersion         =      -0.24943160 Ry
     Hubbard energy            =       1.42942392 Ry

     convergence has been achieved in  17 iterations

     negative rho (up, down):  2.569E-03 0.000E+00
     force_hub    :      0.06s CPU      0.06s WALL (       1 calls)
     dndtau       :      0.05s CPU      0.06s WALL (     240 calls)
     dprojdtau    :      0.01s CPU      0.01s WALL (     960 calls)
     matel_dSdtau :      0.04s CPU      0.05s WALL (     240 calls)

     Forces acting on atoms (cartesian axes, Ry/au):

     atom    1 type  1   force =     0.00000000    0.00000000    0.00000000
     atom    2 type  1   force =     0.00000000    0.00000000    0.00000000
     atom    3 type  1   force =     0.00000000    0.00000000    0.00000000
     atom    4 type  1   force =     0.00000000    0.00000000    0.00000000
     atom    5 type  2   force =     0.00000000    0.00000000    0.00000000
     atom    6 type  2   force =     0.00000000    0.00000000    0.00000000
     atom    7 type  2   force =     0.00000000    0.00000000    0.00000000
     atom    8 type  2   force =     0.00000000    0.00000000    0.00000000

     Total force =     0.000000     Total SCF correction =     0.000000


     Computing stress (Cartesian axis) and pressure


     negative rho (up, down):  2.569E-03 0.000E+00
     stres_hub    :      0.15s CPU      0.16s WALL (       1 calls)
     dprojdepsilo :      0.14s CPU      0.14s WALL (      90 calls)
     dprojdeps1   :      0.00s CPU      0.00s WALL (      90 calls)
     dprojdeps2   :      0.01s CPU      0.01s WALL (      90 calls)
     dprojdeps3   :      0.13s CPU      0.13s WALL (      90 calls)
          total   stress  (Ry/bohr**3)                   (kbar)     P=       99.60
   0.00067705   0.00000000   0.00000000           99.60        0.00        0.00
   0.00000000   0.00067705   0.00000000            0.00       99.60        0.00
   0.00000000   0.00000000   0.00067705            0.00        0.00       99.60


     BFGS Geometry Optimization
     Energy error            =      1.6E-02 Ry
     Gradient error          =      0.0E+00 Ry/Bohr
     Cell gradient error     =      1.0E+02 kbar

     number of scf cycles    =   1
     number of bfgs steps    =   0

     enthalpy           new  =    -557.3887199821 Ry

     new trust radius        =       0.0762770932 bohr
     new conv_thr            =       0.0000001000 Ry

     new unit-cell volume =    533.92556 a.u.^3 (    79.11960 Ang^3 )
     density =      0.16790 g/cm^3

CELL_PARAMETERS (angstrom)
   4.293004754   0.000000000   0.000000000
   0.000000000   4.293004754   0.000000000
   0.000000000   0.000000000   4.293004754

ATOMIC_POSITIONS (crystal)
Ti               0.0000000000        0.0000000000        0.0000000000
Ti               0.4999999989        0.4999999989        0.0000000000
Ti               0.4999999989        0.0000000000        0.4999999989
Ti               0.0000000000        0.4999999989        0.4999999989
N                0.0000000000        0.0000000000        0.4999999989
N                0.0000000000        0.4999999989        0.0000000000
N                0.4999999989        0.0000000000        0.0000000000
N                0.4999999989        0.4999999989        0.4999999989



     Writing config-only to output data dir ./tmp/tin.save/ :
     XML data file
     NEW-OLD atomic charge density approx. for the potential
     New effective cutoffs (rho, wfc):  434.89   43.50

     Check: negative core charge=   -0.000004

     negative rho (up, down):  2.720E-03 0.000E+00

     Atomic wfc used for Hubbard projectors are NOT orthogonalized


     total cpu time spent up to now is        6.5 secs

     per-process dynamical memory:   133.5 Mb

     Self-consistent Calculation

     iteration #  1     ecut=    45.00 Ry     beta= 0.20
     Davidson diagonalization with overlap
     ethr =  1.00E-06,  avg # of iterations =  6.5

     =================== HUBBARD OCCUPATIONS ===================
     ------------------------ ATOM    1 ------------------------
     Tr[ns(  1)] =   3.18898
     eigenvalues:
       0.299  0.299  0.299  0.349  0.349
     eigenvectors (columns):
      -0.000 -0.000 -0.000  0.300 -0.954
      -0.274  0.662 -0.697 -0.000  0.000
      -0.413  0.574  0.707 -0.000  0.000
       0.000  0.000  0.000 -0.954 -0.300
       0.868  0.482  0.116  0.000 -0.000
     occupation matrix ns (before diag.):
       0.349 -0.000 -0.000  0.000  0.000
      -0.000  0.299 -0.000  0.000  0.000
      -0.000 -0.000  0.299  0.000  0.000
       0.000  0.000  0.000  0.349 -0.000
       0.000  0.000  0.000 -0.000  0.299
     ------------------------ ATOM    2 ------------------------
     Tr[ns(  2)] =   3.18948
     eigenvalues:
       0.299  0.299  0.299  0.349  0.349
     eigenvectors (columns):
      -0.000 -0.000 -0.000  0.000  1.000
      -0.689 -0.724  0.000 -0.000 -0.000
      -0.724  0.689  0.000 -0.000 -0.000
       0.000  0.000  0.000 -1.000  0.000
       0.000 -0.000  1.000  0.000  0.000
     occupation matrix ns (before diag.):
       0.349 -0.000 -0.000  0.000  0.000
      -0.000  0.299 -0.000  0.000  0.000
      -0.000 -0.000  0.299  0.000  0.000
       0.000  0.000  0.000  0.349 -0.000
       0.000  0.000  0.000 -0.000  0.299
     ------------------------ ATOM    3 ------------------------
     Tr[ns(  3)] =   3.18948
     eigenvalues:
       0.299  0.299  0.299  0.349  0.349
     eigenvectors (columns):
      -0.000 -0.000  0.000 -0.866 -0.500
      -0.000  0.000  1.000  0.000 -0.000
      -0.389  0.921 -0.000  0.000 -0.000
       0.000  0.000 -0.000  0.500 -0.866
       0.921  0.389  0.000 -0.000  0.000
     occupation matrix ns (before diag.):
       0.349 -0.000 -0.000  0.000  0.000
      -0.000  0.299 -0.000  0.000  0.000
      -0.000 -0.000  0.299  0.000  0.000
       0.000  0.000  0.000  0.349 -0.000
       0.000  0.000  0.000 -0.000  0.299
     ------------------------ ATOM    4 ------------------------
     Tr[ns(  4)] =   3.18948
     eigenvalues:
       0.299  0.299  0.299  0.349  0.349
     eigenvectors (columns):
      -0.000  0.000  0.000 -0.866 -0.500
      -0.282  0.960 -0.000  0.000  0.000
      -0.000  0.000  1.000 -0.000  0.000
       0.000 -0.000 -0.000 -0.500  0.866
       0.960  0.282  0.000 -0.000 -0.000
     occupation matrix ns (before diag.):
       0.349 -0.000 -0.000 -0.000  0.000
      -0.000  0.299 -0.000  0.000  0.000
      -0.000 -0.000  0.299  0.000  0.000
      -0.000  0.000  0.000  0.349 -0.000
       0.000  0.000  0.000 -0.000  0.299

     Number of occupied Hubbard levels =   12.7574

     negative rho (up, down):  2.712E-03 0.000E+00

     total cpu time spent up to now is        7.3 secs

     total energy              =    -557.39371908 Ry
     estimated scf accuracy    <       0.00118356 Ry

     iteration #  2     ecut=    45.00 Ry     beta= 0.20
     Davidson diagonalization with overlap
     ethr =  1.74E-06,  avg # of iterations =  2.3

     negative rho (up, down):  2.703E-03 0.000E+00

     total cpu time spent up to now is        7.5 secs

     total energy              =    -557.39381921 Ry
     estimated scf accuracy    <       0.00022435 Ry

     iteration #  3     ecut=    45.00 Ry     beta= 0.20
     Davidson diagonalization with overlap
     ethr =  3.30E-07,  avg # of iterations =  3.5

     negative rho (up, down):  2.689E-03 0.000E+00

     total cpu time spent up to now is        7.7 secs

     total energy              =    -557.39387603 Ry
     estimated scf accuracy    <       0.00004085 Ry

     iteration #  4     ecut=    45.00 Ry     beta= 0.20
     Davidson diagonalization with overlap
     ethr =  6.01E-08,  avg # of iterations =  4.3

     negative rho (up, down):  2.690E-03 0.000E+00

     total cpu time spent up to now is        8.0 secs

     total energy              =    -557.39389080 Ry
     estimated scf accuracy    <       0.00007559 Ry

     iteration #  5     ecut=    45.00 Ry     beta= 0.20
     Davidson diagonalization with overlap
     ethr =  6.01E-08,  avg # of iterations =  1.7

     negative rho (up, down):  2.690E-03 0.000E+00

     total cpu time spent up to now is        8.2 secs

     total energy              =    -557.39389565 Ry
     estimated scf accuracy    <       0.00002458 Ry

     iteration #  6     ecut=    45.00 Ry     beta= 0.20
     Davidson diagonalization with overlap
     ethr =  3.62E-08,  avg # of iterations =  1.0

     negative rho (up, down):  2.692E-03 0.000E+00

     total cpu time spent up to now is        8.3 secs

     total energy              =    -557.39388287 Ry
     estimated scf accuracy    <       0.00003166 Ry

     iteration #  7     ecut=    45.00 Ry     beta= 0.20
     Davidson diagonalization with overlap
     ethr =  3.62E-08,  avg # of iterations =  3.8

     negative rho (up, down):  2.692E-03 0.000E+00

     total cpu time spent up to now is        8.6 secs

     total energy              =    -557.39389119 Ry
     estimated scf accuracy    <       0.00000321 Ry

     iteration #  8     ecut=    45.00 Ry     beta= 0.20
     Davidson diagonalization with overlap
     ethr =  4.72E-09,  avg # of iterations =  2.2

     negative rho (up, down):  2.691E-03 0.000E+00

     total cpu time spent up to now is        8.8 secs

     total energy              =    -557.39389063 Ry
     estimated scf accuracy    <       0.00000244 Ry

     iteration #  9     ecut=    45.00 Ry     beta= 0.20
     Davidson diagonalization with overlap
     ethr =  3.59E-09,  avg # of iterations =  2.5

     negative rho (up, down):  2.691E-03 0.000E+00

     total cpu time spent up to now is        9.0 secs

     End of self-consistent calculation

     =================== HUBBARD OCCUPATIONS ===================
     ------------------------ ATOM    1 ------------------------
     Tr[ns(  1)] =   3.16667
     eigenvalues:
       0.298  0.298  0.298  0.345  0.345
     eigenvectors (columns):
      -0.000 -0.000 -0.000  0.382 -0.924
      -0.287  0.670 -0.685 -0.000  0.000
      -0.433  0.547  0.716 -0.000 -0.000
       0.000  0.000  0.000 -0.924 -0.382
       0.854  0.502  0.133  0.000 -0.000
     occupation matrix ns (before diag.):
       0.345 -0.000 -0.000  0.000  0.000
      -0.000  0.298 -0.000  0.000  0.000
      -0.000 -0.000  0.298  0.000  0.000
       0.000  0.000  0.000  0.345 -0.000
       0.000  0.000  0.000 -0.000  0.298
     ------------------------ ATOM    2 ------------------------
     Tr[ns(  2)] =   3.16670
     eigenvalues:
       0.298  0.298  0.298  0.345  0.345
     eigenvectors (columns):
      -0.000 -0.000 -0.000  0.000  1.000
      -0.700 -0.714  0.000 -0.000 -0.000
      -0.714  0.700  0.000 -0.000 -0.000
       0.000  0.000  0.000 -1.000  0.000
       0.000 -0.000  1.000  0.000  0.000
     occupation matrix ns (before diag.):
       0.345 -0.000 -0.000  0.000  0.000
      -0.000  0.298 -0.000  0.000  0.000
      -0.000 -0.000  0.298  0.000  0.000
       0.000  0.000  0.000  0.345 -0.000
       0.000  0.000  0.000 -0.000  0.298
     ------------------------ ATOM    3 ------------------------
     Tr[ns(  3)] =   3.16670
     eigenvalues:
       0.298  0.298  0.298  0.345  0.345
     eigenvectors (columns):
      -0.000 -0.000  0.000 -0.866 -0.500
      -0.000  0.000  1.000  0.000 -0.000
      -0.398  0.917 -0.000  0.000 -0.000
       0.000  0.000 -0.000  0.500 -0.866
       0.917  0.398  0.000 -0.000  0.000
     occupation matrix ns (before diag.):
       0.345 -0.000 -0.000  0.000  0.000
      -0.000  0.298 -0.000  0.000  0.000
      -0.000 -0.000  0.298  0.000  0.000
       0.000  0.000  0.000  0.345 -0.000
       0.000  0.000  0.000 -0.000  0.298
     ------------------------ ATOM    4 ------------------------
     Tr[ns(  4)] =   3.16670
     eigenvalues:
       0.298  0.298  0.298  0.345  0.345
     eigenvectors (columns):
      -0.000  0.000  0.000 -0.866 -0.500
      -0.253  0.968 -0.000  0.000  0.000
      -0.000  0.000  1.000 -0.000  0.000
       0.000 -0.000 -0.000 -0.500  0.866
       0.968  0.253  0.000 -0.000 -0.000
     occupation matrix ns (before diag.):
       0.345 -0.000 -0.000 -0.000  0.000
      -0.000  0.298 -0.000  0.000  0.000
      -0.000 -0.000  0.298  0.000  0.000
      -0.000  0.000  0.000  0.345 -0.000
       0.000  0.000  0.000 -0.000  0.298

     Number of occupied Hubbard levels =   12.6668

          k = 0.0000 0.0000 0.0000 (  2553 PWs)   bands (ev):

   -41.8444 -41.7355 -41.7355 -41.7355 -18.2861 -18.2861 -18.2861 -18.0065
   -18.0065 -18.0065 -18.0065 -18.0065 -18.0065 -17.8307 -17.8307 -17.8307
    -0.2248   1.5066   1.5066   1.5066  10.8488  10.8488  10.8488  13.5006
    13.5006  13.5006  13.5006  13.5006  13.5006  14.3632  14.3632  14.3632
    14.7255  14.7255  14.7255  16.5361  16.5361  16.5361  17.3813  17.3813
    18.3286

          k = 0.0000 0.0000 0.1967 (  2593 PWs)   bands (ev):

   -41.8342 -41.7460 -41.7363 -41.7363 -18.2580 -18.2580 -18.2490 -18.0319
   -18.0319 -18.0103 -18.0103 -17.9893 -17.9893 -17.8812 -17.8470 -17.8470
     0.0135   1.4550   1.6207   1.6207  10.6118  10.9287  10.9287  12.6032
    12.6032  12.7336  12.7336  13.2434  13.4841  13.4841  14.3010  14.3010
    14.5300  15.5569  15.5569  16.2734  17.1981  17.1981  17.4652  18.2308
    18.5484

          k = 0.0000 0.0000 0.3933 (  2593 PWs)   bands (ev):

   -41.8072 -41.7734 -41.7375 -41.7375 -18.1859 -18.1859 -18.1460 -18.0996
   -18.0996 -18.0164 -18.0164 -18.0059 -17.9446 -17.9446 -17.8903 -17.8903
     0.5971   1.1754   1.8182   1.8182  10.5491  11.2010  11.2010  11.4457
    11.7395  11.7395  11.7506  11.7506  13.5243  13.5243  13.7791  13.7791
    14.9983  15.6558  17.1466  17.1466  17.6908  17.9828  18.2667  18.2667
    18.4069

          k = 0.0000 0.1967 0.1967 (  2590 PWs)   bands (ev):

   -41.8247 -41.7453 -41.7453 -41.7375 -18.2385 -18.2385 -18.2311 -18.0875
   -18.0138 -18.0138 -17.9839 -17.9839 -17.9764 -17.9519 -17.8643 -17.8342
     0.2444   1.5850   1.5850   1.7240  10.6267  10.6267  11.0071  11.6862
    12.6538  12.6538  12.7305  12.7511  12.7511  12.7962  13.3302  13.8414
    15.6505  15.6505  16.0503  16.7951  17.1552  17.3479  18.1596  18.7510
    18.7510

          k = 0.0000 0.1967 0.3933 (  2606 PWs)   bands (ev):

   -41.7998 -41.7694 -41.7433 -41.7403 -18.2070 -18.1743 -18.1619 -18.1545
   -18.0790 -18.0683 -17.9711 -17.9669 -17.9631 -17.9230 -17.9098 -17.8627
     0.8048   1.3446   1.8282   1.8849  10.4699  10.6285  10.8467  11.2715
    11.2753  11.8067  11.9467  12.0983  12.7706  12.8368  12.9103  13.2259
    15.9566  16.4409  17.2026  17.3351  17.9681  18.1543  18.4113  18.4284
    18.4636

          k = 0.0000 0.3933 0.3933 (  2592 PWs)   bands (ev):

   -41.7810 -41.7594 -41.7594 -41.7484 -18.2110 -18.2110 -18.2068 -18.1593
   -18.1003 -18.0258 -18.0258 -17.9612 -17.9110 -17.8992 -17.8992 -17.8568
     1.2916   1.7077   1.7077   1.9290  10.1680  10.2006  10.2006  10.6276
    11.5313  11.9175  11.9563  11.9564  12.0405  12.0405  12.0790  12.5088
    17.3836  17.3836  17.4773  18.0791  18.1010  18.3108  18.4220  18.6214
    18.6214

          k = 0.1967 0.1967 0.1967 (  2602 PWs)   bands (ev):

   -41.8157 -41.7451 -41.7451 -41.7451 -18.2411 -18.2411 -18.2411 -18.0350
   -18.0350 -18.0350 -18.0227 -17.9625 -17.9625 -17.9625 -17.8475 -17.8475
     0.4677   1.7044   1.7044   1.7044  10.5712  10.5712  10.5712  11.8930
    11.8930  11.8930  12.2588  12.6977  12.6977  12.6977  13.1362  13.1362
    16.1348  16.1348  16.1348  17.1923  17.1923  17.3382  18.9045  18.9045
    18.9045

          k = 0.1967 0.1967 0.3933 (  2591 PWs)   bands (ev):

   -41.7929 -41.7658 -41.7448 -41.7448 -18.2469 -18.2469 -18.2176 -18.1354
   -18.0497 -18.0497 -17.9457 -17.9457 -17.9422 -17.9265 -17.8826 -17.8698
     1.0046   1.5045   1.9120   1.9120  10.3043  10.3074  10.3074  10.9837
    11.5013  11.5013  12.0773  12.0773  12.1328  12.4806  12.6856  12.8314
    16.3999  16.8244  17.3733  17.3733  17.9706  18.2171  18.4930  18.4930
    18.6006

          k = 0.1967 0.3933 0.3933 (  2573 PWs)   bands (ev):

   -41.7760 -41.7576 -41.7576 -41.7496 -18.2879 -18.2762 -18.2762 -18.2314
   -18.0064 -17.9658 -17.9658 -17.9121 -17.9057 -17.8985 -17.8985 -17.8618
     1.4654   1.8363   1.8363   2.0040   9.7833   9.8666   9.8666  10.2357
    11.5622  11.7140  11.7140  11.8591  11.9807  12.0380  12.0380  12.2512
    17.5379  17.5379  17.7666  17.8904  18.0468  18.4563  18.5685  18.5685
    18.6139

          k = 0.3933 0.3933 0.3933 (  2557 PWs)   bands (ev):

   -41.7648 -41.7548 -41.7548 -41.7548 -18.3469 -18.3469 -18.3469 -18.3232
   -17.9088 -17.9088 -17.9088 -17.8919 -17.8919 -17.8919 -17.8752 -17.8752
     1.8396   2.0625   2.0625   2.0625   9.3056   9.3056   9.3056   9.5172
    11.6082  11.6082  11.6082  11.7807  11.7807  11.7807  11.8224  11.8224
    18.1663  18.1663  18.1663  18.3259  18.3259  18.6020  18.6020  18.6020
    18.6555

     the Fermi energy is    17.1663 ev

!    total energy              =    -557.39389105 Ry
     estimated scf accuracy    <       0.00000006 Ry
     smearing contrib. (-TS)   =      -0.00505343 Ry
     internal energy E=F+TS    =    -557.38883762 Ry

     The total energy is F=E-TS. E is the sum of the following terms:
     one-electron contribution =    -110.74868602 Ry
     hartree contribution      =      92.71547638 Ry
     xc contribution           =     -94.00639182 Ry
     ewald contribution        =    -446.51987051 Ry
     DFT-D3 Dispersion         =      -0.23807967 Ry
     Hubbard energy            =       1.40871402 Ry

     convergence has been achieved in   9 iterations

     negative rho (up, down):  2.691E-03 0.000E+00
     force_hub    :      0.11s CPU      0.12s WALL (       2 calls)
     dndtau       :      0.10s CPU      0.11s WALL (     480 calls)
     dprojdtau    :      0.01s CPU      0.01s WALL (    1920 calls)
     matel_dSdtau :      0.08s CPU      0.09s WALL (     480 calls)

     Forces acting on atoms (cartesian axes, Ry/au):

     atom    1 type  1   force =     0.00000000    0.00000000    0.00000000
     atom    2 type  1   force =     0.00000000    0.00000000    0.00000000
     atom    3 type  1   force =     0.00000000    0.00000000    0.00000000
     atom    4 type  1   force =     0.00000000    0.00000000    0.00000000
     atom    5 type  2   force =     0.00000000    0.00000000    0.00000000
     atom    6 type  2   force =     0.00000000    0.00000000    0.00000000
     atom    7 type  2   force =     0.00000000    0.00000000    0.00000000
     atom    8 type  2   force =     0.00000000    0.00000000    0.00000000

     Total force =     0.000000     Total SCF correction =     0.000000


     Computing stress (Cartesian axis) and pressure


     negative rho (up, down):  2.691E-03 0.000E+00
     stres_hub    :      0.30s CPU      0.31s WALL (       2 calls)
     dprojdepsilo :      0.27s CPU      0.28s WALL (     180 calls)
     dprojdeps1   :      0.00s CPU      0.00s WALL (     180 calls)
     dprojdeps2   :      0.01s CPU      0.01s WALL (     180 calls)
     dprojdeps3   :      0.26s CPU      0.27s WALL (     180 calls)
          total   stress  (Ry/bohr**3)                   (kbar)     P=      -34.53
  -0.00023471   0.00000000   0.00000000          -34.53        0.00        0.00
   0.00000000  -0.00023471   0.00000000            0.00      -34.53        0.00
   0.00000000   0.00000000  -0.00023471            0.00        0.00      -34.53

     Energy error            =      5.2E-03 Ry
     Gradient error          =      0.0E+00 Ry/Bohr
     Cell gradient error     =      3.5E+01 kbar

     number of scf cycles    =   2
     number of bfgs steps    =   1

     enthalpy           old  =    -557.3887199821 Ry
     enthalpy           new  =    -557.3938910522 Ry

     CASE: enthalpy          _new < enthalpy          _old

     new trust radius        =       0.0202986433 bohr
     new conv_thr            =       0.0000000010 Ry

     new unit-cell volume =    526.92086 a.u.^3 (    78.08161 Ang^3 )
     density =      0.17013 g/cm^3

CELL_PARAMETERS (angstrom)
   4.274148387   0.000000000   0.000000000
   0.000000000   4.274148387   0.000000000
   0.000000000   0.000000000   4.274148387

ATOMIC_POSITIONS (crystal)
Ti               0.0000000000        0.0000000000        0.0000000000
Ti               0.4999999989        0.4999999989        0.0000000000
Ti               0.4999999989        0.0000000000        0.4999999989
Ti               0.0000000000        0.4999999989        0.4999999989
N                0.0000000000        0.0000000000        0.4999999989
N                0.0000000000        0.4999999989        0.0000000000
N                0.4999999989        0.0000000000        0.0000000000
N                0.4999999989        0.4999999989        0.4999999989



     Writing config-only to output data dir ./tmp/tin.save/ :
     XML data file
     NEW-OLD atomic charge density approx. for the potential
     New effective cutoffs (rho, wfc):  438.73   43.89

     Check: negative core charge=   -0.000004

     negative rho (up, down):  2.651E-03 0.000E+00

     Atomic wfc used for Hubbard projectors are NOT orthogonalized


     total cpu time spent up to now is       10.3 secs

     per-process dynamical memory:   133.7 Mb

     Self-consistent Calculation

     iteration #  1     ecut=    45.00 Ry     beta= 0.20
     Davidson diagonalization with overlap
     ethr =  1.00E-06,  avg # of iterations =  3.4

     =================== HUBBARD OCCUPATIONS ===================
     ------------------------ ATOM    1 ------------------------
     Tr[ns(  1)] =   3.18455
     eigenvalues:
       0.299  0.299  0.299  0.348  0.348
     eigenvectors (columns):
      -0.000 -0.000 -0.000 -0.603  0.798
      -0.294  0.789 -0.539  0.000  0.000
      -0.412  0.404  0.816  0.000  0.000
       0.000 -0.000  0.000  0.798  0.603
       0.862  0.463  0.206 -0.000  0.000
     occupation matrix ns (before diag.):
       0.348 -0.000 -0.000  0.000  0.000
      -0.000  0.299 -0.000  0.000  0.000
      -0.000 -0.000  0.299  0.000  0.000
       0.000  0.000  0.000  0.348 -0.000
       0.000  0.000  0.000 -0.000  0.299
     ------------------------ ATOM    2 ------------------------
     Tr[ns(  2)] =   3.18445
     eigenvalues:
       0.299  0.299  0.299  0.348  0.348
     eigenvectors (columns):
      -0.000 -0.000  0.000 -0.000  1.000
      -0.739 -0.674 -0.000  0.000 -0.000
      -0.674  0.739 -0.000  0.000 -0.000
       0.000  0.000 -0.000  1.000  0.000
       0.000 -0.000 -1.000 -0.000  0.000
     occupation matrix ns (before diag.):
       0.348 -0.000 -0.000  0.000  0.000
      -0.000  0.299 -0.000  0.000  0.000
      -0.000 -0.000  0.299  0.000  0.000
       0.000  0.000  0.000  0.348 -0.000
       0.000  0.000  0.000 -0.000  0.299
     ------------------------ ATOM    3 ------------------------
     Tr[ns(  3)] =   3.18445
     eigenvalues:
       0.299  0.299  0.299  0.348  0.348
     eigenvectors (columns):
      -0.000 -0.000  0.000 -0.866 -0.500
      -0.000  0.000  1.000  0.000 -0.000
      -0.395  0.919 -0.000  0.000 -0.000
       0.000  0.000 -0.000  0.500 -0.866
       0.919  0.395  0.000 -0.000  0.000
     occupation matrix ns (before diag.):
       0.348 -0.000 -0.000  0.000  0.000
      -0.000  0.299 -0.000  0.000  0.000
      -0.000 -0.000  0.299  0.000  0.000
       0.000  0.000  0.000  0.348 -0.000
       0.000  0.000  0.000 -0.000  0.299
     ------------------------ ATOM    4 ------------------------
     Tr[ns(  4)] =   3.18445
     eigenvalues:
       0.299  0.299  0.299  0.348  0.348
     eigenvectors (columns):
      -0.000  0.000  0.000 -0.866 -0.500
      -0.264  0.965 -0.000  0.000  0.000
      -0.000  0.000  1.000 -0.000  0.000
       0.000 -0.000 -0.000 -0.500  0.866
       0.965  0.264  0.000 -0.000 -0.000
     occupation matrix ns (before diag.):
       0.348 -0.000 -0.000 -0.000  0.000
      -0.000  0.299 -0.000  0.000  0.000
      -0.000 -0.000  0.299  0.000  0.000
      -0.000  0.000  0.000  0.348 -0.000
       0.000  0.000  0.000 -0.000  0.299

     Number of occupied Hubbard levels =   12.7379

     negative rho (up, down):  2.653E-03 0.000E+00

     total cpu time spent up to now is       10.9 secs

     total energy              =    -557.39478329 Ry
     estimated scf accuracy    <       0.00007971 Ry

     iteration #  2     ecut=    45.00 Ry     beta= 0.20
     Davidson diagonalization with overlap
     ethr =  1.17E-07,  avg # of iterations =  2.4

     negative rho (up, down):  2.656E-03 0.000E+00

     total cpu time spent up to now is       11.1 secs

     total energy              =    -557.39478638 Ry
     estimated scf accuracy    <       0.00002470 Ry

     iteration #  3     ecut=    45.00 Ry     beta= 0.20
     Davidson diagonalization with overlap
     ethr =  3.63E-08,  avg # of iterations =  3.6

     negative rho (up, down):  2.657E-03 0.000E+00

     total cpu time spent up to now is       11.3 secs

     total energy              =    -557.39479351 Ry
     estimated scf accuracy    <       0.00000234 Ry

     iteration #  4     ecut=    45.00 Ry     beta= 0.20
     Davidson diagonalization with overlap
     ethr =  3.45E-09,  avg # of iterations =  3.1

     negative rho (up, down):  2.659E-03 0.000E+00

     total cpu time spent up to now is       11.5 secs

     total energy              =    -557.39479440 Ry
     estimated scf accuracy    <       0.00000117 Ry

     iteration #  5     ecut=    45.00 Ry     beta= 0.20
     Davidson diagonalization with overlap
     ethr =  1.72E-09,  avg # of iterations =  2.0

     negative rho (up, down):  2.659E-03 0.000E+00

     total cpu time spent up to now is       11.7 secs

     total energy              =    -557.39479451 Ry
     estimated scf accuracy    <       0.00000012 Ry

     iteration #  6     ecut=    45.00 Ry     beta= 0.20
     Davidson diagonalization with overlap
     ethr =  1.73E-10,  avg # of iterations =  3.1

     negative rho (up, down):  2.659E-03 0.000E+00

     total cpu time spent up to now is       11.9 secs

     total energy              =    -557.39479452 Ry
     estimated scf accuracy    <       0.00000005 Ry

     iteration #  7     ecut=    45.00 Ry     beta= 0.20
     Davidson diagonalization with overlap
     ethr =  7.48E-11,  avg # of iterations =  2.0

     negative rho (up, down):  2.659E-03 0.000E+00

     total cpu time spent up to now is       12.1 secs

     total energy              =    -557.39479454 Ry
     estimated scf accuracy    <          2.3E-09 Ry

     iteration #  8     ecut=    45.00 Ry     beta= 0.20
     Davidson diagonalization with overlap
     ethr =  3.33E-12,  avg # of iterations =  4.2

     negative rho (up, down):  2.659E-03 0.000E+00

     total cpu time spent up to now is       12.4 secs

     End of self-consistent calculation

     =================== HUBBARD OCCUPATIONS ===================
     ------------------------ ATOM    1 ------------------------
     Tr[ns(  1)] =   3.19028
     eigenvalues:
       0.299  0.299  0.299  0.349  0.349
     eigenvectors (columns):
      -0.000 -0.000 -0.000  0.522 -0.853
      -0.266  0.725 -0.635 -0.000  0.000
      -0.410  0.511  0.755 -0.000 -0.000
       0.000 -0.000  0.000 -0.853 -0.522
       0.872  0.461  0.161  0.000 -0.000
     occupation matrix ns (before diag.):
       0.349 -0.000 -0.000  0.000  0.000
      -0.000  0.299 -0.000  0.000  0.000
      -0.000 -0.000  0.299  0.000  0.000
       0.000  0.000  0.000  0.349 -0.000
       0.000  0.000  0.000 -0.000  0.299
     ------------------------ ATOM    2 ------------------------
     Tr[ns(  2)] =   3.19028
     eigenvalues:
       0.299  0.299  0.299  0.349  0.349
     eigenvectors (columns):
      -0.000  0.000 -0.000  1.000 -0.000
      -0.000  0.664 -0.748 -0.000 -0.000
      -0.000  0.748  0.664 -0.000 -0.000
       0.000 -0.000  0.000 -0.000 -1.000
       1.000  0.000  0.000  0.000  0.000
     occupation matrix ns (before diag.):
       0.349 -0.000 -0.000  0.000  0.000
      -0.000  0.299 -0.000  0.000  0.000
      -0.000 -0.000  0.299  0.000  0.000
       0.000  0.000  0.000  0.349 -0.000
       0.000  0.000  0.000 -0.000  0.299
     ------------------------ ATOM    3 ------------------------
     Tr[ns(  3)] =   3.19028
     eigenvalues:
       0.299  0.299  0.299  0.349  0.349
     eigenvectors (columns):
       0.000 -0.000 -0.000 -0.500  0.866
       1.000  0.000 -0.000 -0.000 -0.000
       0.000 -0.384  0.923 -0.000 -0.000
      -0.000  0.000  0.000 -0.866 -0.500
      -0.000  0.923  0.384  0.000  0.000
     occupation matrix ns (before diag.):
       0.349 -0.000 -0.000 -0.000  0.000
      -0.000  0.299 -0.000  0.000  0.000
      -0.000 -0.000  0.299  0.000  0.000
      -0.000  0.000  0.000  0.349 -0.000
       0.000  0.000  0.000 -0.000  0.299
     ------------------------ ATOM    4 ------------------------
     Tr[ns(  4)] =   3.19028
     eigenvalues:
       0.299  0.299  0.299  0.349  0.349
     eigenvectors (columns):
       0.000 -0.000  0.000  0.500 -0.866
       0.000 -0.270  0.963 -0.000  0.000
       1.000  0.000 -0.000 -0.000 -0.000
      -0.000  0.000 -0.000 -0.866 -0.500
      -0.000  0.963  0.270  0.000 -0.000
     occupation matrix ns (before diag.):
       0.349 -0.000 -0.000  0.000  0.000
      -0.000  0.299 -0.000  0.000  0.000
      -0.000 -0.000  0.299  0.000  0.000
       0.000  0.000  0.000  0.349 -0.000
       0.000  0.000  0.000 -0.000  0.299

     Number of occupied Hubbard levels =   12.7611

          k = 0.0000 0.0000 0.0000 (  2553 PWs)   bands (ev):

   -41.5642 -41.4487 -41.4487 -41.4487 -18.0216 -18.0216 -18.0216 -17.7277
   -17.7277 -17.7277 -17.7277 -17.7277 -17.7277 -17.5433 -17.5433 -17.5433
    -0.0599   1.6792   1.6792   1.6792  11.0616  11.0616  11.0616  13.7260
    13.7260  13.7260  13.7260  13.7260  13.7260  14.5565  14.5565  14.5565
    14.9540  14.9540  14.9540  16.7736  16.7736  16.7736  17.6370  17.6370
    18.6059

          k = 0.0000 0.0000 0.1975 (  2593 PWs)   bands (ev):

   -41.5534 -41.4598 -41.4494 -41.4494 -17.9921 -17.9921 -17.9828 -17.7545
   -17.7545 -17.7318 -17.7318 -17.7097 -17.7097 -17.5966 -17.5605 -17.5605
     0.1836   1.6329   1.7982   1.7982  10.8130  11.1392  11.1392  12.8088
    12.8088  12.9438  12.9438  13.4511  13.7070  13.7070  14.5223  14.5223
    14.7262  15.7792  15.7792  16.5046  17.4501  17.4501  17.7227  18.5058
    18.8338

          k = 0.0000 0.0000 0.3951 (  2593 PWs)   bands (ev):

   -41.5248 -41.4889 -41.4507 -41.4507 -17.9163 -17.9163 -17.8749 -17.8257
   -17.8257 -17.7385 -17.7385 -17.7278 -17.6629 -17.6629 -17.6059 -17.6059
     0.7778   1.3604   2.0044   2.0044  10.7334  11.4066  11.4066  11.6322
    11.9408  11.9408  11.9418  11.9418  13.7427  13.7427  13.9958  13.9958
    15.2030  15.8734  17.3972  17.3972  17.9533  18.2519  18.5418  18.5418
    18.6850

          k = 0.0000 0.1975 0.1975 (  2590 PWs)   bands (ev):

   -41.5433 -41.4590 -41.4590 -41.4507 -17.9718 -17.9718 -17.9638 -17.8131
   -17.7355 -17.7355 -17.7041 -17.7041 -17.6960 -17.6711 -17.5786 -17.5469
     0.4195   1.7676   1.7676   1.9065  10.8259  10.8259  11.2155  11.8835
    12.8592  12.8592  12.9357  12.9591  12.9591  13.0047  13.5315  14.0548
    15.8733  15.8733  16.2802  17.0379  17.4055  17.6032  18.4368  19.0395
    19.0395

          k = 0.0000 0.1975 0.3951 (  2606 PWs)   bands (ev):

   -41.5169 -41.4846 -41.4569 -41.4537 -17.9388 -17.9047 -17.8912 -17.8838
   -17.8041 -17.7935 -17.6907 -17.6862 -17.6821 -17.6401 -17.6263 -17.5767
     0.9905   1.5344   2.0196   2.0763  10.6535  10.8206  11.0351  11.4590
    11.4792  12.0080  12.1378  12.2911  12.9733  13.0421  13.1099  13.4329
    16.1830  16.6759  17.4540  17.5901  18.2377  18.4261  18.6898  18.7093
    18.7448

          k = 0.0000 0.3951 0.3951 (  2592 PWs)   bands (ev):

   -41.4969 -41.4740 -41.4740 -41.4622 -17.9434 -17.9434 -17.9390 -17.8892
   -17.8264 -17.7482 -17.7482 -17.6803 -17.6273 -17.6150 -17.6150 -17.5704
     1.4875   1.9069   1.9069   2.1293  10.3466  10.3807  10.3807  10.8115
    11.7321  12.1011  12.1403  12.1403  12.2402  12.2402  12.2606  12.7093
    17.6385  17.6385  17.7349  18.3516  18.3697  18.5877  18.7039  18.9084
    18.9084

          k = 0.1975 0.1975 0.1975 (  2602 PWs)   bands (ev):

   -41.5338 -41.4588 -41.4588 -41.4588 -17.9746 -17.9746 -17.9746 -17.7578
   -17.7578 -17.7578 -17.7456 -17.6815 -17.6815 -17.6815 -17.5609 -17.5609
     0.6478   1.8919   1.8919   1.8919  10.7677  10.7677  10.7677  12.0906
    12.0906  12.0906  12.4650  12.9006  12.9006  12.9006  13.3351  13.3351
    16.3658  16.3658  16.3658  17.4440  17.4440  17.5956  19.1965  19.1965
    19.1965

          k = 0.1975 0.1975 0.3951 (  2591 PWs)   bands (ev):

   -41.5096 -41.4808 -41.4585 -41.4584 -17.9809 -17.9809 -17.9503 -17.8641
   -17.7733 -17.7732 -17.6638 -17.6638 -17.6603 -17.6437 -17.5976 -17.5842
     1.1952   1.6992   2.1085   2.1085  10.4875  10.4948  10.4948  11.1722
    11.6952  11.6952  12.2679  12.2679  12.3268  12.6730  12.8843  13.0282
    16.6351  17.0682  17.6290  17.6290  18.2401  18.4932  18.7745  18.7745
    18.8852

          k = 0.1975 0.3951 0.3951 (  2573 PWs)   bands (ev):

   -41.4917 -41.4722 -41.4721 -41.4636 -18.0242 -18.0120 -18.0120 -17.9650
   -17.7277 -17.6850 -17.6850 -17.6286 -17.6217 -17.6142 -17.6142 -17.5757
     1.6663   2.0405   2.0405   2.2094   9.9614  10.0454  10.0454  10.4185
    11.7527  11.8986  11.8986  12.0409  12.1606  12.2258  12.2258  12.4415
    17.7972  17.7972  18.0311  18.1585  18.3184  18.7373  18.8529  18.8529
    18.8989

          k = 0.3951 0.3951 0.3951 (  2557 PWs)   bands (ev):

   -41.4798 -41.4691 -41.4691 -41.4691 -18.0864 -18.0864 -18.0864 -18.0615
   -17.6251 -17.6250 -17.6250 -17.6072 -17.6072 -17.6072 -17.5897 -17.5897
     2.0509   2.2764   2.2764   2.2764   9.4781   9.4781   9.4781   9.6928
    11.7867  11.7868  11.7868  11.9592  11.9592  11.9592  12.0001  12.0001
    18.4406  18.4406  18.4406  18.6043  18.6043  18.8873  18.8873  18.8873
    18.9407

     the Fermi energy is    17.4192 ev

!    total energy              =    -557.39479455 Ry
     estimated scf accuracy    <          3.7E-10 Ry
     smearing contrib. (-TS)   =      -0.00499576 Ry
     internal energy E=F+TS    =    -557.38979879 Ry

     The total energy is F=E-TS. E is the sum of the following terms:
     one-electron contribution =    -107.93916672 Ry
     hartree contribution      =      91.96109786 Ry
     xc contribution           =     -94.09506650 Ry
     ewald contribution        =    -448.48979340 Ry
     DFT-D3 Dispersion         =      -0.24100201 Ry
     Hubbard energy            =       1.41413198 Ry

     convergence has been achieved in   8 iterations

     negative rho (up, down):  2.659E-03 0.000E+00
     force_hub    :      0.17s CPU      0.19s WALL (       3 calls)
     dndtau       :      0.15s CPU      0.17s WALL (     720 calls)
     dprojdtau    :      0.02s CPU      0.02s WALL (    2880 calls)
     matel_dSdtau :      0.13s CPU      0.14s WALL (     720 calls)

     Forces acting on atoms (cartesian axes, Ry/au):

     atom    1 type  1   force =     0.00000000    0.00000000    0.00000000
     atom    2 type  1   force =     0.00000000    0.00000000    0.00000000
     atom    3 type  1   force =     0.00000000    0.00000000    0.00000000
     atom    4 type  1   force =     0.00000000    0.00000000    0.00000000
     atom    5 type  2   force =     0.00000000    0.00000000    0.00000000
     atom    6 type  2   force =     0.00000000    0.00000000    0.00000000
     atom    7 type  2   force =     0.00000000    0.00000000    0.00000000
     atom    8 type  2   force =     0.00000000    0.00000000    0.00000000

     Total force =     0.000000     Total SCF correction =     0.000000


     Computing stress (Cartesian axis) and pressure


     negative rho (up, down):  2.659E-03 0.000E+00
     stres_hub    :      0.45s CPU      0.47s WALL (       3 calls)
     dprojdepsilo :      0.41s CPU      0.42s WALL (     270 calls)
     dprojdeps1   :      0.00s CPU      0.00s WALL (     270 calls)
     dprojdeps2   :      0.02s CPU      0.02s WALL (     270 calls)
     dprojdeps3   :      0.38s CPU      0.40s WALL (     270 calls)
          total   stress  (Ry/bohr**3)                   (kbar)     P=       -2.78
  -0.00001889   0.00000000   0.00000000           -2.78        0.00        0.00
   0.00000000  -0.00001889   0.00000000            0.00       -2.78        0.00
   0.00000000   0.00000000  -0.00001889            0.00        0.00       -2.78

     Energy error            =      9.0E-04 Ry
     Gradient error          =      0.0E+00 Ry/Bohr
     Cell gradient error     =      2.8E+00 kbar

     number of scf cycles    =   3
     number of bfgs steps    =   2

     enthalpy           old  =    -557.3938910522 Ry
     enthalpy           new  =    -557.3947945499 Ry

     CASE: enthalpy          _new < enthalpy          _old

     new trust radius        =       0.0017560928 bohr
     new conv_thr            =       0.0000000010 Ry

     new unit-cell volume =    526.31643 a.u.^3 (    77.99205 Ang^3 )
     density =      0.17033 g/cm^3

CELL_PARAMETERS (angstrom)
   4.272513475   0.000000000   0.000000000
   0.000000000   4.272513475   0.000000000
   0.000000000   0.000000000   4.272513475

ATOMIC_POSITIONS (crystal)
Ti               0.0000000000        0.0000000000        0.0000000000
Ti               0.4999999989        0.4999999989        0.0000000000
Ti               0.4999999989        0.0000000000        0.4999999989
Ti               0.0000000000        0.4999999989        0.4999999989
N                0.0000000000        0.0000000000        0.4999999989
N                0.0000000000        0.4999999989        0.0000000000
N                0.4999999989        0.0000000000        0.0000000000
N                0.4999999989        0.4999999989        0.4999999989



     Writing config-only to output data dir ./tmp/tin.save/ :
     XML data file
     NEW-OLD atomic charge density approx. for the potential
     New effective cutoffs (rho, wfc):  439.07   43.92

     Check: negative core charge=   -0.000004

     negative rho (up, down):  2.655E-03 0.000E+00

     Atomic wfc used for Hubbard projectors are NOT orthogonalized


     total cpu time spent up to now is       13.7 secs

     per-process dynamical memory:   133.7 Mb

     Self-consistent Calculation

     iteration #  1     ecut=    45.00 Ry     beta= 0.20
     Davidson diagonalization with overlap
     ethr =  1.00E-06,  avg # of iterations =  2.0

     =================== HUBBARD OCCUPATIONS ===================
     ------------------------ ATOM    1 ------------------------
     Tr[ns(  1)] =   3.19190
     eigenvalues:
       0.299  0.299  0.299  0.349  0.349
     eigenvectors (columns):
      -0.000 -0.000 -0.000  0.383 -0.924
      -0.288  0.585 -0.758 -0.000  0.000
      -0.450  0.616  0.647 -0.000  0.000
       0.000  0.000  0.000 -0.924 -0.383
       0.846  0.527  0.086  0.000 -0.000
     occupation matrix ns (before diag.):
       0.349 -0.000 -0.000  0.000  0.000
      -0.000  0.299 -0.000  0.000  0.000
      -0.000 -0.000  0.299  0.000  0.000
       0.000  0.000  0.000  0.349 -0.000
       0.000  0.000  0.000 -0.000  0.299
     ------------------------ ATOM    2 ------------------------
     Tr[ns(  2)] =   3.19190
     eigenvalues:
       0.299  0.299  0.299  0.349  0.349
     eigenvectors (columns):
      -0.000  0.000 -0.000  1.000 -0.000
      -0.000  0.710 -0.704 -0.000 -0.000
      -0.000  0.704  0.710 -0.000 -0.000
       0.000 -0.000  0.000 -0.000 -1.000
       1.000  0.000  0.000  0.000  0.000
     occupation matrix ns (before diag.):
       0.349 -0.000 -0.000  0.000  0.000
      -0.000  0.299 -0.000  0.000  0.000
      -0.000 -0.000  0.299  0.000  0.000
       0.000  0.000  0.000  0.349 -0.000
       0.000  0.000  0.000 -0.000  0.299
     ------------------------ ATOM    3 ------------------------
     Tr[ns(  3)] =   3.19190
     eigenvalues:
       0.299  0.299  0.299  0.349  0.349
     eigenvectors (columns):
       0.000 -0.000 -0.000 -0.500  0.866
       1.000  0.000 -0.000 -0.000 -0.000
       0.000 -0.389  0.921 -0.000 -0.000
      -0.000  0.000  0.000 -0.866 -0.500
      -0.000  0.921  0.389  0.000  0.000
     occupation matrix ns (before diag.):
       0.349 -0.000 -0.000 -0.000  0.000
      -0.000  0.299 -0.000  0.000  0.000
      -0.000 -0.000  0.299  0.000  0.000
      -0.000  0.000  0.000  0.349 -0.000
       0.000  0.000  0.000 -0.000  0.299
     ------------------------ ATOM    4 ------------------------
     Tr[ns(  4)] =   3.19190
     eigenvalues:
       0.299  0.299  0.299  0.349  0.349
     eigenvectors (columns):
       0.000 -0.000  0.000  0.500 -0.866
       0.000 -0.259  0.966 -0.000  0.000
       1.000  0.000 -0.000 -0.000 -0.000
      -0.000  0.000 -0.000 -0.866 -0.500
      -0.000  0.966  0.259  0.000 -0.000
     occupation matrix ns (before diag.):
       0.349 -0.000 -0.000  0.000  0.000
      -0.000  0.299 -0.000  0.000  0.000
      -0.000 -0.000  0.299  0.000  0.000
       0.000  0.000  0.000  0.349 -0.000
       0.000  0.000  0.000 -0.000  0.299

     Number of occupied Hubbard levels =   12.7676

     Threshold (ethr) on eigenvalues was too large:
     Diagonalizing with lowered threshold

     Davidson diagonalization with overlap
     ethr =  7.04E-10,  avg # of iterations =  4.0

     negative rho (up, down):  2.656E-03 0.000E+00

     total cpu time spent up to now is       14.4 secs

     total energy              =    -557.39479996 Ry
     estimated scf accuracy    <       0.00000061 Ry

     iteration #  2     ecut=    45.00 Ry     beta= 0.20
     Davidson diagonalization with overlap
     ethr =  8.91E-10,  avg # of iterations =  2.1

     negative rho (up, down):  2.656E-03 0.000E+00

     total cpu time spent up to now is       14.6 secs

     total energy              =    -557.39480000 Ry
     estimated scf accuracy    <       0.00000013 Ry

     iteration #  3     ecut=    45.00 Ry     beta= 0.20
     Davidson diagonalization with overlap
     ethr =  1.88E-10,  avg # of iterations =  3.8

     negative rho (up, down):  2.656E-03 0.000E+00

     total cpu time spent up to now is       14.9 secs

     total energy              =    -557.39480003 Ry
     estimated scf accuracy    <       0.00000002 Ry

     iteration #  4     ecut=    45.00 Ry     beta= 0.20
     Davidson diagonalization with overlap
     ethr =  2.86E-11,  avg # of iterations =  4.2

     negative rho (up, down):  2.656E-03 0.000E+00

     total cpu time spent up to now is       15.1 secs

     total energy              =    -557.39480004 Ry
     estimated scf accuracy    <       0.00000004 Ry

     iteration #  5     ecut=    45.00 Ry     beta= 0.20
     Davidson diagonalization with overlap
     ethr =  2.86E-11,  avg # of iterations =  1.3

     negative rho (up, down):  2.656E-03 0.000E+00

     total cpu time spent up to now is       15.3 secs

     total energy              =    -557.39480004 Ry
     estimated scf accuracy    <       0.00000001 Ry

     iteration #  6     ecut=    45.00 Ry     beta= 0.20
     Davidson diagonalization with overlap
     ethr =  2.15E-11,  avg # of iterations =  1.0

     negative rho (up, down):  2.656E-03 0.000E+00

     total cpu time spent up to now is       15.5 secs

     total energy              =    -557.39480003 Ry
     estimated scf accuracy    <       0.00000003 Ry

     iteration #  7     ecut=    45.00 Ry     beta= 0.20
     Davidson diagonalization with overlap
     ethr =  2.15E-11,  avg # of iterations =  3.9

     negative rho (up, down):  2.656E-03 0.000E+00

     total cpu time spent up to now is       15.7 secs

     total energy              =    -557.39480004 Ry
     estimated scf accuracy    <          4.5E-09 Ry

     iteration #  8     ecut=    45.00 Ry     beta= 0.20
     Davidson diagonalization with overlap
     ethr =  6.58E-12,  avg # of iterations =  1.1

     negative rho (up, down):  2.656E-03 0.000E+00

     total cpu time spent up to now is       15.9 secs

     total energy              =    -557.39480004 Ry
     estimated scf accuracy    <          3.1E-09 Ry

     iteration #  9     ecut=    45.00 Ry     beta= 0.20
     Davidson diagonalization with overlap
     ethr =  4.61E-12,  avg # of iterations =  1.8

     negative rho (up, down):  2.656E-03 0.000E+00

     total cpu time spent up to now is       16.1 secs

     End of self-consistent calculation

     =================== HUBBARD OCCUPATIONS ===================
     ------------------------ ATOM    1 ------------------------
     Tr[ns(  1)] =   3.19234
     eigenvalues:
       0.300  0.300  0.300  0.349  0.349
     eigenvectors (columns):
      -0.000 -0.000 -0.000  0.346 -0.938
      -0.287  0.790 -0.542 -0.000  0.000
      -0.394  0.418  0.818 -0.000  0.000
       0.000 -0.000  0.000 -0.938 -0.346
       0.873  0.449  0.191  0.000 -0.000
     occupation matrix ns (before diag.):
       0.349 -0.000 -0.000  0.000  0.000
      -0.000  0.300 -0.000  0.000  0.000
      -0.000 -0.000  0.300  0.000  0.000
       0.000  0.000  0.000  0.349 -0.000
       0.000  0.000  0.000 -0.000  0.300
     ------------------------ ATOM    2 ------------------------
     Tr[ns(  2)] =   3.19234
     eigenvalues:
       0.300  0.300  0.300  0.349  0.349
     eigenvectors (columns):
      -0.000  0.000 -0.000  0.000 -1.000
      -0.000  0.664 -0.748 -0.000  0.000
      -0.000  0.748  0.664 -0.000  0.000
       0.000 -0.000  0.000 -1.000 -0.000
       1.000  0.000  0.000  0.000 -0.000
     occupation matrix ns (before diag.):
       0.349 -0.000 -0.000  0.000  0.000
      -0.000  0.300 -0.000  0.000  0.000
      -0.000 -0.000  0.300  0.000  0.000
       0.000  0.000  0.000  0.349 -0.000
       0.000  0.000  0.000 -0.000  0.300
     ------------------------ ATOM    3 ------------------------
     Tr[ns(  3)] =   3.19234
     eigenvalues:
       0.300  0.300  0.300  0.349  0.349
     eigenvectors (columns):
       0.000 -0.000 -0.000 -0.866 -0.500
       1.000  0.000 -0.000  0.000 -0.000
       0.000 -0.421  0.907  0.000 -0.000
      -0.000  0.000  0.000  0.500 -0.866
      -0.000  0.907  0.421 -0.000  0.000
     occupation matrix ns (before diag.):
       0.349 -0.000 -0.000  0.000  0.000
      -0.000  0.300 -0.000  0.000  0.000
      -0.000 -0.000  0.300  0.000  0.000
       0.000  0.000  0.000  0.349 -0.000
       0.000  0.000  0.000 -0.000  0.300
     ------------------------ ATOM    4 ------------------------
     Tr[ns(  4)] =   3.19234
     eigenvalues:
       0.300  0.300  0.300  0.349  0.349
     eigenvectors (columns):
       0.000 -0.000  0.000 -0.866 -0.500
       0.000 -0.259  0.966  0.000  0.000
       1.000  0.000 -0.000 -0.000  0.000
      -0.000  0.000 -0.000 -0.500  0.866
      -0.000  0.966  0.259 -0.000 -0.000
     occupation matrix ns (before diag.):
       0.349 -0.000 -0.000 -0.000  0.000
      -0.000  0.300 -0.000  0.000  0.000
      -0.000 -0.000  0.300  0.000  0.000
      -0.000  0.000  0.000  0.349 -0.000
       0.000  0.000  0.000 -0.000  0.300

     Number of occupied Hubbard levels =   12.7694

          k = 0.0000 0.0000 0.0000 (  2553 PWs)   bands (ev):

   -41.5398 -41.4236 -41.4236 -41.4236 -17.9985 -17.9985 -17.9985 -17.7034
   -17.7034 -17.7034 -17.7034 -17.7034 -17.7034 -17.5182 -17.5182 -17.5182
    -0.0454   1.6943   1.6943   1.6943  11.0802  11.0802  11.0802  13.7457
    13.7457  13.7457  13.7457  13.7457  13.7457  14.5734  14.5734  14.5734
    14.9740  14.9740  14.9740  16.7944  16.7944  16.7944  17.6593  17.6593
    18.6302

          k = 0.0000 0.0000 0.1976 (  2593 PWs)   bands (ev):

   -41.5289 -41.4348 -41.4244 -41.4244 -17.9689 -17.9689 -17.9596 -17.7302
   -17.7302 -17.7075 -17.7075 -17.6853 -17.6853 -17.5717 -17.5354 -17.5354
     0.1985   1.6484   1.8137   1.8137  10.8306  11.1577  11.1577  12.8268
    12.8268  12.9621  12.9621  13.4692  13.7265  13.7265  14.5417  14.5417
    14.7433  15.7986  15.7986  16.5248  17.4721  17.4721  17.7452  18.5298
    18.8588

          k = 0.0000 0.0000 0.3952 (  2593 PWs)   bands (ev):

   -41.5001 -41.4640 -41.4256 -41.4256 -17.8928 -17.8928 -17.8513 -17.8017
   -17.8017 -17.7143 -17.7143 -17.7035 -17.6383 -17.6383 -17.5810 -17.5810
     0.7937   1.3765   2.0207   2.0207  10.7495  11.4246  11.4246  11.6485
    11.9574  11.9574  11.9595  11.9595  13.7618  13.7618  14.0147  14.0147
    15.2209  15.8924  17.4191  17.4191  17.9762  18.2755  18.5658  18.5658
    18.7093

          k = 0.0000 0.1976 0.1976 (  2590 PWs)   bands (ev):

   -41.5187 -41.4340 -41.4340 -41.4256 -17.9485 -17.9485 -17.9405 -17.7892
   -17.7112 -17.7112 -17.6797 -17.6797 -17.6716 -17.6465 -17.5536 -17.5218
     0.4349   1.7836   1.7836   1.9224  10.8433  10.8433  11.2338  11.9007
    12.8772  12.8772  12.9536  12.9772  12.9772  13.0229  13.5491  14.0735
    15.8927  15.8927  16.3002  17.0591  17.4274  17.6255  18.4610  19.0648
    19.0648

          k = 0.0000 0.1976 0.3952 (  2606 PWs)   bands (ev):

   -41.4921 -41.4597 -41.4319 -41.4287 -17.9154 -17.8812 -17.8676 -17.8601
   -17.7801 -17.7695 -17.6662 -17.6617 -17.6576 -17.6153 -17.6015 -17.5517
     1.0068   1.5510   2.0363   2.0931  10.6696  10.8374  11.0515  11.4754
    11.4971  12.0256  12.1545  12.3080  12.9911  13.0600  13.1274  13.4510
    16.2027  16.6964  17.4759  17.6124  18.2612  18.4499  18.7142  18.7338
    18.7694

          k = 0.0000 0.3952 0.3952 (  2592 PWs)   bands (ev):

   -41.4721 -41.4491 -41.4491 -41.4372 -17.9200 -17.9200 -17.9156 -17.8656
   -17.8025 -17.7239 -17.7239 -17.6558 -17.6025 -17.5901 -17.5901 -17.5454
     1.5046   1.9243   1.9243   2.1468  10.3622  10.3964  10.3964  10.8276
    11.7496  12.1171  12.1564  12.1564  12.2577  12.2577  12.2764  12.7268
    17.6607  17.6607  17.7574  18.3754  18.3932  18.6119  18.7286  18.9335
    18.9335

          k = 0.1976 0.1976 0.1976 (  2602 PWs)   bands (ev):

   -41.5092 -41.4338 -41.4338 -41.4338 -17.9514 -17.9514 -17.9514 -17.7336
   -17.7336 -17.7336 -17.7214 -17.6569 -17.6569 -17.6569 -17.5358 -17.5358
     0.6636   1.9083   1.9083   1.9083  10.7849  10.7849  10.7849  12.1079
    12.1079  12.1079  12.4830  12.9184  12.9184  12.9184  13.3525  13.3525
    16.3860  16.3860  16.3860  17.4659  17.4659  17.6180  19.2220  19.2220
    19.2220

          k = 0.1976 0.1976 0.3952 (  2591 PWs)   bands (ev):

   -41.4848 -41.4560 -41.4334 -41.4334 -17.9577 -17.9577 -17.9270 -17.8404
   -17.7491 -17.7491 -17.6392 -17.6392 -17.6356 -17.6190 -17.5727 -17.5592
     1.2119   1.7162   2.1257   2.1257  10.5035  10.5112  10.5112  11.1887
    11.7122  11.7122  12.2846  12.2846  12.3437  12.6898  12.9017  13.0454
    16.6557  17.0895  17.6514  17.6514  18.2637  18.5173  18.7991  18.7991
    18.9101

          k = 0.1976 0.3952 0.3952 (  2573 PWs)   bands (ev):

   -41.4668 -41.4472 -41.4472 -41.4386 -18.0012 -17.9890 -17.9890 -17.9418
   -17.7033 -17.6605 -17.6605 -17.6038 -17.5969 -17.5893 -17.5893 -17.5507
     1.6839   2.0584   2.0584   2.2274   9.9770  10.0610  10.0610  10.4345
    11.7694  11.9147  11.9147  12.0567  12.1763  12.2422  12.2422  12.4582
    17.8198  17.8198  18.0542  18.1819  18.3421  18.7619  18.8778  18.8778
    18.9238

          k = 0.3952 0.3952 0.3952 (  2557 PWs)   bands (ev):

   -41.4549 -41.4442 -41.4442 -41.4442 -18.0637 -18.0637 -18.0637 -18.0387
   -17.6003 -17.6003 -17.6003 -17.5824 -17.5824 -17.5824 -17.5647 -17.5647
     2.0694   2.2951   2.2951   2.2951   9.4932   9.4932   9.4932   9.7082
    11.8023  11.8023  11.8023  11.9748  11.9748  11.9748  12.0157  12.0157
    18.4645  18.4645  18.4645  18.6286  18.6286  18.9123  18.9123  18.9123
    18.9657

     the Fermi energy is    17.4413 ev

!    total energy              =    -557.39480004 Ry
     estimated scf accuracy    <          7.1E-10 Ry
     smearing contrib. (-TS)   =      -0.00499081 Ry
     internal energy E=F+TS    =    -557.38980923 Ry

     The total energy is F=E-TS. E is the sum of the following terms:
     one-electron contribution =    -107.69461756 Ry
     hartree contribution      =      91.89574324 Ry
     xc contribution           =     -94.10286585 Ry
     ewald contribution        =    -448.66141166 Ry
     DFT-D3 Dispersion         =      -0.24125870 Ry
     Hubbard energy            =       1.41460130 Ry

     convergence has been achieved in   9 iterations

     negative rho (up, down):  2.656E-03 0.000E+00
     force_hub    :      0.23s CPU      0.25s WALL (       4 calls)
     dndtau       :      0.20s CPU      0.22s WALL (     960 calls)
     dprojdtau    :      0.02s CPU      0.02s WALL (    3840 calls)
     matel_dSdtau :      0.17s CPU      0.18s WALL (     960 calls)

     Forces acting on atoms (cartesian axes, Ry/au):

     atom    1 type  1   force =     0.00000000    0.00000000    0.00000000
     atom    2 type  1   force =     0.00000000    0.00000000    0.00000000
     atom    3 type  1   force =     0.00000000    0.00000000    0.00000000
     atom    4 type  1   force =     0.00000000    0.00000000    0.00000000
     atom    5 type  2   force =     0.00000000    0.00000000    0.00000000
     atom    6 type  2   force =     0.00000000    0.00000000    0.00000000
     atom    7 type  2   force =     0.00000000    0.00000000    0.00000000
     atom    8 type  2   force =     0.00000000    0.00000000    0.00000000

     Total force =     0.000000     Total SCF correction =     0.000000


     Computing stress (Cartesian axis) and pressure


     negative rho (up, down):  2.656E-03 0.000E+00
     stres_hub    :      0.59s CPU      0.62s WALL (       4 calls)
     dprojdepsilo :      0.54s CPU      0.57s WALL (     360 calls)
     dprojdeps1   :      0.00s CPU      0.00s WALL (     360 calls)
     dprojdeps2   :      0.03s CPU      0.03s WALL (     360 calls)
     dprojdeps3   :      0.51s CPU      0.53s WALL (     360 calls)
          total   stress  (Ry/bohr**3)                   (kbar)     P=        0.10
   0.00000068   0.00000000   0.00000000            0.10        0.00        0.00
   0.00000000   0.00000068   0.00000000            0.00        0.10        0.00
   0.00000000   0.00000000   0.00000068            0.00        0.00        0.10

     Energy error            =      5.5E-06 Ry
     Gradient error          =      0.0E+00 Ry/Bohr
     Cell gradient error     =      1.0E-01 kbar

     bfgs converged in   4 scf cycles and   3 bfgs steps
     (criteria: energy <  1.0E-04 Ry, force <  1.0E-03 Ry/Bohr, cell <  5.0E-01 kbar)

     End of BFGS Geometry Optimization

     Final enthalpy           =    -557.3948000352 Ry

     File ./tmp/tin.bfgs deleted, as requested
Begin final coordinates
     new unit-cell volume =    526.31643 a.u.^3 (    77.99205 Ang^3 )
     density =      0.17033 g/cm^3

CELL_PARAMETERS (angstrom)
   4.272513475   0.000000000   0.000000000
   0.000000000   4.272513475   0.000000000
   0.000000000   0.000000000   4.272513475

ATOMIC_POSITIONS (crystal)
Ti               0.0000000000        0.0000000000        0.0000000000
Ti               0.4999999989        0.4999999989        0.0000000000
Ti               0.4999999989        0.0000000000        0.4999999989
Ti               0.0000000000        0.4999999989        0.4999999989
N                0.0000000000        0.0000000000        0.4999999989
N                0.0000000000        0.4999999989        0.0000000000
N                0.4999999989        0.0000000000        0.0000000000
N                0.4999999989        0.4999999989        0.4999999989
End final coordinates



     Writing config-only to output data dir ./tmp/tin.save/ :
     XML data file

     Final scf calculation at the relaxed structure.
     The G-vectors are recalculated for the final unit cell
     Results may differ from those at the preceding step.

     Parallelization info
     --------------------
     sticks:   dense  smooth     PW     G-vecs:    dense   smooth      PW
     Min         146      58     17                 5300     1346     211
     Max         147      59     18                 5303     1349     214
     Sum        2337     941    277                84823    21559    3407

     Using Slab Decomposition



     bravais-lattice index     =            0
     lattice parameter (alat)  =       7.9776  a.u.
     unit-cell volume          =     526.3164 (a.u.)^3
     number of atoms/cell      =            8
     number of atomic types    =            2
     number of electrons       =        68.00
     number of Kohn-Sham states=           41
     kinetic-energy cutoff     =      45.0000  Ry
     charge density cutoff     =     450.0000  Ry
     scf convergence threshold =      1.0E-09
     mixing beta               =       0.2000
     number of iterations used =            8  local-TF  mixing
     press convergence thresh. =      5.0E-01
     Exchange-correlation= SLA  PW   PBE  PBE
                           (   1   4   3   4   0   0   0)
     Hubbard projectors: atomic
     Hubbard parameters of DFT+U (Dudarev formulation) in eV:
     U(Ti-3d) =  4.4400

     Internal variables: lda_plus_u =T, lda_plus_u_kind = 0

     Internal variables: orbital_resolved =F, hub_pot_fix =F, apply_U = F

     celldm(1)=   7.977574  celldm(2)=   0.000000  celldm(3)=   0.000000
     celldm(4)=   0.000000  celldm(5)=   0.000000  celldm(6)=   0.000000

     crystal axes: (cart. coord. in units of alat)
               a(1) = (   1.012072   0.000000   0.000000 )  
               a(2) = (   0.000000   1.012072   0.000000 )  
               a(3) = (   0.000000   0.000000   1.012072 )  

     reciprocal axes: (cart. coord. in units 2 pi/alat)
               b(1) = (  0.988072  0.000000  0.000000 )  
               b(2) = (  0.000000  0.988072  0.000000 )  
               b(3) = (  0.000000  0.000000  0.988072 )  


     PseudoPot. # 1 for Ti read from file:
     /scratch/anizami/QE_2/USPP/ti_pbe_v1.4.uspp.F.UPF
     MD5 check sum: 88a00a6731bd790ddea75d31a80cb452
     Pseudo is Ultrasoft + core correction, Zval = 12.0
     Generated by new atomic code, or converted to UPF format
     Using radial grid of  851 points,  6 beta functions with: 
                l(1) =   0
                l(2) =   0
                l(3) =   1
                l(4) =   1
                l(5) =   2
                l(6) =   2
     Q(r) pseudized with  6 coefficients,  rinner =    1.000   1.000   1.000
                                                       1.000   1.000

     PseudoPot. # 2 for N  read from file:
     /scratch/anizami/QE_2/USPP/n_pbe_v1.2.uspp.F.UPF
     MD5 check sum: 95339753478d7afb44899504a8723017
     Pseudo is Ultrasoft + core correction, Zval =  5.0
     Generated by new atomic code, or converted to UPF format
     Using radial grid of  729 points,  4 beta functions with: 
                l(1) =   0
                l(2) =   0
                l(3) =   1
                l(4) =   1
     Q(r) pseudized with  8 coefficients,  rinner =    0.900   0.900   0.900


     atomic species   valence    mass     pseudopotential
     Ti               12.00     1.00000     Ti( 1.00)
     N                 5.00     1.00000     N ( 1.00)

     48 Sym. Ops., with inversion, found



   Cartesian axes

     site n.     atom                  positions (alat units)
         1        Ti     tau(   1) = (   0.0000000   0.0000000   0.0000000  )
         2        Ti     tau(   2) = (   0.5060361   0.5060361   0.0000000  )
         3        Ti     tau(   3) = (   0.5060361   0.0000000   0.5060361  )
         4        Ti     tau(   4) = (   0.0000000   0.5060361   0.5060361  )
         5        N      tau(   5) = (   0.0000000   0.0000000   0.5060361  )
         6        N      tau(   6) = (   0.0000000   0.5060361   0.0000000  )
         7        N      tau(   7) = (   0.5060361   0.0000000   0.0000000  )
         8        N      tau(   8) = (   0.5060361   0.5060361   0.5060361  )

     --------------------------------------------
     DFT-D3 Dispersion Correction (3-body terms):
     --------------------------------------------
       Reference C6 values for interpolation: 

         atom   Coordination number   C6
         N          0.000            50.54
         N          0.994            44.25
         N          2.014            39.35
         N          2.990            31.16
         Ti         0.000          2723.84
         Ti         1.830           604.00
         Ti         3.868           643.18

       Values used:

         atom   Coordination number  R0_AB[au]  C6      C8
         Ti        15.362            3.557    643.18  76289.64
         Ti        15.362            3.557    643.18  76289.64
         Ti        15.362            3.557    643.18  76289.64
         Ti        15.362            3.557    643.18  76289.64
         N          5.899            2.478     31.16    687.49
         N          5.899            2.478     31.16    687.49
         N          5.899            2.478     31.16    687.49
         N          5.899            2.478     31.16    687.49

         Molecular C6 ( Ry / a.u.^6 ) =     15030.15


     number of k points=    10  Marzari-Vanderbilt smearing, width (Ry)=  0.0200
                       cart. coord. in units 2pi/alat
        k(    1) = (   0.0000000   0.0000000   0.0000000), wk =   0.0160000
        k(    2) = (   0.0000000   0.0000000   0.1976144), wk =   0.0960000
        k(    3) = (   0.0000000   0.0000000   0.3952287), wk =   0.0960000
        k(    4) = (   0.0000000   0.1976144   0.1976144), wk =   0.1920000
        k(    5) = (   0.0000000   0.1976144   0.3952287), wk =   0.3840000
        k(    6) = (   0.0000000   0.3952287   0.3952287), wk =   0.1920000
        k(    7) = (   0.1976144   0.1976144   0.1976144), wk =   0.1280000
        k(    8) = (   0.1976144   0.1976144   0.3952287), wk =   0.3840000
        k(    9) = (   0.1976144   0.3952287   0.3952287), wk =   0.3840000
        k(   10) = (   0.3952287   0.3952287   0.3952287), wk =   0.1280000

     Dense  grid:    84823 G-vectors     FFT dimensions: (  60,  60,  60)

     Smooth grid:    21559 G-vectors     FFT dimensions: (  36,  36,  36)

     Estimated max dynamical RAM per process >      28.45 MB

     Estimated total dynamical RAM >     455.18 MB

     Check: negative core charge=   -0.000006

     Initial potential from superposition of free atoms

     starting charge      63.9998, renormalised to      68.0000

     negative rho (up, down):  5.542E-03 0.000E+00

     STARTING HUBBARD OCCUPATIONS:

     =================== HUBBARD OCCUPATIONS ===================
     ------------------------ ATOM    1 ------------------------
     Tr[ns(  1)] =   1.00000
     eigenvalues:
       0.100  0.100  0.100  0.100  0.100
     eigenvectors (columns):
       1.000  0.000  0.000  0.000  0.000
       0.000  1.000  0.000  0.000  0.000
       0.000  0.000  1.000  0.000  0.000
       0.000  0.000  0.000  1.000  0.000
       0.000  0.000  0.000  0.000  1.000
     occupation matrix ns (before diag.):
       0.100  0.000  0.000  0.000  0.000
       0.000  0.100  0.000  0.000  0.000
       0.000  0.000  0.100  0.000  0.000
       0.000  0.000  0.000  0.100  0.000
       0.000  0.000  0.000  0.000  0.100
     ------------------------ ATOM    2 ------------------------
     Tr[ns(  2)] =   1.00000
     eigenvalues:
       0.100  0.100  0.100  0.100  0.100
     eigenvectors (columns):
       1.000  0.000  0.000  0.000  0.000
       0.000  1.000  0.000  0.000  0.000
       0.000  0.000  1.000  0.000  0.000
       0.000  0.000  0.000  1.000  0.000
       0.000  0.000  0.000  0.000  1.000
     occupation matrix ns (before diag.):
       0.100  0.000  0.000  0.000  0.000
       0.000  0.100  0.000  0.000  0.000
       0.000  0.000  0.100  0.000  0.000
       0.000  0.000  0.000  0.100  0.000
       0.000  0.000  0.000  0.000  0.100
     ------------------------ ATOM    3 ------------------------
     Tr[ns(  3)] =   1.00000
     eigenvalues:
       0.100  0.100  0.100  0.100  0.100
     eigenvectors (columns):
       1.000  0.000  0.000  0.000  0.000
       0.000  1.000  0.000  0.000  0.000
       0.000  0.000  1.000  0.000  0.000
       0.000  0.000  0.000  1.000  0.000
       0.000  0.000  0.000  0.000  1.000
     occupation matrix ns (before diag.):
       0.100  0.000  0.000  0.000  0.000
       0.000  0.100  0.000  0.000  0.000
       0.000  0.000  0.100  0.000  0.000
       0.000  0.000  0.000  0.100  0.000
       0.000  0.000  0.000  0.000  0.100
     ------------------------ ATOM    4 ------------------------
     Tr[ns(  4)] =   1.00000
     eigenvalues:
       0.100  0.100  0.100  0.100  0.100
     eigenvectors (columns):
       1.000  0.000  0.000  0.000  0.000
       0.000  1.000  0.000  0.000  0.000
       0.000  0.000  1.000  0.000  0.000
       0.000  0.000  0.000  1.000  0.000
       0.000  0.000  0.000  0.000  1.000
     occupation matrix ns (before diag.):
       0.100  0.000  0.000  0.000  0.000
       0.000  0.100  0.000  0.000  0.000
       0.000  0.000  0.100  0.000  0.000
       0.000  0.000  0.000  0.100  0.000
       0.000  0.000  0.000  0.000  0.100

     Number of occupied Hubbard levels =    4.0000

     Atomic wfc used for Hubbard projectors are NOT orthogonalized

     Starting wfcs are   56 randomized atomic wfcs

     total cpu time spent up to now is       17.8 secs

     per-process dynamical memory:   133.7 Mb

     Self-consistent Calculation

     iteration #  1     ecut=    45.00 Ry     beta= 0.20
     Davidson diagonalization with overlap
     c_bands:  1 eigenvalues not converged
     c_bands:  2 eigenvalues not converged
     c_bands:  3 eigenvalues not converged
     c_bands:  3 eigenvalues not converged
     c_bands:  1 eigenvalues not converged
     c_bands:  2 eigenvalues not converged
     c_bands:  5 eigenvalues not converged
     ethr =  1.00E-06,  avg # of iterations = 18.2

     =================== HUBBARD OCCUPATIONS ===================
     ------------------------ ATOM    1 ------------------------
     Tr[ns(  1)] =   2.42965
     eigenvalues:
       0.238  0.238  0.238  0.250  0.250
     eigenvectors (columns):
      -0.000  0.000 -0.000  0.341 -0.940
      -0.267  0.798 -0.541 -0.000  0.000
      -0.388  0.424  0.818 -0.000  0.000
       0.000 -0.000  0.000 -0.940 -0.341
       0.882  0.428  0.196  0.000 -0.000
     occupation matrix ns (before diag.):
       0.250 -0.000 -0.000  0.000  0.000
      -0.000  0.238 -0.000  0.000  0.000
      -0.000 -0.000  0.238  0.000  0.000
       0.000  0.000  0.000  0.250 -0.000
       0.000  0.000  0.000 -0.000  0.238
     ------------------------ ATOM    2 ------------------------
     Tr[ns(  2)] =   2.42967
     eigenvalues:
       0.238  0.238  0.238  0.250  0.250
     eigenvectors (columns):
       0.000 -0.000  0.000 -1.000  0.000
       0.670 -0.743 -0.000  0.000  0.000
       0.743  0.670 -0.000  0.000  0.000
      -0.000  0.000 -0.000  0.000  1.000
      -0.000 -0.000 -1.000 -0.000 -0.000
     occupation matrix ns (before diag.):
       0.250 -0.000 -0.000  0.000  0.000
      -0.000  0.238 -0.000  0.000  0.000
      -0.000 -0.000  0.238  0.000  0.000
       0.000  0.000  0.000  0.250 -0.000
       0.000  0.000  0.000 -0.000  0.238
     ------------------------ ATOM    3 ------------------------
     Tr[ns(  3)] =   2.42967
     eigenvalues:
       0.238  0.238  0.238  0.250  0.250
     eigenvectors (columns):
      -0.000 -0.000  0.000 -0.500  0.866
      -0.000  0.000  1.000 -0.000 -0.000
      -0.388  0.922 -0.000 -0.000 -0.000
       0.000  0.000 -0.000 -0.866 -0.500
       0.922  0.388  0.000  0.000  0.000
     occupation matrix ns (before diag.):
       0.250 -0.000 -0.000 -0.000  0.000
      -0.000  0.238 -0.000  0.000  0.000
      -0.000 -0.000  0.238  0.000  0.000
      -0.000  0.000  0.000  0.250 -0.000
       0.000  0.000  0.000 -0.000  0.238
     ------------------------ ATOM    4 ------------------------
     Tr[ns(  4)] =   2.42967
     eigenvalues:
       0.238  0.238  0.238  0.250  0.250
     eigenvectors (columns):
      -0.000  0.000  0.000  0.500 -0.866
      -0.247  0.969 -0.000 -0.000  0.000
      -0.000  0.000  1.000 -0.000 -0.000
       0.000 -0.000 -0.000 -0.866 -0.500
       0.969  0.247  0.000  0.000 -0.000
     occupation matrix ns (before diag.):
       0.250 -0.000 -0.000  0.000  0.000
      -0.000  0.238 -0.000  0.000  0.000
      -0.000 -0.000  0.238  0.000  0.000
       0.000  0.000  0.000  0.250 -0.000
       0.000  0.000  0.000 -0.000  0.238

     Number of occupied Hubbard levels =    9.7187

     negative rho (up, down):  5.437E-03 0.000E+00

     total cpu time spent up to now is       18.9 secs

     total energy              =    -557.86236067 Ry
     estimated scf accuracy    <       2.87681309 Ry

     iteration #  2     ecut=    45.00 Ry     beta= 0.20
     Davidson diagonalization with overlap
     ethr =  4.23E-03,  avg # of iterations =  1.0

     negative rho (up, down):  5.193E-03 0.000E+00

     total cpu time spent up to now is       19.1 secs

     total energy              =    -556.75757973 Ry
     estimated scf accuracy    <       1.91759975 Ry

     iteration #  3     ecut=    45.00 Ry     beta= 0.20
     Davidson diagonalization with overlap
     ethr =  2.82E-03,  avg # of iterations =  3.1

     negative rho (up, down):  4.957E-03 0.000E+00

     total cpu time spent up to now is       19.4 secs

     total energy              =    -557.25526834 Ry
     estimated scf accuracy    <       0.63449968 Ry

     iteration #  4     ecut=    45.00 Ry     beta= 0.20
     Davidson diagonalization with overlap
     ethr =  9.33E-04,  avg # of iterations =  3.2

     negative rho (up, down):  3.714E-03 0.000E+00

     total cpu time spent up to now is       19.6 secs

     total energy              =    -557.37627175 Ry
     estimated scf accuracy    <       0.11086085 Ry

     iteration #  5     ecut=    45.00 Ry     beta= 0.20
     Davidson diagonalization with overlap
     ethr =  1.63E-04,  avg # of iterations =  2.3

     negative rho (up, down):  3.943E-03 0.000E+00

     total cpu time spent up to now is       19.8 secs

     total energy              =    -557.39014273 Ry
     estimated scf accuracy    <       0.02456522 Ry

     iteration #  6     ecut=    45.00 Ry     beta= 0.20
     Davidson diagonalization with overlap
     ethr =  3.61E-05,  avg # of iterations =  5.0

     negative rho (up, down):  3.953E-03 0.000E+00

     total cpu time spent up to now is       20.1 secs

     total energy              =    -557.39468171 Ry
     estimated scf accuracy    <       0.00043149 Ry

     iteration #  7     ecut=    45.00 Ry     beta= 0.20
     Davidson diagonalization with overlap
     c_bands:  1 eigenvalues not converged
     ethr =  6.35E-07,  avg # of iterations =  9.2

     negative rho (up, down):  3.807E-03 0.000E+00

     total cpu time spent up to now is       20.4 secs

     total energy              =    -557.39482155 Ry
     estimated scf accuracy    <       0.00065885 Ry

     iteration #  8     ecut=    45.00 Ry     beta= 0.20
     Davidson diagonalization with overlap
     ethr =  6.35E-07,  avg # of iterations =  4.6

     negative rho (up, down):  3.797E-03 0.000E+00

     total cpu time spent up to now is       20.7 secs

     total energy              =    -557.39486354 Ry
     estimated scf accuracy    <       0.00110127 Ry

     iteration #  9     ecut=    45.00 Ry     beta= 0.20
     Davidson diagonalization with overlap
     ethr =  6.35E-07,  avg # of iterations =  2.1

     negative rho (up, down):  3.774E-03 0.000E+00

     total cpu time spent up to now is       20.9 secs

     total energy              =    -557.39475812 Ry
     estimated scf accuracy    <       0.00035846 Ry

     iteration # 10     ecut=    45.00 Ry     beta= 0.20
     Davidson diagonalization with overlap
     ethr =  5.27E-07,  avg # of iterations =  3.9

     negative rho (up, down):  3.768E-03 0.000E+00

     total cpu time spent up to now is       21.2 secs

     total energy              =    -557.39485140 Ry
     estimated scf accuracy    <       0.00006022 Ry

     iteration # 11     ecut=    45.00 Ry     beta= 0.20
     Davidson diagonalization with overlap
     ethr =  8.86E-08,  avg # of iterations =  3.8

     negative rho (up, down):  3.772E-03 0.000E+00

     total cpu time spent up to now is       21.4 secs

     total energy              =    -557.39486370 Ry
     estimated scf accuracy    <       0.00000105 Ry

     iteration # 12     ecut=    45.00 Ry     beta= 0.20
     Davidson diagonalization with overlap
     ethr =  1.54E-09,  avg # of iterations =  5.8

     negative rho (up, down):  3.779E-03 0.000E+00

     total cpu time spent up to now is       21.7 secs

     total energy              =    -557.39486351 Ry
     estimated scf accuracy    <       0.00000606 Ry

     iteration # 13     ecut=    45.00 Ry     beta= 0.20
     Davidson diagonalization with overlap
     ethr =  1.54E-09,  avg # of iterations =  4.3

     negative rho (up, down):  3.778E-03 0.000E+00

     total cpu time spent up to now is       22.0 secs

     total energy              =    -557.39486415 Ry
     estimated scf accuracy    <       0.00000017 Ry

     iteration # 14     ecut=    45.00 Ry     beta= 0.20
     Davidson diagonalization with overlap
     ethr =  2.51E-10,  avg # of iterations =  5.6

     negative rho (up, down):  3.779E-03 0.000E+00

     total cpu time spent up to now is       22.3 secs

     total energy              =    -557.39486428 Ry
     estimated scf accuracy    <       0.00000014 Ry

     iteration # 15     ecut=    45.00 Ry     beta= 0.20
     Davidson diagonalization with overlap
     ethr =  2.02E-10,  avg # of iterations =  3.3

     negative rho (up, down):  3.778E-03 0.000E+00

     total cpu time spent up to now is       22.5 secs

     total energy              =    -557.39486426 Ry
     estimated scf accuracy    <       0.00000012 Ry

     iteration # 16     ecut=    45.00 Ry     beta= 0.20
     Davidson diagonalization with overlap
     ethr =  1.73E-10,  avg # of iterations =  3.4

     negative rho (up, down):  3.777E-03 0.000E+00

     total cpu time spent up to now is       22.7 secs

     total energy              =    -557.39486431 Ry
     estimated scf accuracy    <       0.00000001 Ry

     iteration # 17     ecut=    45.00 Ry     beta= 0.20
     Davidson diagonalization with overlap
     ethr =  1.71E-11,  avg # of iterations =  4.6

     negative rho (up, down):  3.778E-03 0.000E+00

     total cpu time spent up to now is       23.0 secs

     total energy              =    -557.39486432 Ry
     estimated scf accuracy    <       0.00000002 Ry

     iteration # 18     ecut=    45.00 Ry     beta= 0.20
     Davidson diagonalization with overlap
     ethr =  1.71E-11,  avg # of iterations =  4.7

     negative rho (up, down):  3.778E-03 0.000E+00

     total cpu time spent up to now is       23.3 secs

     total energy              =    -557.39486433 Ry
     estimated scf accuracy    <          1.4E-09 Ry

     iteration # 19     ecut=    45.00 Ry     beta= 0.20
     Davidson diagonalization with overlap
     ethr =  2.00E-12,  avg # of iterations =  4.6

     negative rho (up, down):  3.777E-03 0.000E+00

     total cpu time spent up to now is       23.5 secs

     End of self-consistent calculation

     =================== HUBBARD OCCUPATIONS ===================
     ------------------------ ATOM    1 ------------------------
     Tr[ns(  1)] =   3.19237
     eigenvalues:
       0.300  0.300  0.300  0.349  0.349
     eigenvectors (columns):
      -0.000 -0.000 -0.000  0.199 -0.980
      -0.262  0.619 -0.740 -0.000  0.000
      -0.410  0.623  0.666 -0.000  0.000
       0.000  0.000  0.000 -0.980 -0.199
       0.873  0.478  0.091  0.000 -0.000
     occupation matrix ns (before diag.):
       0.349 -0.000 -0.000  0.000  0.000
      -0.000  0.300 -0.000  0.000  0.000
      -0.000 -0.000  0.300  0.000  0.000
       0.000  0.000  0.000  0.349 -0.000
       0.000  0.000  0.000 -0.000  0.300
     ------------------------ ATOM    2 ------------------------
     Tr[ns(  2)] =   3.19236
     eigenvalues:
       0.300  0.300  0.300  0.349  0.349
     eigenvectors (columns):
      -0.000 -0.000  0.000 -0.000  1.000
      -0.625 -0.780 -0.000  0.000 -0.000
      -0.780  0.625 -0.000  0.000 -0.000
       0.000  0.000 -0.000  1.000  0.000
       0.000 -0.000 -1.000 -0.000  0.000
     occupation matrix ns (before diag.):
       0.349 -0.000 -0.000  0.000  0.000
      -0.000  0.300 -0.000  0.000  0.000
      -0.000 -0.000  0.300  0.000  0.000
       0.000  0.000  0.000  0.349 -0.000
       0.000  0.000  0.000 -0.000  0.300
     ------------------------ ATOM    3 ------------------------
     Tr[ns(  3)] =   3.19236
     eigenvalues:
       0.300  0.300  0.300  0.349  0.349
     eigenvectors (columns):
      -0.000 -0.000  0.000 -0.866 -0.500
      -0.000  0.000  1.000  0.000 -0.000
      -0.420  0.908 -0.000  0.000 -0.000
       0.000  0.000 -0.000  0.500 -0.866
       0.908  0.420  0.000 -0.000  0.000
     occupation matrix ns (before diag.):
       0.349 -0.000 -0.000  0.000  0.000
      -0.000  0.300 -0.000  0.000  0.000
      -0.000 -0.000  0.300  0.000  0.000
       0.000  0.000  0.000  0.349 -0.000
       0.000  0.000  0.000 -0.000  0.300
     ------------------------ ATOM    4 ------------------------
     Tr[ns(  4)] =   3.19236
     eigenvalues:
       0.300  0.300  0.300  0.349  0.349
     eigenvectors (columns):
      -0.000  0.000  0.000 -0.866 -0.500
      -0.270  0.963 -0.000  0.000  0.000
      -0.000  0.000  1.000 -0.000  0.000
       0.000 -0.000 -0.000 -0.500  0.866
       0.963  0.270  0.000 -0.000 -0.000
     occupation matrix ns (before diag.):
       0.349 -0.000 -0.000 -0.000  0.000
      -0.000  0.300 -0.000  0.000  0.000
      -0.000 -0.000  0.300  0.000  0.000
      -0.000  0.000  0.000  0.349 -0.000
       0.000  0.000  0.000 -0.000  0.300

     Number of occupied Hubbard levels =   12.7694

          k = 0.0000 0.0000 0.0000 (  2721 PWs)   bands (ev):

   -41.5398 -41.4237 -41.4237 -41.4237 -17.9986 -17.9986 -17.9986 -17.7035
   -17.7035 -17.7035 -17.7035 -17.7035 -17.7035 -17.5183 -17.5183 -17.5183
    -0.0454   1.6943   1.6943   1.6943  11.0801  11.0801  11.0801  13.7457
    13.7457  13.7457  13.7457  13.7457  13.7457  14.5734  14.5734  14.5734
    14.9740  14.9740  14.9740  16.7944  16.7944  16.7944  17.6593  17.6593
    18.6300

          k = 0.0000 0.0000 0.1976 (  2681 PWs)   bands (ev):

   -41.5290 -41.4349 -41.4245 -41.4245 -17.9689 -17.9689 -17.9596 -17.7303
   -17.7303 -17.7076 -17.7076 -17.6853 -17.6853 -17.5718 -17.5355 -17.5355
     0.1985   1.6484   1.8138   1.8138  10.8306  11.1576  11.1576  12.8268
    12.8268  12.9621  12.9621  13.4692  13.7265  13.7265  14.5416  14.5416
    14.7433  15.7986  15.7986  16.5248  17.4720  17.4720  17.7451  18.5297
    18.8587

          k = 0.0000 0.0000 0.3952 (  2694 PWs)   bands (ev):

   -41.5002 -41.4641 -41.4257 -41.4257 -17.8929 -17.8929 -17.8513 -17.8018
   -17.8018 -17.7143 -17.7143 -17.7036 -17.6383 -17.6383 -17.5811 -17.5811
     0.7937   1.3766   2.0207   2.0207  10.7495  11.4246  11.4246  11.6485
    11.9574  11.9574  11.9594  11.9594  13.7618  13.7618  14.0147  14.0147
    15.2208  15.8923  17.4191  17.4191  17.9761  18.2755  18.5658  18.5658
    18.7092

          k = 0.0000 0.1976 0.1976 (  2682 PWs)   bands (ev):

   -41.5188 -41.4341 -41.4341 -41.4257 -17.9486 -17.9486 -17.9405 -17.7893
   -17.7113 -17.7112 -17.6798 -17.6798 -17.6716 -17.6466 -17.5537 -17.5219
     0.4349   1.7836   1.7836   1.9224  10.8433  10.8433  11.2338  11.9007
    12.8772  12.8772  12.9536  12.9772  12.9772  13.0229  13.5491  14.0735
    15.8927  15.8927  16.3002  17.0591  17.4273  17.6255  18.4609  19.0647
    19.0647

          k = 0.0000 0.1976 0.3952 (  2682 PWs)   bands (ev):

   -41.4922 -41.4598 -41.4319 -41.4288 -17.9155 -17.8812 -17.8676 -17.8602
   -17.7801 -17.7696 -17.6663 -17.6618 -17.6576 -17.6154 -17.6016 -17.5518
     1.0068   1.5510   2.0364   2.0931  10.6696  10.8374  11.0515  11.4754
    11.4971  12.0256  12.1545  12.3080  12.9911  13.0600  13.1273  13.4510
    16.2027  16.6964  17.4759  17.6124  18.2612  18.4498  18.7141  18.7338
    18.7693

          k = 0.0000 0.3952 0.3952 (  2684 PWs)   bands (ev):

   -41.4722 -41.4492 -41.4492 -41.4373 -17.9201 -17.9201 -17.9157 -17.8657
   -17.8026 -17.7240 -17.7240 -17.6558 -17.6026 -17.5902 -17.5902 -17.5455
     1.5046   1.9243   1.9243   2.1469  10.3622  10.3964  10.3964  10.8276
    11.7496  12.1171  12.1563  12.1563  12.2577  12.2577  12.2764  12.7269
    17.6606  17.6606  17.7573  18.3754  18.3932  18.6119  18.7285  18.9334
    19.1320

          k = 0.1976 0.1976 0.1976 (  2683 PWs)   bands (ev):

   -41.5093 -41.4339 -41.4339 -41.4339 -17.9515 -17.9515 -17.9515 -17.7337
   -17.7337 -17.7337 -17.7215 -17.6570 -17.6570 -17.6570 -17.5359 -17.5359
     0.6637   1.9083   1.9083   1.9083  10.7849  10.7849  10.7849  12.1079
    12.1079  12.1079  12.4830  12.9183  12.9183  12.9184  13.3525  13.3525
    16.3859  16.3859  16.3859  17.4659  17.4659  17.6180  19.2219  19.2219
    19.2219

          k = 0.1976 0.1976 0.3952 (  2681 PWs)   bands (ev):

   -41.4849 -41.4560 -41.4335 -41.4335 -17.9578 -17.9578 -17.9271 -17.8405
   -17.7492 -17.7492 -17.6393 -17.6393 -17.6357 -17.6191 -17.5728 -17.5593
     1.2119   1.7162   2.1258   2.1258  10.5035  10.5112  10.5112  11.1887
    11.7122  11.7122  12.2846  12.2846  12.3437  12.6898  12.9017  13.0453
    16.6556  17.0895  17.6513  17.6513  18.2636  18.5172  18.7990  18.7990
    18.9100

          k = 0.1976 0.3952 0.3952 (  2679 PWs)   bands (ev):

   -41.4669 -41.4473 -41.4473 -41.4387 -18.0013 -17.9890 -17.9890 -17.9419
   -17.7034 -17.6605 -17.6605 -17.6039 -17.5970 -17.5894 -17.5894 -17.5508
     1.6839   2.0584   2.0584   2.2274   9.9770  10.0610  10.0610  10.4345
    11.7694  11.9147  11.9147  12.0567  12.1763  12.2421  12.2421  12.4582
    17.8197  17.8197  18.0542  18.1819  18.3421  18.7618  18.8777  18.8777
    18.9237

          k = 0.3952 0.3952 0.3952 (  2668 PWs)   bands (ev):

   -41.4550 -41.4443 -41.4442 -41.4442 -18.0638 -18.0638 -18.0638 -18.0388
   -17.6003 -17.6003 -17.6003 -17.5825 -17.5825 -17.5824 -17.5648 -17.5648
     2.0694   2.2951   2.2951   2.2951   9.4933   9.4933   9.4933   9.7082
    11.8023  11.8023  11.8023  11.9748  11.9748  11.9748  12.0156  12.0156
    18.4645  18.4645  18.4645  18.6285  18.6285  18.9122  18.9656  19.3680
    19.3686

     the Fermi energy is    17.4412 ev

!    total energy              =    -557.39486434 Ry
     estimated scf accuracy    <          2.8E-10 Ry
     smearing contrib. (-TS)   =      -0.00499117 Ry
     internal energy E=F+TS    =    -557.38987317 Ry

     The total energy is F=E-TS. E is the sum of the following terms:
     one-electron contribution =    -107.69477605 Ry
     hartree contribution      =      91.89586452 Ry
     xc contribution           =     -94.10289580 Ry
     ewald contribution        =    -448.66141166 Ry
     DFT-D3 Dispersion         =      -0.24125870 Ry
     Hubbard energy            =       1.41460452 Ry

     convergence has been achieved in  19 iterations

     negative rho (up, down):  3.777E-03 0.000E+00
     force_hub    :      0.28s CPU      0.31s WALL (       5 calls)
     dndtau       :      0.26s CPU      0.28s WALL (    1200 calls)
     dprojdtau    :      0.03s CPU      0.03s WALL (    4800 calls)
     matel_dSdtau :      0.21s CPU      0.23s WALL (    1200 calls)

     Forces acting on atoms (cartesian axes, Ry/au):

     atom    1 type  1   force =     0.00000000    0.00000000    0.00000000
     atom    2 type  1   force =     0.00000000    0.00000000    0.00000000
     atom    3 type  1   force =     0.00000000    0.00000000    0.00000000
     atom    4 type  1   force =     0.00000000    0.00000000    0.00000000
     atom    5 type  2   force =     0.00000000    0.00000000    0.00000000
     atom    6 type  2   force =     0.00000000    0.00000000    0.00000000
     atom    7 type  2   force =     0.00000000    0.00000000    0.00000000
     atom    8 type  2   force =     0.00000000    0.00000000    0.00000000

     Total force =     0.000000     Total SCF correction =     0.000000


     Computing stress (Cartesian axis) and pressure


     negative rho (up, down):  3.777E-03 0.000E+00
     stres_hub    :      0.75s CPU      0.78s WALL (       5 calls)
     dprojdepsilo :      0.68s CPU      0.71s WALL (     450 calls)
     dprojdeps1   :      0.00s CPU      0.00s WALL (     450 calls)
     dprojdeps2   :      0.03s CPU      0.03s WALL (     450 calls)
     dprojdeps3   :      0.64s CPU      0.67s WALL (     450 calls)
          total   stress  (Ry/bohr**3)                   (kbar)     P=       -0.04
  -0.00000027   0.00000000   0.00000000           -0.04        0.00        0.00
   0.00000000  -0.00000027   0.00000000            0.00       -0.04        0.00
   0.00000000   0.00000000  -0.00000027            0.00        0.00       -0.04


     Writing all to output data dir ./tmp/tin.save/ :
     XML data file, charge density, pseudopotentials, collected wavefunctions

     init_run     :      1.02s CPU      1.07s WALL (       2 calls)
     electrons    :     15.98s CPU     17.17s WALL (       5 calls)
     update_pot   :      0.02s CPU      0.03s WALL (       3 calls)
     forces       :      2.54s CPU      2.59s WALL (       5 calls)
     force_dftd3  :      2.09s CPU      2.11s WALL (       5 calls)
     stress       :      3.60s CPU      3.66s WALL (       5 calls)
     stres_dftd3  :      2.09s CPU      2.11s WALL (       5 calls)

     Called by init_run:
     wfcinit      :      0.16s CPU      0.17s WALL (       2 calls)
     potinit      :      0.23s CPU      0.24s WALL (       2 calls)
     hinit0       :      0.56s CPU      0.59s WALL (       2 calls)

     Called by electrons:
     c_bands      :     11.49s CPU     12.39s WALL (      63 calls)
     sum_band     :      1.90s CPU      2.03s WALL (      63 calls)
     v_of_rho     :      0.24s CPU      0.29s WALL (      67 calls)
     newd         :      0.62s CPU      0.64s WALL (      67 calls)
     mix_rho      :      0.14s CPU      0.15s WALL (      63 calls)
     energy_dftd3 :      1.59s CPU      1.60s WALL (       5 calls)

     Called by c_bands:
     init_us_2    :      0.06s CPU      0.08s WALL (    1530 calls)
     cegterg      :     11.23s CPU     11.84s WALL (     630 calls)

     Called by *egterg:
     cdiaghg      :      4.02s CPU      4.11s WALL (    2910 calls)
     h_psi        :      5.95s CPU      6.45s WALL (    2970 calls)
     s_psi        :      0.22s CPU      0.24s WALL (    3120 calls)
     g_psi        :      0.01s CPU      0.01s WALL (    2320 calls)

     Called by h_psi:
     h_psi:calbec :      0.47s CPU      0.50s WALL (    2970 calls)
     vloc_psi     :      5.02s CPU      5.46s WALL (    2970 calls)
                                        0.00s GPU  (    2970 calls)
     add_vuspsi   :      0.21s CPU      0.22s WALL (    2970 calls)
     vhpsi        :      0.21s CPU      0.23s WALL (    2970 calls)

     General routines
     calbec       :      1.83s CPU      1.95s WALL (   27950 calls)
     fft          :      0.72s CPU      0.78s WALL (     990 calls)
     ffts         :      0.28s CPU      0.29s WALL (    1193 calls)
     fftw         :      5.53s CPU      6.02s WALL (  165288 calls)
     interpolate  :      0.24s CPU      0.24s WALL (      67 calls)

     Parallel routines

     Hubbard U routines
     new_ns       :      0.08s CPU      0.08s WALL (      63 calls)
     vhpsi        :      0.21s CPU      0.23s WALL (    2970 calls)
     force_hub    :      0.28s CPU      0.31s WALL (       5 calls)
     stres_hub    :      0.75s CPU      0.78s WALL (       5 calls)

     PWSCF        :     23.37s CPU     24.89s WALL


   This run was terminated on:  22:57:51  30Mar2026            

=------------------------------------------------------------------------------=
   JOB DONE.
=------------------------------------------------------------------------------=
