  147

Zr    0.0000000000    0.0000000000   10.0000000000
Zr    2.2819646600    0.0000000000   12.2819646600
Zr    0.0000000000    2.2819646600   12.2819646600
Zr    2.2819646600    2.2819646600   10.0000000000
Zr    0.0042944300   -0.0024446900   14.5596393900
Zr    2.2844943500   -0.0019883300   16.7517064900
Zr    0.0076844100    2.2772597700   16.7506334700
Zr    2.2886832100    2.2797700100   14.5578606300
Zr    0.0000000000    4.5639293200   10.0000000000
Zr    2.2819646600    4.5639293200   12.2819646600
Zr    0.0000000000    6.8458939800   12.2819646600
Zr    2.2819646600    6.8458939800   10.0000000000
Zr    0.0044871000    4.5630247200   14.5567113100
Zr    2.2587932000    4.5634656300   16.7538223800
Zr   -0.0030791500    6.8481252500   16.7483446500
Zr    2.3096050700    6.8459830000   14.5515765100
Zr    0.0000000000    9.1278586400   10.0000000000
Zr    2.2819646600    9.1278586400   12.2819646600
Zr    0.0000000000   11.4098233000   12.2819646600
Zr    2.2819646600   11.4098233000   10.0000000000
Zr    0.0016697500    9.1286632900   14.5571247300
Zr    2.2798998000    9.1359114800   16.7587206100
Zr    0.0066625500   11.4079791600   16.7535203800
Zr    2.2839305200   11.4118378000   14.5569749200
Zr    4.5639293200    0.0000000000   10.0000000000
Zr    6.8458939800    0.0000000000   12.2819646600
Zr    4.5639293200    2.2819646600   12.2819646600
Zr    6.8458939800    2.2819646600   10.0000000000
Zr    4.5668922900    0.0021018100   14.5543922900
Zr    6.8586548500   -0.0025806600   16.7503824000
Zr    4.5706008800    2.2418706900   16.7660548100
Zr    6.8482675900    2.2817209000   14.5565399400
Zr    4.5639293200    4.5639293200   10.0000000000
Zr    6.8458939800    4.5639293200   12.2819646600
Zr    4.5639293200    6.8458939800   12.2819646600
Zr    6.8458939800    6.8458939800   10.0000000000
Zr    4.5712817300    4.5832950100   14.5958101800
Zr    6.8930216200    4.5222150000   16.7677904600
Zr    4.5363304300    6.8812318300   16.9883496900
Zr    6.8309861500    6.8421694800   14.5916822700
Zr    4.5639293200    9.1278586400   10.0000000000
Zr    6.8458939800    9.1278586400   12.2819646600
Zr    4.5639293200   11.4098233000   12.2819646600
Zr    6.8458939800   11.4098233000   10.0000000000
Zr    4.5670270800    9.1043328200   14.5512052100
Zr    6.8524310100    9.1594303700   16.7521993000
Zr    4.5661958000   11.4195545200   16.7483926200
Zr    6.8499336500   11.4099403500   14.5565933300
Zr    9.1278586400    0.0000000000   10.0000000000
Zr   11.4098233000    0.0000000000   12.2819646600
Zr    9.1278586400    2.2819646600   12.2819646600
Zr   11.4098233000    2.2819646600   10.0000000000
Zr    9.1331277700   -0.0034455700   14.5575741900
Zr   11.4174261100   -0.0026361500   16.7525077100
Zr    9.1428859600    2.2718411400   16.7491114500
Zr   11.4166450800    2.2793180500   14.5574086200
Zr    9.1278586400    4.5639293200   10.0000000000
Zr   11.4098233000    4.5639293200   12.2819646600
Zr    9.1278586400    6.8458939800   12.2819646600
Zr   11.4098233000    6.8458939800   10.0000000000
Zr    9.1319770000    4.5642011900   14.5564107500
Zr   11.4185338500    4.5550012200   16.7499818800
Zr    9.1769118900    6.8439007800   16.7644368500
Zr   11.4120462100    6.8454516300   14.5542673500
Zr    9.1278586400    9.1278586400   10.0000000000
Zr   11.4098233000    9.1278586400   12.2819646600
Zr    9.1278586400   11.4098233000   12.2819646600
Zr   11.4098233000   11.4098233000   10.0000000000
Zr    9.1343847300    9.1249533600   14.5580437000
Zr   11.4176285600    9.1301794700   16.7517643400
Zr    9.1379342000   11.4078827000   16.7506349500
Zr   11.4154319700   11.4086954600   14.5596469700
 N    0.0000000000    2.2819646600   10.0000000000
 N    2.2819646600    0.0000000000   10.0000000000
 N    0.0000000000    0.0000000000   12.2819646600
 N    2.2819646600    2.2819646600   12.2819646600
 N    0.0046893400    2.2809084200   14.5844143400
 N    2.2862065700   -0.0015650700   14.5835169200
 N    0.0060156900   -0.0027115200   16.9099538700
 N    2.2832157000    2.2746699900   16.9061828300
 N    0.0000000000    6.8458939800   10.0000000000
 N    2.2819646600    4.5639293200   10.0000000000
 N    0.0000000000    4.5639293200   12.2819646600
 N    2.2819646600    6.8458939800   12.2819646600
 N    0.0140409100    6.8459328900   14.5898610300
 N    2.2881698000    4.5651400600   14.5921094700
 N    0.0080655200    4.5626868500   16.9063818200
 N    2.2637752300    6.8507035600   16.8498460200
 N    0.0000000000   11.4098233000   10.0000000000
 N    2.2819646600    9.1278586400   10.0000000000
 N    0.0000000000    9.1278586400   12.2819646600
 N    2.2819646600   11.4098233000   12.2819646600
 N    0.0046325400   11.4082340400   14.5870475700
 N    2.2861475000    9.1275890600   14.5954510100
 N    0.0060719500    9.1270777500   16.9075980800
 N    2.2877263000   11.4098221000   16.9075707500
 N    4.5639293200    2.2819646600   10.0000000000
 N    6.8458939800    0.0000000000   10.0000000000
 N    4.5639293200    0.0000000000   12.2819646600
 N    6.8458939800    2.2819646600   12.2819646600
 N    4.5684150400    2.2919475200   14.6013109100
 N    6.8498878600   -0.0017975100   14.5826568900
 N    4.5703212000   -0.0027051600   16.9129779200
 N    6.8649819600    2.2672289000   16.8983329500
 N    4.5639293200    6.8458939800   10.0000000000
 N    6.8458939800    4.5639293200   10.0000000000
 N    4.5639293200    4.5639293200   12.2819646600
 N    6.8458939800    6.8458939800   12.2819646600
 N    4.5676970600    6.8470002700   14.6183913300
 N    6.8502832400    4.5640725800   14.5945324600
 N    4.5614343800    4.5520321500   16.9249392100
 N    6.8643238700    6.8557290200   16.9106102000
 N    4.5639293200   11.4098233000   10.0000000000
 N    6.8458939800    9.1278586400   10.0000000000
 N    4.5639293200    9.1278586400   12.2819646600
 N    6.8458939800   11.4098233000   12.2819646600
 N    4.5667128100   11.4000555000   14.5898154600
 N    6.8485978600    9.1253319400   14.5911154900
 N    4.5654029600    9.1543171400   16.8473515400
 N    6.8521178900   11.4093111100   16.9072591300
 N    9.1278586400    2.2819646600   10.0000000000
 N   11.4098233000    0.0000000000   10.0000000000
 N    9.1278586400    0.0000000000   12.2819646600
 N   11.4098233000    2.2819646600   12.2819646600
 N    9.1342453200    2.2785724100   14.5814124400
 N   11.4141984800   -0.0014523800   14.5865658000
 N    9.1385383800   -0.0057410800   16.9077808900
 N   11.4212669900    2.2761056200   16.9079189200
 N    9.1278586400    6.8458939800   10.0000000000
 N   11.4098233000    4.5639293200   10.0000000000
 N    9.1278586400    4.5639293200   12.2819646600
 N   11.4098233000    6.8458939800   12.2819646600
 N    9.1218173900    6.8446588300   14.6004966100
 N   11.4157989400    4.5623116600   14.5823178800
 N    9.1484868100    4.5499251200   16.8977014700
 N   11.4202112900    6.8436723400   16.9133934600
 N    9.1278586400   11.4098233000   10.0000000000
 N   11.4098233000    9.1278586400   10.0000000000
 N    9.1278586400    9.1278586400   12.2819646600
 N   11.4098233000   11.4098233000   12.2819646600
 N    9.1321095700   11.4089700100   14.5841365200
 N   11.4153302200    9.1264923900   14.5832731200
 N    9.1415604000    9.1319695700   16.9065728400
 N   11.4179690900   11.4089463500   16.9099753200
 S    4.6322684300    6.8168784900   19.5268136300
Li    6.7733473400    6.7958733200   18.8868581300
Li    4.6331251100    4.6659898000   18.9051321100
  147

Zr    0.0000000000    0.0000000000   10.0000000000
Zr    2.2819646600    0.0000000000   12.2819646600
Zr    0.0000000000    2.2819646600   12.2819646600
Zr    2.2819646600    2.2819646600   10.0000000000
Zr    0.0011260053    0.0008939899   14.5603765140
Zr    2.2778381956    0.0013040073   16.7604323120
Zr    0.0059818261    2.2824171378   16.7572492320
Zr    2.2771398286    2.2728606010   14.5699035468
Zr    0.0000000000    4.5639293200   10.0000000000
Zr    2.2819646600    4.5639293200   12.2819646600
Zr    0.0000000000    6.8458939800   12.2819646600
Zr    2.2819646600    6.8458939800   10.0000000000
Zr   -0.0103248583    4.5640745406   14.5514143411
Zr    2.2336212031    4.5737461286   16.7257710660
Zr   -0.0185059296    6.8510295007   16.7463336386
Zr    2.2996776592    6.8499560850   14.5466782655
Zr    0.0000000000    9.1278586400   10.0000000000
Zr    2.2819646600    9.1278586400   12.2819646600
Zr    0.0000000000   11.4098233000   12.2819646600
Zr    2.2819646600   11.4098233000   10.0000000000
Zr   -0.0064169144    9.1310085174   14.5567903621
Zr    2.2746541059    9.1266488476   16.7586082387
Zr   -0.0014642250   11.4104056457   16.7542402569
Zr    2.2810079237   11.4118998013   14.5606753380
Zr    4.5639293200    0.0000000000   10.0000000000
Zr    6.8458939800    0.0000000000   12.2819646600
Zr    4.5639293200    2.2819646600   12.2819646600
Zr    6.8458939800    2.2819646600   10.0000000000
Zr    4.5624119112   -0.0117298343   14.5475471823
Zr    6.8522557329   -0.0122568587   16.7504690928
Zr    4.5666299810    2.2228397981   16.7441738709
Zr    6.8456037682    2.2769986959   14.5555613019
Zr    4.5639293200    4.5639293200   10.0000000000
Zr    6.8458939800    4.5639293200   12.2819646600
Zr    4.5639293200    6.8458939800   12.2819646600
Zr    6.8458939800    6.8458939800   10.0000000000
Zr    4.5593952934    4.5705851756   14.5528571778
Zr    6.8264473719    4.5219215717   16.7767670964
Zr    4.5070571488    6.8039322012   16.9776095000
Zr    6.8204305105    6.8391033621   14.6104734699
Zr    4.5639293200    9.1278586400   10.0000000000
Zr    6.8458939800    9.1278586400   12.2819646600
Zr    4.5639293200   11.4098233000   12.2819646600
Zr    6.8458939800   11.4098233000   10.0000000000
Zr    4.5629457481    9.0984843723   14.5637091417
Zr    6.8350539566    9.1436715136   16.7681283271
Zr    4.5584610683   11.4099333662   16.7512830814
Zr    6.8439518898   11.4018236334   14.5603838357
Zr    9.1278586400    0.0000000000   10.0000000000
Zr   11.4098233000    0.0000000000   12.2819646600
Zr    9.1278586400    2.2819646600   12.2819646600
Zr   11.4098233000    2.2819646600   10.0000000000
Zr    9.1290239575   -0.0032665575   14.5573684970
Zr   11.4092749669    0.0009716007   16.7526128792
Zr    9.1253022457    2.2782611094   16.7511906053
Zr   11.4115079530    2.2819719746   14.5595600054
Zr    9.1278586400    4.5639293200   10.0000000000
Zr   11.4098233000    4.5639293200   12.2819646600
Zr    9.1278586400    6.8458939800   12.2819646600
Zr   11.4098233000    6.8458939800   10.0000000000
Zr    9.1189961903    4.5660314094   14.5635442337
Zr   11.4061978297    4.5600903815   16.7517034212
Zr    9.1473460484    6.8386970554   16.7747504756
Zr   11.3984928988    6.8474996214   14.5573036940
Zr    9.1278586400    9.1278586400   10.0000000000
Zr   11.4098233000    9.1278586400   12.2819646600
Zr    9.1278586400   11.4098233000   12.2819646600
Zr   11.4098233000   11.4098233000   10.0000000000
Zr    9.1234129243    9.1211538418   14.5620967766
Zr   11.4046056650    9.1327824935   16.7525547431
Zr    9.1299230408   11.4064027785   16.7525919390
Zr   11.4100021736   11.4099881916   14.5596447544
 N    0.0000000000    2.2819646600   10.0000000000
 N    2.2819646600    0.0000000000   10.0000000000
 N    0.0000000000    0.0000000000   12.2819646600
 N    2.2819646600    2.2819646600   12.2819646600
 N   -0.0051630925    2.2829493033   14.5856650169
 N    2.2823696547   -0.0056978367   14.5860226997
 N   -0.0019043806    0.0015596147   16.9115907518
 N    2.2726090658    2.2769038010   16.9532790698
 N    0.0000000000    6.8458939800   10.0000000000
 N    2.2819646600    4.5639293200   10.0000000000
 N    0.0000000000    4.5639293200   12.2819646600
 N    2.2819646600    6.8458939800   12.2819646600
 N    0.0025553609    6.8489059670   14.5883534268
 N    2.2785938981    4.5624848127   14.5767878727
 N   -0.0151502221    4.5711902693   16.9052713614
 N    2.2414932431    6.8493505962   16.8393290721
 N    0.0000000000   11.4098233000   10.0000000000
 N    2.2819646600    9.1278586400   10.0000000000
 N    0.0000000000    9.1278586400   12.2819646600
 N    2.2819646600   11.4098233000   12.2819646600
 N    0.0002209139   11.4113174554   14.5887704580
 N    2.2786186649    9.1277068214   14.5968236959
 N   -0.0049383018    9.1315145206   16.9074897290
 N    2.2799680089   11.4064568392   16.9067980954
 N    4.5639293200    2.2819646600   10.0000000000
 N    6.8458939800    0.0000000000   10.0000000000
 N    4.5639293200    0.0000000000   12.2819646600
 N    6.8458939800    2.2819646600   12.2819646600
 N    4.5613467516    2.2828887025   14.5866435242
 N    6.8469482482   -0.0069032072   14.5829563263
 N    4.5661549499   -0.0219132288   16.9036986879
 N    6.8465171541    2.2624673732   16.8992582811
 N    4.5639293200    6.8458939800   10.0000000000
 N    6.8458939800    4.5639293200   10.0000000000
 N    4.5639293200    4.5639293200   12.2819646600
 N    6.8458939800    6.8458939800   12.2819646600
 N    4.5552937840    6.8362617203   14.6231970474
 N    6.8387513941    4.5564133159   14.6002246129
 N    4.5345235406    4.4956088756   16.8048820826
 N    6.8322870947    6.8329560585   16.9870138810
 N    4.5639293200   11.4098233000   10.0000000000
 N    6.8458939800    9.1278586400   10.0000000000
 N    4.5639293200    9.1278586400   12.2819646600
 N    6.8458939800   11.4098233000   12.2819646600
 N    4.5620235138   11.3920689114   14.5907288748
 N    6.8411746356    9.1202564958   14.6016996541
 N    4.5485550763    9.1177798936   16.8902484402
 N    6.8444208986   11.3981251258   16.9107713521
 N    9.1278586400    2.2819646600   10.0000000000
 N   11.4098233000    0.0000000000   10.0000000000
 N    9.1278586400    0.0000000000   12.2819646600
 N   11.4098233000    2.2819646600   12.2819646600
 N    9.1292950042    2.2800827657   14.5856673925
 N   11.4106718810    0.0008555107   14.5868809891
 N    9.1314145069   -0.0030103659   16.9094028176
 N   11.4088514158    2.2806354751   16.9052264024
 N    9.1278586400    6.8458939800   10.0000000000
 N   11.4098233000    4.5639293200   10.0000000000
 N    9.1278586400    4.5639293200   12.2819646600
 N   11.4098233000    6.8458939800   12.2819646600
 N    9.1113611822    6.8430273674   14.6063896271
 N   11.4019808812    4.5648674299   14.5842234926
 N    9.1253936322    4.5511596400   16.9071760427
 N   11.3985187782    6.8469317790   16.9144695315
 N    9.1278586400   11.4098233000   10.0000000000
 N   11.4098233000    9.1278586400   10.0000000000
 N    9.1278586400    9.1278586400   12.2819646600
 N   11.4098233000   11.4098233000   12.2819646600
 N    9.1269438721   11.4069974111   14.5863486290
 N   11.4060330734    9.1282678655   14.5853112557
 N    9.1276744054    9.1316488853   16.9076494344
 N   11.4098994856   11.4126072589   16.9111029932
 S    4.4743805607    6.1392794769   19.4851922673
Li    6.5806212092    6.7138399713   18.9694581144
Li    3.8462334683    3.9543189062   19.0645368376
  147

Zr    0.0000000000    0.0000000000   10.0000000000
Zr    2.2819646600    0.0000000000   12.2819646600
Zr    0.0000000000    2.2819646600   12.2819646600
Zr    2.2819646600    2.2819646600   10.0000000000
Zr    0.0120406232    0.0129249863   14.5646106173
Zr    2.2962589040    0.0129700192   16.7838403923
Zr    0.0163255218    2.3051390291   16.7812605848
Zr    2.2847700167    2.2873136296   14.6177289731
Zr    0.0000000000    4.5639293200   10.0000000000
Zr    2.2819646600    4.5639293200   12.2819646600
Zr    0.0000000000    6.8458939800   12.2819646600
Zr    2.2819646600    6.8458939800   10.0000000000
Zr    0.0000759701    4.5679737689   14.5550034204
Zr    2.2933719885    4.6276990075   16.7492601333
Zr   -0.0132207328    6.8584256916   16.7470538586
Zr    2.3033149812    6.8560748999   14.5445881440
Zr    0.0000000000    9.1278586400   10.0000000000
Zr    2.2819646600    9.1278586400   12.2819646600
Zr    0.0000000000   11.4098233000   12.2819646600
Zr    2.2819646600   11.4098233000   10.0000000000
Zr   -0.0047930300    9.1368650460   14.5565452072
Zr    2.2790098295    9.1374449623   16.7575963183
Zr    0.0040977157   11.4236401558   16.7556866459
Zr    2.2835663913   11.4231468517   14.5617562736
Zr    4.5639293200    0.0000000000   10.0000000000
Zr    6.8458939800    0.0000000000   12.2819646600
Zr    4.5639293200    2.2819646600   12.2819646600
Zr    6.8458939800    2.2819646600   10.0000000000
Zr    4.5645144257   -0.0060915397   14.5473139698
Zr    6.8587284068   -0.0076523084   16.7483289251
Zr    4.6076367122    2.2618566056   16.7379283557
Zr    6.8558905147    2.2805115400   14.5523084504
Zr    4.5639293200    4.5639293200   10.0000000000
Zr    6.8458939800    4.5639293200   12.2819646600
Zr    4.5639293200    6.8458939800   12.2819646600
Zr    6.8458939800    6.8458939800   10.0000000000
Zr    4.5668086981    4.5802467535   14.5174312652
Zr    6.8273189747    4.5410053032   16.7701694380
Zr    4.5234574354    6.8204733464   16.9592194318
Zr    6.8283444697    6.8485382152   14.6058237228
Zr    4.5639293200    9.1278586400   10.0000000000
Zr    6.8458939800    9.1278586400   12.2819646600
Zr    4.5639293200   11.4098233000   12.2819646600
Zr    6.8458939800   11.4098233000   10.0000000000
Zr    4.5676274893    9.1095162557   14.5585437184
Zr    6.8412324458    9.1490768207   16.7719669347
Zr    4.5661447924   11.4197772753   16.7515169297
Zr    6.8485296390   11.4056014745   14.5605436531
Zr    9.1278586400    0.0000000000   10.0000000000
Zr   11.4098233000    0.0000000000   12.2819646600
Zr    9.1278586400    2.2819646600   12.2819646600
Zr   11.4098233000    2.2819646600   10.0000000000
Zr    9.1336704235    0.0007510598   14.5582713792
Zr   11.4197766177    0.0086868225   16.7544036908
Zr    9.1342782375    2.2869237542   16.7519564728
Zr   11.4208394766    2.2866753228   14.5626993916
Zr    9.1278586400    4.5639293200   10.0000000000
Zr   11.4098233000    4.5639293200   12.2819646600
Zr    9.1278586400    6.8458939800   12.2819646600
Zr   11.4098233000    6.8458939800   10.0000000000
Zr    9.1291925127    4.5701096402   14.5602143499
Zr   11.4152766771    4.5703486159   16.7518311386
Zr    9.1509064397    6.8442527195   16.7754733098
Zr   11.4016925877    6.8519726069   14.5575479915
Zr    9.1278586400    9.1278586400   10.0000000000
Zr   11.4098233000    9.1278586400   12.2819646600
Zr    9.1278586400   11.4098233000   12.2819646600
Zr   11.4098233000   11.4098233000   10.0000000000
Zr    9.1271601613    9.1254757836   14.5631388453
Zr   11.4099926867    9.1404729377   16.7529061944
Zr    9.1361392060   11.4139567663   16.7535215700
Zr   11.4135235843   11.4143774113   14.5594507614
 N    0.0000000000    2.2819646600   10.0000000000
 N    2.2819646600    0.0000000000   10.0000000000
 N    0.0000000000    0.0000000000   12.2819646600
 N    2.2819646600    2.2819646600   12.2819646600
 N    0.0023460900    2.2917723567   14.6008886361
 N    2.2892850078    0.0034908819   14.5998718936
 N    0.0070860483    0.0133292719   16.9155914361
 N    2.3221844940    2.3311902514   17.1036723621
 N    0.0000000000    6.8458939800   10.0000000000
 N    2.2819646600    4.5639293200   10.0000000000
 N    0.0000000000    4.5639293200   12.2819646600
 N    2.2819646600    6.8458939800   12.2819646600
 N    0.0073714472    6.8545397427   14.5902373103
 N    2.2860946411    4.5722149281   14.5830049415
 N   -0.0002956759    4.5933703407   16.9048292025
 N    2.2478498886    6.8782896427   16.8290631698
 N    0.0000000000   11.4098233000   10.0000000000
 N    2.2819646600    9.1278586400   10.0000000000
 N    0.0000000000    9.1278586400   12.2819646600
 N    2.2819646600   11.4098233000   12.2819646600
 N    0.0038290451   11.4191164988   14.5905450836
 N    2.2807422225    9.1351736181   14.5977426888
 N    0.0003827814    9.1431858509   16.9067050487
 N    2.2871328976   11.4251047139   16.9062589674
 N    4.5639293200    2.2819646600   10.0000000000
 N    6.8458939800    0.0000000000   10.0000000000
 N    4.5639293200    0.0000000000   12.2819646600
 N    6.8458939800    2.2819646600   12.2819646600
 N    4.5704487480    2.2867609621   14.5801497387
 N    6.8511275251   -0.0025441370   14.5823331863
 N    4.5839629410   -0.0117734946   16.8971498806
 N    6.8570796086    2.2773299518   16.8984428154
 N    4.5639293200    6.8458939800   10.0000000000
 N    6.8458939800    4.5639293200   10.0000000000
 N    4.5639293200    4.5639293200   12.2819646600
 N    6.8458939800    6.8458939800   12.2819646600
 N    4.5623852991    6.8459631487   14.6191295090
 N    6.8469273147    4.5630543706   14.5976010646
 N    4.5782216955    4.5080188991   16.6955826734
 N    6.8409002383    6.8434583408   16.9959595895
 N    4.5639293200   11.4098233000   10.0000000000
 N    6.8458939800    9.1278586400   10.0000000000
 N    4.5639293200    9.1278586400   12.2819646600
 N    6.8458939800   11.4098233000   12.2819646600
 N    4.5646510574   11.4000790964   14.5911340452
 N    6.8447321246    9.1257157786   14.6038477368
 N    4.5522412220    9.1308629816   16.8885345582
 N    6.8503870782   11.4060794965   16.9115595594
 N    9.1278586400    2.2819646600   10.0000000000
 N   11.4098233000    0.0000000000   10.0000000000
 N    9.1278586400    0.0000000000   12.2819646600
 N   11.4098233000    2.2819646600   12.2819646600
 N    9.1365362754    2.2835977013   14.5875698953
 N   11.4172930393    0.0057766411   14.5887036804
 N    9.1398063619    0.0052082619   16.9105665838
 N   11.4254952765    2.2901544680   16.9058148035
 N    9.1278586400    6.8458939800   10.0000000000
 N   11.4098233000    4.5639293200   10.0000000000
 N    9.1278586400    4.5639293200   12.2819646600
 N   11.4098233000    6.8458939800   12.2819646600
 N    9.1160826170    6.8466120001   14.6063254301
 N   11.4111449968    4.5690823704   14.5847537330
 N    9.1369183598    4.5596509287   16.9060722753
 N   11.4053677674    6.8542385765   16.9137267956
 N    9.1278586400   11.4098233000   10.0000000000
 N   11.4098233000    9.1278586400   10.0000000000
 N    9.1278586400    9.1278586400   12.2819646600
 N   11.4098233000   11.4098233000   12.2819646600
 N    9.1307263497   11.4111987750   14.5869863703
 N   11.4090458597    9.1326697687   14.5859977665
 N    9.1327113077    9.1381809164   16.9070239992
 N   11.4154529472   11.4196848924   16.9113321627
 S    4.3983230179    5.9058016499   19.3612169856
Li    6.5124776488    6.6811489030   18.9857831291
Li    2.9396751197    3.0624653595   19.0295429486
  147

Zr    0.0000000000    0.0000000000   10.0000000000
Zr    2.2819646600    0.0000000000   12.2819646600
Zr    0.0000000000    2.2819646600   12.2819646600
Zr    2.2819646600    2.2819646600   10.0000000000
Zr    0.0098284510    0.0095015181   14.5607244515
Zr    2.2915929729   -0.0052726096   16.7906613616
Zr   -0.0050767797    2.2967094749   16.7868763280
Zr    2.2854722707    2.2855554105   14.6222413740
Zr    0.0000000000    4.5639293200   10.0000000000
Zr    2.2819646600    4.5639293200   12.2819646600
Zr    0.0000000000    6.8458939800   12.2819646600
Zr    2.2819646600    6.8458939800   10.0000000000
Zr    0.0011600073    4.5661516835   14.5553889216
Zr    2.2954977158    4.6131902598   16.7664501315
Zr   -0.0124268412    6.8543537283   16.7483568883
Zr    2.3090731015    6.8516890438   14.5473270765
Zr    0.0000000000    9.1278586400   10.0000000000
Zr    2.2819646600    9.1278586400   12.2819646600
Zr    0.0000000000   11.4098233000   12.2819646600
Zr    2.2819646600   11.4098233000   10.0000000000
Zr   -0.0024035772    9.1342614349   14.5571535103
Zr    2.2794961011    9.1374659693   16.7589749115
Zr    0.0019424971   11.4192970495   16.7553565795
Zr    2.2841589362   11.4212737606   14.5600984474
Zr    4.5639293200    0.0000000000   10.0000000000
Zr    6.8458939800    0.0000000000   12.2819646600
Zr    4.5639293200    2.2819646600   12.2819646600
Zr    6.8458939800    2.2819646600   10.0000000000
Zr    4.5635678047   -0.0019901734   14.5489486591
Zr    6.8555263496   -0.0048409995   16.7487976357
Zr    4.6054705845    2.2713392912   16.7568645127
Zr    6.8504314794    2.2820098657   14.5556398897
Zr    4.5639293200    4.5639293200   10.0000000000
Zr    6.8458939800    4.5639293200   12.2819646600
Zr    4.5639293200    6.8458939800   12.2819646600
Zr    6.8458939800    6.8458939800   10.0000000000
Zr    4.5661928922    4.5864966362   14.5285052956
Zr    6.8362175183    4.5450416483   16.7646627606
Zr    4.5346763905    6.8343670951   17.0333805674
Zr    6.8273292219    6.8500418322   14.5951762559
Zr    4.5639293200    9.1278586400   10.0000000000
Zr    6.8458939800    9.1278586400   12.2819646600
Zr    4.5639293200   11.4098233000   12.2819646600
Zr    6.8458939800   11.4098233000   10.0000000000
Zr    4.5672472403    9.1062002957   14.5551435698
Zr    6.8450768139    9.1564646682   16.7634657824
Zr    4.5677253446   11.4229956966   16.7513998735
Zr    6.8481768035   11.4087844700   14.5596641034
Zr    9.1278586400    0.0000000000   10.0000000000
Zr   11.4098233000    0.0000000000   12.2819646600
Zr    9.1278586400    2.2819646600   12.2819646600
Zr   11.4098233000    2.2819646600   10.0000000000
Zr    9.1318348910    0.0015521168   14.5584176554
Zr   11.4165730792    0.0044621550   16.7536787082
Zr    9.1348167102    2.2875278295   16.7519955496
Zr   11.4190803548    2.2862810097   14.5606242625
Zr    9.1278586400    4.5639293200   10.0000000000
Zr   11.4098233000    4.5639293200   12.2819646600
Zr    9.1278586400    6.8458939800   12.2819646600
Zr   11.4098233000    6.8458939800   10.0000000000
Zr    9.1307380892    4.5700528225   14.5605526529
Zr   11.4147154693    4.5695350373   16.7518315347
Zr    9.1626385322    6.8475362225   16.7676321020
Zr   11.4055072393    6.8511328984   14.5568824663
Zr    9.1278586400    9.1278586400   10.0000000000
Zr   11.4098233000    9.1278586400   12.2819646600
Zr    9.1278586400   11.4098233000   12.2819646600
Zr   11.4098233000   11.4098233000   10.0000000000
Zr    9.1294934494    9.1272892523   14.5625337629
Zr   11.4127252633    9.1401427324   16.7515703327
Zr    9.1361397366   11.4145453190   16.7523736369
Zr   11.4131018850   11.4130361011   14.5586319301
 N    0.0000000000    2.2819646600   10.0000000000
 N    2.2819646600    0.0000000000   10.0000000000
 N    0.0000000000    0.0000000000   12.2819646600
 N    2.2819646600    2.2819646600   12.2819646600
 N    0.0050077730    2.2884440192   14.6053942238
 N    2.2872232671    0.0057371142   14.6046158147
 N   -0.0007894927    0.0038473183   16.9046618288
 N    2.3022041137    2.3092399151   17.0014022259
 N    0.0000000000    6.8458939800   10.0000000000
 N    2.2819646600    4.5639293200   10.0000000000
 N    0.0000000000    4.5639293200   12.2819646600
 N    2.2819646600    6.8458939800   12.2819646600
 N    0.0119690399    6.8520360596   14.5920453505
 N    2.2861986739    4.5698395847   14.5966646375
 N   -0.0001539029    4.5894821090   16.9009741501
 N    2.2566793545    6.8691777323   16.8330634818
 N    0.0000000000   11.4098233000   10.0000000000
 N    2.2819646600    9.1278586400   10.0000000000
 N    0.0000000000    9.1278586400   12.2819646600
 N    2.2819646600   11.4098233000   12.2819646600
 N    0.0036739350   11.4164135007   14.5889663247
 N    2.2826232404    9.1323974612   14.6001214098
 N    0.0030127842    9.1383879172   16.9057580133
 N    2.2871567699   11.4181392863   16.9075445271
 N    4.5639293200    2.2819646600   10.0000000000
 N    6.8458939800    0.0000000000   10.0000000000
 N    4.5639293200    0.0000000000   12.2819646600
 N    6.8458939800    2.2819646600   12.2819646600
 N    4.5670849307    2.2901253910   14.5923573502
 N    6.8498736242    0.0001280389   14.5815077635
 N    4.5833679732   -0.0095400126   16.8954910206
 N    6.8555530850    2.2832057821   16.9027420104
 N    4.5639293200    6.8458939800   10.0000000000
 N    6.8458939800    4.5639293200   10.0000000000
 N    4.5639293200    4.5639293200   12.2819646600
 N    6.8458939800    6.8458939800   12.2819646600
 N    4.5645940934    6.8482902977   14.6209505846
 N    6.8475171662    4.5652245957   14.5976647494
 N    4.5751379929    4.5289456923   16.7399529478
 N    6.8543640980    6.8531522592   16.9613197882
 N    4.5639293200   11.4098233000   10.0000000000
 N    6.8458939800    9.1278586400   10.0000000000
 N    4.5639293200    9.1278586400   12.2819646600
 N    6.8458939800   11.4098233000   12.2819646600
 N    4.5647076541   11.3998258423   14.5929862917
 N    6.8457130629    9.1274938287   14.5995685230
 N    4.5576647486    9.1374968745   16.8642390567
 N    6.8500581370   11.4100288132   16.9120707606
 N    9.1278586400    2.2819646600   10.0000000000
 N   11.4098233000    0.0000000000   10.0000000000
 N    9.1278586400    0.0000000000   12.2819646600
 N   11.4098233000    2.2819646600   12.2819646600
 N    9.1338771912    2.2837600242   14.5872178545
 N   11.4151741154    0.0046310595   14.5867812817
 N    9.1376143141    0.0051285376   16.9084849267
 N   11.4188597933    2.2869294483   16.9074963077
 N    9.1278586400    6.8458939800   10.0000000000
 N   11.4098233000    4.5639293200   10.0000000000
 N    9.1278586400    4.5639293200   12.2819646600
 N   11.4098233000    6.8458939800   12.2819646600
 N    9.1166684079    6.8475937492   14.6032896613
 N   11.4123402419    4.5680282563   14.5833287364
 N    9.1370952751    4.5624869324   16.9069289511
 N   11.4105951735    6.8531981915   16.9151492002
 N    9.1278586400   11.4098233000   10.0000000000
 N   11.4098233000    9.1278586400   10.0000000000
 N    9.1278586400    9.1278586400   12.2819646600
 N   11.4098233000   11.4098233000   12.2819646600
 N    9.1308163140   11.4127992461   14.5853290692
 N   11.4112480934    9.1321249679   14.5834910284
 N    9.1352377039    9.1391776783   16.9078594300
 N   11.4147601271   11.4185967391   16.9108127347
 S    4.5175600301    6.2478071890   19.4285230700
Li    6.6349890547    6.7560347984   18.9608810207
Li    2.5535382765    2.5812699058   18.9261687188
  147

Zr    0.0000000000    0.0000000000   10.0000000000
Zr    2.2819646600    0.0000000000   12.2819646600
Zr    0.0000000000    2.2819646600   12.2819646600
Zr    2.2819646600    2.2819646600   10.0000000000
Zr    0.0077937900    0.0035612600   14.5588125100
Zr    2.2839283300   -0.0309361600   16.7907871200
Zr   -0.0265243400    2.2809830700   16.7900113500
Zr    2.2828540300    2.2781532000   14.6209024900
Zr    0.0000000000    4.5639293200   10.0000000000
Zr    2.2819646600    4.5639293200   12.2819646600
Zr    0.0000000000    6.8458939800   12.2819646600
Zr    2.2819646600    6.8458939800   10.0000000000
Zr    0.0023414900    4.5599243500   14.5564768300
Zr    2.2840426900    4.5920170600   16.7751137600
Zr   -0.0110406300    6.8465537000   16.7496321100
Zr    2.3131615900    6.8451576900   14.5519818100
Zr    0.0000000000    9.1278586400   10.0000000000
Zr    2.2819646600    9.1278586400   12.2819646600
Zr    0.0000000000   11.4098233000   12.2819646600
Zr    2.2819646600   11.4098233000   10.0000000000
Zr    0.0003831800    9.1272688200   14.5567735500
Zr    2.2817057900    9.1317655700   16.7616385300
Zr   -0.0003031100   11.4073675900   16.7543025200
Zr    2.2835154900   11.4155159600   14.5597262700
Zr    4.5639293200    0.0000000000   10.0000000000
Zr    6.8458939800    0.0000000000   12.2819646600
Zr    4.5639293200    2.2819646600   12.2819646600
Zr    6.8458939800    2.2819646600   10.0000000000
Zr    4.5614191100    0.0008632600   14.5520014200
Zr    6.8527636400   -0.0070933400   16.7492558200
Zr    4.5956643400    2.2680894300   16.7728213100
Zr    6.8455717700    2.2799549600   14.5588528200
Zr    4.5639293200    4.5639293200   10.0000000000
Zr    6.8458939800    4.5639293200   12.2819646600
Zr    4.5639293200    6.8458939800   12.2819646600
Zr    6.8458939800    6.8458939800   10.0000000000
Zr    4.5648101300    4.5884978400   14.5499266200
Zr    6.8478051200    4.5389156800   16.7559023600
Zr    4.5449443000    6.8509049200   17.1025861700
Zr    6.8263731100    6.8463446000   14.5889830700
Zr    4.5639293200    9.1278586400   10.0000000000
Zr    6.8458939800    9.1278586400   12.2819646600
Zr    4.5639293200   11.4098233000   12.2819646600
Zr    6.8458939800   11.4098233000   10.0000000000
Zr    4.5671612100    9.0985199700   14.5477509200
Zr    6.8464949200    9.1548007600   16.7584580500
Zr    4.5695358700   11.4191984900   16.7509369100
Zr    6.8489068200   11.4073373500   14.5589429400
Zr    9.1278586400    0.0000000000   10.0000000000
Zr   11.4098233000    0.0000000000   12.2819646600
Zr    9.1278586400    2.2819646600   12.2819646600
Zr   11.4098233000    2.2819646600   10.0000000000
Zr    9.1294311300   -0.0015058000   14.5575790600
Zr   11.4118156500   -0.0062583700   16.7529274000
Zr    9.1343670500    2.2814216000   16.7516081400
Zr   11.4173531900    2.2814184500   14.5600849800
Zr    9.1278586400    4.5639293200   10.0000000000
Zr   11.4098233000    4.5639293200   12.2819646600
Zr    9.1278586400    6.8458939800   12.2819646600
Zr   11.4098233000    6.8458939800   10.0000000000
Zr    9.1316446400    4.5662114200   14.5588948600
Zr   11.4134538000    4.5627792200   16.7527463300
Zr    9.1738411100    6.8449319000   16.7608145200
Zr   11.4097390300    6.8467247200   14.5562395300
Zr    9.1278586400    9.1278586400   10.0000000000
Zr   11.4098233000    9.1278586400   12.2819646600
Zr    9.1278586400   11.4098233000   12.2819646600
Zr   11.4098233000   11.4098233000   10.0000000000
Zr    9.1307669800    9.1241556000   14.5616498600
Zr   11.4144125700    9.1318994700   16.7500200400
Zr    9.1337923200   11.4066271600   16.7512898100
Zr   11.4121747900   11.4074264700   14.5575867800
 N    0.0000000000    2.2819646600   10.0000000000
 N    2.2819646600    0.0000000000   10.0000000000
 N    0.0000000000    0.0000000000   12.2819646600
 N    2.2819646600    2.2819646600   12.2819646600
 N    0.0040769300    2.2818508400   14.6051294900
 N    2.2851286300    0.0007953600   14.6027258900
 N   -0.0114965300   -0.0144045700   16.8933184700
 N    2.2931447500    2.2930009300   16.9497827200
 N    0.0000000000    6.8458939800   10.0000000000
 N    2.2819646600    4.5639293200   10.0000000000
 N    0.0000000000    4.5639293200   12.2819646600
 N    2.2819646600    6.8458939800   12.2819646600
 N    0.0156460700    6.8454259700   14.5926745900
 N    2.2854543500    4.5645027800   14.6057820300
 N   -0.0025824200    4.5768956900   16.9005230600
 N    2.2677202000    6.8509294300   16.8460988700
 N    0.0000000000   11.4098233000   10.0000000000
 N    2.2819646600    9.1278586400   10.0000000000
 N    0.0000000000    9.1278586400   12.2819646600
 N    2.2819646600   11.4098233000   12.2819646600
 N    0.0028739900   11.4096638500   14.5873860000
 N    2.2858330700    9.1270267600   14.6019638600
 N    0.0060648300    9.1259621600   16.9051772900
 N    2.2874629600   11.4033493100   16.9086577200
 N    4.5639293200    2.2819646600   10.0000000000
 N    6.8458939800    0.0000000000   10.0000000000
 N    4.5639293200    0.0000000000   12.2819646600
 N    6.8458939800    2.2819646600   12.2819646600
 N    4.5638057000    2.2910231200   14.6041055300
 N    6.8472521200   -0.0023212300   14.5810443400
 N    4.5795108600   -0.0131479000   16.8970799800
 N    6.8519545400    2.2804256500   16.9090238700
 N    4.5639293200    6.8458939800   10.0000000000
 N    6.8458939800    4.5639293200   10.0000000000
 N    4.5639293200    4.5639293200   12.2819646600
 N    6.8458939800    6.8458939800   12.2819646600
 N    4.5665581700    6.8459490900   14.6209961300
 N    6.8475762600    4.5644196600   14.5931822800
 N    4.5705713100    4.5543474600   16.8151542500
 N    6.8611464300    6.8464608100   16.9293489700
 N    4.5639293200   11.4098233000   10.0000000000
 N    6.8458939800    9.1278586400   10.0000000000
 N    4.5639293200    9.1278586400   12.2819646600
 N    6.8458939800   11.4098233000   12.2819646600
 N    4.5654766200   11.3966937400   14.5940889900
 N    6.8460547600    9.1253251900   14.5956765600
 N    4.5621088700    9.1444181300   16.8221260200
 N    6.8489287700   11.4056950300   16.9115727600
 N    9.1278586400    2.2819646600   10.0000000000
 N   11.4098233000    0.0000000000   10.0000000000
 N    9.1278586400    0.0000000000   12.2819646600
 N   11.4098233000    2.2819646600   12.2819646600
 N    9.1316475200    2.2802039600   14.5859377300
 N   11.4129390600   -0.0009783500   14.5855053400
 N    9.1338187300   -0.0022770600   16.9060044600
 N   11.4105853500    2.2774693700   16.9094368300
 N    9.1278586400    6.8458939800   10.0000000000
 N   11.4098233000    4.5639293200   10.0000000000
 N    9.1278586400    4.5639293200   12.2819646600
 N   11.4098233000    6.8458939800   12.2819646600
 N    9.1178360200    6.8446802300   14.5993776100
 N   11.4135330800    4.5636091600   14.5820687600
 N    9.1372390400    4.5576289900   16.9066696400
 N   11.4155027200    6.8465637100   16.9158238100
 N    9.1278586400   11.4098233000   10.0000000000
 N   11.4098233000    9.1278586400   10.0000000000
 N    9.1278586400    9.1278586400   12.2819646600
 N   11.4098233000   11.4098233000   12.2819646600
 N    9.1305419400   11.4096735100   14.5842298700
 N   11.4133329500    9.1270220400   14.5807850400
 N    9.1374565200    9.1320968200   16.9093286400
 N   11.4129251100   11.4097193500   16.9086510200
 S    4.6369633000    6.8166887500   19.5188457900
Li    6.7669372100    6.8300724800   18.9292676100
Li    2.2775179800    2.2576090900   18.8695839300
