 ANIMSTEPS   5
 CRYSTAL 
 PRIMVEC 
 13.6917876819  0.0000000000  0.0000000000
  0.0000000000 13.6917876819  0.0000000000
  0.0000000000  0.0000000000 26.8458988616
 PRIMCOORD   1
  147  1
Zr    0.0000000000    0.0000000000   10.0000000000   -0.0000000000   -0.0000000000    0.0000000000
Zr    2.2819646600    0.0000000000   12.2819646600    0.0000000000    0.0000000000    0.0000000000
Zr    0.0000000000    2.2819646600   12.2819646600    0.0000000000    0.0000000000    0.0000000000
Zr    2.2819646600    2.2819646600   10.0000000000   -0.0000000000    0.0000000000    0.0000000000
Zr    0.0042944300   -0.0024446900   14.5596393900   -0.0001104123    0.0000815575   -0.0002081811
Zr    2.2844943500   -0.0019883300   16.7517064900   -0.0002987858    0.0000849255   -0.0000004050
Zr    0.0076844100    2.2772597700   16.7506334700    0.0000351752   -0.0001707815   -0.0001238386
Zr    2.2886832100    2.2797700100   14.5578606300   -0.0000212805   -0.0000865388    0.0001552343
Zr    0.0000000000    4.5639293200   10.0000000000   -0.0000000000   -0.0000000000    0.0000000000
Zr    2.2819646600    4.5639293200   12.2819646600    0.0000000000   -0.0000000000    0.0000000000
Zr    0.0000000000    6.8458939800   12.2819646600   -0.0000000000   -0.0000000000    0.0000000000
Zr    2.2819646600    6.8458939800   10.0000000000    0.0000000000   -0.0000000000    0.0000000000
Zr    0.0044871000    4.5630247200   14.5567113100   -0.0002480397    0.0000390014   -0.0000111567
Zr    2.2587932000    4.5634656300   16.7538223800   -0.0001862851    0.0001858292    0.0001988033
Zr   -0.0030791500    6.8481252500   16.7483446500    0.0000878486    0.0001356699    0.0000419830
Zr    2.3096050700    6.8459830000   14.5515765100   -0.0003105879    0.0000967674    0.0005024188
Zr    0.0000000000    9.1278586400   10.0000000000   -0.0000000000    0.0000000000    0.0000000000
Zr    2.2819646600    9.1278586400   12.2819646600    0.0000000000   -0.0000000000    0.0000000000
Zr    0.0000000000   11.4098233000   12.2819646600    0.0000000000   -0.0000000000    0.0000000000
Zr    2.2819646600   11.4098233000   10.0000000000   -0.0000000000    0.0000000000    0.0000000000
Zr    0.0016697500    9.1286632900   14.5571247300   -0.0001365098   -0.0000284488   -0.0000124826
Zr    2.2798998000    9.1359114800   16.7587206100    0.0001306091   -0.0003229483    0.0002042921
Zr    0.0066625500   11.4079791600   16.7535203800    0.0000426547   -0.0000466701   -0.0001808627
Zr    2.2839305200   11.4118378000   14.5569749200    0.0000722325    0.0001342480   -0.0000135947
Zr    4.5639293200    0.0000000000   10.0000000000   -0.0000000000   -0.0000000000    0.0000000000
Zr    6.8458939800    0.0000000000   12.2819646600    0.0000000000    0.0000000000    0.0000000000
Zr    4.5639293200    2.2819646600   12.2819646600    0.0000000000    0.0000000000    0.0000000000
Zr    6.8458939800    2.2819646600   10.0000000000   -0.0000000000    0.0000000000    0.0000000000
Zr    4.5668922900    0.0021018100   14.5543922900    0.0000480380    0.0000222862    0.0001502162
Zr    6.8586548500   -0.0025806600   16.7503824000    0.0000907685   -0.0000514750   -0.0000011082
Zr    4.5706008800    2.2418706900   16.7660548100   -0.0001526591    0.0000527505    0.0001149590
Zr    6.8482675900    2.2817209000   14.5565399400   -0.0000460740    0.0000812536   -0.0001164138
Zr    4.5639293200    4.5639293200   10.0000000000    0.0000000000    0.0000000000    0.0000000000
Zr    6.8458939800    4.5639293200   12.2819646600   -0.0000000000    0.0000000000    0.0000000000
Zr    4.5639293200    6.8458939800   12.2819646600    0.0000000000   -0.0000000000    0.0000000000
Zr    6.8458939800    6.8458939800   10.0000000000   -0.0000000000   -0.0000000000    0.0000000000
Zr    4.5712817300    4.5832950100   14.5958101800   -0.0000097374   -0.0002601823    0.0003934854
Zr    6.8930216200    4.5222150000   16.7677904600   -0.0002854242    0.0002405835    0.0007103886
Zr    4.5363304300    6.8812318300   16.9883496900    0.0004038478   -0.0003537493    0.0000846799
Zr    6.8309861500    6.8421694800   14.5916822700    0.0000378329    0.0000163181    0.0012591536
Zr    4.5639293200    9.1278586400   10.0000000000    0.0000000000   -0.0000000000    0.0000000000
Zr    6.8458939800    9.1278586400   12.2819646600    0.0000000000   -0.0000000000    0.0000000000
Zr    4.5639293200   11.4098233000   12.2819646600    0.0000000000    0.0000000000    0.0000000000
Zr    6.8458939800   11.4098233000   10.0000000000    0.0000000000    0.0000000000    0.0000000000
Zr    4.5670270800    9.1043328200   14.5512052100   -0.0000694954    0.0002460915    0.0004276467
Zr    6.8524310100    9.1594303700   16.7521993000   -0.0004481710   -0.0002348786    0.0001498823
Zr    4.5661958000   11.4195545200   16.7483926200   -0.0001019820   -0.0003473868   -0.0001114710
Zr    6.8499336500   11.4099403500   14.5565933300   -0.0000811503    0.0000558180   -0.0000213143
Zr    9.1278586400    0.0000000000   10.0000000000   -0.0000000000    0.0000000000    0.0000000000
Zr   11.4098233000    0.0000000000   12.2819646600    0.0000000000   -0.0000000000    0.0000000000
Zr    9.1278586400    2.2819646600   12.2819646600   -0.0000000000    0.0000000000    0.0000000000
Zr   11.4098233000    2.2819646600   10.0000000000   -0.0000000000    0.0000000000    0.0000000000
Zr    9.1331277700   -0.0034455700   14.5575741900    0.0000342825   -0.0000426793   -0.0003371534
Zr   11.4174261100   -0.0026361500   16.7525077100   -0.0001632976    0.0001115289   -0.0002211843
Zr    9.1428859600    2.2718411400   16.7491114500   -0.0000488156    0.0000498342   -0.0000314914
Zr   11.4166450800    2.2793180500   14.5574086200   -0.0000465370   -0.0000547192   -0.0002968919
Zr    9.1278586400    4.5639293200   10.0000000000   -0.0000000000    0.0000000000    0.0000000000
Zr   11.4098233000    4.5639293200   12.2819646600    0.0000000000    0.0000000000    0.0000000000
Zr    9.1278586400    6.8458939800   12.2819646600   -0.0000000000    0.0000000000    0.0000000000
Zr   11.4098233000    6.8458939800   10.0000000000    0.0000000000    0.0000000000    0.0000000000
Zr    9.1319770000    4.5642011900   14.5564107500   -0.0001592488    0.0000134029   -0.0001552999
Zr   11.4185338500    4.5550012200   16.7499818800   -0.0001692803   -0.0000603185    0.0000897426
Zr    9.1769118900    6.8439007800   16.7644368500   -0.0006144596    0.0001822699    0.0002488160
Zr   11.4120462100    6.8454516300   14.5542673500   -0.0000265546    0.0000146039    0.0000895071
Zr    9.1278586400    9.1278586400   10.0000000000   -0.0000000000    0.0000000000    0.0000000000
Zr   11.4098233000    9.1278586400   12.2819646600    0.0000000000   -0.0000000000    0.0000000000
Zr    9.1278586400   11.4098233000   12.2819646600   -0.0000000000   -0.0000000000    0.0000000000
Zr   11.4098233000   11.4098233000   10.0000000000    0.0000000000    0.0000000000    0.0000000000
Zr    9.1343847300    9.1249533600   14.5580437000   -0.0001494391    0.0000319298    0.0000189186
Zr   11.4176285600    9.1301794700   16.7517643400   -0.0002363716    0.0002111072    0.0000033010
Zr    9.1379342000   11.4078827000   16.7506349500   -0.0000351014   -0.0002405041   -0.0001405810
Zr   11.4154319700   11.4086954600   14.5596469700   -0.0001397485    0.0000587190   -0.0002307130
 N    0.0000000000    2.2819646600   10.0000000000   -0.0000000000   -0.0000000000   -0.0000000000
 N    2.2819646600    0.0000000000   10.0000000000   -0.0000000000   -0.0000000000   -0.0000000000
 N    0.0000000000    0.0000000000   12.2819646600    0.0000000000   -0.0000000000   -0.0000000000
 N    2.2819646600    2.2819646600   12.2819646600    0.0000000000    0.0000000000   -0.0000000000
 N    0.0046893400    2.2809084200   14.5844143400   -0.0002220171   -0.0000502145    0.0000437206
 N    2.2862065700   -0.0015650700   14.5835169200   -0.0000075936    0.0000938494    0.0000920387
 N    0.0060156900   -0.0027115200   16.9099538700   -0.0004111732    0.0000266670    0.0000564159
 N    2.2832157000    2.2746699900   16.9061828300   -0.0001974745   -0.0000063089    0.0001557279
 N    0.0000000000    6.8458939800   10.0000000000   -0.0000000000   -0.0000000000   -0.0000000000
 N    2.2819646600    4.5639293200   10.0000000000    0.0000000000   -0.0000000000   -0.0000000000
 N    0.0000000000    4.5639293200   12.2819646600    0.0000000000   -0.0000000000   -0.0000000000
 N    2.2819646600    6.8458939800   12.2819646600    0.0000000000   -0.0000000000   -0.0000000000
 N    0.0140409100    6.8459328900   14.5898610300   -0.0001213626    0.0001219005    0.0003047623
 N    2.2881698000    4.5651400600   14.5921094700   -0.0004429127   -0.0001488423    0.0001522230
 N    0.0080655200    4.5626868500   16.9063818200   -0.0002554432    0.0000096413    0.0001855988
 N    2.2637752300    6.8507035600   16.8498460200    0.0000674238   -0.0001174458   -0.0008408341
 N    0.0000000000   11.4098233000   10.0000000000    0.0000000000   -0.0000000000   -0.0000000000
 N    2.2819646600    9.1278586400   10.0000000000   -0.0000000000    0.0000000000   -0.0000000000
 N    0.0000000000    9.1278586400   12.2819646600    0.0000000000    0.0000000000   -0.0000000000
 N    2.2819646600   11.4098233000   12.2819646600    0.0000000000    0.0000000000   -0.0000000000
 N    0.0046325400   11.4082340400   14.5870475700   -0.0001518988    0.0000904147    0.0000917741
 N    2.2861475000    9.1275890600   14.5954510100   -0.0003437358    0.0001464773    0.0005953750
 N    0.0060719500    9.1270777500   16.9075980800    0.0000349053    0.0001238437    0.0000259097
 N    2.2877263000   11.4098221000   16.9075707500   -0.0001428286   -0.0001044816    0.0000694902
 N    4.5639293200    2.2819646600   10.0000000000    0.0000000000    0.0000000000   -0.0000000000
 N    6.8458939800    0.0000000000   10.0000000000   -0.0000000000   -0.0000000000   -0.0000000000
 N    4.5639293200    0.0000000000   12.2819646600    0.0000000000    0.0000000000   -0.0000000000
 N    6.8458939800    2.2819646600   12.2819646600    0.0000000000    0.0000000000   -0.0000000000
 N    4.5684150400    2.2919475200   14.6013109100   -0.0000581718   -0.0000218643    0.0000393169
 N    6.8498878600   -0.0017975100   14.5826568900    0.0001502141    0.0000231229    0.0000663033
 N    4.5703212000   -0.0027051600   16.9129779200    0.0000508845   -0.0000589924    0.0002266375
 N    6.8649819600    2.2672289000   16.8983329500   -0.0000581625    0.0000339549    0.0001473696
 N    4.5639293200    6.8458939800   10.0000000000    0.0000000000   -0.0000000000   -0.0000000000
 N    6.8458939800    4.5639293200   10.0000000000   -0.0000000000    0.0000000000   -0.0000000000
 N    4.5639293200    4.5639293200   12.2819646600    0.0000000000    0.0000000000   -0.0000000000
 N    6.8458939800    6.8458939800   12.2819646600   -0.0000000000   -0.0000000000   -0.0000000000
 N    4.5676970600    6.8470002700   14.6183913300   -0.0001399382   -0.0000595161   -0.0001164633
 N    6.8502832400    4.5640725800   14.5945324600    0.0000499615   -0.0003160691   -0.0000219991
 N    4.5614343800    4.5520321500   16.9249392100   -0.0000930248    0.0001120575   -0.0003450693
 N    6.8643238700    6.8557290200   16.9106102000    0.0001161809   -0.0000418723    0.0005813446
 N    4.5639293200   11.4098233000   10.0000000000    0.0000000000    0.0000000000   -0.0000000000
 N    6.8458939800    9.1278586400   10.0000000000    0.0000000000   -0.0000000000   -0.0000000000
 N    4.5639293200    9.1278586400   12.2819646600    0.0000000000   -0.0000000000   -0.0000000000
 N    6.8458939800   11.4098233000   12.2819646600    0.0000000000   -0.0000000000   -0.0000000000
 N    4.5667128100   11.4000555000   14.5898154600   -0.0000920601    0.0000624952    0.0003414021
 N    6.8485978600    9.1253319400   14.5911154900    0.0000604194    0.0004366249    0.0002644529
 N    4.5654029600    9.1543171400   16.8473515400    0.0000127692   -0.0002906118   -0.0008802535
 N    6.8521178900   11.4093111100   16.9072591300   -0.0000749840   -0.0000712670    0.0000533742
 N    9.1278586400    2.2819646600   10.0000000000    0.0000000000   -0.0000000000   -0.0000000000
 N   11.4098233000    0.0000000000   10.0000000000    0.0000000000   -0.0000000000   -0.0000000000
 N    9.1278586400    0.0000000000   12.2819646600   -0.0000000000   -0.0000000000   -0.0000000000
 N   11.4098233000    2.2819646600   12.2819646600    0.0000000000    0.0000000000   -0.0000000000
 N    9.1342453200    2.2785724100   14.5814124400    0.0000281708   -0.0000451354    0.0001389501
 N   11.4141984800   -0.0014523800   14.5865658000   -0.0000287841   -0.0000005661   -0.0002461695
 N    9.1385383800   -0.0057410800   16.9077808900    0.0002109108    0.0000769379    0.0001416411
 N   11.4212669900    2.2761056200   16.9079189200   -0.0002060426   -0.0002519764    0.0001478643
 N    9.1278586400    6.8458939800   10.0000000000   -0.0000000000   -0.0000000000   -0.0000000000
 N   11.4098233000    4.5639293200   10.0000000000    0.0000000000    0.0000000000   -0.0000000000
 N    9.1278586400    4.5639293200   12.2819646600   -0.0000000000   -0.0000000000   -0.0000000000
 N   11.4098233000    6.8458939800   12.2819646600    0.0000000000   -0.0000000000   -0.0000000000
 N    9.1218173900    6.8446588300   14.6004966100   -0.0000161781    0.0000335879   -0.0000343209
 N   11.4157989400    4.5623116600   14.5823178800   -0.0000250283   -0.0000831383    0.0001188101
 N    9.1484868100    4.5499251200   16.8977014700    0.0000170058    0.0000666097    0.0001143042
 N   11.4202112900    6.8436723400   16.9133934600   -0.0002251021    0.0000358855    0.0001007019
 N    9.1278586400   11.4098233000   10.0000000000   -0.0000000000    0.0000000000   -0.0000000000
 N   11.4098233000    9.1278586400   10.0000000000    0.0000000000    0.0000000000   -0.0000000000
 N    9.1278586400    9.1278586400   12.2819646600   -0.0000000000   -0.0000000000   -0.0000000000
 N   11.4098233000   11.4098233000   12.2819646600    0.0000000000   -0.0000000000   -0.0000000000
 N    9.1321095700   11.4089700100   14.5841365200    0.0000339577    0.0000925477    0.0000913859
 N   11.4153302200    9.1264923900   14.5832731200   -0.0000891442   -0.0000080825    0.0001372858
 N    9.1415604000    9.1319695700   16.9065728400   -0.0001848359    0.0000868053    0.0000029440
 N   11.4179690900   11.4089463500   16.9099753200   -0.0001496256    0.0003073887    0.0000496642
 S    4.6322684300    6.8168784900   19.5268136300   -0.0010873617    0.0000542454    0.0003002984
Li    6.7733473400    6.7958733200   18.8868581300   -0.0007980594    0.0001507070    0.0006943460
Li    4.6331251100    4.6659898000   18.9051321100   -0.0004886275    0.0007058868   -0.0000480338
 PRIMCOORD   2
  147  1
Zr    0.0000000000    0.0000000000   10.0000000000    0.0000000000    0.0000000000    0.0000000000
Zr    2.2819646600    0.0000000000   12.2819646600    0.0000000000   -0.0000000000    0.0000000000
Zr    0.0000000000    2.2819646600   12.2819646600    0.0000000000    0.0000000000    0.0000000000
Zr    2.2819646600    2.2819646600   10.0000000000   -0.0000000000   -0.0000000000    0.0000000000
Zr    0.0011260053    0.0008939899   14.5603765140   -0.0002478467   -0.0003930430   -0.0001007700
Zr    2.2778381956    0.0013040073   16.7604323120   -0.0004979030   -0.0003289350   -0.0005972701
Zr    0.0059818261    2.2824171378   16.7572492320   -0.0002245143   -0.0006369448   -0.0006240254
Zr    2.2771398286    2.2728606010   14.5699035468   -0.0000849140   -0.0002705722   -0.0012658950
Zr    0.0000000000    4.5639293200   10.0000000000   -0.0000000000   -0.0000000000    0.0000000000
Zr    2.2819646600    4.5639293200   12.2819646600    0.0000000000   -0.0000000000    0.0000000000
Zr    0.0000000000    6.8458939800   12.2819646600   -0.0000000000    0.0000000000    0.0000000000
Zr    2.2819646600    6.8458939800   10.0000000000    0.0000000000    0.0000000000    0.0000000000
Zr   -0.0103248583    4.5640745406   14.5514143411   -0.0001665380   -0.0000069902   -0.0001293689
Zr    2.2336212031    4.5737461286   16.7257710660   -0.0015919053   -0.0013511700   -0.0014963219
Zr   -0.0185059296    6.8510295007   16.7463336386   -0.0002486305   -0.0000403702   -0.0000778487
Zr    2.2996776592    6.8499560850   14.5466782655    0.0000470742   -0.0002456675    0.0000351613
Zr    0.0000000000    9.1278586400   10.0000000000    0.0000000000    0.0000000000    0.0000000000
Zr    2.2819646600    9.1278586400   12.2819646600    0.0000000000   -0.0000000000    0.0000000000
Zr    0.0000000000   11.4098233000   12.2819646600    0.0000000000   -0.0000000000    0.0000000000
Zr    2.2819646600   11.4098233000   10.0000000000   -0.0000000000    0.0000000000    0.0000000000
Zr   -0.0064169144    9.1310085174   14.5567903621    0.0000036576   -0.0001779705    0.0000077255
Zr    2.2746541059    9.1266488476   16.7586082387   -0.0001079655   -0.0002482053   -0.0000219185
Zr   -0.0014642250   11.4104056457   16.7542402569   -0.0000722150   -0.0004540229   -0.0000882748
Zr    2.2810079237   11.4118998013   14.5606753380   -0.0000463060   -0.0003762826   -0.0000085856
Zr    4.5639293200    0.0000000000   10.0000000000   -0.0000000000    0.0000000000    0.0000000000
Zr    6.8458939800    0.0000000000   12.2819646600    0.0000000000   -0.0000000000    0.0000000000
Zr    4.5639293200    2.2819646600   12.2819646600   -0.0000000000   -0.0000000000    0.0000000000
Zr    6.8458939800    2.2819646600   10.0000000000    0.0000000000    0.0000000000    0.0000000000
Zr    4.5624119112   -0.0117298343   14.5475471823   -0.0000409554   -0.0001440303   -0.0000836283
Zr    6.8522557329   -0.0122568587   16.7504690928   -0.0001054716   -0.0001946512    0.0000352771
Zr    4.5666299810    2.2228397981   16.7441738709   -0.0010229886   -0.0010091959   -0.0000229048
Zr    6.8456037682    2.2769986959   14.5555613019   -0.0003487555   -0.0000363884   -0.0000022211
Zr    4.5639293200    4.5639293200   10.0000000000    0.0000000000    0.0000000000    0.0000000000
Zr    6.8458939800    4.5639293200   12.2819646600   -0.0000000000    0.0000000000    0.0000000000
Zr    4.5639293200    6.8458939800   12.2819646600    0.0000000000   -0.0000000000    0.0000000000
Zr    6.8458939800    6.8458939800   10.0000000000   -0.0000000000   -0.0000000000    0.0000000000
Zr    4.5593952934    4.5705851756   14.5528571778   -0.0002726885   -0.0001072903    0.0010101432
Zr    6.8264473719    4.5219215717   16.7767670964   -0.0000206585   -0.0004136661    0.0001627933
Zr    4.5070571488    6.8039322012   16.9776095000   -0.0003927234   -0.0003281455    0.0005368788
Zr    6.8204305105    6.8391033621   14.6104734699   -0.0002848363   -0.0002606165    0.0001920097
Zr    4.5639293200    9.1278586400   10.0000000000    0.0000000000   -0.0000000000    0.0000000000
Zr    6.8458939800    9.1278586400   12.2819646600   -0.0000000000   -0.0000000000    0.0000000000
Zr    4.5639293200   11.4098233000   12.2819646600    0.0000000000    0.0000000000    0.0000000000
Zr    6.8458939800   11.4098233000   10.0000000000    0.0000000000    0.0000000000    0.0000000000
Zr    4.5629457481    9.0984843723   14.5637091417   -0.0001047867   -0.0003945065    0.0001342560
Zr    6.8350539566    9.1436715136   16.7681283271   -0.0001439620   -0.0001437677   -0.0001647318
Zr    4.5584610683   11.4099333662   16.7512830814   -0.0002277831   -0.0002306974   -0.0001025642
Zr    6.8439518898   11.4018236334   14.5603838357   -0.0001079026   -0.0001608478   -0.0000673500
Zr    9.1278586400    0.0000000000   10.0000000000   -0.0000000000    0.0000000000    0.0000000000
Zr   11.4098233000    0.0000000000   12.2819646600   -0.0000000000    0.0000000000    0.0000000000
Zr    9.1278586400    2.2819646600   12.2819646600   -0.0000000000    0.0000000000    0.0000000000
Zr   11.4098233000    2.2819646600   10.0000000000    0.0000000000   -0.0000000000    0.0000000000
Zr    9.1290239575   -0.0032665575   14.5573684970   -0.0001306961   -0.0001576053   -0.0000386226
Zr   11.4092749669    0.0009716007   16.7526128792   -0.0002976154   -0.0002409311   -0.0001520023
Zr    9.1253022457    2.2782611094   16.7511906053   -0.0002687860   -0.0001782454   -0.0000883344
Zr   11.4115079530    2.2819719746   14.5595600054   -0.0002662456   -0.0000951359   -0.0000697314
Zr    9.1278586400    4.5639293200   10.0000000000   -0.0000000000    0.0000000000    0.0000000000
Zr   11.4098233000    4.5639293200   12.2819646600   -0.0000000000    0.0000000000    0.0000000000
Zr    9.1278586400    6.8458939800   12.2819646600   -0.0000000000   -0.0000000000    0.0000000000
Zr   11.4098233000    6.8458939800   10.0000000000    0.0000000000    0.0000000000    0.0000000000
Zr    9.1189961903    4.5660314094   14.5635442337   -0.0002860390    0.0000011401    0.0001194409
Zr   11.4061978297    4.5600903815   16.7517034212   -0.0003085985   -0.0002580364   -0.0001471146
Zr    9.1473460484    6.8386970554   16.7747504756   -0.0000172070   -0.0000988148   -0.0001897709
Zr   11.3984928988    6.8474996214   14.5573036940   -0.0001524426   -0.0000982275   -0.0000124362
Zr    9.1278586400    9.1278586400   10.0000000000   -0.0000000000    0.0000000000    0.0000000000
Zr   11.4098233000    9.1278586400   12.2819646600   -0.0000000000   -0.0000000000    0.0000000000
Zr    9.1278586400   11.4098233000   12.2819646600   -0.0000000000   -0.0000000000    0.0000000000
Zr   11.4098233000   11.4098233000   10.0000000000   -0.0000000000   -0.0000000000    0.0000000000
Zr    9.1234129243    9.1211538418   14.5620967766   -0.0001061220   -0.0001462159   -0.0000634819
Zr   11.4046056650    9.1327824935   16.7525547431   -0.0001096324   -0.0001699049    0.0000070633
Zr    9.1299230408   11.4064027785   16.7525919390   -0.0001806321   -0.0002542735   -0.0000564965
Zr   11.4100021736   11.4099881916   14.5596447544   -0.0000873370   -0.0001647068   -0.0000151577
 N    0.0000000000    2.2819646600   10.0000000000    0.0000000000    0.0000000000   -0.0000000000
 N    2.2819646600    0.0000000000   10.0000000000   -0.0000000000   -0.0000000000   -0.0000000000
 N    0.0000000000    0.0000000000   12.2819646600    0.0000000000    0.0000000000   -0.0000000000
 N    2.2819646600    2.2819646600   12.2819646600   -0.0000000000    0.0000000000   -0.0000000000
 N   -0.0051630925    2.2829493033   14.5856650169   -0.0002244101   -0.0002841480   -0.0003924727
 N    2.2823696547   -0.0056978367   14.5860226997   -0.0001805690   -0.0003512248   -0.0003416908
 N   -0.0019043806    0.0015596147   16.9115907518   -0.0002225078   -0.0003340276   -0.0000779660
 N    2.2726090658    2.2769038010   16.9532790698   -0.0013138962   -0.0014700603   -0.0039133229
 N    0.0000000000    6.8458939800   10.0000000000    0.0000000000    0.0000000000   -0.0000000000
 N    2.2819646600    4.5639293200   10.0000000000   -0.0000000000   -0.0000000000   -0.0000000000
 N    0.0000000000    4.5639293200   12.2819646600   -0.0000000000   -0.0000000000   -0.0000000000
 N    2.2819646600    6.8458939800   12.2819646600    0.0000000000   -0.0000000000   -0.0000000000
 N    0.0025553609    6.8489059670   14.5883534268   -0.0001216362   -0.0001448295    0.0000504216
 N    2.2785938981    4.5624848127   14.5767878727   -0.0002013667   -0.0002989319    0.0004170924
 N   -0.0151502221    4.5711902693   16.9052713614   -0.0004135510   -0.0005972526    0.0000912081
 N    2.2414932431    6.8493505962   16.8393290721   -0.0000747288   -0.0006859940    0.0004683174
 N    0.0000000000   11.4098233000   10.0000000000    0.0000000000   -0.0000000000   -0.0000000000
 N    2.2819646600    9.1278586400   10.0000000000   -0.0000000000    0.0000000000   -0.0000000000
 N    0.0000000000    9.1278586400   12.2819646600    0.0000000000    0.0000000000   -0.0000000000
 N    2.2819646600   11.4098233000   12.2819646600   -0.0000000000   -0.0000000000   -0.0000000000
 N    0.0002209139   11.4113174554   14.5887704580   -0.0000989107   -0.0001972376   -0.0000258547
 N    2.2786186649    9.1277068214   14.5968236959   -0.0000988180   -0.0000676025   -0.0000021062
 N   -0.0049383018    9.1315145206   16.9074897290   -0.0001297618   -0.0003176561    0.0000220014
 N    2.2799680089   11.4064568392   16.9067980954   -0.0001979715   -0.0005123553    0.0000292426
 N    4.5639293200    2.2819646600   10.0000000000   -0.0000000000   -0.0000000000   -0.0000000000
 N    6.8458939800    0.0000000000   10.0000000000    0.0000000000   -0.0000000000   -0.0000000000
 N    4.5639293200    0.0000000000   12.2819646600   -0.0000000000   -0.0000000000   -0.0000000000
 N    6.8458939800    2.2819646600   12.2819646600    0.0000000000    0.0000000000   -0.0000000000
 N    4.5613467516    2.2828887025   14.5866435242   -0.0002470294   -0.0001409920    0.0001731618
 N    6.8469482482   -0.0069032072   14.5829563263   -0.0000853039   -0.0001664442    0.0001164625
 N    4.5661549499   -0.0219132288   16.9036986879   -0.0004445608   -0.0003119294    0.0001428689
 N    6.8465171541    2.2624673732   16.8992582811   -0.0002186188   -0.0004148041    0.0000454331
 N    4.5639293200    6.8458939800   10.0000000000    0.0000000000    0.0000000000   -0.0000000000
 N    6.8458939800    4.5639293200   10.0000000000    0.0000000000    0.0000000000   -0.0000000000
 N    4.5639293200    4.5639293200   12.2819646600    0.0000000000    0.0000000000   -0.0000000000
 N    6.8458939800    6.8458939800   12.2819646600   -0.0000000000   -0.0000000000   -0.0000000000
 N    4.5552937840    6.8362617203   14.6231970474   -0.0001951359   -0.0002021949    0.0001759019
 N    6.8387513941    4.5564133159   14.6002246129   -0.0001239188   -0.0002045032    0.0000168688
 N    4.5345235406    4.4956088756   16.8048820826   -0.0011028502   -0.0003824055    0.0027708006
 N    6.8322870947    6.8329560585   16.9870138810   -0.0002376598   -0.0002815450   -0.0000159514
 N    4.5639293200   11.4098233000   10.0000000000    0.0000000000   -0.0000000000   -0.0000000000
 N    6.8458939800    9.1278586400   10.0000000000    0.0000000000   -0.0000000000   -0.0000000000
 N    4.5639293200    9.1278586400   12.2819646600    0.0000000000   -0.0000000000   -0.0000000000
 N    6.8458939800   11.4098233000   12.2819646600    0.0000000000   -0.0000000000   -0.0000000000
 N    4.5620235138   11.3920689114   14.5907288748   -0.0000634972   -0.0002258176    0.0000558188
 N    6.8411746356    9.1202564958   14.6016996541   -0.0001241455   -0.0000821356   -0.0000950571
 N    4.5485550763    9.1177798936   16.8902484402   -0.0000838884   -0.0003775012    0.0000671907
 N    6.8444208986   11.3981251258   16.9107713521   -0.0001917248   -0.0001931954    0.0000187839
 N    9.1278586400    2.2819646600   10.0000000000   -0.0000000000   -0.0000000000   -0.0000000000
 N   11.4098233000    0.0000000000   10.0000000000   -0.0000000000    0.0000000000   -0.0000000000
 N    9.1278586400    0.0000000000   12.2819646600   -0.0000000000   -0.0000000000   -0.0000000000
 N   11.4098233000    2.2819646600   12.2819646600   -0.0000000000    0.0000000000   -0.0000000000
 N    9.1292950042    2.2800827657   14.5856673925   -0.0001536513   -0.0002132277    0.0000303941
 N   11.4106718810    0.0008555107   14.5868809891   -0.0001861054   -0.0001531554    0.0000059614
 N    9.1314145069   -0.0030103659   16.9094028176   -0.0002090820   -0.0002145187    0.0000391914
 N   11.4088514158    2.2806354751   16.9052264024   -0.0004501655   -0.0002892259    0.0000407498
 N    9.1278586400    6.8458939800   10.0000000000   -0.0000000000    0.0000000000   -0.0000000000
 N   11.4098233000    4.5639293200   10.0000000000    0.0000000000    0.0000000000   -0.0000000000
 N    9.1278586400    4.5639293200   12.2819646600   -0.0000000000    0.0000000000   -0.0000000000
 N   11.4098233000    6.8458939800   12.2819646600   -0.0000000000   -0.0000000000   -0.0000000000
 N    9.1113611822    6.8430273674   14.6063896271   -0.0000838595   -0.0000886441   -0.0000186430
 N   11.4019808812    4.5648674299   14.5842234926   -0.0003056901   -0.0001249633    0.0000989593
 N    9.1253936322    4.5511596400   16.9071760427   -0.0002749448   -0.0002343675    0.0000787136
 N   11.3985187782    6.8469317790   16.9144695315   -0.0001311100   -0.0002249906    0.0000254136
 N    9.1278586400   11.4098233000   10.0000000000    0.0000000000    0.0000000000   -0.0000000000
 N   11.4098233000    9.1278586400   10.0000000000    0.0000000000    0.0000000000   -0.0000000000
 N    9.1278586400    9.1278586400   12.2819646600   -0.0000000000   -0.0000000000   -0.0000000000
 N   11.4098233000   11.4098233000   12.2819646600   -0.0000000000   -0.0000000000   -0.0000000000
 N    9.1269438721   11.4069974111   14.5863486290   -0.0001230577   -0.0000510349    0.0000563843
 N   11.4060330734    9.1282678655   14.5853112557   -0.0000606123   -0.0000816173   -0.0000019186
 N    9.1276744054    9.1316488853   16.9076494344   -0.0001195248   -0.0001804446    0.0000763080
 N   11.4098994856   11.4126072589   16.9111029932   -0.0001671297   -0.0001993528    0.0000165010
 S    4.4743805607    6.1392794769   19.4851922673    0.0009745211    0.0051536289    0.0029391477
Li    6.5806212092    6.7138399713   18.9694581144    0.0014339945    0.0005197330   -0.0003566600
Li    3.8462334683    3.9543189062   19.0645368376    0.0223100052    0.0216472330    0.0014910337
 PRIMCOORD   3
  147  1
Zr    0.0000000000    0.0000000000   10.0000000000    0.0000000000    0.0000000000    0.0000000000
Zr    2.2819646600    0.0000000000   12.2819646600   -0.0000000000    0.0000000000    0.0000000000
Zr    0.0000000000    2.2819646600   12.2819646600    0.0000000000    0.0000000000    0.0000000000
Zr    2.2819646600    2.2819646600   10.0000000000   -0.0000000000   -0.0000000000    0.0000000000
Zr    0.0120406232    0.0129249863   14.5646106173    0.0000262319   -0.0001082686   -0.0000022533
Zr    2.2962589040    0.0129700192   16.7838403923    0.0000449561    0.0000420293   -0.0000927437
Zr    0.0163255218    2.3051390291   16.7812605848    0.0000867504    0.0000309502    0.0000173995
Zr    2.2847700167    2.2873136296   14.6177289731    0.0003401998    0.0001478305    0.0002464972
Zr    0.0000000000    4.5639293200   10.0000000000    0.0000000000   -0.0000000000    0.0000000000
Zr    2.2819646600    4.5639293200   12.2819646600   -0.0000000000   -0.0000000000    0.0000000000
Zr    0.0000000000    6.8458939800   12.2819646600   -0.0000000000    0.0000000000    0.0000000000
Zr    2.2819646600    6.8458939800   10.0000000000    0.0000000000    0.0000000000    0.0000000000
Zr    0.0000759701    4.5679737689   14.5550034204    0.0002519978    0.0000900694    0.0000974454
Zr    2.2933719885    4.6276990075   16.7492601333    0.0001877630    0.0002917743   -0.0004568572
Zr   -0.0132207328    6.8584256916   16.7470538586    0.0001835191    0.0000371673    0.0000658306
Zr    2.3033149812    6.8560748999   14.5445881440   -0.0000445146   -0.0001136763    0.0002522679
Zr    0.0000000000    9.1278586400   10.0000000000    0.0000000000   -0.0000000000    0.0000000000
Zr    2.2819646600    9.1278586400   12.2819646600    0.0000000000    0.0000000000    0.0000000000
Zr    0.0000000000   11.4098233000   12.2819646600    0.0000000000    0.0000000000    0.0000000000
Zr    2.2819646600   11.4098233000   10.0000000000   -0.0000000000   -0.0000000000    0.0000000000
Zr   -0.0047930300    9.1368650460   14.5565452072    0.0000210639    0.0001011256   -0.0000628468
Zr    2.2790098295    9.1374449623   16.7575963183   -0.0000233481   -0.0000591061   -0.0001908504
Zr    0.0040977157   11.4236401558   16.7556866459   -0.0000776282   -0.0000405770   -0.0000217145
Zr    2.2835663913   11.4231468517   14.5617562736   -0.0000508665   -0.0001511374    0.0000065760
Zr    4.5639293200    0.0000000000   10.0000000000   -0.0000000000    0.0000000000    0.0000000000
Zr    6.8458939800    0.0000000000   12.2819646600    0.0000000000   -0.0000000000    0.0000000000
Zr    4.5639293200    2.2819646600   12.2819646600   -0.0000000000   -0.0000000000    0.0000000000
Zr    6.8458939800    2.2819646600   10.0000000000    0.0000000000    0.0000000000    0.0000000000
Zr    4.5645144257   -0.0060915397   14.5473139698   -0.0000159235    0.0002179809    0.0001331013
Zr    6.8587284068   -0.0076523084   16.7483289251   -0.0000364353   -0.0000185951    0.0000708150
Zr    4.6076367122    2.2618566056   16.7379283557    0.0000817437   -0.0001477922   -0.0011617906
Zr    6.8558905147    2.2805115400   14.5523084504   -0.0003300011   -0.0000586995    0.0000958075
Zr    4.5639293200    4.5639293200   10.0000000000   -0.0000000000    0.0000000000    0.0000000000
Zr    6.8458939800    4.5639293200   12.2819646600    0.0000000000    0.0000000000    0.0000000000
Zr    4.5639293200    6.8458939800   12.2819646600    0.0000000000    0.0000000000   -0.0000000000
Zr    6.8458939800    6.8458939800   10.0000000000   -0.0000000000    0.0000000000    0.0000000000
Zr    4.5668086981    4.5802467535   14.5174312652   -0.0001416265   -0.0001080381   -0.0001258831
Zr    6.8273189747    4.5410053032   16.7701694380    0.0000675624   -0.0000436135   -0.0001507726
Zr    4.5234574354    6.8204733464   16.9592194318   -0.0001913130    0.0000320467   -0.0007172071
Zr    6.8283444697    6.8485382152   14.6058237228   -0.0000309253    0.0000429493    0.0001160326
Zr    4.5639293200    9.1278586400   10.0000000000    0.0000000000   -0.0000000000    0.0000000000
Zr    6.8458939800    9.1278586400   12.2819646600    0.0000000000   -0.0000000000    0.0000000000
Zr    4.5639293200   11.4098233000   12.2819646600    0.0000000000    0.0000000000    0.0000000000
Zr    6.8458939800   11.4098233000   10.0000000000    0.0000000000    0.0000000000    0.0000000000
Zr    4.5676274893    9.1095162557   14.5585437184   -0.0000614460    0.0000483883    0.0000609655
Zr    6.8412324458    9.1490768207   16.7719669347   -0.0000617556   -0.0001659943    0.0000005118
Zr    4.5661447924   11.4197772753   16.7515169297   -0.0000291416   -0.0000915311   -0.0002050986
Zr    6.8485296390   11.4056014745   14.5605436531    0.0000115406   -0.0002359568    0.0000356446
Zr    9.1278586400    0.0000000000   10.0000000000   -0.0000000000    0.0000000000    0.0000000000
Zr   11.4098233000    0.0000000000   12.2819646600    0.0000000000    0.0000000000    0.0000000000
Zr    9.1278586400    2.2819646600   12.2819646600    0.0000000000    0.0000000000    0.0000000000
Zr   11.4098233000    2.2819646600   10.0000000000   -0.0000000000   -0.0000000000    0.0000000000
Zr    9.1336704235    0.0007510598   14.5582713792    0.0001319354   -0.0001841378   -0.0000137945
Zr   11.4197766177    0.0086868225   16.7544036908    0.0000280181   -0.0001197622    0.0000395206
Zr    9.1342782375    2.2869237542   16.7519564728    0.0000353749   -0.0000224349    0.0000309017
Zr   11.4208394766    2.2866753228   14.5626993916    0.0000131753   -0.0000313996    0.0000321274
Zr    9.1278586400    4.5639293200   10.0000000000   -0.0000000000   -0.0000000000    0.0000000000
Zr   11.4098233000    4.5639293200   12.2819646600    0.0000000000    0.0000000000    0.0000000000
Zr    9.1278586400    6.8458939800   12.2819646600   -0.0000000000    0.0000000000    0.0000000000
Zr   11.4098233000    6.8458939800   10.0000000000    0.0000000000    0.0000000000    0.0000000000
Zr    9.1291925127    4.5701096402   14.5602143499    0.0000720070    0.0001142672    0.0000087773
Zr   11.4152766771    4.5703486159   16.7518311386    0.0000023954    0.0000182462   -0.0001926392
Zr    9.1509064397    6.8442527195   16.7754733098   -0.0001506663   -0.0000003210   -0.0000795331
Zr   11.4016925877    6.8519726069   14.5575479915   -0.0000976578    0.0000756347   -0.0000277435
Zr    9.1278586400    9.1278586400   10.0000000000   -0.0000000000    0.0000000000    0.0000000000
Zr   11.4098233000    9.1278586400   12.2819646600   -0.0000000000    0.0000000000    0.0000000000
Zr    9.1278586400   11.4098233000   12.2819646600   -0.0000000000   -0.0000000000    0.0000000000
Zr   11.4098233000   11.4098233000   10.0000000000   -0.0000000000   -0.0000000000    0.0000000000
Zr    9.1271601613    9.1254757836   14.5631388453   -0.0000029300    0.0000101206   -0.0000087091
Zr   11.4099926867    9.1404729377   16.7529061944   -0.0000352515    0.0000848580   -0.0000807558
Zr    9.1361392060   11.4139567663   16.7535215700    0.0000951849   -0.0001315057   -0.0001061092
Zr   11.4135235843   11.4143774113   14.5594507614   -0.0000163806   -0.0001013923   -0.0000203440
 N    0.0000000000    2.2819646600   10.0000000000    0.0000000000    0.0000000000   -0.0000000000
 N    2.2819646600    0.0000000000   10.0000000000   -0.0000000000    0.0000000000   -0.0000000000
 N    0.0000000000    0.0000000000   12.2819646600    0.0000000000    0.0000000000   -0.0000000000
 N    2.2819646600    2.2819646600   12.2819646600   -0.0000000000    0.0000000000   -0.0000000000
 N    0.0023460900    2.2917723567   14.6008886361   -0.0000785339    0.0000370482    0.0000980461
 N    2.2892850078    0.0034908819   14.5998718936    0.0000073362    0.0001116106    0.0001312963
 N    0.0070860483    0.0133292719   16.9155914361   -0.0000116538   -0.0000150156    0.0000507261
 N    2.3221844940    2.3311902514   17.1036723621   -0.0000676758   -0.0000702458   -0.0000693631
 N    0.0000000000    6.8458939800   10.0000000000    0.0000000000    0.0000000000   -0.0000000000
 N    2.2819646600    4.5639293200   10.0000000000   -0.0000000000   -0.0000000000   -0.0000000000
 N    0.0000000000    4.5639293200   12.2819646600    0.0000000000   -0.0000000000   -0.0000000000
 N    2.2819646600    6.8458939800   12.2819646600    0.0000000000    0.0000000000   -0.0000000000
 N    0.0073714472    6.8545397427   14.5902373103    0.0000140312   -0.0000737859   -0.0000573102
 N    2.2860946411    4.5722149281   14.5830049415   -0.0000773595   -0.0000998227    0.0006569159
 N   -0.0002956759    4.5933703407   16.9048292025    0.0000131312    0.0000139926    0.0000803789
 N    2.2478498886    6.8782896427   16.8290631698   -0.0001178888    0.0000598478    0.0000649785
 N    0.0000000000   11.4098233000   10.0000000000    0.0000000000   -0.0000000000   -0.0000000000
 N    2.2819646600    9.1278586400   10.0000000000   -0.0000000000   -0.0000000000   -0.0000000000
 N    0.0000000000    9.1278586400   12.2819646600    0.0000000000    0.0000000000   -0.0000000000
 N    2.2819646600   11.4098233000   12.2819646600    0.0000000000    0.0000000000   -0.0000000000
 N    0.0038290451   11.4191164988   14.5905450836   -0.0000177591    0.0000204952   -0.0000516566
 N    2.2807422225    9.1351736181   14.5977426888   -0.0000353315    0.0000093509    0.0000638637
 N    0.0003827814    9.1431858509   16.9067050487   -0.0000374418    0.0000065054    0.0000255135
 N    2.2871328976   11.4251047139   16.9062589674   -0.0000443133   -0.0000032920    0.0000736938
 N    4.5639293200    2.2819646600   10.0000000000   -0.0000000000   -0.0000000000   -0.0000000000
 N    6.8458939800    0.0000000000   10.0000000000    0.0000000000   -0.0000000000   -0.0000000000
 N    4.5639293200    0.0000000000   12.2819646600   -0.0000000000    0.0000000000   -0.0000000000
 N    6.8458939800    2.2819646600   12.2819646600    0.0000000000   -0.0000000000   -0.0000000000
 N    4.5704487480    2.2867609621   14.5801497387   -0.0000323975   -0.0000882072    0.0008359923
 N    6.8511275251   -0.0025441370   14.5823331863   -0.0000321171    0.0000690018   -0.0000208670
 N    4.5839629410   -0.0117734946   16.8971498806   -0.0000016197    0.0000395770    0.0000001420
 N    6.8570796086    2.2773299518   16.8984428154    0.0000243505   -0.0000480079   -0.0000269253
 N    4.5639293200    6.8458939800   10.0000000000    0.0000000000    0.0000000000   -0.0000000000
 N    6.8458939800    4.5639293200   10.0000000000    0.0000000000   -0.0000000000   -0.0000000000
 N    4.5639293200    4.5639293200   12.2819646600    0.0000000000    0.0000000000   -0.0000000000
 N    6.8458939800    6.8458939800   12.2819646600    0.0000000000    0.0000000000   -0.0000000000
 N    4.5623852991    6.8459631487   14.6191295090   -0.0000528458   -0.0000043068   -0.0000096450
 N    6.8469273147    4.5630543706   14.5976010646    0.0000273532   -0.0000932205    0.0000058112
 N    4.5782216955    4.5080188991   16.6955826734    0.0001306172   -0.0001616639   -0.0002485752
 N    6.8409002383    6.8434583408   16.9959595895   -0.0001297647   -0.0001418705    0.0004099810
 N    4.5639293200   11.4098233000   10.0000000000    0.0000000000   -0.0000000000   -0.0000000000
 N    6.8458939800    9.1278586400   10.0000000000    0.0000000000   -0.0000000000   -0.0000000000
 N    4.5639293200    9.1278586400   12.2819646600    0.0000000000   -0.0000000000   -0.0000000000
 N    6.8458939800   11.4098233000   12.2819646600    0.0000000000   -0.0000000000   -0.0000000000
 N    4.5646510574   11.4000790964   14.5911340452    0.0000003217   -0.0000432733    0.0001052727
 N    6.8447321246    9.1257157786   14.6038477368    0.0000063330    0.0000341425    0.0000564065
 N    4.5522412220    9.1308629816   16.8885345582   -0.0000977816   -0.0000869442    0.0001037009
 N    6.8503870782   11.4060794965   16.9115595594   -0.0000234772   -0.0000475300    0.0000198798
 N    9.1278586400    2.2819646600   10.0000000000   -0.0000000000   -0.0000000000   -0.0000000000
 N   11.4098233000    0.0000000000   10.0000000000   -0.0000000000    0.0000000000   -0.0000000000
 N    9.1278586400    0.0000000000   12.2819646600    0.0000000000   -0.0000000000   -0.0000000000
 N   11.4098233000    2.2819646600   12.2819646600    0.0000000000    0.0000000000   -0.0000000000
 N    9.1365362754    2.2835977013   14.5875698953    0.0001727949    0.0000020369   -0.0000110097
 N   11.4172930393    0.0057766411   14.5887036804   -0.0000143256    0.0000111973   -0.0000360300
 N    9.1398063619    0.0052082619   16.9105665838    0.0000360524   -0.0000299224    0.0000174658
 N   11.4254952765    2.2901544680   16.9058148035    0.0000420107   -0.0000194827    0.0000600001
 N    9.1278586400    6.8458939800   10.0000000000   -0.0000000000    0.0000000000   -0.0000000000
 N   11.4098233000    4.5639293200   10.0000000000   -0.0000000000   -0.0000000000   -0.0000000000
 N    9.1278586400    4.5639293200   12.2819646600   -0.0000000000    0.0000000000   -0.0000000000
 N   11.4098233000    6.8458939800   12.2819646600   -0.0000000000   -0.0000000000   -0.0000000000
 N    9.1160826170    6.8466120001   14.6063254301    0.0000633178   -0.0000638820    0.0000429206
 N   11.4111449968    4.5690823704   14.5847537330    0.0000077455   -0.0000098398    0.0000988210
 N    9.1369183598    4.5596509287   16.9060722753    0.0000441518   -0.0000503041   -0.0000082210
 N   11.4053677674    6.8542385765   16.9137267956   -0.0000050182   -0.0000359790    0.0000812582
 N    9.1278586400   11.4098233000   10.0000000000   -0.0000000000    0.0000000000   -0.0000000000
 N   11.4098233000    9.1278586400   10.0000000000    0.0000000000   -0.0000000000   -0.0000000000
 N    9.1278586400    9.1278586400   12.2819646600   -0.0000000000   -0.0000000000   -0.0000000000
 N   11.4098233000   11.4098233000   12.2819646600    0.0000000000    0.0000000000   -0.0000000000
 N    9.1307263497   11.4111987750   14.5869863703    0.0000083041    0.0000141121    0.0000726759
 N   11.4090458597    9.1326697687   14.5859977665   -0.0000397333   -0.0000049137    0.0000134799
 N    9.1327113077    9.1381809164   16.9070239992   -0.0000299365   -0.0000386283    0.0000245920
 N   11.4154529472   11.4196848924   16.9113321627    0.0000067860   -0.0000092697   -0.0000085241
 S    4.3983230179    5.9058016499   19.3612169856   -0.0015842590   -0.0021809630   -0.0007057340
Li    6.5124776488    6.6811489030   18.9857831291   -0.0013826976   -0.0010855899    0.0002371996
Li    2.9396751197    3.0624653595   19.0295429486   -0.0005689887   -0.0000731824    0.0000753584
 PRIMCOORD   4
  147  1
Zr    0.0000000000    0.0000000000   10.0000000000    0.0000000000    0.0000000000    0.0000000000
Zr    2.2819646600    0.0000000000   12.2819646600    0.0000000000    0.0000000000    0.0000000000
Zr    0.0000000000    2.2819646600   12.2819646600    0.0000000000    0.0000000000    0.0000000000
Zr    2.2819646600    2.2819646600   10.0000000000   -0.0000000000   -0.0000000000    0.0000000000
Zr    0.0098284510    0.0095015181   14.5607244515   -0.0000612818   -0.0000462105    0.0000020687
Zr    2.2915929729   -0.0052726096   16.7906613616   -0.0001612933   -0.0002451467    0.0001956487
Zr   -0.0050767797    2.2967094749   16.7868763280   -0.0003014431   -0.0001409537    0.0002571451
Zr    2.2854722707    2.2855554105   14.6222413740    0.0000092432    0.0000509221    0.0001488124
Zr    0.0000000000    4.5639293200   10.0000000000    0.0000000000   -0.0000000000    0.0000000000
Zr    2.2819646600    4.5639293200   12.2819646600   -0.0000000000   -0.0000000000    0.0000000000
Zr    0.0000000000    6.8458939800   12.2819646600   -0.0000000000   -0.0000000000    0.0000000000
Zr    2.2819646600    6.8458939800   10.0000000000    0.0000000000    0.0000000000    0.0000000000
Zr    0.0011600073    4.5661516835   14.5553889216    0.0001252315   -0.0000742584    0.0000228582
Zr    2.2954977158    4.6131902598   16.7664501315    0.0001903815   -0.0003201731    0.0003022960
Zr   -0.0124268412    6.8543537283   16.7483568883    0.0000539040   -0.0001129585    0.0001311839
Zr    2.3090731015    6.8516890438   14.5473270765    0.0000396912   -0.0002319585    0.0000631929
Zr    0.0000000000    9.1278586400   10.0000000000    0.0000000000   -0.0000000000    0.0000000000
Zr    2.2819646600    9.1278586400   12.2819646600    0.0000000000    0.0000000000    0.0000000000
Zr    0.0000000000   11.4098233000   12.2819646600    0.0000000000    0.0000000000    0.0000000000
Zr    2.2819646600   11.4098233000   10.0000000000   -0.0000000000   -0.0000000000    0.0000000000
Zr   -0.0024035772    9.1342614349   14.5571535103   -0.0000180273   -0.0000339470   -0.0000286459
Zr    2.2794961011    9.1374659693   16.7589749115   -0.0000828839   -0.0000756444    0.0000921016
Zr    0.0019424971   11.4192970495   16.7553565795   -0.0000713493   -0.0000375867   -0.0000667898
Zr    2.2841589362   11.4212737606   14.5600984474   -0.0001119605    0.0000103369   -0.0000171526
Zr    4.5639293200    0.0000000000   10.0000000000   -0.0000000000    0.0000000000    0.0000000000
Zr    6.8458939800    0.0000000000   12.2819646600   -0.0000000000    0.0000000000    0.0000000000
Zr    4.5639293200    2.2819646600   12.2819646600   -0.0000000000   -0.0000000000    0.0000000000
Zr    6.8458939800    2.2819646600   10.0000000000    0.0000000000   -0.0000000000    0.0000000000
Zr    4.5635678047   -0.0019901734   14.5489486591   -0.0000828774    0.0001336215    0.0000556586
Zr    6.8555263496   -0.0048409995   16.7487976357   -0.0000835085    0.0000624724    0.0001152498
Zr    4.6054705845    2.2713392912   16.7568645127   -0.0001932384    0.0002781232    0.0002750619
Zr    6.8504314794    2.2820098657   14.5556398897   -0.0001339292    0.0000557377    0.0000414516
Zr    4.5639293200    4.5639293200   10.0000000000   -0.0000000000    0.0000000000    0.0000000000
Zr    6.8458939800    4.5639293200   12.2819646600    0.0000000000    0.0000000000    0.0000000000
Zr    4.5639293200    6.8458939800   12.2819646600    0.0000000000    0.0000000000   -0.0000000000
Zr    6.8458939800    6.8458939800   10.0000000000   -0.0000000000    0.0000000000    0.0000000000
Zr    4.5661928922    4.5864966362   14.5285052956   -0.0001297364   -0.0000232809    0.0002337461
Zr    6.8362175183    4.5450416483   16.7646627606   -0.0000605035    0.0000103389    0.0000588449
Zr    4.5346763905    6.8343670951   17.0333805674    0.0000784875   -0.0000054659    0.0005822791
Zr    6.8273292219    6.8500418322   14.5951762559   -0.0000008922   -0.0000635687   -0.0001447376
Zr    4.5639293200    9.1278586400   10.0000000000   -0.0000000000   -0.0000000000    0.0000000000
Zr    6.8458939800    9.1278586400   12.2819646600   -0.0000000000   -0.0000000000    0.0000000000
Zr    4.5639293200   11.4098233000   12.2819646600   -0.0000000000    0.0000000000    0.0000000000
Zr    6.8458939800   11.4098233000   10.0000000000    0.0000000000   -0.0000000000    0.0000000000
Zr    4.5672472403    9.1062002957   14.5551435698   -0.0000444773   -0.0001041033   -0.0001045400
Zr    6.8450768139    9.1564646682   16.7634657824    0.0000627827   -0.0000055883   -0.0000635446
Zr    4.5677253446   11.4229956966   16.7513998735   -0.0000422169    0.0000663581    0.0000752495
Zr    6.8481768035   11.4087844700   14.5596641034    0.0000321410    0.0000532992   -0.0000210991
Zr    9.1278586400    0.0000000000   10.0000000000   -0.0000000000    0.0000000000    0.0000000000
Zr   11.4098233000    0.0000000000   12.2819646600    0.0000000000    0.0000000000    0.0000000000
Zr    9.1278586400    2.2819646600   12.2819646600    0.0000000000    0.0000000000    0.0000000000
Zr   11.4098233000    2.2819646600   10.0000000000   -0.0000000000   -0.0000000000    0.0000000000
Zr    9.1318348910    0.0015521168   14.5584176554    0.0000462795    0.0000184455   -0.0000130383
Zr   11.4165730792    0.0044621550   16.7536787082    0.0000081665   -0.0000695506   -0.0000106849
Zr    9.1348167102    2.2875278295   16.7519955496   -0.0000075043    0.0000199574    0.0001310397
Zr   11.4190803548    2.2862810097   14.5606242625    0.0000263765   -0.0000648661   -0.0000328855
Zr    9.1278586400    4.5639293200   10.0000000000   -0.0000000000   -0.0000000000    0.0000000000
Zr   11.4098233000    4.5639293200   12.2819646600    0.0000000000    0.0000000000    0.0000000000
Zr    9.1278586400    6.8458939800   12.2819646600   -0.0000000000    0.0000000000    0.0000000000
Zr   11.4098233000    6.8458939800   10.0000000000    0.0000000000    0.0000000000    0.0000000000
Zr    9.1307380892    4.5700528225   14.5605526529    0.0000094325   -0.0000189681   -0.0000464037
Zr   11.4147154693    4.5695350373   16.7518315347    0.0000293202   -0.0000286742    0.0001345156
Zr    9.1626385322    6.8475362225   16.7676321020    0.0001114363   -0.0000057477   -0.0000876100
Zr   11.4055072393    6.8511328984   14.5568824663    0.0000636783   -0.0000146979   -0.0000502403
Zr    9.1278586400    9.1278586400   10.0000000000   -0.0000000000    0.0000000000    0.0000000000
Zr   11.4098233000    9.1278586400   12.2819646600    0.0000000000    0.0000000000    0.0000000000
Zr    9.1278586400   11.4098233000   12.2819646600   -0.0000000000   -0.0000000000    0.0000000000
Zr   11.4098233000   11.4098233000   10.0000000000   -0.0000000000   -0.0000000000    0.0000000000
Zr    9.1294934494    9.1272892523   14.5625337629    0.0000804727   -0.0000328694   -0.0000429220
Zr   11.4127252633    9.1401427324   16.7515703327    0.0000613074   -0.0000492779   -0.0000395925
Zr    9.1361397366   11.4145453190   16.7523736369    0.0000283220   -0.0000082733   -0.0000229563
Zr   11.4131018850   11.4130361011   14.5586319301    0.0000611587   -0.0000060309   -0.0000155853
 N    0.0000000000    2.2819646600   10.0000000000    0.0000000000    0.0000000000   -0.0000000000
 N    2.2819646600    0.0000000000   10.0000000000   -0.0000000000    0.0000000000   -0.0000000000
 N    0.0000000000    0.0000000000   12.2819646600    0.0000000000    0.0000000000   -0.0000000000
 N    2.2819646600    2.2819646600   12.2819646600   -0.0000000000   -0.0000000000   -0.0000000000
 N    0.0050077730    2.2884440192   14.6053942238    0.0000255702    0.0000121935   -0.0000160760
 N    2.2872232671    0.0057371142   14.6046158147    0.0000186402   -0.0000477290    0.0000416436
 N   -0.0007894927    0.0038473183   16.9046618288   -0.0001306125   -0.0001880285   -0.0002492846
 N    2.3022041137    2.3092399151   17.0014022259   -0.0002789279   -0.0003141119   -0.0015713639
 N    0.0000000000    6.8458939800   10.0000000000    0.0000000000    0.0000000000   -0.0000000000
 N    2.2819646600    4.5639293200   10.0000000000   -0.0000000000   -0.0000000000   -0.0000000000
 N    0.0000000000    4.5639293200   12.2819646600    0.0000000000   -0.0000000000   -0.0000000000
 N    2.2819646600    6.8458939800   12.2819646600    0.0000000000    0.0000000000   -0.0000000000
 N    0.0119690399    6.8520360596   14.5920453505    0.0000828167   -0.0000253122   -0.0000742789
 N    2.2861986739    4.5698395847   14.5966646375    0.0000479369    0.0000185080    0.0002614359
 N   -0.0001539029    4.5894821090   16.9009741501   -0.0000011226   -0.0000255895   -0.0000643274
 N    2.2566793545    6.8691777323   16.8330634818    0.0000675477   -0.0001026209    0.0000891103
 N    0.0000000000   11.4098233000   10.0000000000    0.0000000000   -0.0000000000   -0.0000000000
 N    2.2819646600    9.1278586400   10.0000000000   -0.0000000000   -0.0000000000   -0.0000000000
 N    0.0000000000    9.1278586400   12.2819646600    0.0000000000    0.0000000000   -0.0000000000
 N    2.2819646600   11.4098233000   12.2819646600   -0.0000000000    0.0000000000   -0.0000000000
 N    0.0036739350   11.4164135007   14.5889663247    0.0000068466   -0.0001262608    0.0000375520
 N    2.2826232404    9.1323974612   14.6001214098    0.0000702456   -0.0000826944   -0.0000516887
 N    0.0030127842    9.1383879172   16.9057580133    0.0000139692   -0.0001350125   -0.0000256059
 N    2.2871567699   11.4181392863   16.9075445271   -0.0000112848   -0.0001977808   -0.0000088398
 N    4.5639293200    2.2819646600   10.0000000000   -0.0000000000   -0.0000000000   -0.0000000000
 N    6.8458939800    0.0000000000   10.0000000000    0.0000000000   -0.0000000000   -0.0000000000
 N    4.5639293200    0.0000000000   12.2819646600   -0.0000000000    0.0000000000   -0.0000000000
 N    6.8458939800    2.2819646600   12.2819646600    0.0000000000    0.0000000000   -0.0000000000
 N    4.5670849307    2.2901253910   14.5923573502   -0.0000500795    0.0000978602    0.0001194585
 N    6.8498736242    0.0001280389   14.5815077635   -0.0000680258   -0.0000166956   -0.0000073154
 N    4.5833679732   -0.0095400126   16.8954910206   -0.0000386227   -0.0000433228   -0.0000867152
 N    6.8555530850    2.2832057821   16.9027420104   -0.0000513234    0.0001092879    0.0000185023
 N    4.5639293200    6.8458939800   10.0000000000    0.0000000000    0.0000000000   -0.0000000000
 N    6.8458939800    4.5639293200   10.0000000000    0.0000000000    0.0000000000   -0.0000000000
 N    4.5639293200    4.5639293200   12.2819646600    0.0000000000    0.0000000000   -0.0000000000
 N    6.8458939800    6.8458939800   12.2819646600   -0.0000000000   -0.0000000000   -0.0000000000
 N    4.5645940934    6.8482902977   14.6209505846    0.0000272811    0.0000344858   -0.0000114810
 N    6.8475171662    4.5652245957   14.5976647494   -0.0000056071    0.0001027747   -0.0000699286
 N    4.5751379929    4.5289456923   16.7399529478   -0.0000718924    0.0001693593    0.0003709873
 N    6.8543640980    6.8531522592   16.9613197882    0.0001738280    0.0001010015   -0.0003648976
 N    4.5639293200   11.4098233000   10.0000000000   -0.0000000000   -0.0000000000   -0.0000000000
 N    6.8458939800    9.1278586400   10.0000000000    0.0000000000   -0.0000000000   -0.0000000000
 N    4.5639293200    9.1278586400   12.2819646600    0.0000000000   -0.0000000000   -0.0000000000
 N    6.8458939800   11.4098233000   12.2819646600    0.0000000000   -0.0000000000   -0.0000000000
 N    4.5647076541   11.3998258423   14.5929862917    0.0000419607   -0.0001327900    0.0000250159
 N    6.8457130629    9.1274938287   14.5995685230   -0.0000317712   -0.0000553579   -0.0000729649
 N    4.5576647486    9.1374968745   16.8642390567    0.0000431833    0.0000112238   -0.0002649805
 N    6.8500581370   11.4100288132   16.9120707606   -0.0000260150   -0.0000475743   -0.0000266745
 N    9.1278586400    2.2819646600   10.0000000000   -0.0000000000   -0.0000000000   -0.0000000000
 N   11.4098233000    0.0000000000   10.0000000000   -0.0000000000    0.0000000000   -0.0000000000
 N    9.1278586400    0.0000000000   12.2819646600    0.0000000000   -0.0000000000   -0.0000000000
 N   11.4098233000    2.2819646600   12.2819646600    0.0000000000    0.0000000000   -0.0000000000
 N    9.1338771912    2.2837600242   14.5872178545   -0.0000696337    0.0000530997   -0.0000482574
 N   11.4151741154    0.0046310595   14.5867812817   -0.0000650238   -0.0000477169    0.0000418447
 N    9.1376143141    0.0051285376   16.9084849267   -0.0000621131   -0.0000381675   -0.0000828697
 N   11.4188597933    2.2869294483   16.9074963077   -0.0001145123   -0.0000044615   -0.0000207947
 N    9.1278586400    6.8458939800   10.0000000000   -0.0000000000    0.0000000000   -0.0000000000
 N   11.4098233000    4.5639293200   10.0000000000   -0.0000000000   -0.0000000000   -0.0000000000
 N    9.1278586400    4.5639293200   12.2819646600   -0.0000000000    0.0000000000   -0.0000000000
 N   11.4098233000    6.8458939800   12.2819646600   -0.0000000000   -0.0000000000   -0.0000000000
 N    9.1166684079    6.8475937492   14.6032896613   -0.0000555881    0.0000414239   -0.0000664635
 N   11.4123402419    4.5680282563   14.5833287364   -0.0000437425    0.0001028013   -0.0001111521
 N    9.1370952751    4.5624869324   16.9069289511   -0.0000285970    0.0000841590   -0.0000026797
 N   11.4105951735    6.8531981915   16.9151492002    0.0000483628   -0.0000146773    0.0000289335
 N    9.1278586400   11.4098233000   10.0000000000   -0.0000000000    0.0000000000   -0.0000000000
 N   11.4098233000    9.1278586400   10.0000000000    0.0000000000   -0.0000000000   -0.0000000000
 N    9.1278586400    9.1278586400   12.2819646600   -0.0000000000    0.0000000000   -0.0000000000
 N   11.4098233000   11.4098233000   12.2819646600    0.0000000000    0.0000000000   -0.0000000000
 N    9.1308163140   11.4127992461   14.5853290692   -0.0000846470   -0.0000791849    0.0000389853
 N   11.4112480934    9.1321249679   14.5834910284    0.0000002358   -0.0000934126   -0.0000278843
 N    9.1352377039    9.1391776783   16.9078594300    0.0000104576   -0.0000533004    0.0000188021
 N   11.4147601271   11.4185967391   16.9108127347   -0.0000346315   -0.0001133751   -0.0000307877
 S    4.5175600301    6.2478071890   19.4285230700    0.0013155971    0.0036090793    0.0005185639
Li    6.6349890547    6.7560347984   18.9608810207    0.0012784626    0.0006756119   -0.0003132717
Li    2.5535382765    2.5812699058   18.9261687188   -0.0062883178   -0.0075036460   -0.0015510558
 PRIMCOORD   5
  147  1
Zr    0.0000000000    0.0000000000   10.0000000000    0.0000000000    0.0000000000    0.0000000000
Zr    2.2819646600    0.0000000000   12.2819646600    0.0000000000    0.0000000000    0.0000000000
Zr    0.0000000000    2.2819646600   12.2819646600    0.0000000000    0.0000000000    0.0000000000
Zr    2.2819646600    2.2819646600   10.0000000000   -0.0000000000   -0.0000000000    0.0000000000
Zr    0.0077937900    0.0035612600   14.5588125100   -0.0001111147   -0.0001123250   -0.0001829052
Zr    2.2839283300   -0.0309361600   16.7907871200   -0.0000239807    0.0000286303   -0.0006475539
Zr   -0.0265243400    2.2809830700   16.7900113500   -0.0000195079   -0.0000290021   -0.0006930405
Zr    2.2828540300    2.2781532000   14.6209024900   -0.0000247427    0.0000720762   -0.0008055377
Zr    0.0000000000    4.5639293200   10.0000000000    0.0000000000   -0.0000000000    0.0000000000
Zr    2.2819646600    4.5639293200   12.2819646600    0.0000000000   -0.0000000000    0.0000000000
Zr    0.0000000000    6.8458939800   12.2819646600   -0.0000000000   -0.0000000000    0.0000000000
Zr    2.2819646600    6.8458939800   10.0000000000    0.0000000000    0.0000000000    0.0000000000
Zr    0.0023414900    4.5599243500   14.5564768300   -0.0000792806    0.0000909835   -0.0000074040
Zr    2.2840426900    4.5920170600   16.7751137600    0.0001910635   -0.0002871465   -0.0001966507
Zr   -0.0110406300    6.8465537000   16.7496321100   -0.0002681177   -0.0002813781    0.0000233130
Zr    2.3131615900    6.8451576900   14.5519818100    0.0000765148   -0.0000476921    0.0000043271
Zr    0.0000000000    9.1278586400   10.0000000000    0.0000000000    0.0000000000    0.0000000000
Zr    2.2819646600    9.1278586400   12.2819646600    0.0000000000    0.0000000000    0.0000000000
Zr    0.0000000000   11.4098233000   12.2819646600    0.0000000000    0.0000000000    0.0000000000
Zr    2.2819646600   11.4098233000   10.0000000000   -0.0000000000   -0.0000000000    0.0000000000
Zr    0.0003831800    9.1272688200   14.5567735500   -0.0000132920    0.0000532154    0.0001609473
Zr    2.2817057900    9.1317655700   16.7616385300   -0.0000558932    0.0000922681    0.0000015836
Zr   -0.0003031100   11.4073675900   16.7543025200   -0.0002768223    0.0002928797   -0.0000237377
Zr    2.2835154900   11.4155159600   14.5597262700   -0.0000926369    0.0001139372   -0.0001506549
Zr    4.5639293200    0.0000000000   10.0000000000   -0.0000000000    0.0000000000    0.0000000000
Zr    6.8458939800    0.0000000000   12.2819646600   -0.0000000000    0.0000000000    0.0000000000
Zr    4.5639293200    2.2819646600   12.2819646600   -0.0000000000   -0.0000000000    0.0000000000
Zr    6.8458939800    2.2819646600   10.0000000000    0.0000000000   -0.0000000000    0.0000000000
Zr    4.5614191100    0.0008632600   14.5520014200   -0.0000009178    0.0000352720    0.0000039351
Zr    6.8527636400   -0.0070933400   16.7492558200   -0.0003758664    0.0000177397    0.0000333225
Zr    4.5956643400    2.2680894300   16.7728213100   -0.0003786835    0.0000114751   -0.0001728465
Zr    6.8455717700    2.2799549600   14.5588528200   -0.0001188550    0.0000511329    0.0000270756
Zr    4.5639293200    4.5639293200   10.0000000000   -0.0000000000    0.0000000000    0.0000000000
Zr    6.8458939800    4.5639293200   12.2819646600   -0.0000000000    0.0000000000    0.0000000000
Zr    4.5639293200    6.8458939800   12.2819646600    0.0000000000   -0.0000000000   -0.0000000000
Zr    6.8458939800    6.8458939800   10.0000000000   -0.0000000000    0.0000000000    0.0000000000
Zr    4.5648101300    4.5884978400   14.5499266200    0.0000070870    0.0001117318   -0.0011695329
Zr    6.8478051200    4.5389156800   16.7559023600   -0.0007939009   -0.0000811934    0.0004053688
Zr    4.5449443000    6.8509049200   17.1025861700   -0.0002087492   -0.0005770667   -0.0003596073
Zr    6.8263731100    6.8463446000   14.5889830700   -0.0002459074   -0.0000322407    0.0000566411
Zr    4.5639293200    9.1278586400   10.0000000000    0.0000000000   -0.0000000000    0.0000000000
Zr    6.8458939800    9.1278586400   12.2819646600   -0.0000000000   -0.0000000000    0.0000000000
Zr    4.5639293200   11.4098233000   12.2819646600   -0.0000000000    0.0000000000    0.0000000000
Zr    6.8458939800   11.4098233000   10.0000000000    0.0000000000   -0.0000000000    0.0000000000
Zr    4.5671612100    9.0985199700   14.5477509200   -0.0001759679   -0.0000938241    0.0001991346
Zr    6.8464949200    9.1548007600   16.7584580500   -0.0003325220    0.0002978840   -0.0000101086
Zr    4.5695358700   11.4191984900   16.7509369100   -0.0001956324    0.0003880717   -0.0000282073
Zr    6.8489068200   11.4073373500   14.5589429400   -0.0000933593    0.0001355030   -0.0000593466
Zr    9.1278586400    0.0000000000   10.0000000000   -0.0000000000    0.0000000000    0.0000000000
Zr   11.4098233000    0.0000000000   12.2819646600    0.0000000000    0.0000000000    0.0000000000
Zr    9.1278586400    2.2819646600   12.2819646600   -0.0000000000    0.0000000000    0.0000000000
Zr   11.4098233000    2.2819646600   10.0000000000   -0.0000000000    0.0000000000    0.0000000000
Zr    9.1294311300   -0.0015058000   14.5575790600   -0.0000486057    0.0000345663    0.0001228973
Zr   11.4118156500   -0.0062583700   16.7529274000    0.0001840206   -0.0001411835   -0.0000914297
Zr    9.1343670500    2.2814216000   16.7516081400    0.0001316184    0.0000295439    0.0000277207
Zr   11.4173531900    2.2814184500   14.5600849800    0.0000350741   -0.0000335062   -0.0002514447
Zr    9.1278586400    4.5639293200   10.0000000000   -0.0000000000   -0.0000000000    0.0000000000
Zr   11.4098233000    4.5639293200   12.2819646600    0.0000000000   -0.0000000000    0.0000000000
Zr    9.1278586400    6.8458939800   12.2819646600   -0.0000000000   -0.0000000000    0.0000000000
Zr   11.4098233000    6.8458939800   10.0000000000    0.0000000000    0.0000000000    0.0000000000
Zr    9.1316446400    4.5662114200   14.5588948600   -0.0000812699   -0.0001231076    0.0003444441
Zr   11.4134538000    4.5627792200   16.7527463300    0.0001462730   -0.0001370741   -0.0000726541
Zr    9.1738411100    6.8449319000   16.7608145200    0.0001154209   -0.0000845619    0.0000344341
Zr   11.4097390300    6.8467247200   14.5562395300    0.0000440640   -0.0000029444   -0.0000575021
Zr    9.1278586400    9.1278586400   10.0000000000   -0.0000000000    0.0000000000    0.0000000000
Zr   11.4098233000    9.1278586400   12.2819646600    0.0000000000   -0.0000000000    0.0000000000
Zr    9.1278586400   11.4098233000   12.2819646600   -0.0000000000   -0.0000000000    0.0000000000
Zr   11.4098233000   11.4098233000   10.0000000000   -0.0000000000   -0.0000000000    0.0000000000
Zr    9.1307669800    9.1241556000   14.5616498600   -0.0000144585    0.0001525484    0.0000778630
Zr   11.4144125700    9.1318994700   16.7500200400    0.0001327033    0.0002974432    0.0000638936
Zr    9.1337923200   11.4066271600   16.7512898100    0.0002075711    0.0002754379    0.0000309978
Zr   11.4121747900   11.4074264700   14.5575867800   -0.0000067918    0.0000596166   -0.0000536331
 N    0.0000000000    2.2819646600   10.0000000000    0.0000000000    0.0000000000   -0.0000000000
 N    2.2819646600    0.0000000000   10.0000000000   -0.0000000000    0.0000000000   -0.0000000000
 N    0.0000000000    0.0000000000   12.2819646600    0.0000000000    0.0000000000   -0.0000000000
 N    2.2819646600    2.2819646600   12.2819646600   -0.0000000000   -0.0000000000   -0.0000000000
 N    0.0040769300    2.2818508400   14.6051294900    0.0001713418   -0.0000229962   -0.0005501946
 N    2.2851286300    0.0007953600   14.6027258900   -0.0000954119    0.0002138933   -0.0005258692
 N   -0.0114965300   -0.0144045700   16.8933184700   -0.0000525103   -0.0000350090   -0.0002634230
 N    2.2931447500    2.2930009300   16.9497827200   -0.0001797110    0.0000450226    0.0000741616
 N    0.0000000000    6.8458939800   10.0000000000   -0.0000000000    0.0000000000   -0.0000000000
 N    2.2819646600    4.5639293200   10.0000000000   -0.0000000000   -0.0000000000   -0.0000000000
 N    0.0000000000    4.5639293200   12.2819646600    0.0000000000   -0.0000000000   -0.0000000000
 N    2.2819646600    6.8458939800   12.2819646600    0.0000000000   -0.0000000000   -0.0000000000
 N    0.0156460700    6.8454259700   14.5926745900    0.0000589232    0.0001871004    0.0001295353
 N    2.2854543500    4.5645027800   14.6057820300    0.0000313139    0.0000949131    0.0002863544
 N   -0.0025824200    4.5768956900   16.9005230600   -0.0000900878    0.0001611769   -0.0003825570
 N    2.2677202000    6.8509294300   16.8460988700    0.0000953677    0.0000623410   -0.0001082509
 N    0.0000000000   11.4098233000   10.0000000000    0.0000000000   -0.0000000000   -0.0000000000
 N    2.2819646600    9.1278586400   10.0000000000   -0.0000000000   -0.0000000000   -0.0000000000
 N    0.0000000000    9.1278586400   12.2819646600    0.0000000000    0.0000000000   -0.0000000000
 N    2.2819646600   11.4098233000   12.2819646600   -0.0000000000    0.0000000000   -0.0000000000
 N    0.0028739900   11.4096638500   14.5873860000   -0.0001059002   -0.0001644435    0.0000473039
 N    2.2858330700    9.1270267600   14.6019638600   -0.0000984300   -0.0000982897    0.0001377597
 N    0.0060648300    9.1259621600   16.9051772900   -0.0001358000    0.0000522573   -0.0000126581
 N    2.2874629600   11.4033493100   16.9086577200   -0.0001773082    0.0000471615   -0.0000032437
 N    4.5639293200    2.2819646600   10.0000000000   -0.0000000000   -0.0000000000   -0.0000000000
 N    6.8458939800    0.0000000000   10.0000000000    0.0000000000    0.0000000000   -0.0000000000
 N    4.5639293200    0.0000000000   12.2819646600   -0.0000000000    0.0000000000   -0.0000000000
 N    6.8458939800    2.2819646600   12.2819646600    0.0000000000    0.0000000000   -0.0000000000
 N    4.5638057000    2.2910231200   14.6041055300   -0.0000800487    0.0000850997    0.0001358310
 N    6.8472521200   -0.0023212300   14.5810443400    0.0001440021    0.0002126266    0.0000829046
 N    4.5795108600   -0.0131479000   16.8970799800    0.0000102899   -0.0000205473   -0.0002372530
 N    6.8519545400    2.2804256500   16.9090238700   -0.0001478659    0.0001415251   -0.0000400316
 N    4.5639293200    6.8458939800   10.0000000000   -0.0000000000    0.0000000000   -0.0000000000
 N    6.8458939800    4.5639293200   10.0000000000    0.0000000000    0.0000000000   -0.0000000000
 N    4.5639293200    4.5639293200   12.2819646600   -0.0000000000    0.0000000000   -0.0000000000
 N    6.8458939800    6.8458939800   12.2819646600   -0.0000000000   -0.0000000000   -0.0000000000
 N    4.5665581700    6.8459490900   14.6209961300   -0.0000656103    0.0001226258    0.0002272596
 N    6.8475762600    4.5644196600   14.5931822800    0.0000497811    0.0000775558    0.0006911000
 N    4.5705713100    4.5543474600   16.8151542500   -0.0000254583   -0.0004916254   -0.0003045699
 N    6.8611464300    6.8464608100   16.9293489700    0.0000691997   -0.0000376252    0.0003000588
 N    4.5639293200   11.4098233000   10.0000000000   -0.0000000000   -0.0000000000   -0.0000000000
 N    6.8458939800    9.1278586400   10.0000000000    0.0000000000   -0.0000000000   -0.0000000000
 N    4.5639293200    9.1278586400   12.2819646600    0.0000000000   -0.0000000000   -0.0000000000
 N    6.8458939800   11.4098233000   12.2819646600    0.0000000000   -0.0000000000   -0.0000000000
 N    4.5654766200   11.3966937400   14.5940889900   -0.0000892939   -0.0000367099    0.0001662451
 N    6.8460547600    9.1253251900   14.5956765600   -0.0000884784   -0.0000700939    0.0000877627
 N    4.5621088700    9.1444181300   16.8221260200   -0.0001600788    0.0002455633   -0.0001214108
 N    6.8489287700   11.4056950300   16.9115727600   -0.0001295794    0.0001969237   -0.0001158239
 N    9.1278586400    2.2819646600   10.0000000000   -0.0000000000   -0.0000000000   -0.0000000000
 N   11.4098233000    0.0000000000   10.0000000000   -0.0000000000    0.0000000000   -0.0000000000
 N    9.1278586400    0.0000000000   12.2819646600    0.0000000000   -0.0000000000   -0.0000000000
 N   11.4098233000    2.2819646600   12.2819646600    0.0000000000    0.0000000000   -0.0000000000
 N    9.1316475200    2.2802039600   14.5859377300   -0.0001983061   -0.0000471872   -0.0000483215
 N   11.4129390600   -0.0009783500   14.5855053400   -0.0002160514   -0.0000488565    0.0000169937
 N    9.1338187300   -0.0022770600   16.9060044600   -0.0000577077   -0.0000286174   -0.0000711163
 N   11.4105853500    2.2774693700   16.9094368300   -0.0000403006   -0.0000455726   -0.0000245154
 N    9.1278586400    6.8458939800   10.0000000000   -0.0000000000    0.0000000000   -0.0000000000
 N   11.4098233000    4.5639293200   10.0000000000   -0.0000000000   -0.0000000000   -0.0000000000
 N    9.1278586400    4.5639293200   12.2819646600   -0.0000000000    0.0000000000   -0.0000000000
 N   11.4098233000    6.8458939800   12.2819646600    0.0000000000   -0.0000000000   -0.0000000000
 N    9.1178360200    6.8446802300   14.5993776100   -0.0001541135    0.0000250430    0.0000026411
 N   11.4135330800    4.5636091600   14.5820687600   -0.0002570424   -0.0000241326    0.0001134198
 N    9.1372390400    4.5576289900   16.9066696400   -0.0000464195    0.0000109116   -0.0001025198
 N   11.4155027200    6.8465637100   16.9158238100   -0.0000442824   -0.0000232770   -0.0000383911
 N    9.1278586400   11.4098233000   10.0000000000   -0.0000000000    0.0000000000   -0.0000000000
 N   11.4098233000    9.1278586400   10.0000000000    0.0000000000    0.0000000000   -0.0000000000
 N    9.1278586400    9.1278586400   12.2819646600   -0.0000000000   -0.0000000000   -0.0000000000
 N   11.4098233000   11.4098233000   12.2819646600    0.0000000000    0.0000000000   -0.0000000000
 N    9.1305419400   11.4096735100   14.5842298700   -0.0000151597    0.0000673699   -0.0000133691
 N   11.4133329500    9.1270220400   14.5807850400   -0.0000221743    0.0001021719    0.0000620297
 N    9.1374565200    9.1320968200   16.9093286400   -0.0000629358    0.0000614478   -0.0000507646
 N   11.4129251100   11.4097193500   16.9086510200   -0.0000447773    0.0000322811    0.0000696982
 S    4.6369633000    6.8166887500   19.5188457900   -0.0001202097   -0.0001033588    0.0007670981
Li    6.7669372100    6.8300724800   18.9292676100    0.0000451687    0.0003772380   -0.0001469305
Li    2.2775179800    2.2576090900   18.8695839300   -0.0001399840   -0.0002539662   -0.0001296656
