8
Lattice="20.726556 0.0 0.0 0.0 20.72708 0.0 0.0 0.0 27.005548" Properties=species:S:1:pos:R:3:spacegroup_kinds:I:1:forces:R:3 spacegroup="P 1" unit_cell=conventional occupancy="_JSON {\"0\": {\"S\": 1.0}, \"1\": {\"S\": 1.0}, \"2\": {\"S\": 1.0}, \"3\": {\"S\": 1.0}, \"4\": {\"S\": 1.0}, \"5\": {\"S\": 1.0}, \"6\": {\"S\": 1.0}, \"7\": {\"S\": 1.0}}" energy=-2622.868986053712 free_energy=-2622.868986053712 pbc="T T T"
S        7.98066463      10.25269427       8.95776220        0       0.00774545       0.00090709      -0.01611902
S        8.71105852       8.57380908       7.99938529        1      -0.00159023      -0.00055562       0.02406733
S       10.44323007       7.86933294       8.88086991        2       0.00084898      -0.00226283      -0.02507340
S       12.13859271       8.60555634       7.95639442        3      -0.00404203       0.00389805       0.01698445
S       12.84836906      10.31450512       8.87705812        4      -0.00824090      -0.00079653      -0.01555980
S       12.08713199      12.03463201       8.02034922        5       0.00155372       0.00070911       0.02417274
S       10.38712680      12.69706617       8.99142179        6      -0.00093511       0.00355815      -0.02510631
S        8.66058355      12.00223041       8.09269915        7       0.00466038      -0.00545742       0.01663375
