
     Program PWSCF v.7.5 starts on 23Feb2026 at 12:40:25 

     This program is part of the open-source Quantum ESPRESSO suite
     for quantum simulation of materials; please cite
         "P. Giannozzi et al., J. Phys.:Condens. Matter 21 395502 (2009);
         "P. Giannozzi et al., J. Phys.:Condens. Matter 29 465901 (2017);
         "P. Giannozzi et al., J. Chem. Phys. 152 154105 (2020);
          URL http://www.quantum-espresso.org", 
     in publications or presentations arising from this work. More details at
     http://www.quantum-espresso.org/quote

     Parallel version (MPI & OpenMP), running on      64 processor cores
     Number of MPI processes:                64
     Threads/MPI process:                     1

     MPI processes distributed on     1 nodes
     506322 MiB available memory on the printing compute node when the environment starts

     Waiting for input...
     Reading input from standard input

     Current dimensions of program PWSCF are:
     Max number of different atomic species (ntypx) = 10
     Max number of k-points (npk) =  40000
     Max angular momentum in pseudopotentials (lmaxx) =  4
     Message from routine setup:
     using ibrav=0 with symmetry is DISCOURAGED, use correct ibrav instead

     K-points division:     npool     =       4
     R & G space division:  proc/nbgrp/npool/nimage =      16
     Subspace diagonalization in iterative solution of the eigenvalue problem:
     one sub-group per band group will be used
     ELPA distributed-memory algorithm (size of sub-group:  4*  4 procs)


     Parallelization info
     --------------------
     sticks:   dense  smooth     PW     G-vecs:    dense   smooth      PW
     Min        1440     577    151               327564    82865   11185
     Max        1441     578    152               327575    82874   11190
     Sum       23053    9233   2425              5241153  1325863  178983

     Using Slab Decomposition



     bravais-lattice index     =            0
     lattice parameter (alat)  =      25.3777  a.u.
     unit-cell volume          =   32512.6665 (a.u.)^3
     number of atoms/cell      =          144
     number of atomic types    =            2
     number of electrons       =      1152.00
     number of Kohn-Sham states=          691
     kinetic-energy cutoff     =      45.0000  Ry
     charge density cutoff     =     450.0000  Ry
     scf convergence threshold =      5.0E-06
     mixing beta               =       0.2500
     number of iterations used =            8  plain     mixing
     energy convergence thresh.=      1.0E-04
     force convergence thresh. =      7.8E-04
     Exchange-correlation= SLA  PW   PBE  PBE
                           (   1   4   3   4   0   0   0)
     nstep                     =           50


     celldm(1)=  25.377692  celldm(2)=   0.000000  celldm(3)=   0.000000
     celldm(4)=   0.000000  celldm(5)=   0.000000  celldm(6)=   0.000000

     crystal axes: (cart. coord. in units of alat)
               a(1) = (   1.000000   0.000000   0.000000 )  
               a(2) = (   0.000000   1.000000   0.000000 )  
               a(3) = (   0.000000   0.000000   1.989281 )  

     reciprocal axes: (cart. coord. in units 2 pi/alat)
               b(1) = (  1.000000  0.000000  0.000000 )  
               b(2) = (  0.000000  1.000000  0.000000 )  
               b(3) = (  0.000000  0.000000  0.502694 )  


     PseudoPot. # 1 for Sc read from file:
     /scratch/anizami/QE_2/USPP/sc_pbe_v1.uspp.F.UPF
     MD5 check sum: db30a2753ba66ef00f23801d899b7e7f
     Pseudo is Ultrasoft + core correction, Zval = 11.0
     Generated by new atomic code, or converted to UPF format
     Using radial grid of  849 points,  6 beta functions with: 
                l(1) =   0
                l(2) =   0
                l(3) =   1
                l(4) =   1
                l(5) =   2
                l(6) =   2
     Q(r) pseudized with  6 coefficients,  rinner =    1.200   1.200   1.200
                                                       1.200   1.200

     PseudoPot. # 2 for N  read from file:
     /scratch/anizami/QE_2/USPP/n_pbe_v1.2.uspp.F.UPF
     MD5 check sum: 95339753478d7afb44899504a8723017
     Pseudo is Ultrasoft + core correction, Zval =  5.0
     Generated by new atomic code, or converted to UPF format
     Using radial grid of  729 points,  4 beta functions with: 
                l(1) =   0
                l(2) =   0
                l(3) =   1
                l(4) =   1
     Q(r) pseudized with  8 coefficients,  rinner =    0.900   0.900   0.900


     atomic species   valence    mass     pseudopotential
     Sc               11.00     1.00000     Sc( 1.00)
     N                 5.00    14.00674     N ( 1.00)

      2 Sym. Ops. (no inversion) found ( 1 have fractional translation)



   Cartesian axes

     site n.     atom                  positions (alat units)
         1        Sc     tau(   1) = (   0.0000000   0.0000000   0.7446406  )
         2        Sc     tau(   2) = (   0.1666667   0.0000000   0.9113073  )
         3        Sc     tau(   3) = (   0.0000000   0.1666667   0.9113073  )
         4        Sc     tau(   4) = (   0.1666667   0.1666667   0.7446406  )
         5        Sc     tau(   5) = (  -0.0000002  -0.0000071   1.0807520  )
         6        Sc     tau(   6) = (   0.1666658   0.0000017   1.2454848  )
         7        Sc     tau(   7) = (  -0.0000005   0.1666675   1.2454384  )
         8        Sc     tau(   8) = (   0.1666724   0.1666669   1.0807533  )
         9        Sc     tau(   9) = (   0.0000000   0.3333333   0.7446406  )
        10        Sc     tau(  10) = (   0.1666667   0.3333333   0.9113073  )
        11        Sc     tau(  11) = (   0.0000000   0.5000000   0.9113073  )
        12        Sc     tau(  12) = (   0.1666667   0.5000000   0.7446406  )
        13        Sc     tau(  13) = (   0.0000002   0.3333410   1.0807577  )
        14        Sc     tau(  14) = (   0.1666648   0.3333319   1.2454939  )
        15        Sc     tau(  15) = (  -0.0000003   0.4999982   1.2454940  )
        16        Sc     tau(  16) = (   0.1666658   0.5000003   1.0807580  )
        17        Sc     tau(  17) = (   0.0000000   0.6666667   0.7446406  )
        18        Sc     tau(  18) = (   0.1666667   0.6666667   0.9113073  )
        19        Sc     tau(  19) = (   0.0000000   0.8333333   0.9113073  )
        20        Sc     tau(  20) = (   0.1666667   0.8333333   0.7446406  )
        21        Sc     tau(  21) = (   0.0000002   0.6666660   1.0807573  )
        22        Sc     tau(  22) = (   0.1666668   0.6666666   1.2454894  )
        23        Sc     tau(  23) = (  -0.0000001   0.8333340   1.2454885  )
        24        Sc     tau(  24) = (   0.1666667   0.8333328   1.0807561  )
        25        Sc     tau(  25) = (   0.3333333   0.0000000   0.7446406  )
        26        Sc     tau(  26) = (   0.5000000   0.0000000   0.9113073  )
        27        Sc     tau(  27) = (   0.3333333   0.1666667   0.9113073  )
        28        Sc     tau(  28) = (   0.5000000   0.1666667   0.7446406  )
        29        Sc     tau(  29) = (   0.3333335  -0.0000010   1.0807560  )
        30        Sc     tau(  30) = (   0.5000008   0.0000017   1.2454861  )
        31        Sc     tau(  31) = (   0.3333333   0.1666668   1.2454868  )
        32        Sc     tau(  32) = (   0.4999942   0.1666666   1.0807533  )
        33        Sc     tau(  33) = (   0.3333333   0.3333333   0.7446406  )
        34        Sc     tau(  34) = (   0.5000000   0.3333333   0.9113073  )
        35        Sc     tau(  35) = (   0.3333333   0.5000000   0.9113073  )
        36        Sc     tau(  36) = (   0.5000000   0.5000000   0.7446406  )
        37        Sc     tau(  37) = (   0.3333332   0.3333344   1.0807569  )
        38        Sc     tau(  38) = (   0.5000021   0.3333318   1.2454921  )
        39        Sc     tau(  39) = (   0.3333333   0.4999996   1.2454875  )
        40        Sc     tau(  40) = (   0.5000009   0.5000005   1.0807578  )
        41        Sc     tau(  41) = (   0.3333333   0.6666667   0.7446406  )
        42        Sc     tau(  42) = (   0.5000000   0.6666667   0.9113073  )
        43        Sc     tau(  43) = (   0.3333333   0.8333333   0.9113073  )
        44        Sc     tau(  44) = (   0.5000000   0.8333333   0.7446406  )
        45        Sc     tau(  45) = (   0.3333334   0.6666666   1.0807562  )
        46        Sc     tau(  46) = (   0.4999997   0.6666665   1.2454894  )
        47        Sc     tau(  47) = (   0.3333334   0.8333338   1.2454878  )
        48        Sc     tau(  48) = (   0.5000000   0.8333330   1.0807563  )
        49        Sc     tau(  49) = (   0.6666667   0.0000000   0.7446406  )
        50        Sc     tau(  50) = (   0.8333333   0.0000000   0.9113073  )
        51        Sc     tau(  51) = (   0.6666667   0.1666667   0.9113073  )
        52        Sc     tau(  52) = (   0.8333333   0.1666667   0.7446406  )
        53        Sc     tau(  53) = (   0.6666666  -0.0000073   1.0807521  )
        54        Sc     tau(  54) = (   0.8333334   0.0000027   1.2454863  )
        55        Sc     tau(  55) = (   0.6666672   0.1666674   1.2454380  )
        56        Sc     tau(  56) = (   0.8333333   0.1666670   1.0807502  )
        57        Sc     tau(  57) = (   0.6666667   0.3333333   0.7446406  )
        58        Sc     tau(  58) = (   0.8333333   0.3333333   0.9113073  )
        59        Sc     tau(  59) = (   0.6666667   0.5000000   0.9113073  )
        60        Sc     tau(  60) = (   0.8333333   0.5000000   0.7446406  )
        61        Sc     tau(  61) = (   0.6666667   0.3333411   1.0807576  )
        62        Sc     tau(  62) = (   0.8333334   0.3333307   1.2455010  )
        63        Sc     tau(  63) = (   0.6666669   0.4999980   1.2454951  )
        64        Sc     tau(  64) = (   0.8333334   0.4999999   1.0807597  )
        65        Sc     tau(  65) = (   0.6666667   0.6666667   0.7446406  )
        66        Sc     tau(  66) = (   0.8333333   0.6666667   0.9113073  )
        67        Sc     tau(  67) = (   0.6666667   0.8333333   0.9113073  )
        68        Sc     tau(  68) = (   0.8333333   0.8333333   0.7446406  )
        69        Sc     tau(  69) = (   0.6666665   0.6666661   1.0807573  )
        70        Sc     tau(  70) = (   0.8333333   0.6666664   1.2454857  )
        71        Sc     tau(  71) = (   0.6666668   0.8333339   1.2454908  )
        72        Sc     tau(  72) = (   0.8333333   0.8333331   1.0807564  )
        73        N      tau(  73) = (   0.0000000   0.1666667   0.7446406  )
        74        N      tau(  74) = (   0.1666667   0.0000000   0.7446406  )
        75        N      tau(  75) = (   0.0000000   0.0000000   0.9113073  )
        76        N      tau(  76) = (   0.1666667   0.1666667   0.9113073  )
        77        N      tau(  77) = (   0.0000003   0.1666716   1.0810829  )
        78        N      tau(  78) = (   0.1666675   0.0000001   1.0810865  )
        79        N      tau(  79) = (   0.0000000  -0.0000018   1.2459470  )
        80        N      tau(  80) = (   0.1666688   0.1666654   1.2459482  )
        81        N      tau(  81) = (   0.0000000   0.5000000   0.7446406  )
        82        N      tau(  82) = (   0.1666667   0.3333333   0.7446406  )
        83        N      tau(  83) = (   0.0000000   0.3333333   0.9113073  )
        84        N      tau(  84) = (   0.1666667   0.5000000   0.9113073  )
        85        N      tau(  85) = (  -0.0000002   0.4999958   1.0810912  )
        86        N      tau(  86) = (   0.1666631   0.3333334   1.0810897  )
        87        N      tau(  87) = (   0.0000003   0.3333352   1.2460132  )
        88        N      tau(  88) = (   0.1666675   0.5000014   1.2459544  )
        89        N      tau(  89) = (   0.0000000   0.8333333   0.7446406  )
        90        N      tau(  90) = (   0.1666667   0.6666667   0.7446406  )
        91        N      tau(  91) = (   0.0000000   0.6666667   0.9113073  )
        92        N      tau(  92) = (   0.1666667   0.8333333   0.9113073  )
        93        N      tau(  93) = (  -0.0000001   0.8333327   1.0810878  )
        94        N      tau(  94) = (   0.1666666   0.6666665   1.0810884  )
        95        N      tau(  95) = (   0.0000002   0.6666670   1.2459523  )
        96        N      tau(  96) = (   0.1666665   0.8333331   1.2459535  )
        97        N      tau(  97) = (   0.3333333   0.1666667   0.7446406  )
        98        N      tau(  98) = (   0.5000000   0.0000000   0.7446406  )
        99        N      tau(  99) = (   0.3333333   0.0000000   0.9113073  )
       100        N      tau( 100) = (   0.5000000   0.1666667   0.9113073  )
       101        N      tau( 101) = (   0.3333334   0.1666672   1.0810873  )
       102        N      tau( 102) = (   0.4999993  -0.0000000   1.0810868  )
       103        N      tau( 103) = (   0.3333333  -0.0000005   1.2459542  )
       104        N      tau( 104) = (   0.4999978   0.1666653   1.2459481  )
       105        N      tau( 105) = (   0.3333333   0.5000000   0.7446406  )
       106        N      tau( 106) = (   0.5000000   0.3333333   0.7446406  )
       107        N      tau( 107) = (   0.3333333   0.3333333   0.9113073  )
       108        N      tau( 108) = (   0.5000000   0.5000000   0.9113073  )
       109        N      tau( 109) = (   0.3333332   0.4999995   1.0810881  )
       110        N      tau( 110) = (   0.5000035   0.3333333   1.0810896  )
       111        N      tau( 111) = (   0.3333333   0.3333337   1.2459519  )
       112        N      tau( 112) = (   0.4999993   0.5000014   1.2459529  )
       113        N      tau( 113) = (   0.3333333   0.8333333   0.7446406  )
       114        N      tau( 114) = (   0.5000000   0.6666667   0.7446406  )
       115        N      tau( 115) = (   0.3333333   0.6666667   0.9113073  )
       116        N      tau( 116) = (   0.5000000   0.8333333   0.9113073  )
       117        N      tau( 117) = (   0.3333334   0.8333332   1.0810884  )
       118        N      tau( 118) = (   0.5000000   0.6666666   1.0810884  )
       119        N      tau( 119) = (   0.3333334   0.6666669   1.2459578  )
       120        N      tau( 120) = (   0.5000002   0.8333332   1.2459554  )
       121        N      tau( 121) = (   0.6666667   0.1666667   0.7446406  )
       122        N      tau( 122) = (   0.8333333   0.0000000   0.7446406  )
       123        N      tau( 123) = (   0.6666667   0.0000000   0.9113073  )
       124        N      tau( 124) = (   0.8333333   0.1666667   0.9113073  )
       125        N      tau( 125) = (   0.6666664   0.1666715   1.0810830  )
       126        N      tau( 126) = (   0.8333334  -0.0000005   1.0810852  )
       127        N      tau( 127) = (   0.6666666  -0.0000018   1.2459460  )
       128        N      tau( 128) = (   0.8333333   0.1666643   1.2459361  )
       129        N      tau( 129) = (   0.6666667   0.5000000   0.7446406  )
       130        N      tau( 130) = (   0.8333333   0.3333333   0.7446406  )
       131        N      tau( 131) = (   0.6666667   0.3333333   0.9113073  )
       132        N      tau( 132) = (   0.8333333   0.5000000   0.9113073  )
       133        N      tau( 133) = (   0.6666669   0.4999958   1.0810912  )
       134        N      tau( 134) = (   0.8333332   0.3333341   1.0810912  )
       135        N      tau( 135) = (   0.6666664   0.3333353   1.2460131  )
       136        N      tau( 136) = (   0.8333333   0.5000023   1.2459570  )
       137        N      tau( 137) = (   0.6666667   0.8333333   0.7446406  )
       138        N      tau( 138) = (   0.8333333   0.6666667   0.7446406  )
       139        N      tau( 139) = (   0.6666667   0.6666667   0.9113073  )
       140        N      tau( 140) = (   0.8333333   0.8333333   0.9113073  )
       141        N      tau( 141) = (   0.6666667   0.8333328   1.0810879  )
       142        N      tau( 142) = (   0.8333334   0.6666664   1.0810882  )
       143        N      tau( 143) = (   0.6666665   0.6666669   1.2459502  )
       144        N      tau( 144) = (   0.8333333   0.8333334   1.2459569  )

     --------------------------------------------
     DFT-D3 Dispersion Correction (3-body terms):
     --------------------------------------------
       Reference C6 values for interpolation: 

         atom   Coordination number   C6
         N          0.000            50.54
         N          0.994            44.25
         N          2.014            39.35
         N          2.990            31.16
         Sc         0.000          3044.94
         Sc         1.863           649.01
         Sc         2.900           627.97

       Values used:

         atom   Coordination number  R0_AB[au]  C6      C8
         Sc        12.108            3.676    627.97  82273.04
         Sc        16.551            3.676    627.97  82273.04
         Sc        16.551            3.676    627.97  82273.04
         Sc        12.108            3.676    627.97  82273.04
         Sc        16.601            3.676    627.97  82273.04
         Sc        12.165            3.676    627.97  82273.04
         Sc        12.166            3.676    627.97  82273.04
         Sc        16.601            3.676    627.97  82273.04
         Sc        12.108            3.676    627.97  82273.04
         Sc        16.551            3.676    627.97  82273.04
         Sc        16.551            3.676    627.97  82273.04
         Sc        12.108            3.676    627.97  82273.04
         Sc        16.601            3.676    627.97  82273.04
         Sc        12.165            3.676    627.97  82273.04
         Sc        12.165            3.676    627.97  82273.04
         Sc        16.601            3.676    627.97  82273.04
         Sc        12.108            3.676    627.97  82273.04
         Sc        16.551            3.676    627.97  82273.04
         Sc        16.551            3.676    627.97  82273.04
         Sc        12.108            3.676    627.97  82273.04
         Sc        16.601            3.676    627.97  82273.04
         Sc        12.165            3.676    627.97  82273.04
         Sc        12.165            3.676    627.97  82273.04
         Sc        16.601            3.676    627.97  82273.04
         Sc        12.108            3.676    627.97  82273.04
         Sc        16.551            3.676    627.97  82273.04
         Sc        16.551            3.676    627.97  82273.04
         Sc        12.108            3.676    627.97  82273.04
         Sc        16.601            3.676    627.97  82273.04
         Sc        12.165            3.676    627.97  82273.04
         Sc        12.165            3.676    627.97  82273.04
         Sc        16.601            3.676    627.97  82273.04
         Sc        12.108            3.676    627.97  82273.04
         Sc        16.551            3.676    627.97  82273.04
         Sc        16.551            3.676    627.97  82273.04
         Sc        12.108            3.676    627.97  82273.04
         Sc        16.601            3.676    627.97  82273.04
         Sc        12.165            3.676    627.97  82273.04
         Sc        12.165            3.676    627.97  82273.04
         Sc        16.601            3.676    627.97  82273.04
         Sc        12.108            3.676    627.97  82273.04
         Sc        16.551            3.676    627.97  82273.04
         Sc        16.551            3.676    627.97  82273.04
         Sc        12.108            3.676    627.97  82273.04
         Sc        16.601            3.676    627.97  82273.04
         Sc        12.165            3.676    627.97  82273.04
         Sc        12.165            3.676    627.97  82273.04
         Sc        16.601            3.676    627.97  82273.04
         Sc        12.108            3.676    627.97  82273.04
         Sc        16.551            3.676    627.97  82273.04
         Sc        16.551            3.676    627.97  82273.04
         Sc        12.108            3.676    627.97  82273.04
         Sc        16.601            3.676    627.97  82273.04
         Sc        12.165            3.676    627.97  82273.04
         Sc        12.166            3.676    627.97  82273.04
         Sc        16.601            3.676    627.97  82273.04
         Sc        12.108            3.676    627.97  82273.04
         Sc        16.551            3.676    627.97  82273.04
         Sc        16.551            3.676    627.97  82273.04
         Sc        12.108            3.676    627.97  82273.04
         Sc        16.601            3.676    627.97  82273.04
         Sc        12.165            3.676    627.97  82273.04
         Sc        12.165            3.676    627.97  82273.04
         Sc        16.600            3.676    627.97  82273.04
         Sc        12.108            3.676    627.97  82273.04
         Sc        16.551            3.676    627.97  82273.04
         Sc        16.551            3.676    627.97  82273.04
         Sc        12.108            3.676    627.97  82273.04
         Sc        16.601            3.676    627.97  82273.04
         Sc        12.165            3.676    627.97  82273.04
         Sc        12.165            3.676    627.97  82273.04
         Sc        16.601            3.676    627.97  82273.04
         N          4.907            2.478     31.16    687.49
         N          4.907            2.478     31.16    687.49
         N          5.906            2.478     31.16    687.49
         N          5.906            2.478     31.16    687.49
         N          5.913            2.478     31.16    687.49
         N          5.913            2.478     31.16    687.49
         N          4.914            2.478     31.16    687.49
         N          4.914            2.478     31.16    687.49
         N          4.907            2.478     31.16    687.49
         N          4.907            2.478     31.16    687.49
         N          5.906            2.478     31.16    687.49
         N          5.906            2.478     31.16    687.49
         N          5.913            2.478     31.16    687.49
         N          5.913            2.478     31.16    687.49
         N          4.914            2.478     31.16    687.49
         N          4.914            2.478     31.16    687.49
         N          4.907            2.478     31.16    687.49
         N          4.907            2.478     31.16    687.49
         N          5.906            2.478     31.16    687.49
         N          5.906            2.478     31.16    687.49
         N          5.913            2.478     31.16    687.49
         N          5.913            2.478     31.16    687.49
         N          4.914            2.478     31.16    687.49
         N          4.914            2.478     31.16    687.49
         N          4.907            2.478     31.16    687.49
         N          4.907            2.478     31.16    687.49
         N          5.906            2.478     31.16    687.49
         N          5.906            2.478     31.16    687.49
         N          5.913            2.478     31.16    687.49
         N          5.913            2.478     31.16    687.49
         N          4.914            2.478     31.16    687.49
         N          4.914            2.478     31.16    687.49
         N          4.907            2.478     31.16    687.49
         N          4.907            2.478     31.16    687.49
         N          5.906            2.478     31.16    687.49
         N          5.906            2.478     31.16    687.49
         N          5.913            2.478     31.16    687.49
         N          5.913            2.478     31.16    687.49
         N          4.914            2.478     31.16    687.49
         N          4.914            2.478     31.16    687.49
         N          4.907            2.478     31.16    687.49
         N          4.907            2.478     31.16    687.49
         N          5.906            2.478     31.16    687.49
         N          5.906            2.478     31.16    687.49
         N          5.913            2.478     31.16    687.49
         N          5.913            2.478     31.16    687.49
         N          4.914            2.478     31.16    687.49
         N          4.914            2.478     31.16    687.49
         N          4.907            2.478     31.16    687.49
         N          4.907            2.478     31.16    687.49
         N          5.906            2.478     31.16    687.49
         N          5.906            2.478     31.16    687.49
         N          5.913            2.478     31.16    687.49
         N          5.913            2.478     31.16    687.49
         N          4.914            2.478     31.16    687.49
         N          4.914            2.478     31.16    687.49
         N          4.907            2.478     31.16    687.49
         N          4.907            2.478     31.16    687.49
         N          5.906            2.478     31.16    687.49
         N          5.906            2.478     31.16    687.49
         N          5.913            2.478     31.16    687.49
         N          5.913            2.478     31.16    687.49
         N          4.914            2.478     31.16    687.49
         N          4.914            2.478     31.16    687.49
         N          4.907            2.478     31.16    687.49
         N          4.907            2.478     31.16    687.49
         N          5.906            2.478     31.16    687.49
         N          5.906            2.478     31.16    687.49
         N          5.913            2.478     31.16    687.49
         N          5.913            2.478     31.16    687.49
         N          4.914            2.478     31.16    687.49
         N          4.914            2.478     31.16    687.49

         Molecular C6 ( Ry / a.u.^6 ) =   4771864.74


     number of k points=     9  Marzari-Vanderbilt smearing, width (Ry)=  0.0150
                       cart. coord. in units 2pi/alat
        k(    1) = (   0.0000000   0.0000000   0.0000000), wk =   0.1250000
        k(    2) = (   0.0000000   0.2500000   0.0000000), wk =   0.2500000
        k(    3) = (   0.0000000  -0.5000000   0.0000000), wk =   0.1250000
        k(    4) = (   0.2500000   0.2500000   0.0000000), wk =   0.5000000
        k(    5) = (   0.2500000  -0.5000000   0.0000000), wk =   0.2500000
        k(    6) = (  -0.5000000  -0.5000000   0.0000000), wk =   0.1250000
        k(    7) = (   0.2500000   0.0000000   0.0000000), wk =   0.2500000
        k(    8) = (  -0.5000000   0.0000000   0.0000000), wk =   0.1250000
        k(    9) = (  -0.5000000   0.2500000   0.0000000), wk =   0.2500000

     Dense  grid:  5241153 G-vectors     FFT dimensions: ( 180, 180, 360)

     Smooth grid:  1325863 G-vectors     FFT dimensions: ( 120, 120, 216)

     Estimated max dynamical RAM per process >       1.57 GB

     Estimated total dynamical RAM >      97.01 GB

     Initial potential from superposition of free atoms

     starting charge    1151.8264, renormalised to    1152.0000

     negative rho (up, down):  8.027E-03 0.000E+00
     Starting wfcs are 1224 randomized atomic wfcs

     total cpu time spent up to now is       72.6 secs

     per-process dynamical memory:  1000.7 Mb

     Self-consistent Calculation

     iteration #  1     ecut=    45.00 Ry     beta= 0.25
     Davidson diagonalization with overlap
     ethr =  1.00E-02,  avg # of iterations =  2.0

     negative rho (up, down):  7.025E-03 0.000E+00

     total cpu time spent up to now is      188.1 secs

     total energy              =   -8254.00834600 Ry
     estimated scf accuracy    <      65.39407524 Ry

     iteration #  2     ecut=    45.00 Ry     beta= 0.25
     Davidson diagonalization with overlap
     ethr =  5.68E-03,  avg # of iterations =  2.0

     negative rho (up, down):  7.160E-03 0.000E+00

     total cpu time spent up to now is      308.9 secs

     total energy              =   -8260.83972055 Ry
     estimated scf accuracy    <       4.62555313 Ry

     iteration #  3     ecut=    45.00 Ry     beta= 0.25
     Davidson diagonalization with overlap
     ethr =  4.02E-04,  avg # of iterations = 13.0

     negative rho (up, down):  6.956E-03 0.000E+00

     total cpu time spent up to now is      526.3 secs

     total energy              =   -8262.14098658 Ry
     estimated scf accuracy    <       4.77077921 Ry

     iteration #  4     ecut=    45.00 Ry     beta= 0.25
     Davidson diagonalization with overlap
     ethr =  4.02E-04,  avg # of iterations =  3.3

     negative rho (up, down):  7.264E-03 0.000E+00

     total cpu time spent up to now is      648.5 secs

     total energy              =   -8262.48857224 Ry
     estimated scf accuracy    <       0.88553797 Ry

     iteration #  5     ecut=    45.00 Ry     beta= 0.25
     Davidson diagonalization with overlap
     c_bands:  1 eigenvalues not converged
     ethr =  7.69E-05,  avg # of iterations = 19.0
     Minimization algorithm failed to find Fermi energy: reverting to bisection
     Possible cause: smearing is larger than the electronic band-gap.

     negative rho (up, down):  8.019E-03 0.000E+00

     total cpu time spent up to now is      975.5 secs

     total energy              =   -8262.47609785 Ry
     estimated scf accuracy    <       4.29288893 Ry

     iteration #  6     ecut=    45.00 Ry     beta= 0.25
     Davidson diagonalization with overlap
     ethr =  7.69E-05,  avg # of iterations = 11.3

     negative rho (up, down):  7.843E-03 0.000E+00

     total cpu time spent up to now is     1160.7 secs

     total energy              =   -8262.62064768 Ry
     estimated scf accuracy    <       0.54422079 Ry

     iteration #  7     ecut=    45.00 Ry     beta= 0.25
     Davidson diagonalization with overlap
     ethr =  4.72E-05,  avg # of iterations = 14.6

     negative rho (up, down):  7.864E-03 0.000E+00

     total cpu time spent up to now is     1341.9 secs

     total energy              =   -8262.68087136 Ry
     estimated scf accuracy    <       0.04969007 Ry

     iteration #  8     ecut=    45.00 Ry     beta= 0.25
     Davidson diagonalization with overlap
     c_bands:  5 eigenvalues not converged
     c_bands:  1 eigenvalues not converged
     ethr =  4.31E-06,  avg # of iterations = 20.7

     negative rho (up, down):  7.848E-03 0.000E+00

     total cpu time spent up to now is     1605.1 secs

     total energy              =   -8262.70185123 Ry
     estimated scf accuracy    <       0.01836924 Ry

     iteration #  9     ecut=    45.00 Ry     beta= 0.25
     Davidson diagonalization with overlap
     c_bands:  3 eigenvalues not converged
     c_bands:  1 eigenvalues not converged
     c_bands:  3 eigenvalues not converged
     ethr =  1.59E-06,  avg # of iterations = 26.0

     negative rho (up, down):  7.858E-03 0.000E+00

     total cpu time spent up to now is     1840.5 secs

     total energy              =   -8262.70404547 Ry
     estimated scf accuracy    <       0.00162257 Ry

     iteration # 10     ecut=    45.00 Ry     beta= 0.25
     Davidson diagonalization with overlap
     c_bands:  3 eigenvalues not converged
     ethr =  1.41E-07,  avg # of iterations = 10.9

     negative rho (up, down):  7.756E-03 0.000E+00

     total cpu time spent up to now is     2079.2 secs

     total energy              =   -8262.70338777 Ry
     estimated scf accuracy    <       0.00740870 Ry

     iteration # 11     ecut=    45.00 Ry     beta= 0.25
     Davidson diagonalization with overlap
     c_bands:  1 eigenvalues not converged
     ethr =  1.41E-07,  avg # of iterations =  8.1

     negative rho (up, down):  7.722E-03 0.000E+00

     total cpu time spent up to now is     2275.3 secs

     total energy              =   -8262.70480191 Ry
     estimated scf accuracy    <       0.00008552 Ry

     iteration # 12     ecut=    45.00 Ry     beta= 0.25
     Davidson diagonalization with overlap
     ethr =  7.42E-09,  avg # of iterations =  5.0

     negative rho (up, down):  7.707E-03 0.000E+00

     total cpu time spent up to now is     2460.7 secs

     total energy              =   -8262.70465891 Ry
     estimated scf accuracy    <       0.00094118 Ry

     iteration # 13     ecut=    45.00 Ry     beta= 0.25
     Davidson diagonalization with overlap
     ethr =  7.42E-09,  avg # of iterations =  4.6

     negative rho (up, down):  7.698E-03 0.000E+00

     total cpu time spent up to now is     2642.3 secs

     total energy              =   -8262.70474722 Ry
     estimated scf accuracy    <       0.00004322 Ry

     iteration # 14     ecut=    45.00 Ry     beta= 0.25
     Davidson diagonalization with overlap
     ethr =  3.75E-09,  avg # of iterations =  2.0

     negative rho (up, down):  7.694E-03 0.000E+00

     total cpu time spent up to now is     2759.7 secs

     total energy              =   -8262.70474383 Ry
     estimated scf accuracy    <       0.00001677 Ry

     iteration # 15     ecut=    45.00 Ry     beta= 0.25
     Davidson diagonalization with overlap
     ethr =  1.46E-09,  avg # of iterations =  4.0

     negative rho (up, down):  7.692E-03 0.000E+00

     total cpu time spent up to now is     2906.7 secs

     End of self-consistent calculation

          k = 0.0000 0.0000 0.0000 (165739 PWs)   bands (ev):

   -46.4987 -46.4811 -46.4811 -46.4811 -46.4811 -46.4718 -46.4718 -46.4718
   -46.4718 -46.4550 -46.4550 -46.4550 -46.4550 -46.4476 -46.4475 -46.4475
   -46.4475 -46.4316 -46.4294 -46.4114 -46.4114 -46.4112 -46.4111 -46.4018
   -46.4018 -46.4016 -46.4014 -46.3847 -46.3847 -46.3845 -46.3843 -46.3773
   -46.3772 -46.3770 -46.3769 -46.3611 -46.1862 -46.1648 -46.1648 -46.1647
   -46.1647 -46.1517 -46.1517 -46.1517 -46.1516 -46.1301 -46.1301 -46.1301
   -46.1300 -46.1235 -46.1235 -46.1234 -46.1234 -46.1173 -46.1082 -46.1081
   -46.1080 -46.1080 -46.1063 -46.1062 -46.1061 -46.1060 -46.1056 -46.0964
   -46.0962 -46.0961 -46.0960 -46.0864 -46.0863 -46.0862 -46.0861 -46.0716
   -25.3708 -25.3686 -25.3686 -25.3686 -25.3686 -25.3569 -25.3569 -25.3569
   -25.3569 -25.3520 -25.3520 -25.3520 -25.3520 -25.3238 -25.3238 -25.3238
   -25.3237 -25.3099 -25.3099 -25.3099 -25.3099 -25.3098 -25.3081 -25.3081
   -25.3080 -25.3078 -25.2924 -25.2924 -25.2923 -25.2922 -25.2905 -25.2905
   -25.2904 -25.2903 -25.2627 -25.2569 -25.2569 -25.2569 -25.2569 -25.2522
   -25.2522 -25.2520 -25.2519 -25.2512 -25.2512 -25.2511 -25.2511 -25.2281
   -25.2281 -25.1957 -25.1946 -25.1945 -25.1945 -25.1945 -25.1755 -25.1755
   -25.1755 -25.1755 -25.1714 -25.1714 -25.1533 -25.1533 -25.1533 -25.1533
   -25.1182 -25.1182 -25.1181 -25.1181 -25.0966 -25.0965 -25.0965 -25.0964
   -25.0807 -25.0807 -25.0807 -25.0807 -25.0563 -25.0563 -25.0563 -25.0563
   -25.0214 -25.0214 -25.0213 -25.0212 -25.0047 -25.0046 -25.0046 -25.0046
   -25.0046 -25.0046 -25.0046 -25.0046 -25.0040 -25.0040 -25.0033 -25.0033
   -25.0033 -25.0033 -24.9942 -24.9942 -24.9942 -24.9942 -24.9715 -24.9714
   -24.9714 -24.9714 -24.9586 -24.9462 -24.9461 -24.9460 -24.9460 -24.9403
   -24.9403 -24.9402 -24.9402 -24.9349 -24.9348 -24.9348 -24.9348 -24.9308
   -24.9308 -24.8879 -24.8879 -24.8879 -24.8879 -24.8848 -24.8848 -24.8848
   -24.8848 -24.8805 -24.8804 -24.8804 -24.8803 -24.8709 -24.8709 -24.8687
   -24.8686 -24.8686 -24.8686 -24.8625 -24.8625 -24.8214 -24.8214 -24.8214
   -24.8213 -24.8213 -24.8181 -24.8181 -24.8181 -24.8181 -24.8032 -24.8032
   -24.8031 -24.8031 -24.7929 -24.7929 -24.7928 -24.7928 -24.7893 -24.7612
   -24.7611 -24.7611 -24.7611 -24.7540 -24.7540 -24.7539 -24.7539 -24.7499
   -24.7499 -24.7498 -24.7498 -24.7233 -24.7233 -24.7233 -24.7233 -24.7222
   -24.7220 -24.7219 -24.7219 -24.7205 -24.7204 -24.7204 -24.7203 -24.7198
   -24.7198 -24.7013 -24.6975 -24.6974 -24.6973 -24.6973 -24.6971 -24.6971
   -24.6971 -24.6971 -24.6831 -24.6831 -24.6830 -24.6830 -24.6812 -24.6811
   -24.6811 -24.6810 -24.6724 -24.6724 -24.6723 -24.6723 -24.6545 -24.6544
   -24.6544 -24.6544 -24.6222 -24.6222 -24.6153 -24.6153 -24.6152 -24.6152
   -11.8325 -11.3261 -11.3261 -11.3260 -11.3260 -11.2676 -10.9153 -10.9097
   -10.8700 -10.8700 -10.8700 -10.8699 -10.8462 -10.8461 -10.8461 -10.8460
   -10.8402 -10.8284 -10.8284 -10.8284 -10.8283 -10.7711 -10.6570 -10.6570
   -10.6570 -10.6569 -10.5020 -10.5019 -10.5019 -10.5018 -10.4990 -10.4990
   -10.4990 -10.4989 -10.4971 -10.4971 -10.4971 -10.4971 -10.4728 -10.4728
   -10.4728 -10.4728 -10.3787 -10.3787 -10.3786 -10.3786 -10.3742 -10.3473
   -10.2122 -10.2122 -10.2121 -10.2121 -10.1557 -10.1557 -10.1557 -10.1556
   -10.1339 -10.1339 -10.1339 -10.1338 -10.0359 -10.0359 -10.0359 -10.0358
    -9.9629  -9.9629  -9.9629  -9.9628  -9.9349  -9.9349  -9.9349  -9.9347
    -2.2712  -2.2711  -2.2711  -2.2710  -2.2652  -2.2652  -2.2651  -2.2651
    -2.1318  -2.1317  -2.1317  -2.1317  -2.0707  -2.0707  -2.0707  -2.0707
    -1.6456  -1.6456  -1.6456  -1.6455  -1.6182  -1.6182  -1.6182  -1.6182
    -1.6015  -1.6015  -1.6014  -1.6014  -1.5639  -1.5638  -1.5638  -1.5638
    -1.4776  -1.4775  -1.4775  -1.4774  -1.3863  -1.3863  -1.3863  -1.3862
    -1.3128  -1.2466  -1.2466  -1.2466  -1.2465  -1.1647  -1.1647  -1.1646
    -1.1646  -1.1584  -1.1583  -1.1583  -1.1583  -0.9316  -0.9316  -0.9060
    -0.8180  -0.8179  -0.8179  -0.8179  -0.6172  -0.6171  -0.6171  -0.6171
    -0.5979  -0.5979  -0.5949  -0.5948  -0.5948  -0.5948  -0.5362  -0.5362
    -0.5362  -0.5361  -0.5320  -0.5320  -0.5320  -0.5320  -0.4746  -0.4745
    -0.4745  -0.4745  -0.4374  -0.4373  -0.4373  -0.4373  -0.4036  -0.4035
    -0.4035  -0.4034  -0.3592  -0.3592  -0.3592  -0.3592  -0.3548  -0.3548
    -0.3547  -0.3547  -0.2986  -0.2986  -0.2986  -0.2986  -0.2358  -0.2358
    -0.2358  -0.2357  -0.2126  -0.2125  -0.2125  -0.2125  -0.1562  -0.1561
    -0.1561  -0.1561  -0.1308  -0.1307  -0.1307  -0.1307  -0.1221  -0.1177
    -0.1177  -0.1177  -0.1176  -0.1127  -0.1065  -0.1065  -0.1065  -0.1064
    -0.0965  -0.0580  -0.0579  -0.0579  -0.0579  -0.0391  -0.0391  -0.0390
    -0.0390  -0.0355  -0.0355  -0.0355  -0.0354  -0.0169  -0.0169  -0.0169
    -0.0168   0.0921   0.0921   0.1421   0.1421   0.1421   0.1421   0.1494
     0.1494   0.1494   0.1495   0.1827   0.1827   0.1828   0.1828   0.1907
     0.1907   0.1907   0.1908   0.1922   0.1922   0.1923   0.1923   0.1934
     0.1934   0.1934   0.1935   0.2016   0.2017   0.2017   0.2017   0.3192
     0.3193   0.3193   0.3193   0.3970   0.3970   0.3970   0.3971   0.7551
     0.7551   0.7552   0.7552   0.7927   0.7995   0.7995   0.7995   0.7996
     0.8323   0.8323   0.8341   0.8341   0.8341   0.8341   0.8398   0.8398
     0.8399   0.8399   1.0817   1.0817   1.2004   1.2335   1.2595   1.2595
     1.2596   1.2596   1.2751   1.2751   1.7969   1.7969   2.0607   2.0607
     2.1683   2.7086   2.7086   2.7092   3.1270   3.1271   3.1272   3.1272
     3.5064   3.8743   4.1469   4.1469   4.1470   4.1470   4.1572   4.1572
     4.1585   4.3945   4.4029   4.4030   4.4031   4.4032   4.4428   4.4428
     4.4429   4.4429   4.4452   4.4453   4.4453   4.4454   4.4776   4.4777
     4.4777   4.4778   4.5713   4.5713   4.5713   4.5713   4.5839   4.5840
     4.5841   4.5841   4.7156   4.7157   4.7157   4.7157   4.7541   4.7542
     4.7543   4.7545   4.7592   4.7592   4.7592   4.7592   4.8410   4.8411
     4.8411   4.8414   4.8870   4.8870   5.1360   5.2235   5.2235   5.2236
     5.2237   5.2593   5.2593   5.2594   5.2594   5.3168   5.3169   5.3170
     5.3171   5.3489   5.3489   5.3489   5.3489   5.4419   5.4419   5.4419
     5.4420   5.4461   5.4461   5.4461   5.4462   5.4695   5.4695   5.4695
     5.4696   5.5726   5.5727   5.5727   5.5727   5.6534   5.6534   5.6535
     5.6536   5.7066   5.7709   5.7709   5.8142   5.8142   5.8143   5.8143
     5.8222   5.8222   5.8254   5.8863   5.8865   5.8874   5.8877   5.9198
     5.9546   5.9727   5.9984

          k = 0.0000 0.2500 0.0000 (165664 PWs)   bands (ev):

   -46.4974 -46.4883 -46.4804 -46.4804 -46.4756 -46.4755 -46.4728 -46.4675
   -46.4675 -46.4588 -46.4588 -46.4554 -46.4518 -46.4518 -46.4480 -46.4480
   -46.4409 -46.4327 -46.4281 -46.4187 -46.4107 -46.4105 -46.4056 -46.4055
   -46.4028 -46.3973 -46.3972 -46.3884 -46.3883 -46.3851 -46.3814 -46.3813
   -46.3777 -46.3775 -46.3704 -46.3621 -46.1848 -46.1736 -46.1639 -46.1638
   -46.1570 -46.1570 -46.1545 -46.1457 -46.1457 -46.1344 -46.1343 -46.1330
   -46.1270 -46.1270 -46.1238 -46.1238 -46.1167 -46.1157 -46.1120 -46.1081
   -46.1079 -46.1071 -46.1070 -46.1067 -46.1047 -46.1046 -46.1034 -46.0997
   -46.0996 -46.0925 -46.0925 -46.0922 -46.0871 -46.0870 -46.0806 -46.0727
   -25.3736 -25.3736 -25.3693 -25.3685 -25.3685 -25.3620 -25.3620 -25.3591
   -25.3531 -25.3530 -25.3439 -25.3415 -25.3415 -25.3351 -25.3350 -25.3229
   -25.3207 -25.3206 -25.3141 -25.3141 -25.3088 -25.3005 -25.3005 -25.3004
   -25.3003 -25.3000 -25.2973 -25.2973 -25.2957 -25.2933 -25.2932 -25.2836
   -25.2834 -25.2834 -25.2757 -25.2757 -25.2688 -25.2644 -25.2584 -25.2584
   -25.2577 -25.2576 -25.2370 -25.2305 -25.2305 -25.2299 -25.2299 -25.2230
   -25.2226 -25.2148 -25.2148 -25.2118 -25.2118 -25.2038 -25.1939 -25.1842
   -25.1663 -25.1642 -25.1561 -25.1560 -25.1543 -25.1482 -25.1482 -25.1351
   -25.1276 -25.1180 -25.1180 -25.1173 -25.1108 -25.1108 -25.1084 -25.1000
   -25.0641 -25.0641 -25.0612 -25.0612 -25.0603 -25.0488 -25.0488 -25.0478
   -25.0436 -25.0427 -25.0427 -25.0404 -25.0265 -25.0265 -25.0196 -25.0195
   -25.0157 -25.0157 -25.0102 -25.0057 -25.0036 -25.0036 -24.9993 -24.9921
   -24.9921 -24.9839 -24.9824 -24.9780 -24.9740 -24.9733 -24.9733 -24.9684
   -24.9684 -24.9664 -24.9636 -24.9630 -24.9629 -24.9465 -24.9465 -24.9393
   -24.9393 -24.9359 -24.9277 -24.9276 -24.9265 -24.9178 -24.9149 -24.9141
   -24.9141 -24.9122 -24.9122 -24.9010 -24.8968 -24.8968 -24.8915 -24.8914
   -24.8839 -24.8839 -24.8760 -24.8720 -24.8711 -24.8701 -24.8662 -24.8613
   -24.8585 -24.8523 -24.8523 -24.8503 -24.8503 -24.8497 -24.8497 -24.8362
   -24.8362 -24.8361 -24.8278 -24.8276 -24.8209 -24.8209 -24.8134 -24.7962
   -24.7936 -24.7935 -24.7837 -24.7786 -24.7744 -24.7716 -24.7716 -24.7628
   -24.7597 -24.7596 -24.7594 -24.7593 -24.7506 -24.7506 -24.7503 -24.7503
   -24.7493 -24.7493 -24.7454 -24.7450 -24.7445 -24.7445 -24.7417 -24.7320
   -24.7320 -24.7248 -24.7219 -24.7218 -24.7208 -24.7208 -24.7178 -24.7178
   -24.7159 -24.7158 -24.7152 -24.7122 -24.6966 -24.6941 -24.6941 -24.6923
   -24.6922 -24.6921 -24.6921 -24.6834 -24.6745 -24.6692 -24.6692 -24.6677
   -24.6677 -24.6653 -24.6653 -24.6620 -24.6615 -24.6615 -24.6579 -24.6554
   -24.6553 -24.6546 -24.6292 -24.6264 -24.6216 -24.6216 -24.6205 -24.6205
   -11.7943 -11.5205 -11.2912 -11.2911 -11.2342 -11.1332 -11.0430 -11.0429
   -11.0009 -10.9005 -10.8886 -10.8699 -10.8360 -10.8170 -10.8169 -10.8110
   -10.8009 -10.8008 -10.7400 -10.7390 -10.7100 -10.7038 -10.7038 -10.6395
   -10.6394 -10.6199 -10.6199 -10.6149 -10.6148 -10.6107 -10.6084 -10.5377
   -10.5376 -10.5232 -10.5066 -10.5065 -10.4457 -10.4457 -10.4100 -10.4099
   -10.4077 -10.4076 -10.3564 -10.3505 -10.3505 -10.3471 -10.3293 -10.2581
   -10.2581 -10.2537 -10.2486 -10.2144 -10.2081 -10.1896 -10.1896 -10.1583
   -10.1583 -10.1353 -10.1353 -10.1312 -10.0423 -10.0423 -10.0219 -10.0219
   -10.0061 -10.0060  -9.9346  -9.9345  -9.9256  -9.9256  -9.8848  -9.8847
    -2.4129  -2.4129  -2.4001  -2.4001  -2.3353  -2.3353  -2.2949  -2.2949
    -2.0580  -2.0579  -2.0438  -2.0438  -1.8838  -1.8838  -1.7871  -1.7871
    -1.7361  -1.7304  -1.7304  -1.7100  -1.7100  -1.6939  -1.6938  -1.6725
    -1.6290  -1.6290  -1.6283  -1.6283  -1.6006  -1.5232  -1.5231  -1.4686
    -1.4686  -1.4657  -1.4632  -1.4632  -1.4525  -1.3969  -1.3969  -1.3921
    -1.3319  -1.3203  -1.3156  -1.3156  -1.2720  -1.2120  -1.2120  -1.0724
    -1.0709  -1.0708  -1.0115  -0.9513  -0.9267  -0.9256  -0.9256  -0.9214
    -0.9127  -0.9075  -0.9074  -0.8764  -0.7415  -0.7254  -0.6623  -0.6397
    -0.6397  -0.6331  -0.6330  -0.5921  -0.5636  -0.5635  -0.5523  -0.5523
    -0.5415  -0.5363  -0.4994  -0.4994  -0.4918  -0.4918  -0.4740  -0.4740
    -0.4722  -0.4722  -0.4520  -0.4520  -0.4487  -0.4486  -0.4388  -0.4388
    -0.4354  -0.4354  -0.4204  -0.4203  -0.4017  -0.3973  -0.3973  -0.3870
    -0.3869  -0.3794  -0.3329  -0.3329  -0.3080  -0.3040  -0.2952  -0.2925
    -0.2925  -0.2802  -0.2720  -0.2548  -0.2548  -0.2305  -0.1805  -0.1805
    -0.1499  -0.1498  -0.1374  -0.1374  -0.1310  -0.1310  -0.1279  -0.1184
    -0.1183  -0.1147  -0.1147  -0.1127  -0.0824  -0.0824  -0.0684  -0.0566
    -0.0513  -0.0513  -0.0448  -0.0448  -0.0305  -0.0305  -0.0122  -0.0122
     0.0063   0.0305   0.0305   0.0427   0.0427   0.0431   0.0431   0.0445
     0.0446   0.0568   0.0972   0.1037   0.1037   0.1261   0.1261   0.1275
     0.1434   0.1435   0.1467   0.1469   0.1492   0.1599   0.1789   0.1789
     0.2029   0.2030   0.2133   0.2133   0.2528   0.2803   0.2803   0.2870
     0.3011   0.3338   0.3380   0.3380   0.3654   0.3654   0.3677   0.3677
     0.4367   0.4367   0.4736   0.4737   0.4743   0.5602   0.5806   0.5987
     0.6858   0.6858   0.6894   0.7006   0.7350   0.7351   0.7422   0.7519
     0.7651   0.7652   0.7659   0.7660   0.8244   0.8297   0.8769   0.8822
     0.8836   0.9422   0.9636   1.0652   1.0868   1.1012   1.1168   1.1169
     1.1199   1.1212   1.1971   1.4756   1.6081   1.6445   1.7990   1.9439
     2.4664   2.7350   2.8795   2.9455   2.9533   3.2518   3.2520   3.3534
     3.6838   3.6923   3.8563   3.8944   3.9068   4.0662   4.0663   4.0822
     4.1726   4.1773   4.2078   4.2079   4.2339   4.2982   4.3388   4.3882
     4.3986   4.3986   4.4268   4.4269   4.4350   4.4723   4.4723   4.4750
     4.4750   4.5400   4.5665   4.5665   4.5922   4.5923   4.6494   4.6527
     4.6528   4.6762   4.6997   4.6997   4.7084   4.7545   4.7545   4.8167
     4.8168   4.8237   4.8382   4.8609   4.8609   4.9135   4.9150   4.9150
     4.9794   4.9842   4.9843   5.0216   5.0254   5.0255   5.0395   5.0926
     5.0926   5.1068   5.1321   5.1768   5.1769   5.1867   5.2279   5.2279
     5.2504   5.2505   5.2590   5.2590   5.3168   5.3169   5.3484   5.3484
     5.4455   5.4744   5.4906   5.5800   5.5855   5.5893   5.5893   5.5913
     5.5913   5.6408   5.6408   5.6548   5.6548   5.7243   5.7261   5.7262
     5.7368   5.7369   5.7371   5.7543   5.7624   5.8248   5.8300   5.8300
     5.8355   5.8387   5.8482   5.8490   5.8642   5.8643   5.8948   5.8949
     5.9411   5.9580   5.9581

          k = 0.0000-0.5000 0.0000 (165810 PWs)   bands (ev):

   -46.4939 -46.4939 -46.4785 -46.4785 -46.4785 -46.4785 -46.4640 -46.4640
   -46.4631 -46.4631 -46.4631 -46.4631 -46.4495 -46.4495 -46.4495 -46.4495
   -46.4358 -46.4358 -46.4246 -46.4243 -46.4088 -46.4087 -46.4086 -46.4084
   -46.3940 -46.3938 -46.3929 -46.3928 -46.3927 -46.3924 -46.3792 -46.3792
   -46.3790 -46.3787 -46.3654 -46.3651 -46.1805 -46.1804 -46.1612 -46.1612
   -46.1612 -46.1612 -46.1436 -46.1436 -46.1397 -46.1397 -46.1397 -46.1397
   -46.1250 -46.1250 -46.1249 -46.1249 -46.1149 -46.1148 -46.1101 -46.1101
   -46.1078 -46.1077 -46.1076 -46.1076 -46.1028 -46.1026 -46.1025 -46.1024
   -46.0981 -46.0979 -46.0894 -46.0892 -46.0892 -46.0891 -46.0760 -46.0758
   -25.3741 -25.3741 -25.3741 -25.3741 -25.3651 -25.3651 -25.3564 -25.3564
   -25.3564 -25.3563 -25.3343 -25.3343 -25.3329 -25.3328 -25.3328 -25.3328
   -25.3258 -25.3258 -25.3258 -25.3258 -25.3057 -25.3055 -25.2960 -25.2960
   -25.2959 -25.2957 -25.2953 -25.2953 -25.2953 -25.2952 -25.2814 -25.2814
   -25.2746 -25.2744 -25.2741 -25.2740 -25.2739 -25.2738 -25.2515 -25.2515
   -25.2514 -25.2514 -25.2509 -25.2509 -25.2509 -25.2509 -25.2212 -25.2210
   -25.2086 -25.2085 -25.2080 -25.2080 -25.1978 -25.1978 -25.1977 -25.1976
   -25.1633 -25.1632 -25.1632 -25.1632 -25.1514 -25.1513 -25.1509 -25.1508
   -25.1320 -25.1320 -25.0955 -25.0955 -25.0954 -25.0954 -25.0828 -25.0828
   -25.0828 -25.0828 -25.0788 -25.0788 -25.0765 -25.0764 -25.0373 -25.0373
   -25.0373 -25.0373 -25.0349 -25.0349 -25.0348 -25.0348 -25.0214 -25.0213
   -25.0119 -25.0119 -25.0091 -25.0091 -25.0067 -25.0067 -25.0066 -25.0066
   -24.9932 -24.9932 -24.9932 -24.9932 -24.9856 -24.9856 -24.9531 -24.9530
   -24.9506 -24.9506 -24.9413 -24.9413 -24.9413 -24.9413 -24.9374 -24.9374
   -24.9358 -24.9358 -24.9358 -24.9357 -24.9329 -24.9329 -24.9328 -24.9328
   -24.8989 -24.8989 -24.8989 -24.8988 -24.8943 -24.8943 -24.8943 -24.8943
   -24.8911 -24.8909 -24.8710 -24.8710 -24.8677 -24.8676 -24.8645 -24.8644
   -24.8596 -24.8595 -24.8595 -24.8594 -24.8504 -24.8504 -24.8467 -24.8466
   -24.8321 -24.8321 -24.8319 -24.8319 -24.8120 -24.8120 -24.8120 -24.8119
   -24.7968 -24.7968 -24.7705 -24.7704 -24.7701 -24.7700 -24.7700 -24.7700
   -24.7680 -24.7679 -24.7530 -24.7529 -24.7529 -24.7528 -24.7460 -24.7460
   -24.7459 -24.7459 -24.7434 -24.7433 -24.7395 -24.7395 -24.7383 -24.7383
   -24.7383 -24.7382 -24.7303 -24.7302 -24.7219 -24.7217 -24.7217 -24.7217
   -24.7213 -24.7213 -24.7213 -24.7213 -24.7049 -24.7048 -24.7047 -24.7047
   -24.6766 -24.6765 -24.6750 -24.6750 -24.6750 -24.6749 -24.6664 -24.6663
   -24.6617 -24.6616 -24.6616 -24.6615 -24.6476 -24.6475 -24.6389 -24.6389
   -24.6388 -24.6388 -24.6386 -24.6386 -24.6363 -24.6363 -24.6362 -24.6362
   -11.6849 -11.6849 -11.1916 -11.1916 -11.1916 -11.1916 -11.1395 -11.1395
   -10.9735 -10.9734 -10.8685 -10.8684 -10.8254 -10.8254 -10.7356 -10.7356
   -10.7355 -10.7355 -10.7287 -10.7287 -10.7241 -10.7241 -10.7241 -10.7240
   -10.6520 -10.6520 -10.6260 -10.6259 -10.5935 -10.5934 -10.5934 -10.5934
   -10.5756 -10.5755 -10.5755 -10.5755 -10.3749 -10.3748 -10.3748 -10.3748
   -10.3693 -10.3693 -10.3693 -10.3693 -10.3100 -10.3100 -10.2803 -10.2801
   -10.2717 -10.2717 -10.2716 -10.2716 -10.2540 -10.2540 -10.1610 -10.1610
   -10.1274 -10.1274 -10.1274 -10.1274 -10.0801 -10.0801 -10.0800 -10.0799
    -9.9467  -9.9467  -9.9467  -9.9467  -9.8806  -9.8806  -9.8806  -9.8804
    -2.4377  -2.4376  -2.4376  -2.4376  -2.4123  -2.4122  -2.4122  -2.4122
    -1.8411  -1.8410  -1.8410  -1.8410  -1.8060  -1.8060  -1.8060  -1.8059
    -1.7457  -1.7457  -1.7456  -1.7456  -1.7099  -1.7099  -1.6677  -1.6676
    -1.6676  -1.6676  -1.6631  -1.6631  -1.6630  -1.6630  -1.6332  -1.6330
    -1.5112  -1.5112  -1.5112  -1.5112  -1.3444  -1.3444  -1.3317  -1.3317
    -1.3317  -1.3316  -1.2133  -1.2132  -1.2040  -1.2039  -1.1484  -1.1484
    -1.1483  -1.1483  -1.0316  -1.0315  -0.9716  -0.9716  -0.9101  -0.9100
    -0.7537  -0.7537  -0.7537  -0.7536  -0.7391  -0.7390  -0.7390  -0.7390
    -0.7046  -0.7046  -0.6012  -0.6011  -0.5894  -0.5894  -0.5843  -0.5842
    -0.5842  -0.5842  -0.5732  -0.5731  -0.5380  -0.5380  -0.5380  -0.5379
    -0.4798  -0.4797  -0.4797  -0.4797  -0.4765  -0.4765  -0.4765  -0.4765
    -0.4439  -0.4439  -0.4438  -0.4438  -0.3923  -0.3923  -0.3922  -0.3922
    -0.3639  -0.3639  -0.2966  -0.2966  -0.2966  -0.2965  -0.2915  -0.2914
    -0.2573  -0.2573  -0.2573  -0.2572  -0.2425  -0.2424  -0.2359  -0.2359
    -0.2358  -0.2357  -0.1743  -0.1743  -0.1743  -0.1742  -0.1681  -0.1680
    -0.1009  -0.1009  -0.1009  -0.1009  -0.0748  -0.0748  -0.0748  -0.0748
    -0.0362  -0.0361  -0.0244  -0.0243  -0.0243  -0.0243  -0.0058  -0.0058
    -0.0057  -0.0057   0.0828   0.0828   0.0828   0.0828   0.1140   0.1141
     0.1162   0.1162   0.1162   0.1163   0.1357   0.1357   0.1357   0.1357
     0.1529   0.1529   0.1529   0.1530   0.1606   0.1606   0.1638   0.1638
     0.2733   0.2733   0.2733   0.2734   0.3553   0.3554   0.4110   0.4111
     0.4915   0.4915   0.4916   0.4916   0.5066   0.5067   0.5323   0.5323
     0.5324   0.5324   0.5455   0.5455   0.5861   0.5862   0.5862   0.5862
     0.6412   0.6413   0.6413   0.6414   0.6571   0.6571   0.6970   0.6971
     0.7426   0.7427   0.7797   0.7798   0.7798   0.7798   0.8041   0.8042
     0.8245   0.8246   0.8546   0.8547   0.9620   0.9621   1.1019   1.1019
     1.1888   1.1888   1.2061   1.2062   1.3620   1.3621   1.7172   1.7173
     2.8140   2.8142   3.0369   3.0370   3.3032   3.3034   3.4690   3.4691
     3.5915   3.5917   3.5917   3.5917   3.6146   3.6146   4.0055   4.0058
     4.1063   4.1064   4.2379   4.2380   4.3665   4.3667   4.3667   4.3667
     4.4086   4.4086   4.4087   4.4087   4.4190   4.4194   4.4657   4.4658
     4.5079   4.5079   4.5080   4.5083   4.6099   4.6099   4.6099   4.6100
     4.6564   4.6566   4.7035   4.7037   4.7978   4.7978   4.7979   4.7979
     4.8149   4.8149   4.8149   4.8149   4.8428   4.8429   4.8969   4.8969
     4.8969   4.8969   4.9287   4.9287   4.9935   4.9935   4.9936   4.9939
     5.1253   5.1253   5.1253   5.1253   5.2311   5.2312   5.2516   5.2516
     5.2517   5.2517   5.3368   5.3369   5.3392   5.3392   5.3500   5.3501
     5.3501   5.3501   5.4810   5.4810   5.4811   5.4812   5.6389   5.6390
     5.7288   5.7288   5.7288   5.7288   5.7389   5.7389   5.7389   5.7390
     5.7565   5.7566   5.8098   5.8100   5.8100   5.8101   5.8562   5.8564
     5.8753   5.8756   5.8910   5.8912   5.9022   5.9025   5.9095   5.9095
     5.9096   5.9096   5.9254

          k = 0.2500 0.2500 0.0000 (165752 PWs)   bands (ev):

   -46.4963 -46.4874 -46.4874 -46.4808 -46.4724 -46.4724 -46.4696 -46.4696
   -46.4652 -46.4607 -46.4573 -46.4573 -46.4556 -46.4556 -46.4472 -46.4416
   -46.4416 -46.4337 -46.4269 -46.4178 -46.4177 -46.4109 -46.4024 -46.4024
   -46.3995 -46.3994 -46.3948 -46.3902 -46.3870 -46.3869 -46.3853 -46.3852
   -46.3767 -46.3711 -46.3711 -46.3632 -46.1833 -46.1725 -46.1725 -46.1638
   -46.1539 -46.1538 -46.1492 -46.1492 -46.1420 -46.1360 -46.1335 -46.1335
   -46.1330 -46.1330 -46.1219 -46.1164 -46.1164 -46.1161 -46.1117 -46.1116
   -46.1092 -46.1078 -46.1047 -46.1043 -46.1043 -46.1035 -46.1035 -46.1021
   -46.0970 -46.0969 -46.0928 -46.0927 -46.0880 -46.0816 -46.0815 -46.0738
   -25.3819 -25.3796 -25.3679 -25.3626 -25.3626 -25.3604 -25.3590 -25.3590
   -25.3532 -25.3532 -25.3524 -25.3461 -25.3461 -25.3421 -25.3269 -25.3268
   -25.3265 -25.3083 -25.3079 -25.3076 -25.3075 -25.3027 -25.3027 -25.3018
   -25.3001 -25.3000 -25.2999 -25.2999 -25.2998 -25.2857 -25.2857 -25.2838
   -25.2770 -25.2770 -25.2736 -25.2736 -25.2692 -25.2692 -25.2663 -25.2594
   -25.2482 -25.2482 -25.2426 -25.2425 -25.2318 -25.2291 -25.2291 -25.2246
   -25.2246 -25.2197 -25.2101 -25.2054 -25.1935 -25.1935 -25.1873 -25.1873
   -25.1734 -25.1709 -25.1682 -25.1681 -25.1509 -25.1508 -25.1481 -25.1433
   -25.1433 -25.1388 -25.1388 -25.1008 -25.0958 -25.0957 -25.0873 -25.0817
   -25.0817 -25.0811 -25.0811 -25.0734 -25.0734 -25.0509 -25.0441 -25.0432
   -25.0432 -25.0374 -25.0240 -25.0240 -25.0171 -25.0118 -25.0118 -25.0075
   -25.0075 -25.0063 -25.0063 -25.0061 -25.0054 -25.0021 -25.0021 -24.9973
   -24.9958 -24.9941 -24.9941 -24.9903 -24.9903 -24.9862 -24.9740 -24.9740
   -24.9630 -24.9630 -24.9588 -24.9588 -24.9463 -24.9463 -24.9458 -24.9458
   -24.9394 -24.9380 -24.9316 -24.9267 -24.9245 -24.9245 -24.9150 -24.9150
   -24.9130 -24.9053 -24.9053 -24.9019 -24.9019 -24.9002 -24.8897 -24.8861
   -24.8861 -24.8799 -24.8734 -24.8710 -24.8710 -24.8710 -24.8710 -24.8665
   -24.8652 -24.8604 -24.8604 -24.8557 -24.8462 -24.8461 -24.8380 -24.8338
   -24.8338 -24.8263 -24.8258 -24.8258 -24.8201 -24.8201 -24.8091 -24.8069
   -24.7995 -24.7856 -24.7856 -24.7791 -24.7761 -24.7761 -24.7684 -24.7672
   -24.7672 -24.7644 -24.7581 -24.7541 -24.7541 -24.7504 -24.7504 -24.7463
   -24.7448 -24.7447 -24.7429 -24.7405 -24.7405 -24.7396 -24.7395 -24.7394
   -24.7370 -24.7370 -24.7365 -24.7332 -24.7331 -24.7160 -24.7132 -24.7057
   -24.7056 -24.7034 -24.7033 -24.6988 -24.6976 -24.6975 -24.6967 -24.6967
   -24.6933 -24.6932 -24.6899 -24.6873 -24.6873 -24.6787 -24.6725 -24.6725
   -24.6701 -24.6685 -24.6634 -24.6633 -24.6574 -24.6573 -24.6566 -24.6449
   -24.6416 -24.6389 -24.6388 -24.6360 -24.6359 -24.6211 -24.6178 -24.6158
   -11.7562 -11.4842 -11.4841 -11.2252 -11.2010 -11.0999 -11.0999 -10.9699
   -10.9698 -10.8791 -10.8736 -10.8649 -10.8649 -10.8405 -10.8404 -10.8103
   -10.8103 -10.7819 -10.7564 -10.7237 -10.7237 -10.7090 -10.6835 -10.6835
   -10.6416 -10.6376 -10.6376 -10.6366 -10.5904 -10.5904 -10.5805 -10.5805
   -10.5532 -10.5084 -10.5083 -10.4938 -10.4937 -10.4665 -10.4665 -10.3983
   -10.3938 -10.3871 -10.3415 -10.3383 -10.3209 -10.3209 -10.3113 -10.2907
   -10.2327 -10.2327 -10.2222 -10.2222 -10.1955 -10.1955 -10.1841 -10.1840
   -10.1401 -10.1401 -10.1089 -10.1088 -10.1023 -10.0747 -10.0441 -10.0441
   -10.0227 -10.0227  -9.9647  -9.9647  -9.9190  -9.8592  -9.8498  -9.8309
    -2.5656  -2.5597  -2.5270  -2.5004  -2.1889  -2.1889  -2.1652  -2.1651
    -2.0831  -2.0830  -2.0226  -2.0225  -1.8733  -1.8522  -1.8402  -1.8393
    -1.8339  -1.7941  -1.7941  -1.7390  -1.7390  -1.7040  -1.6695  -1.6625
    -1.6625  -1.5517  -1.5516  -1.5416  -1.5415  -1.5108  -1.4914  -1.4914
    -1.4826  -1.4825  -1.4191  -1.4190  -1.4010  -1.4010  -1.3369  -1.3369
    -1.3295  -1.3104  -1.3104  -1.2881  -1.2802  -1.2278  -1.2278  -1.1204
    -1.1204  -1.0242  -1.0193  -1.0010  -1.0010  -0.9794  -0.9794  -0.9399
    -0.9359  -0.9359  -0.9285  -0.9284  -0.7497  -0.7446  -0.7383  -0.7269
    -0.7269  -0.6844  -0.6223  -0.6012  -0.5935  -0.5921  -0.5921  -0.5453
    -0.5327  -0.5327  -0.5138  -0.5108  -0.5108  -0.5018  -0.5018  -0.4998
    -0.4998  -0.4962  -0.4885  -0.4740  -0.4442  -0.4436  -0.4113  -0.4113
    -0.3963  -0.3962  -0.3790  -0.3790  -0.3699  -0.3699  -0.3641  -0.3640
    -0.3613  -0.3613  -0.3296  -0.3296  -0.3266  -0.3266  -0.2757  -0.2757
    -0.2687  -0.2687  -0.2565  -0.2564  -0.2254  -0.2254  -0.2211  -0.2195
    -0.1922  -0.1869  -0.1628  -0.1625  -0.1484  -0.1448  -0.1355  -0.1336
    -0.1336  -0.1332  -0.1199  -0.1199  -0.1038  -0.1013  -0.1012  -0.0896
    -0.0446  -0.0445  -0.0365  -0.0062  -0.0062   0.0070   0.0106   0.0107
     0.0383   0.0383   0.0537   0.0537   0.0696   0.0833   0.1083   0.1085
     0.1085   0.1439   0.1523   0.1523   0.1525   0.1542   0.1644   0.1816
     0.1930   0.1930   0.2070   0.2070   0.2163   0.2164   0.2276   0.2277
     0.2380   0.2380   0.2843   0.2843   0.2926   0.2926   0.2978   0.2978
     0.3194   0.3194   0.3733   0.3733   0.3795   0.3796   0.4346   0.4723
     0.5000   0.5000   0.5514   0.5514   0.5637   0.5638   0.5748   0.5971
     0.6015   0.6601   0.6736   0.6737   0.6869   0.6869   0.6878   0.6931
     0.7373   0.7374   0.7413   0.7689   0.7689   0.8397   0.8398   0.8821
     0.8821   0.8982   0.9201   0.9551   0.9552   1.0019   1.0019   1.0724
     1.0957   1.1043   1.3213   1.3213   1.4001   1.5839   1.6156   1.8000
     2.6612   2.9005   2.9005   3.0841   3.0841   3.1239   3.4648   3.4649
     3.7585   3.7586   3.8202   3.8573   3.8573   3.9387   3.9497   3.9533
     3.9757   3.9757   4.1355   4.1355   4.1998   4.1999   4.2162   4.2162
     4.2525   4.2540   4.3752   4.3875   4.4016   4.4017   4.4076   4.4134
     4.4134   4.4285   4.5155   4.5281   4.5282   4.6623   4.6623   4.6638
     4.6638   4.6851   4.6852   4.6962   4.7425   4.7425   4.8340   4.8340
     4.8549   4.8550   4.8585   4.8586   4.9063   4.9440   4.9519   4.9659
     4.9677   4.9678   5.0702   5.0703   5.0803   5.0930   5.1017   5.1018
     5.1154   5.1390   5.1390   5.1519   5.1520   5.1663   5.1924   5.2041
     5.2377   5.3411   5.3412   5.3699   5.3699   5.4428   5.4428   5.4833
     5.4833   5.4923   5.4923   5.5180   5.5180   5.5394   5.5604   5.5604
     5.5831   5.5831   5.5865   5.6000   5.6000   5.6396   5.6396   5.7037
     5.7037   5.7249   5.7497   5.7498   5.7672   5.7689   5.8049   5.8124
     5.8124   5.8525   5.8545   5.8701   5.8830   5.9037   5.9037   5.9402
     5.9435   5.9458   5.9649

          k = 0.2500-0.5000 0.0000 (165780 PWs)   bands (ev):

   -46.4928 -46.4928 -46.4848 -46.4848 -46.4713 -46.4713 -46.4640 -46.4639
   -46.4634 -46.4634 -46.4629 -46.4628 -46.4563 -46.4563 -46.4438 -46.4437
   -46.4367 -46.4367 -46.4235 -46.4232 -46.4152 -46.4150 -46.4014 -46.4011
   -46.3939 -46.3937 -46.3932 -46.3929 -46.3926 -46.3923 -46.3861 -46.3857
   -46.3734 -46.3731 -46.3664 -46.3661 -46.1792 -46.1791 -46.1692 -46.1691
   -46.1520 -46.1520 -46.1433 -46.1433 -46.1411 -46.1411 -46.1386 -46.1386
   -46.1331 -46.1331 -46.1184 -46.1184 -46.1145 -46.1143 -46.1110 -46.1110
   -46.1108 -46.1107 -46.1042 -46.1038 -46.1038 -46.1037 -46.1011 -46.1008
   -46.0985 -46.0982 -46.0945 -46.0944 -46.0842 -46.0841 -46.0770 -46.0768
   -25.3843 -25.3843 -25.3642 -25.3642 -25.3602 -25.3601 -25.3593 -25.3593
   -25.3547 -25.3547 -25.3526 -25.3526 -25.3379 -25.3379 -25.3375 -25.3375
   -25.3113 -25.3113 -25.3098 -25.3098 -25.3066 -25.3065 -25.3052 -25.3049
   -25.3001 -25.2999 -25.2920 -25.2918 -25.2855 -25.2855 -25.2833 -25.2831
   -25.2780 -25.2779 -25.2740 -25.2740 -25.2686 -25.2685 -25.2601 -25.2599
   -25.2512 -25.2511 -25.2418 -25.2418 -25.2319 -25.2318 -25.2252 -25.2250
   -25.2148 -25.2148 -25.1982 -25.1982 -25.1981 -25.1981 -25.1878 -25.1878
   -25.1831 -25.1831 -25.1713 -25.1713 -25.1706 -25.1706 -25.1358 -25.1358
   -25.1249 -25.1249 -25.1213 -25.1213 -25.1165 -25.1165 -25.1144 -25.1144
   -25.0665 -25.0665 -25.0500 -25.0500 -25.0479 -25.0479 -25.0474 -25.0474
   -25.0431 -25.0430 -25.0339 -25.0338 -25.0207 -25.0207 -25.0143 -25.0142
   -25.0069 -25.0068 -25.0059 -25.0058 -24.9990 -24.9990 -24.9954 -24.9954
   -24.9902 -24.9900 -24.9829 -24.9829 -24.9794 -24.9794 -24.9740 -24.9740
   -24.9656 -24.9655 -24.9620 -24.9619 -24.9615 -24.9615 -24.9563 -24.9563
   -24.9292 -24.9292 -24.9234 -24.9233 -24.9231 -24.9231 -24.9200 -24.9200
   -24.9146 -24.9146 -24.9056 -24.9055 -24.8922 -24.8922 -24.8869 -24.8868
   -24.8756 -24.8756 -24.8756 -24.8756 -24.8745 -24.8745 -24.8647 -24.8646
   -24.8644 -24.8643 -24.8635 -24.8635 -24.8504 -24.8504 -24.8421 -24.8421
   -24.8323 -24.8322 -24.8115 -24.8115 -24.8114 -24.8114 -24.7991 -24.7990
   -24.7967 -24.7967 -24.7924 -24.7924 -24.7893 -24.7893 -24.7687 -24.7687
   -24.7656 -24.7655 -24.7559 -24.7559 -24.7499 -24.7499 -24.7475 -24.7475
   -24.7471 -24.7471 -24.7426 -24.7425 -24.7406 -24.7406 -24.7391 -24.7390
   -24.7238 -24.7237 -24.7227 -24.7226 -24.7225 -24.7225 -24.7209 -24.7209
   -24.7157 -24.7157 -24.7078 -24.7076 -24.7075 -24.7075 -24.6999 -24.6998
   -24.6844 -24.6843 -24.6778 -24.6777 -24.6725 -24.6724 -24.6682 -24.6682
   -24.6638 -24.6638 -24.6625 -24.6624 -24.6610 -24.6610 -24.6587 -24.6587
   -24.6565 -24.6565 -24.6253 -24.6253 -24.6250 -24.6250 -24.6223 -24.6223
   -11.6476 -11.6476 -11.3806 -11.3805 -11.1071 -11.1071 -11.0053 -11.0052
   -10.9421 -10.9420 -10.8825 -10.8824 -10.8442 -10.8441 -10.8116 -10.8115
   -10.7576 -10.7575 -10.7390 -10.7389 -10.7224 -10.7224 -10.7001 -10.7001
   -10.6842 -10.6841 -10.6216 -10.6216 -10.6101 -10.6100 -10.6025 -10.6024
   -10.5360 -10.5360 -10.5019 -10.5018 -10.4530 -10.4529 -10.4440 -10.4439
   -10.4109 -10.4109 -10.3357 -10.3356 -10.2907 -10.2906 -10.2620 -10.2619
   -10.2471 -10.2470 -10.2287 -10.2287 -10.1760 -10.1760 -10.1486 -10.1485
   -10.1442 -10.1440 -10.1366 -10.1365 -10.1171 -10.1171 -10.0562 -10.0562
   -10.0478 -10.0477  -9.9751  -9.9750  -9.8579  -9.8579  -9.8139  -9.8138
    -2.6096  -2.6096  -2.5954  -2.5954  -2.1973  -2.1973  -2.1589  -2.1588
    -1.9591  -1.9591  -1.9208  -1.9208  -1.9204  -1.9204  -1.8548  -1.8548
    -1.8370  -1.8370  -1.7749  -1.7749  -1.7470  -1.7470  -1.7048  -1.7047
    -1.6241  -1.6241  -1.5907  -1.5906  -1.5076  -1.5076  -1.4851  -1.4851
    -1.4662  -1.4661  -1.4102  -1.4101  -1.3594  -1.3594  -1.2696  -1.2696
    -1.2410  -1.2409  -1.2336  -1.2334  -1.2019  -1.2019  -1.1557  -1.1557
    -1.1342  -1.1342  -1.0851  -1.0850  -1.0678  -1.0678  -1.0191  -1.0190
    -1.0003  -1.0002  -0.9174  -0.9174  -0.8951  -0.8951  -0.8041  -0.8041
    -0.6020  -0.6019  -0.5881  -0.5881  -0.5637  -0.5637  -0.5602  -0.5601
    -0.5089  -0.5088  -0.4986  -0.4986  -0.4928  -0.4927  -0.4800  -0.4800
    -0.4727  -0.4726  -0.4624  -0.4623  -0.4588  -0.4588  -0.4554  -0.4553
    -0.4297  -0.4297  -0.4269  -0.4269  -0.4194  -0.4193  -0.3994  -0.3993
    -0.3509  -0.3509  -0.3482  -0.3481  -0.3163  -0.3163  -0.3123  -0.3123
    -0.3087  -0.3087  -0.2984  -0.2984  -0.2598  -0.2597  -0.2271  -0.2270
    -0.2037  -0.2036  -0.1961  -0.1961  -0.1697  -0.1697  -0.1476  -0.1476
    -0.1024  -0.1023  -0.0927  -0.0927  -0.0864  -0.0864  -0.0218  -0.0217
    -0.0016  -0.0016   0.0157   0.0157   0.0219   0.0220   0.0356   0.0356
     0.0677   0.0677   0.1111   0.1111   0.1186   0.1186   0.1424   0.1425
     0.1425   0.1427   0.1464   0.1464   0.1638   0.1639   0.1967   0.1967
     0.2166   0.2166   0.2186   0.2187   0.2386   0.2387   0.2615   0.2616
     0.3257   0.3258   0.3340   0.3340   0.3435   0.3436   0.3765   0.3765
     0.3875   0.3876   0.4242   0.4243   0.4932   0.4932   0.5300   0.5300
     0.5575   0.5576   0.5720   0.5720   0.5749   0.5749   0.5773   0.5774
     0.6363   0.6363   0.6522   0.6522   0.6549   0.6550   0.6773   0.6774
     0.6826   0.6827   0.7288   0.7289   0.8175   0.8175   0.8214   0.8214
     0.8400   0.8401   0.8611   0.8612   0.9770   0.9771   1.0078   1.0078
     1.0768   1.0769   1.1016   1.1016   1.3079   1.3079   1.5561   1.5561
     2.9668   2.9670   3.1432   3.1433   3.3152   3.3153   3.4514   3.4516
     3.5621   3.5621   3.7121   3.7122   3.7743   3.7744   3.8817   3.8818
     3.9864   3.9864   4.0357   4.0360   4.1836   4.1836   4.2041   4.2042
     4.2843   4.2844   4.3118   4.3119   4.3328   4.3329   4.3832   4.3832
     4.3883   4.3886   4.4221   4.4224   4.4817   4.4818   4.6263   4.6264
     4.7157   4.7158   4.7345   4.7346   4.7393   4.7395   4.8127   4.8127
     4.8173   4.8173   4.8517   4.8517   4.8704   4.8705   4.9655   4.9656
     4.9759   4.9760   5.0326   5.0326   5.1100   5.1101   5.1566   5.1567
     5.1821   5.1823   5.2034   5.2035   5.2567   5.2567   5.2608   5.2609
     5.2940   5.2941   5.3039   5.3039   5.3656   5.3657   5.3888   5.3889
     5.4862   5.4862   5.5045   5.5045   5.5059   5.5059   5.5192   5.5194
     5.5765   5.5765   5.6481   5.6482   5.6595   5.6595   5.7753   5.7753
     5.7940   5.7941   5.8163   5.8164   5.8515   5.8516   5.8683   5.8683
     5.8959   5.8961   5.9002   5.9002   5.9112   5.9114   5.9481   5.9484
     5.9583   5.9584   5.9879

          k =-0.5000-0.5000 0.0000 (165708 PWs)   bands (ev):

   -46.4897 -46.4897 -46.4897 -46.4897 -46.4637 -46.4637 -46.4637 -46.4637
   -46.4637 -46.4637 -46.4637 -46.4637 -46.4628 -46.4627 -46.4394 -46.4394
   -46.4394 -46.4394 -46.4203 -46.4203 -46.4201 -46.4199 -46.3937 -46.3936
   -46.3936 -46.3936 -46.3936 -46.3935 -46.3932 -46.3931 -46.3925 -46.3920
   -46.3691 -46.3690 -46.3689 -46.3686 -46.1753 -46.1753 -46.1753 -46.1752
   -46.1425 -46.1424 -46.1424 -46.1424 -46.1424 -46.1424 -46.1424 -46.1423
   -46.1382 -46.1382 -46.1138 -46.1138 -46.1138 -46.1137 -46.1131 -46.1130
   -46.1130 -46.1129 -46.1045 -46.1042 -46.0998 -46.0996 -46.0994 -46.0994
   -46.0994 -46.0993 -46.0993 -46.0992 -46.0800 -46.0798 -46.0798 -46.0797
   -25.3880 -25.3880 -25.3628 -25.3627 -25.3620 -25.3620 -25.3620 -25.3620
   -25.3468 -25.3468 -25.3467 -25.3467 -25.3467 -25.3467 -25.3467 -25.3467
   -25.3148 -25.3148 -25.3034 -25.3033 -25.3032 -25.3030 -25.2967 -25.2966
   -25.2966 -25.2966 -25.2884 -25.2884 -25.2884 -25.2884 -25.2883 -25.2883
   -25.2881 -25.2879 -25.2816 -25.2816 -25.2470 -25.2470 -25.2470 -25.2470
   -25.2398 -25.2398 -25.2397 -25.2395 -25.2244 -25.2244 -25.2243 -25.2243
   -25.2243 -25.2243 -25.2243 -25.2243 -25.1906 -25.1905 -25.1905 -25.1905
   -25.1673 -25.1673 -25.1673 -25.1673 -25.1672 -25.1672 -25.1671 -25.1671
   -25.1488 -25.1488 -25.1488 -25.1488 -25.0967 -25.0967 -25.0967 -25.0967
   -25.0760 -25.0760 -25.0760 -25.0760 -25.0506 -25.0506 -25.0169 -25.0168
   -25.0115 -25.0115 -25.0114 -25.0114 -25.0114 -25.0114 -25.0114 -25.0114
   -25.0045 -25.0045 -25.0045 -25.0044 -25.0027 -25.0027 -25.0027 -25.0027
   -24.9838 -24.9838 -24.9838 -24.9838 -24.9837 -24.9837 -24.9837 -24.9837
   -24.9732 -24.9732 -24.9732 -24.9731 -24.9530 -24.9529 -24.9529 -24.9529
   -24.9529 -24.9529 -24.9529 -24.9528 -24.9155 -24.9155 -24.9155 -24.9155
   -24.8944 -24.8944 -24.8943 -24.8943 -24.8942 -24.8942 -24.8942 -24.8941
   -24.8928 -24.8928 -24.8928 -24.8927 -24.8693 -24.8693 -24.8546 -24.8546
   -24.8545 -24.8545 -24.8499 -24.8498 -24.8498 -24.8498 -24.8363 -24.8363
   -24.8363 -24.8362 -24.8264 -24.8264 -24.8263 -24.8263 -24.8045 -24.8045
   -24.7815 -24.7814 -24.7814 -24.7814 -24.7659 -24.7659 -24.7659 -24.7659
   -24.7659 -24.7659 -24.7658 -24.7658 -24.7577 -24.7576 -24.7576 -24.7575
   -24.7485 -24.7484 -24.7484 -24.7484 -24.7484 -24.7483 -24.7483 -24.7483
   -24.7374 -24.7374 -24.7107 -24.7105 -24.7055 -24.7055 -24.7054 -24.7054
   -24.6994 -24.6994 -24.6993 -24.6993 -24.6896 -24.6895 -24.6895 -24.6895
   -24.6894 -24.6894 -24.6894 -24.6894 -24.6806 -24.6805 -24.6805 -24.6804
   -24.6804 -24.6804 -24.6804 -24.6803 -24.6659 -24.6659 -24.6658 -24.6658
   -24.6492 -24.6492 -24.6204 -24.6204 -24.6184 -24.6184 -24.6184 -24.6184
   -11.5409 -11.5409 -11.5409 -11.5408 -11.0157 -11.0157 -11.0157 -11.0156
   -10.8531 -10.8531 -10.8530 -10.8530 -10.8530 -10.8530 -10.8530 -10.8529
   -10.7795 -10.7794 -10.7794 -10.7793 -10.7741 -10.7741 -10.7741 -10.7741
   -10.6196 -10.6195 -10.6195 -10.6195 -10.5386 -10.5386 -10.5385 -10.5385
   -10.5384 -10.5384 -10.5384 -10.5384 -10.5360 -10.5359 -10.5359 -10.5358
   -10.3602 -10.3601 -10.3557 -10.3556 -10.2394 -10.2394 -10.2394 -10.2393
   -10.2122 -10.2122 -10.2121 -10.2119 -10.1579 -10.1579 -10.1579 -10.1579
   -10.1579 -10.1579 -10.1578 -10.1577 -10.0691 -10.0691 -10.0690 -10.0690
   -10.0690 -10.0690 -10.0689 -10.0689  -9.8209  -9.8209  -9.7926  -9.7924
    -2.6698  -2.6698  -2.6639  -2.6639  -1.9679  -1.9679  -1.9537  -1.9537
    -1.9537  -1.9537  -1.9537  -1.9537  -1.9536  -1.9536  -1.9456  -1.9456
    -1.8990  -1.8990  -1.8990  -1.8990  -1.8990  -1.8990  -1.8989  -1.8989
    -1.4091  -1.4091  -1.4091  -1.4090  -1.3665  -1.3665  -1.3664  -1.3664
    -1.3589  -1.3589  -1.3589  -1.3588  -1.3231  -1.3231  -1.3231  -1.3231
    -1.3230  -1.3230  -1.3230  -1.3229  -1.1792  -1.1792  -1.1792  -1.1792
    -1.1792  -1.1791  -1.1791  -1.1791  -1.0942  -1.0942  -1.0942  -1.0941
    -0.9943  -0.9943  -0.9942  -0.9942  -0.9903  -0.9903  -0.9903  -0.9903
    -0.6253  -0.6252  -0.6158  -0.6158  -0.5439  -0.5439  -0.5343  -0.5342
    -0.5035  -0.5035  -0.5034  -0.5034  -0.5034  -0.5034  -0.5034  -0.5033
    -0.4209  -0.4209  -0.4209  -0.4208  -0.4208  -0.4208  -0.4208  -0.4208
    -0.3541  -0.3541  -0.3541  -0.3541  -0.3540  -0.3540  -0.3540  -0.3539
    -0.3388  -0.3388  -0.3387  -0.3387  -0.3374  -0.3374  -0.3373  -0.3373
    -0.3180  -0.3180  -0.3180  -0.3179  -0.2558  -0.2558  -0.2558  -0.2558
    -0.2558  -0.2557  -0.2557  -0.2557  -0.2303  -0.2303  -0.2057  -0.2057
    -0.1040  -0.1039  -0.1039  -0.1039  -0.1010  -0.1009  -0.0566  -0.0566
     0.0756   0.0756   0.0756   0.0757   0.0782   0.0783   0.0783   0.0784
     0.0913   0.0914   0.0914   0.0914   0.0914   0.0914   0.0914   0.0915
     0.1946   0.1947   0.1947   0.1947   0.1947   0.1948   0.1948   0.1948
     0.3385   0.3385   0.3386   0.3386   0.3490   0.3490   0.3491   0.3492
     0.4003   0.4003   0.4003   0.4003   0.4159   0.4159   0.4159   0.4160
     0.5200   0.5201   0.5201   0.5202   0.5202   0.5202   0.5203   0.5203
     0.5306   0.5307   0.5307   0.5308   0.5421   0.5422   0.5422   0.5422
     0.5422   0.5423   0.5423   0.5423   0.6683   0.6683   0.6684   0.6684
     0.7497   0.7497   0.7497   0.7497   0.7724   0.7725   0.7725   0.7725
     0.8059   0.8059   0.8059   0.8061   0.8862   0.8863   0.8864   0.8864
     1.0996   1.0996   1.0996   1.0996   1.2396   1.2397   1.2397   1.2397
     3.3598   3.3598   3.3599   3.3599   3.3605   3.3605   3.3605   3.3606
     3.4743   3.4743   3.4743   3.4743   3.8608   3.8609   3.8609   3.8609
     3.9865   3.9867   3.9867   3.9867   3.9867   3.9868   3.9868   3.9869
     4.1285   4.1285   4.1286   4.1289   4.3739   4.3740   4.3740   4.3743
     4.4454   4.4454   4.4454   4.4454   4.5296   4.5296   4.5296   4.5297
     4.5348   4.5348   4.5349   4.5349   4.8585   4.8586   4.8586   4.8586
     4.8586   4.8586   4.8587   4.8587   4.9332   4.9332   4.9333   4.9334
     5.0082   5.0082   5.0082   5.0082   5.1938   5.1938   5.1938   5.1939
     5.2277   5.2277   5.2277   5.2277   5.2278   5.2278   5.2278   5.2280
     5.2732   5.2733   5.3292   5.3292   5.4447   5.4447   5.4447   5.4448
     5.4449   5.4450   5.4450   5.4454   5.5417   5.5417   5.5417   5.5418
     5.7646   5.7646   5.7646   5.7647   5.7902   5.7902   5.7903   5.7903
     5.8561   5.8561   5.8561   5.8561   5.8562   5.8563   5.8563   5.8563
     5.9624   5.9642   5.9801   5.9801   5.9801   5.9802   5.9802   5.9804
     5.9804   5.9804   6.0955

          k = 0.2500 0.0000 0.0000 (165664 PWs)   bands (ev):

   -46.4974 -46.4883 -46.4804 -46.4804 -46.4756 -46.4755 -46.4728 -46.4675
   -46.4675 -46.4588 -46.4588 -46.4554 -46.4518 -46.4518 -46.4480 -46.4480
   -46.4409 -46.4327 -46.4281 -46.4187 -46.4107 -46.4105 -46.4057 -46.4054
   -46.4028 -46.3974 -46.3971 -46.3885 -46.3882 -46.3851 -46.3815 -46.3812
   -46.3777 -46.3774 -46.3704 -46.3621 -46.1848 -46.1736 -46.1639 -46.1638
   -46.1570 -46.1570 -46.1545 -46.1457 -46.1457 -46.1344 -46.1343 -46.1330
   -46.1270 -46.1270 -46.1238 -46.1238 -46.1167 -46.1157 -46.1120 -46.1081
   -46.1079 -46.1072 -46.1070 -46.1067 -46.1048 -46.1046 -46.1034 -46.0998
   -46.0996 -46.0926 -46.0924 -46.0922 -46.0871 -46.0869 -46.0806 -46.0727
   -25.3736 -25.3736 -25.3693 -25.3685 -25.3684 -25.3620 -25.3620 -25.3591
   -25.3531 -25.3530 -25.3439 -25.3415 -25.3415 -25.3351 -25.3350 -25.3229
   -25.3207 -25.3206 -25.3141 -25.3141 -25.3088 -25.3005 -25.3005 -25.3004
   -25.3003 -25.2999 -25.2973 -25.2972 -25.2957 -25.2933 -25.2931 -25.2836
   -25.2834 -25.2834 -25.2757 -25.2756 -25.2688 -25.2644 -25.2584 -25.2584
   -25.2577 -25.2575 -25.2370 -25.2305 -25.2305 -25.2299 -25.2299 -25.2230
   -25.2226 -25.2148 -25.2148 -25.2118 -25.2118 -25.2038 -25.1939 -25.1842
   -25.1663 -25.1642 -25.1561 -25.1560 -25.1543 -25.1482 -25.1482 -25.1351
   -25.1276 -25.1180 -25.1179 -25.1173 -25.1108 -25.1108 -25.1084 -25.1000
   -25.0641 -25.0641 -25.0612 -25.0611 -25.0603 -25.0488 -25.0488 -25.0478
   -25.0436 -25.0427 -25.0427 -25.0404 -25.0266 -25.0265 -25.0196 -25.0195
   -25.0158 -25.0157 -25.0102 -25.0057 -25.0036 -25.0036 -24.9993 -24.9922
   -24.9921 -24.9839 -24.9824 -24.9780 -24.9740 -24.9733 -24.9733 -24.9685
   -24.9684 -24.9664 -24.9636 -24.9630 -24.9629 -24.9465 -24.9465 -24.9394
   -24.9393 -24.9359 -24.9277 -24.9276 -24.9265 -24.9178 -24.9149 -24.9141
   -24.9141 -24.9122 -24.9122 -24.9010 -24.8968 -24.8968 -24.8915 -24.8914
   -24.8839 -24.8839 -24.8760 -24.8720 -24.8711 -24.8701 -24.8662 -24.8613
   -24.8585 -24.8523 -24.8523 -24.8503 -24.8503 -24.8497 -24.8497 -24.8362
   -24.8362 -24.8361 -24.8278 -24.8276 -24.8209 -24.8208 -24.8134 -24.7962
   -24.7936 -24.7935 -24.7837 -24.7786 -24.7744 -24.7716 -24.7716 -24.7628
   -24.7597 -24.7596 -24.7594 -24.7593 -24.7506 -24.7506 -24.7504 -24.7503
   -24.7494 -24.7493 -24.7454 -24.7450 -24.7445 -24.7445 -24.7417 -24.7320
   -24.7320 -24.7248 -24.7219 -24.7218 -24.7209 -24.7207 -24.7178 -24.7178
   -24.7159 -24.7158 -24.7152 -24.7122 -24.6967 -24.6941 -24.6941 -24.6923
   -24.6922 -24.6921 -24.6921 -24.6834 -24.6745 -24.6692 -24.6692 -24.6677
   -24.6677 -24.6653 -24.6653 -24.6620 -24.6616 -24.6615 -24.6579 -24.6554
   -24.6553 -24.6546 -24.6292 -24.6264 -24.6216 -24.6216 -24.6205 -24.6205
   -11.7943 -11.5205 -11.2912 -11.2911 -11.2342 -11.1332 -11.0430 -11.0429
   -11.0009 -10.9005 -10.8886 -10.8699 -10.8360 -10.8170 -10.8169 -10.8110
   -10.8009 -10.8008 -10.7400 -10.7390 -10.7100 -10.7038 -10.7038 -10.6395
   -10.6394 -10.6199 -10.6199 -10.6149 -10.6148 -10.6107 -10.6084 -10.5377
   -10.5376 -10.5232 -10.5066 -10.5065 -10.4457 -10.4456 -10.4099 -10.4099
   -10.4076 -10.4076 -10.3564 -10.3505 -10.3505 -10.3471 -10.3293 -10.2582
   -10.2581 -10.2537 -10.2486 -10.2144 -10.2081 -10.1896 -10.1896 -10.1583
   -10.1583 -10.1354 -10.1353 -10.1312 -10.0423 -10.0423 -10.0219 -10.0219
   -10.0061 -10.0060  -9.9346  -9.9345  -9.9256  -9.9256  -9.8848  -9.8847
    -2.4130  -2.4129  -2.4001  -2.4001  -2.3353  -2.3353  -2.2949  -2.2948
    -2.0580  -2.0579  -2.0438  -2.0437  -1.8838  -1.8838  -1.7871  -1.7870
    -1.7361  -1.7304  -1.7304  -1.7100  -1.7100  -1.6939  -1.6938  -1.6725
    -1.6290  -1.6290  -1.6283  -1.6282  -1.6006  -1.5232  -1.5231  -1.4686
    -1.4686  -1.4657  -1.4632  -1.4632  -1.4525  -1.3969  -1.3969  -1.3921
    -1.3319  -1.3203  -1.3157  -1.3156  -1.2720  -1.2120  -1.2119  -1.0724
    -1.0709  -1.0708  -1.0115  -0.9513  -0.9267  -0.9256  -0.9256  -0.9214
    -0.9127  -0.9075  -0.9074  -0.8764  -0.7415  -0.7254  -0.6623  -0.6397
    -0.6396  -0.6331  -0.6330  -0.5921  -0.5636  -0.5635  -0.5523  -0.5523
    -0.5415  -0.5363  -0.4994  -0.4994  -0.4919  -0.4918  -0.4740  -0.4739
    -0.4722  -0.4722  -0.4520  -0.4520  -0.4487  -0.4486  -0.4389  -0.4388
    -0.4354  -0.4354  -0.4204  -0.4203  -0.4017  -0.3973  -0.3973  -0.3870
    -0.3869  -0.3794  -0.3330  -0.3329  -0.3080  -0.3040  -0.2952  -0.2925
    -0.2925  -0.2802  -0.2720  -0.2549  -0.2548  -0.2305  -0.1805  -0.1804
    -0.1499  -0.1498  -0.1374  -0.1374  -0.1311  -0.1310  -0.1279  -0.1184
    -0.1183  -0.1147  -0.1147  -0.1127  -0.0824  -0.0824  -0.0684  -0.0566
    -0.0513  -0.0513  -0.0448  -0.0448  -0.0305  -0.0305  -0.0122  -0.0122
     0.0063   0.0305   0.0305   0.0426   0.0427   0.0431   0.0431   0.0445
     0.0446   0.0568   0.0972   0.1037   0.1037   0.1261   0.1261   0.1275
     0.1434   0.1435   0.1467   0.1469   0.1492   0.1599   0.1789   0.1789
     0.2029   0.2030   0.2133   0.2133   0.2528   0.2803   0.2803   0.2870
     0.3011   0.3338   0.3380   0.3380   0.3654   0.3654   0.3676   0.3677
     0.4367   0.4367   0.4736   0.4737   0.4743   0.5602   0.5806   0.5987
     0.6858   0.6858   0.6894   0.7006   0.7350   0.7351   0.7422   0.7519
     0.7651   0.7652   0.7659   0.7660   0.8244   0.8297   0.8769   0.8822
     0.8836   0.9422   0.9636   1.0652   1.0868   1.1012   1.1168   1.1169
     1.1199   1.1212   1.1971   1.4756   1.6081   1.6445   1.7990   1.9439
     2.4664   2.7350   2.8795   2.9455   2.9533   3.2518   3.2520   3.3534
     3.6838   3.6923   3.8563   3.8944   3.9068   4.0662   4.0663   4.0822
     4.1726   4.1773   4.2078   4.2079   4.2339   4.2982   4.3388   4.3882
     4.3986   4.3987   4.4268   4.4269   4.4350   4.4723   4.4723   4.4750
     4.4751   4.5400   4.5665   4.5665   4.5922   4.5923   4.6494   4.6526
     4.6528   4.6762   4.6997   4.6998   4.7084   4.7544   4.7545   4.8167
     4.8168   4.8237   4.8382   4.8609   4.8609   4.9135   4.9150   4.9150
     4.9794   4.9842   4.9843   5.0216   5.0254   5.0255   5.0395   5.0925
     5.0926   5.1068   5.1321   5.1768   5.1769   5.1867   5.2278   5.2280
     5.2504   5.2505   5.2590   5.2590   5.3168   5.3169   5.3483   5.3485
     5.4455   5.4744   5.4906   5.5800   5.5855   5.5893   5.5893   5.5913
     5.5914   5.6407   5.6412   5.6548   5.6549   5.7243   5.7262   5.7263
     5.7368   5.7370   5.7371   5.7544   5.7624   5.8248   5.8301   5.8305
     5.8355   5.8387   5.8479   5.8480   5.8643   5.8643   5.8948   5.8950
     5.9412   5.9580   5.9582

          k =-0.5000 0.0000 0.0000 (165810 PWs)   bands (ev):

   -46.4939 -46.4939 -46.4785 -46.4785 -46.4785 -46.4785 -46.4640 -46.4640
   -46.4631 -46.4631 -46.4631 -46.4631 -46.4495 -46.4495 -46.4495 -46.4495
   -46.4358 -46.4358 -46.4245 -46.4244 -46.4088 -46.4088 -46.4086 -46.4083
   -46.3940 -46.3938 -46.3929 -46.3928 -46.3928 -46.3922 -46.3792 -46.3792
   -46.3790 -46.3787 -46.3654 -46.3652 -46.1805 -46.1805 -46.1612 -46.1612
   -46.1612 -46.1611 -46.1436 -46.1435 -46.1398 -46.1397 -46.1397 -46.1397
   -46.1250 -46.1249 -46.1249 -46.1249 -46.1149 -46.1148 -46.1101 -46.1101
   -46.1078 -46.1077 -46.1076 -46.1075 -46.1029 -46.1025 -46.1025 -46.1024
   -46.0981 -46.0979 -46.0894 -46.0893 -46.0892 -46.0891 -46.0759 -46.0759
   -25.3741 -25.3741 -25.3741 -25.3741 -25.3651 -25.3651 -25.3564 -25.3564
   -25.3564 -25.3563 -25.3343 -25.3343 -25.3329 -25.3329 -25.3328 -25.3327
   -25.3258 -25.3258 -25.3258 -25.3258 -25.3057 -25.3055 -25.2960 -25.2960
   -25.2959 -25.2957 -25.2953 -25.2953 -25.2953 -25.2952 -25.2814 -25.2814
   -25.2746 -25.2744 -25.2740 -25.2740 -25.2739 -25.2738 -25.2515 -25.2515
   -25.2514 -25.2513 -25.2509 -25.2509 -25.2509 -25.2509 -25.2211 -25.2210
   -25.2086 -25.2085 -25.2080 -25.2080 -25.1978 -25.1978 -25.1977 -25.1977
   -25.1633 -25.1632 -25.1632 -25.1632 -25.1514 -25.1513 -25.1509 -25.1508
   -25.1320 -25.1320 -25.0955 -25.0955 -25.0954 -25.0954 -25.0828 -25.0828
   -25.0828 -25.0828 -25.0788 -25.0788 -25.0765 -25.0763 -25.0373 -25.0373
   -25.0373 -25.0373 -25.0349 -25.0348 -25.0348 -25.0348 -25.0214 -25.0213
   -25.0119 -25.0119 -25.0091 -25.0091 -25.0067 -25.0067 -25.0066 -25.0065
   -24.9932 -24.9932 -24.9932 -24.9932 -24.9856 -24.9856 -24.9530 -24.9530
   -24.9506 -24.9506 -24.9413 -24.9413 -24.9413 -24.9413 -24.9374 -24.9374
   -24.9358 -24.9358 -24.9358 -24.9357 -24.9329 -24.9329 -24.9328 -24.9328
   -24.8989 -24.8989 -24.8989 -24.8988 -24.8943 -24.8943 -24.8943 -24.8943
   -24.8911 -24.8909 -24.8710 -24.8710 -24.8677 -24.8676 -24.8645 -24.8644
   -24.8596 -24.8595 -24.8595 -24.8594 -24.8505 -24.8504 -24.8467 -24.8466
   -24.8321 -24.8321 -24.8319 -24.8318 -24.8120 -24.8120 -24.8120 -24.8119
   -24.7968 -24.7968 -24.7705 -24.7705 -24.7701 -24.7701 -24.7700 -24.7699
   -24.7680 -24.7679 -24.7529 -24.7529 -24.7529 -24.7529 -24.7460 -24.7460
   -24.7460 -24.7459 -24.7434 -24.7433 -24.7395 -24.7395 -24.7383 -24.7383
   -24.7383 -24.7382 -24.7302 -24.7302 -24.7218 -24.7218 -24.7217 -24.7217
   -24.7213 -24.7213 -24.7213 -24.7212 -24.7050 -24.7048 -24.7047 -24.7046
   -24.6766 -24.6765 -24.6750 -24.6750 -24.6749 -24.6749 -24.6663 -24.6663
   -24.6617 -24.6616 -24.6616 -24.6615 -24.6475 -24.6475 -24.6389 -24.6389
   -24.6388 -24.6388 -24.6386 -24.6386 -24.6363 -24.6363 -24.6362 -24.6362
   -11.6849 -11.6849 -11.1916 -11.1916 -11.1916 -11.1915 -11.1396 -11.1395
   -10.9735 -10.9734 -10.8685 -10.8684 -10.8254 -10.8254 -10.7356 -10.7356
   -10.7355 -10.7355 -10.7287 -10.7287 -10.7241 -10.7241 -10.7241 -10.7240
   -10.6520 -10.6520 -10.6260 -10.6259 -10.5935 -10.5935 -10.5934 -10.5934
   -10.5756 -10.5755 -10.5755 -10.5755 -10.3749 -10.3748 -10.3748 -10.3747
   -10.3693 -10.3693 -10.3693 -10.3692 -10.3100 -10.3100 -10.2803 -10.2801
   -10.2717 -10.2717 -10.2717 -10.2716 -10.2540 -10.2540 -10.1610 -10.1610
   -10.1274 -10.1274 -10.1274 -10.1274 -10.0801 -10.0800 -10.0800 -10.0799
    -9.9467  -9.9467  -9.9467  -9.9466  -9.8806  -9.8806  -9.8805  -9.8804
    -2.4377  -2.4377  -2.4376  -2.4376  -2.4123  -2.4122  -2.4122  -2.4122
    -1.8411  -1.8411  -1.8410  -1.8410  -1.8060  -1.8060  -1.8060  -1.8059
    -1.7457  -1.7457  -1.7456  -1.7456  -1.7099  -1.7099  -1.6677  -1.6677
    -1.6676  -1.6676  -1.6631  -1.6631  -1.6630  -1.6630  -1.6331  -1.6331
    -1.5113  -1.5112  -1.5112  -1.5112  -1.3444  -1.3444  -1.3318  -1.3317
    -1.3317  -1.3316  -1.2133  -1.2132  -1.2040  -1.2039  -1.1484  -1.1484
    -1.1483  -1.1483  -1.0316  -1.0316  -0.9716  -0.9716  -0.9101  -0.9100
    -0.7537  -0.7537  -0.7537  -0.7536  -0.7391  -0.7390  -0.7390  -0.7389
    -0.7046  -0.7046  -0.6012  -0.6011  -0.5894  -0.5894  -0.5843  -0.5842
    -0.5842  -0.5842  -0.5732  -0.5731  -0.5380  -0.5380  -0.5379  -0.5379
    -0.4797  -0.4797  -0.4797  -0.4797  -0.4766  -0.4765  -0.4765  -0.4765
    -0.4439  -0.4439  -0.4438  -0.4438  -0.3923  -0.3923  -0.3922  -0.3922
    -0.3639  -0.3639  -0.2966  -0.2966  -0.2966  -0.2966  -0.2915  -0.2914
    -0.2573  -0.2573  -0.2573  -0.2572  -0.2425  -0.2424  -0.2359  -0.2359
    -0.2358  -0.2357  -0.1743  -0.1743  -0.1743  -0.1742  -0.1680  -0.1680
    -0.1010  -0.1009  -0.1009  -0.1009  -0.0749  -0.0748  -0.0748  -0.0748
    -0.0362  -0.0362  -0.0243  -0.0243  -0.0243  -0.0243  -0.0058  -0.0058
    -0.0058  -0.0057   0.0828   0.0828   0.0828   0.0828   0.1140   0.1141
     0.1162   0.1162   0.1163   0.1163   0.1356   0.1357   0.1357   0.1358
     0.1529   0.1529   0.1529   0.1530   0.1606   0.1606   0.1638   0.1638
     0.2733   0.2733   0.2734   0.2734   0.3553   0.3553   0.4110   0.4110
     0.4915   0.4915   0.4916   0.4916   0.5066   0.5067   0.5323   0.5323
     0.5324   0.5324   0.5455   0.5455   0.5861   0.5862   0.5862   0.5862
     0.6412   0.6413   0.6413   0.6414   0.6571   0.6571   0.6970   0.6971
     0.7426   0.7427   0.7797   0.7798   0.7798   0.7798   0.8041   0.8042
     0.8245   0.8246   0.8546   0.8547   0.9619   0.9621   1.1019   1.1019
     1.1888   1.1888   1.2061   1.2062   1.3621   1.3621   1.7172   1.7173
     2.8140   2.8141   3.0369   3.0370   3.3033   3.3033   3.4691   3.4691
     3.5915   3.5916   3.5917   3.5917   3.6144   3.6148   4.0055   4.0057
     4.1064   4.1064   4.2380   4.2380   4.3666   4.3666   4.3667   4.3667
     4.4085   4.4086   4.4087   4.4087   4.4191   4.4193   4.4657   4.4657
     4.5079   4.5080   4.5080   4.5082   4.6099   4.6099   4.6099   4.6100
     4.6565   4.6565   4.7036   4.7036   4.7978   4.7978   4.7979   4.7979
     4.8148   4.8148   4.8149   4.8150   4.8428   4.8429   4.8968   4.8969
     4.8969   4.8969   4.9286   4.9287   4.9935   4.9936   4.9936   4.9938
     5.1252   5.1253   5.1254   5.1254   5.2311   5.2312   5.2516   5.2516
     5.2517   5.2519   5.3368   5.3368   5.3390   5.3393   5.3500   5.3500
     5.3501   5.3502   5.4810   5.4810   5.4811   5.4812   5.6390   5.6390
     5.7288   5.7288   5.7288   5.7289   5.7388   5.7389   5.7389   5.7391
     5.7565   5.7566   5.8098   5.8098   5.8099   5.8103   5.8562   5.8567
     5.8753   5.8755   5.8911   5.8912   5.9026   5.9095   5.9095   5.9096
     5.9097   5.9242   6.0091

          k =-0.5000 0.2500 0.0000 (165780 PWs)   bands (ev):

   -46.4928 -46.4928 -46.4848 -46.4848 -46.4713 -46.4713 -46.4640 -46.4639
   -46.4634 -46.4634 -46.4629 -46.4628 -46.4563 -46.4563 -46.4438 -46.4437
   -46.4367 -46.4367 -46.4234 -46.4233 -46.4152 -46.4150 -46.4013 -46.4011
   -46.3939 -46.3937 -46.3932 -46.3930 -46.3926 -46.3921 -46.3860 -46.3858
   -46.3733 -46.3732 -46.3663 -46.3661 -46.1792 -46.1791 -46.1692 -46.1691
   -46.1520 -46.1520 -46.1433 -46.1432 -46.1411 -46.1411 -46.1386 -46.1386
   -46.1331 -46.1331 -46.1184 -46.1184 -46.1144 -46.1144 -46.1110 -46.1110
   -46.1108 -46.1107 -46.1040 -46.1039 -46.1038 -46.1037 -46.1011 -46.1008
   -46.0985 -46.0982 -46.0945 -46.0944 -46.0842 -46.0841 -46.0769 -46.0769
   -25.3843 -25.3843 -25.3642 -25.3642 -25.3602 -25.3601 -25.3593 -25.3593
   -25.3547 -25.3547 -25.3526 -25.3526 -25.3379 -25.3379 -25.3375 -25.3375
   -25.3113 -25.3113 -25.3098 -25.3098 -25.3066 -25.3065 -25.3051 -25.3050
   -25.3001 -25.3000 -25.2919 -25.2918 -25.2855 -25.2855 -25.2833 -25.2832
   -25.2781 -25.2779 -25.2740 -25.2740 -25.2686 -25.2685 -25.2600 -25.2600
   -25.2512 -25.2512 -25.2418 -25.2418 -25.2318 -25.2318 -25.2252 -25.2251
   -25.2148 -25.2148 -25.1982 -25.1982 -25.1981 -25.1981 -25.1878 -25.1878
   -25.1831 -25.1831 -25.1713 -25.1713 -25.1706 -25.1706 -25.1358 -25.1358
   -25.1249 -25.1249 -25.1213 -25.1213 -25.1165 -25.1165 -25.1145 -25.1144
   -25.0665 -25.0665 -25.0500 -25.0500 -25.0479 -25.0479 -25.0474 -25.0474
   -25.0431 -25.0430 -25.0338 -25.0338 -25.0207 -25.0207 -25.0143 -25.0142
   -25.0069 -25.0068 -25.0058 -25.0058 -24.9990 -24.9990 -24.9954 -24.9954
   -24.9901 -24.9901 -24.9829 -24.9829 -24.9794 -24.9794 -24.9740 -24.9740
   -24.9655 -24.9655 -24.9620 -24.9619 -24.9615 -24.9615 -24.9563 -24.9563
   -24.9292 -24.9292 -24.9234 -24.9233 -24.9231 -24.9231 -24.9200 -24.9200
   -24.9146 -24.9146 -24.9056 -24.9055 -24.8922 -24.8922 -24.8869 -24.8868
   -24.8756 -24.8756 -24.8756 -24.8756 -24.8745 -24.8745 -24.8647 -24.8647
   -24.8644 -24.8644 -24.8635 -24.8635 -24.8504 -24.8504 -24.8421 -24.8421
   -24.8323 -24.8322 -24.8115 -24.8115 -24.8114 -24.8114 -24.7990 -24.7990
   -24.7967 -24.7967 -24.7924 -24.7924 -24.7893 -24.7893 -24.7687 -24.7687
   -24.7656 -24.7655 -24.7559 -24.7559 -24.7500 -24.7499 -24.7476 -24.7475
   -24.7471 -24.7471 -24.7425 -24.7425 -24.7406 -24.7406 -24.7390 -24.7390
   -24.7237 -24.7237 -24.7227 -24.7226 -24.7225 -24.7225 -24.7209 -24.7209
   -24.7157 -24.7156 -24.7078 -24.7076 -24.7075 -24.7075 -24.6999 -24.6998
   -24.6844 -24.6843 -24.6778 -24.6777 -24.6724 -24.6724 -24.6682 -24.6682
   -24.6638 -24.6638 -24.6625 -24.6625 -24.6610 -24.6610 -24.6587 -24.6587
   -24.6565 -24.6565 -24.6253 -24.6253 -24.6250 -24.6250 -24.6223 -24.6223
   -11.6476 -11.6476 -11.3806 -11.3805 -11.1071 -11.1071 -11.0053 -11.0052
   -10.9421 -10.9420 -10.8825 -10.8824 -10.8442 -10.8441 -10.8116 -10.8115
   -10.7576 -10.7575 -10.7390 -10.7390 -10.7224 -10.7224 -10.7001 -10.7001
   -10.6842 -10.6841 -10.6216 -10.6216 -10.6101 -10.6100 -10.6025 -10.6024
   -10.5360 -10.5360 -10.5019 -10.5018 -10.4530 -10.4529 -10.4440 -10.4439
   -10.4109 -10.4109 -10.3357 -10.3356 -10.2907 -10.2906 -10.2620 -10.2619
   -10.2471 -10.2470 -10.2287 -10.2287 -10.1760 -10.1759 -10.1485 -10.1485
   -10.1442 -10.1441 -10.1366 -10.1365 -10.1171 -10.1171 -10.0562 -10.0562
   -10.0478 -10.0477  -9.9751  -9.9751  -9.8579  -9.8579  -9.8139  -9.8139
    -2.6096  -2.6096  -2.5954  -2.5954  -2.1973  -2.1973  -2.1589  -2.1589
    -1.9591  -1.9591  -1.9208  -1.9208  -1.9204  -1.9204  -1.8548  -1.8548
    -1.8370  -1.8370  -1.7749  -1.7749  -1.7470  -1.7470  -1.7048  -1.7047
    -1.6241  -1.6241  -1.5907  -1.5906  -1.5076  -1.5076  -1.4851  -1.4851
    -1.4661  -1.4661  -1.4102  -1.4101  -1.3594  -1.3594  -1.2696  -1.2696
    -1.2410  -1.2409  -1.2335  -1.2335  -1.2019  -1.2019  -1.1557  -1.1557
    -1.1342  -1.1342  -1.0850  -1.0850  -1.0678  -1.0678  -1.0191  -1.0190
    -1.0003  -1.0002  -0.9174  -0.9174  -0.8951  -0.8951  -0.8041  -0.8041
    -0.6020  -0.6019  -0.5881  -0.5881  -0.5638  -0.5637  -0.5602  -0.5601
    -0.5089  -0.5088  -0.4986  -0.4986  -0.4927  -0.4927  -0.4800  -0.4800
    -0.4727  -0.4726  -0.4624  -0.4624  -0.4588  -0.4588  -0.4554  -0.4553
    -0.4297  -0.4297  -0.4269  -0.4269  -0.4194  -0.4193  -0.3993  -0.3993
    -0.3509  -0.3509  -0.3482  -0.3481  -0.3163  -0.3163  -0.3123  -0.3123
    -0.3087  -0.3087  -0.2984  -0.2984  -0.2598  -0.2597  -0.2271  -0.2270
    -0.2036  -0.2036  -0.1961  -0.1961  -0.1697  -0.1697  -0.1476  -0.1476
    -0.1023  -0.1023  -0.0927  -0.0927  -0.0864  -0.0864  -0.0218  -0.0218
    -0.0016  -0.0016   0.0157   0.0157   0.0219   0.0219   0.0356   0.0356
     0.0677   0.0677   0.1111   0.1111   0.1186   0.1186   0.1424   0.1425
     0.1426   0.1426   0.1464   0.1464   0.1638   0.1639   0.1967   0.1967
     0.2166   0.2166   0.2186   0.2187   0.2386   0.2387   0.2615   0.2616
     0.3256   0.3258   0.3340   0.3340   0.3435   0.3436   0.3765   0.3765
     0.3875   0.3875   0.4242   0.4243   0.4932   0.4932   0.5300   0.5301
     0.5575   0.5576   0.5720   0.5720   0.5749   0.5749   0.5773   0.5774
     0.6363   0.6363   0.6522   0.6522   0.6549   0.6551   0.6773   0.6774
     0.6826   0.6827   0.7289   0.7289   0.8175   0.8175   0.8214   0.8214
     0.8399   0.8401   0.8611   0.8612   0.9771   0.9771   1.0078   1.0078
     1.0768   1.0769   1.1016   1.1016   1.3079   1.3079   1.5561   1.5561
     2.9669   2.9670   3.1432   3.1433   3.3152   3.3153   3.4515   3.4515
     3.5621   3.5621   3.7120   3.7123   3.7744   3.7744   3.8817   3.8818
     3.9864   3.9865   4.0358   4.0359   4.1836   4.1836   4.2041   4.2041
     4.2843   4.2844   4.3118   4.3119   4.3328   4.3329   4.3831   4.3833
     4.3884   4.3885   4.4221   4.4223   4.4818   4.4818   4.6264   4.6264
     4.7157   4.7158   4.7346   4.7346   4.7394   4.7395   4.8127   4.8127
     4.8173   4.8173   4.8517   4.8517   4.8704   4.8705   4.9655   4.9656
     4.9759   4.9760   5.0325   5.0327   5.1100   5.1101   5.1566   5.1567
     5.1822   5.1823   5.2034   5.2034   5.2567   5.2567   5.2608   5.2609
     5.2940   5.2941   5.3039   5.3039   5.3655   5.3658   5.3888   5.3889
     5.4862   5.4863   5.5045   5.5045   5.5059   5.5059   5.5192   5.5193
     5.5764   5.5767   5.6481   5.6482   5.6595   5.6595   5.7753   5.7753
     5.7940   5.7941   5.8163   5.8163   5.8516   5.8517   5.8682   5.8682
     5.8959   5.8961   5.9003   5.9004   5.9112   5.9114   5.9482   5.9584
     5.9585   5.9860   5.9874

     the Fermi energy is     2.0741 ev

!    total energy              =   -8262.70474833 Ry
     estimated scf accuracy    <       0.00000193 Ry
     smearing contrib. (-TS)   =       0.00531154 Ry
     internal energy E=F+TS    =   -8262.71005987 Ry

     The total energy is F=E-TS. E is the sum of the following terms:
     one-electron contribution =  -99652.72483786 Ry
     hartree contribution      =   49951.15776055 Ry
     xc contribution           =   -1355.46655277 Ry
     ewald contribution        =   42797.14193937 Ry
     DFT-D3 Dispersion         =      -2.81836916 Ry

     convergence has been achieved in  15 iterations

     negative rho (up, down):  7.692E-03 0.000E+00

     Forces acting on atoms (cartesian axes, Ry/au):

     atom    1 type  1   force =    -0.00000867    0.00000441    0.01851182
     atom    2 type  1   force =    -0.00000714    0.00000746    0.00015210
     atom    3 type  1   force =    -0.00000736    0.00001093    0.00014378
     atom    4 type  1   force =    -0.00000792    0.00000115    0.01851238
     atom    5 type  1   force =    -0.00001197    0.00001296   -0.00287757
     atom    6 type  1   force =    -0.00001216    0.00000834   -0.01054023
     atom    7 type  1   force =    -0.00000841    0.00000557   -0.01028737
     atom    8 type  1   force =    -0.00001827    0.00001330   -0.00287736
     atom    9 type  1   force =    -0.00000966   -0.00000120    0.01851723
     atom   10 type  1   force =    -0.00001486   -0.00000087    0.00015623
     atom   11 type  1   force =    -0.00002039   -0.00000269    0.00015158
     atom   12 type  1   force =    -0.00001042   -0.00000458    0.01851267
     atom   13 type  1   force =    -0.00001996   -0.00000905   -0.00287552
     atom   14 type  1   force =    -0.00001306   -0.00000323   -0.01052688
     atom   15 type  1   force =    -0.00001371   -0.00000515   -0.01052731
     atom   16 type  1   force =    -0.00000904   -0.00001417   -0.00286238
     atom   17 type  1   force =    -0.00001178   -0.00000308    0.01851364
     atom   18 type  1   force =    -0.00001734   -0.00000662    0.00015378
     atom   19 type  1   force =    -0.00001543   -0.00000824    0.00014692
     atom   20 type  1   force =    -0.00000919    0.00000327    0.01850755
     atom   21 type  1   force =    -0.00001576   -0.00000391   -0.00287065
     atom   22 type  1   force =    -0.00001058   -0.00000554   -0.01055048
     atom   23 type  1   force =    -0.00001051    0.00000159   -0.01055676
     atom   24 type  1   force =    -0.00001023    0.00000085   -0.00286293
     atom   25 type  1   force =     0.00000000    0.00000586    0.01850818
     atom   26 type  1   force =     0.00000714    0.00000746    0.00015210
     atom   27 type  1   force =     0.00000000    0.00000291    0.00014366
     atom   28 type  1   force =     0.00000792    0.00000115    0.01851238
     atom   29 type  1   force =     0.00000000    0.00000750   -0.00286723
     atom   30 type  1   force =     0.00001216    0.00000834   -0.01054023
     atom   31 type  1   force =     0.00000000    0.00000252   -0.01054437
     atom   32 type  1   force =     0.00001827    0.00001330   -0.00287736
     atom   33 type  1   force =     0.00000000   -0.00000400    0.01850930
     atom   34 type  1   force =     0.00001486   -0.00000087    0.00015623
     atom   35 type  1   force =     0.00000000   -0.00000890    0.00015520
     atom   36 type  1   force =     0.00001042   -0.00000458    0.01851267
     atom   37 type  1   force =     0.00000000   -0.00000077   -0.00286191
     atom   38 type  1   force =     0.00001306   -0.00000323   -0.01052688
     atom   39 type  1   force =     0.00000000   -0.00000701   -0.01054156
     atom   40 type  1   force =     0.00000904   -0.00001417   -0.00286238
     atom   41 type  1   force =     0.00000000   -0.00000188    0.01850383
     atom   42 type  1   force =     0.00001734   -0.00000662    0.00015378
     atom   43 type  1   force =     0.00000000    0.00000624    0.00014687
     atom   44 type  1   force =     0.00000919    0.00000327    0.01850755
     atom   45 type  1   force =     0.00000000   -0.00000693   -0.00285869
     atom   46 type  1   force =     0.00001058   -0.00000554   -0.01055048
     atom   47 type  1   force =     0.00000000    0.00000373   -0.01053554
     atom   48 type  1   force =     0.00001023    0.00000085   -0.00286293
     atom   49 type  1   force =     0.00000867    0.00000441    0.01851182
     atom   50 type  1   force =     0.00000000    0.00000318    0.00015704
     atom   51 type  1   force =     0.00000736    0.00001093    0.00014378
     atom   52 type  1   force =     0.00000000    0.00000184    0.01851969
     atom   53 type  1   force =     0.00001197    0.00001296   -0.00287757
     atom   54 type  1   force =     0.00000000    0.00001081   -0.01056152
     atom   55 type  1   force =     0.00000841    0.00000557   -0.01028737
     atom   56 type  1   force =     0.00000000    0.00002277   -0.00288850
     atom   57 type  1   force =     0.00000966   -0.00000120    0.01851723
     atom   58 type  1   force =     0.00000000    0.00000800    0.00016376
     atom   59 type  1   force =     0.00002039   -0.00000269    0.00015158
     atom   60 type  1   force =     0.00000000   -0.00000209    0.01852492
     atom   61 type  1   force =     0.00001996   -0.00000905   -0.00287552
     atom   62 type  1   force =     0.00000000   -0.00000212   -0.01052924
     atom   63 type  1   force =     0.00001371   -0.00000515   -0.01052731
     atom   64 type  1   force =     0.00000000   -0.00002099   -0.00286833
     atom   65 type  1   force =     0.00001178   -0.00000308    0.01851364
     atom   66 type  1   force =     0.00000000   -0.00001088    0.00016161
     atom   67 type  1   force =     0.00001543   -0.00000824    0.00014692
     atom   68 type  1   force =     0.00000000    0.00000006    0.01851747
     atom   69 type  1   force =     0.00001576   -0.00000391   -0.00287065
     atom   70 type  1   force =     0.00000000   -0.00000838   -0.01054217
     atom   71 type  1   force =     0.00001051    0.00000159   -0.01055676
     atom   72 type  1   force =     0.00000000   -0.00000208   -0.00287111
     atom   73 type  2   force =    -0.00000052    0.00000178    0.00158004
     atom   74 type  2   force =    -0.00000079    0.00000106    0.00157581
     atom   75 type  2   force =     0.00000060    0.00000155   -0.00800969
     atom   76 type  2   force =     0.00000162    0.00000125   -0.00801353
     atom   77 type  2   force =     0.00000371    0.00000251    0.00211729
     atom   78 type  2   force =    -0.00000221   -0.00000497    0.00211880
     atom   79 type  2   force =     0.00000086    0.00000025   -0.00095648
     atom   80 type  2   force =     0.00000304    0.00000057   -0.00097497
     atom   81 type  2   force =     0.00000047   -0.00000287    0.00158150
     atom   82 type  2   force =    -0.00000136   -0.00000053    0.00158061
     atom   83 type  2   force =    -0.00000324    0.00000344   -0.00797472
     atom   84 type  2   force =    -0.00000259   -0.00000131   -0.00801127
     atom   85 type  2   force =    -0.00000098   -0.00000478    0.00212981
     atom   86 type  2   force =    -0.00000422    0.00000545    0.00213159
     atom   87 type  2   force =    -0.00000064   -0.00000387   -0.00119479
     atom   88 type  2   force =     0.00000245    0.00000015   -0.00094498
     atom   89 type  2   force =     0.00000025    0.00000118    0.00157985
     atom   90 type  2   force =     0.00000007   -0.00000049    0.00157654
     atom   91 type  2   force =     0.00000019   -0.00000496   -0.00800603
     atom   92 type  2   force =    -0.00000089   -0.00000010   -0.00801079
     atom   93 type  2   force =    -0.00000077    0.00000177    0.00212400
     atom   94 type  2   force =    -0.00000089   -0.00000010    0.00212415
     atom   95 type  2   force =     0.00000210    0.00000178   -0.00092878
     atom   96 type  2   force =     0.00000049    0.00000010   -0.00094421
     atom   97 type  2   force =     0.00000000    0.00000115    0.00157825
     atom   98 type  2   force =     0.00000079    0.00000106    0.00157581
     atom   99 type  2   force =     0.00000000    0.00000062   -0.00801142
     atom  100 type  2   force =    -0.00000162    0.00000125   -0.00801353
     atom  101 type  2   force =     0.00000000    0.00000140    0.00211787
     atom  102 type  2   force =     0.00000221   -0.00000497    0.00211880
     atom  103 type  2   force =     0.00000000    0.00000073   -0.00094682
     atom  104 type  2   force =    -0.00000304    0.00000057   -0.00097497
     atom  105 type  2   force =     0.00000000   -0.00000109    0.00157701
     atom  106 type  2   force =     0.00000136   -0.00000053    0.00158061
     atom  107 type  2   force =     0.00000000   -0.00000090   -0.00800428
     atom  108 type  2   force =     0.00000259   -0.00000131   -0.00801127
     atom  109 type  2   force =     0.00000000   -0.00000008    0.00212444
     atom  110 type  2   force =     0.00000422    0.00000545    0.00213159
     atom  111 type  2   force =     0.00000000   -0.00000270   -0.00092549
     atom  112 type  2   force =    -0.00000245    0.00000015   -0.00094498
     atom  113 type  2   force =     0.00000000    0.00000032    0.00157776
     atom  114 type  2   force =    -0.00000007   -0.00000049    0.00157654
     atom  115 type  2   force =     0.00000000   -0.00000011   -0.00800768
     atom  116 type  2   force =     0.00000089   -0.00000010   -0.00801079
     atom  117 type  2   force =     0.00000000   -0.00000123    0.00212494
     atom  118 type  2   force =     0.00000089   -0.00000010    0.00212415
     atom  119 type  2   force =     0.00000000    0.00000135   -0.00095579
     atom  120 type  2   force =    -0.00000049    0.00000010   -0.00094421
     atom  121 type  2   force =     0.00000052    0.00000178    0.00158004
     atom  122 type  2   force =     0.00000000    0.00000149    0.00157601
     atom  123 type  2   force =    -0.00000060    0.00000155   -0.00800969
     atom  124 type  2   force =     0.00000000    0.00000213   -0.00801981
     atom  125 type  2   force =    -0.00000371    0.00000251    0.00211729
     atom  126 type  2   force =     0.00000000   -0.00001104    0.00211470
     atom  127 type  2   force =    -0.00000086    0.00000025   -0.00095648
     atom  128 type  2   force =     0.00000000   -0.00000009   -0.00097162
     atom  129 type  2   force =    -0.00000047   -0.00000287    0.00158150
     atom  130 type  2   force =     0.00000000   -0.00000100    0.00158200
     atom  131 type  2   force =     0.00000324    0.00000344   -0.00797472
     atom  132 type  2   force =     0.00000000   -0.00000076   -0.00801069
     atom  133 type  2   force =     0.00000098   -0.00000478    0.00212981
     atom  134 type  2   force =     0.00000000    0.00001158    0.00213877
     atom  135 type  2   force =     0.00000064   -0.00000387   -0.00119479
     atom  136 type  2   force =     0.00000000    0.00000011   -0.00096163
     atom  137 type  2   force =    -0.00000025    0.00000118    0.00157985
     atom  138 type  2   force =     0.00000000   -0.00000034    0.00157600
     atom  139 type  2   force =    -0.00000019   -0.00000496   -0.00800603
     atom  140 type  2   force =     0.00000000   -0.00000093   -0.00801145
     atom  141 type  2   force =     0.00000077    0.00000177    0.00212400
     atom  142 type  2   force =     0.00000000   -0.00000046    0.00212296
     atom  143 type  2   force =    -0.00000210    0.00000178   -0.00092878
     atom  144 type  2   force =     0.00000000   -0.00000019   -0.00095342

     Total force =     0.047290     Total SCF correction =     0.000969

     BFGS Geometry Optimization
     Energy error            =      1.5E-02 Ry
     Gradient error          =      1.1E-02 Ry/Bohr

     number of scf cycles    =   1
     number of bfgs steps    =   0

     energy             new  =   -8262.7047483350 Ry

     new trust radius        =       0.0105615282 bohr
     new conv_thr            =       0.0000050000 Ry


ATOMIC_POSITIONS (angstrom)
Sc               0.0000000000        0.0000000000       10.0000000000    0   0   0
Sc               2.2382160900        0.0000000000       12.2382160900    0   0   0
Sc               0.0000000000        2.2382160900       12.2382160900    0   0   0
Sc               2.2382160900        2.2382160900       10.0000000000    0   0   0
Sc              -0.0000091666       -0.0000883736       14.5122167237
Sc               2.2381984530        0.0000266318       16.7204073908
Sc              -0.0000116585        2.2382304367       16.7199174659
Sc               2.2382830343        2.2382258892       14.5122344585
Sc               0.0000000000        4.4764321800       10.0000000000    0   0   0
Sc               2.2382160900        4.4764321800       12.2382160900    0   0   0
Sc               0.0000000000        6.7146482700       12.2382160900    0   0   0
Sc               2.2382160900        6.7146482700       10.0000000000    0   0   0
Sc              -0.0000080439        4.4765305484       14.5122942127
Sc               2.2381835777        4.4764106223       16.7205362327
Sc              -0.0000112455        6.7146207032       16.7205377257
Sc               2.2382002760        6.7146448635       14.5123053361
Sc               0.0000000000        8.9528643500       10.0000000000    0   0   0
Sc               2.2382160900        8.9528643500       12.2382160900    0   0   0
Sc               0.0000000000       11.1910804400       12.2382160900    0   0   0
Sc               2.2382160900       11.1910804400       10.0000000000    0   0   0
Sc              -0.0000062612        8.9528539695       14.5122913185
Sc               2.2382125188        8.9528605676       16.7204629353
Sc              -0.0000065004       11.1910902939       16.7204474554
Sc               2.2382110758       11.1910736994       14.5122792603
Sc               4.4764321800        0.0000000000       10.0000000000    0   0   0
Sc               6.7146482700        0.0000000000       12.2382160900    0   0   0
Sc               4.4764321800        2.2382160900       12.2382160900    0   0   0
Sc               6.7146482700        2.2382160900       10.0000000000    0   0   0
Sc               4.4764348900       -0.0000091424       14.5122751979
Sc               6.7146649870        0.0000269418       16.7204242908
Sc               4.4764323100        2.2382190952       16.7204323171
Sc               6.7145796857        2.2382217592       14.5122343685
Sc               4.4764321800        4.4764321800       10.0000000000    0   0   0
Sc               6.7146482700        4.4764321800       12.2382160900    0   0   0
Sc               4.4764321800        6.7146482700       12.2382160900    0   0   0
Sc               6.7146482700        6.7146482700       10.0000000000    0   0   0
Sc               4.4764301000        4.4764466526       14.5122897626
Sc               6.7146829723        4.4764096023       16.7205124727
Sc               4.4764311400        6.7146387279       16.7204426986
Sc               6.7146648540        6.7146476835       14.5123022961
Sc               4.4764321800        8.9528643500       10.0000000000    0   0   0
Sc               6.7146482700        8.9528643500       12.2382160900    0   0   0
Sc               4.4764321800       11.1910804400       12.2382160900    0   0   0
Sc               6.7146482700       11.1910804400       10.0000000000    0   0   0
Sc               4.4764324400        8.9528595917       14.5122824280
Sc               6.7146503212        8.9528596076       16.7204634353
Sc               4.4764327100       11.1910886329       16.7204493142
Sc               6.7146543342       11.1910758894       14.5122816703
Sc               8.9528643500        0.0000000000       10.0000000000    0   0   0
Sc              11.1910804400        0.0000000000       12.2382160900    0   0   0
Sc               8.9528643500        2.2382160900       12.2382160900    0   0   0
Sc              11.1910804400        2.2382160900       10.0000000000    0   0   0
Sc               8.9528702666       -0.0000905936       14.5122177837
Sc              11.1910813800        0.0000419792       16.7204153729
Sc               8.9528765985        2.2382293667       16.7199130259
Sc              11.1910805600        2.2382321287       14.5121860714
Sc               8.9528643500        4.4764321800       10.0000000000    0   0   0
Sc              11.1910804400        4.4764321800       12.2382160900    0   0   0
Sc               8.9528643500        6.7146482700       12.2382160900    0   0   0
Sc              11.1910804400        6.7146482700       10.0000000000    0   0   0
Sc               8.9528757139        4.4765315684       14.5122922627
Sc              11.1910818400        4.4763955784       16.7206297755
Sc               8.9528751455        6.7146190232       16.7205517757
Sc              11.1910808600        6.7146358545       14.5123249570
Sc               8.9528643500        8.9528643500       10.0000000000    0   0   0
Sc              11.1910804400        8.9528643500       12.2382160900    0   0   0
Sc               8.9528643500       11.1910804400       12.2382160900    0   0   0
Sc              11.1910804400       11.1910804400       10.0000000000    0   0   0
Sc               8.9528703812        8.9528549895       14.5122913685
Sc              11.1910806400        8.9528559757       16.7204176825
Sc               8.9528718204       11.1910892339       16.7204792954
Sc              11.1910796900       11.1910764172       14.5122790645
N                0.0000000000        2.2382160900       10.0000000000    0   0   0
N                2.2382160900        0.0000000000       10.0000000000    0   0   0
N                0.0000000000        0.0000000000       12.2382160900    0   0   0
N                2.2382160900        2.2382160900       12.2382160900    0   0   0
N                0.0000057308        2.2382834701       14.5193034693
N                2.2382257607       -0.0000007520       14.5193523122
N                0.0000008660       -0.0000235787       16.7316860534
N                2.2382460565        2.2381988500       16.7316919792
N                0.0000000000        6.7146482700       10.0000000000    0   0   0
N                2.2382160900        4.4764321800       10.0000000000    0   0   0
N                0.0000000000        4.4764321800       12.2382160900    0   0   0
N                2.2382160900        6.7146482700       12.2382160900    0   0   0
N               -0.0000026184        6.7145893396       14.5194209384
N                2.2381660485        4.4764363263       14.5194017578
N                0.0000034519        4.4764558500       16.7324480351
N                2.2382280853        6.7146668703       16.7317910264
N                0.0000000000       11.1910804400       10.0000000000    0   0   0
N                2.2382160900        8.9528643500       10.0000000000    0   0   0
N                0.0000000000        8.9528643500       12.2382160900    0   0   0
N                2.2382160900       11.1910804400       12.2382160900    0   0   0
N               -0.0000020865       11.1910732158       14.5193726238
N                2.2382151587        8.9528614763       14.5193802530
N                0.0000036706        8.9528694644       16.7317712122
N                2.2382139068       11.1910778228       16.7317789571
N                4.4764321800        2.2382160900       10.0000000000    0   0   0
N                6.7146482700        0.0000000000       10.0000000000    0   0   0
N                4.4764321800        0.0000000000       12.2382160900    0   0   0
N                6.7146482700        2.2382160900       12.2382160900    0   0   0
N                4.4764324400        2.2382246093       14.5193625300
N                6.7146402793       -0.0000026520       14.5193558322
N                4.4764319700       -0.0000066122       16.7317878755
N                6.7146174935        2.2381977300       16.7316906192
N                4.4764321800        6.7146482700       10.0000000000    0   0   0
N                6.7146482700        4.4764321800       10.0000000000    0   0   0
N                4.4764321800        4.4764321800       12.2382160900    0   0   0
N                6.7146482700        6.7146482700       12.2382160900    0   0   0
N                4.4764310300        6.7146420760       14.5193775172
N                6.7146975515        4.4764343663       14.5194001778
N                4.4764316100        4.4764355831       16.7317674603
N                6.7146372647        6.7146674103       16.7317712064
N                4.4764321800       11.1910804400       10.0000000000    0   0   0
N                6.7146482700        8.9528643500       10.0000000000    0   0   0
N                4.4764321800        8.9528643500       12.2382160900    0   0   0
N                6.7146482700       11.1910804400       12.2382160900    0   0   0
N                4.4764330700       11.1910785101       14.5193807024
N                6.7146488613        8.9528638663       14.5193801830
N                4.4764329900        8.9528684852       16.7318309965
N                6.7146503532       11.1910792128       16.7318043771
N                8.9528643500        2.2382160900       10.0000000000    0   0   0
N               11.1910804400        0.0000000000       10.0000000000    0   0   0
N                8.9528643500        0.0000000000       12.2382160900    0   0   0
N               11.1910804400        2.2382160900       12.2382160900    0   0   0
N                8.9528593092        2.2382825201       14.5193041193
N               11.1910809200       -0.0000129639       14.5193331426
N                8.9528624140       -0.0000241887       16.7316724534
N               11.1910794100        2.2381838142       16.7315310406
N                8.9528643500        6.7146482700       10.0000000000    0   0   0
N               11.1910804400        4.4764321800       10.0000000000    0   0   0
N                8.9528643500        4.4764321800       12.2382160900    0   0   0
N               11.1910804400        6.7146482700       12.2382160900    0   0   0
N                8.9528675984        6.7145891096       14.5194212784
N               11.1910789200        4.4764479465       14.5194265663
N                8.9528608081        4.4764569200       16.7324475751
N               11.1910803400        6.7146797702       16.7318172595
N                8.9528643500       11.1910804400       10.0000000000    0   0   0
N               11.1910804400        8.9528643500       10.0000000000    0   0   0
N                8.9528643500        8.9528643500       12.2382160900    0   0   0
N               11.1910804400       11.1910804400       12.2382160900    0   0   0
N                8.9528656365       11.1910741758       14.5193739638
N               11.1910809700        8.9528609172       14.5193771199
N                8.9528610594        8.9528686244       16.7317428322
N               11.1910796900       11.1910813008       16.7318200714



     Writing config-only to output data dir ./tmp/ScN_slab.save/ :
     XML data file
     NEW-OLD atomic charge density approx. for the potential

     negative rho (up, down):  7.802E-03 0.000E+00

     total cpu time spent up to now is     2948.7 secs

     per-process dynamical memory:  1029.2 Mb

     Self-consistent Calculation

     iteration #  1     ecut=    45.00 Ry     beta= 0.25
     Davidson diagonalization with overlap
     ethr =  1.00E-06,  avg # of iterations =  5.0

     Threshold (ethr) on eigenvalues was too large:
     Diagonalizing with lowered threshold

     Davidson diagonalization with overlap
     ethr =  7.02E-08,  avg # of iterations =  2.8

     negative rho (up, down):  7.770E-03 0.000E+00

     total cpu time spent up to now is     3250.7 secs

     total energy              =   -8262.70646378 Ry
     estimated scf accuracy    <       0.00078518 Ry

     iteration #  2     ecut=    45.00 Ry     beta= 0.25
     Davidson diagonalization with overlap
     ethr =  6.82E-08,  avg # of iterations =  5.8

     negative rho (up, down):  7.752E-03 0.000E+00

     total cpu time spent up to now is     3410.6 secs

     total energy              =   -8262.70661966 Ry
     estimated scf accuracy    <       0.00056250 Ry

     iteration #  3     ecut=    45.00 Ry     beta= 0.25
     Davidson diagonalization with overlap
     ethr =  4.88E-08,  avg # of iterations =  2.0

     negative rho (up, down):  7.737E-03 0.000E+00

     total cpu time spent up to now is     3547.7 secs

     total energy              =   -8262.70667081 Ry
     estimated scf accuracy    <       0.00003463 Ry

     iteration #  4     ecut=    45.00 Ry     beta= 0.25
     Davidson diagonalization with overlap
     ethr =  3.01E-09,  avg # of iterations =  4.9

     negative rho (up, down):  7.727E-03 0.000E+00

     total cpu time spent up to now is     3705.0 secs

     total energy              =   -8262.70667538 Ry
     estimated scf accuracy    <       0.00001796 Ry

     iteration #  5     ecut=    45.00 Ry     beta= 0.25
     Davidson diagonalization with overlap
     ethr =  1.56E-09,  avg # of iterations =  2.0

     negative rho (up, down):  7.705E-03 0.000E+00

     total cpu time spent up to now is     3817.0 secs

     End of self-consistent calculation

          k = 0.0000 0.0000 0.0000 (165739 PWs)   bands (ev):

   -46.5155 -46.4979 -46.4979 -46.4979 -46.4979 -46.4886 -46.4886 -46.4886
   -46.4886 -46.4718 -46.4718 -46.4718 -46.4718 -46.4644 -46.4644 -46.4644
   -46.4644 -46.4485 -46.4122 -46.3940 -46.3939 -46.3938 -46.3937 -46.3841
   -46.3841 -46.3840 -46.3838 -46.3669 -46.3669 -46.3667 -46.3666 -46.3595
   -46.3595 -46.3593 -46.3592 -46.3433 -46.2026 -46.1817 -46.1816 -46.1816
   -46.1816 -46.1692 -46.1692 -46.1691 -46.1691 -46.1485 -46.1485 -46.1485
   -46.1485 -46.1416 -46.1416 -46.1416 -46.1415 -46.1284 -46.1240 -46.1191
   -46.1190 -46.1189 -46.1189 -46.1167 -46.1166 -46.1165 -46.1165 -46.1060
   -46.1058 -46.1058 -46.1057 -46.0963 -46.0961 -46.0961 -46.0960 -46.0812
   -25.3876 -25.3845 -25.3845 -25.3845 -25.3845 -25.3737 -25.3737 -25.3737
   -25.3737 -25.3689 -25.3689 -25.3689 -25.3689 -25.3338 -25.3338 -25.3338
   -25.3337 -25.3268 -25.3268 -25.3268 -25.3268 -25.3018 -25.3018 -25.3018
   -25.3017 -25.2976 -25.2912 -25.2912 -25.2911 -25.2910 -25.2800 -25.2799
   -25.2798 -25.2797 -25.2796 -25.2703 -25.2703 -25.2702 -25.2702 -25.2445
   -25.2445 -25.2409 -25.2409 -25.2408 -25.2407 -25.2391 -25.2391 -25.2391
   -25.2390 -25.1919 -25.1919 -25.1919 -25.1919 -25.1868 -25.1867 -25.1867
   -25.1867 -25.1796 -25.1699 -25.1699 -25.1699 -25.1699 -25.1626 -25.1626
   -25.1049 -25.1048 -25.1048 -25.1047 -25.0948 -25.0948 -25.0948 -25.0948
   -25.0866 -25.0865 -25.0865 -25.0864 -25.0721 -25.0721 -25.0721 -25.0721
   -25.0230 -25.0229 -25.0229 -25.0228 -25.0214 -25.0214 -25.0214 -25.0214
   -25.0168 -25.0168 -25.0167 -25.0167 -25.0149 -25.0149 -25.0067 -25.0067
   -25.0067 -25.0067 -25.0045 -25.0045 -25.0045 -25.0045 -24.9786 -24.9786
   -24.9786 -24.9785 -24.9709 -24.9568 -24.9568 -24.9568 -24.9568 -24.9477
   -24.9477 -24.9465 -24.9465 -24.9464 -24.9464 -24.9338 -24.9337 -24.9337
   -24.9336 -24.9016 -24.9016 -24.9016 -24.9016 -24.8908 -24.8908 -24.8907
   -24.8907 -24.8812 -24.8811 -24.8811 -24.8811 -24.8730 -24.8730 -24.8661
   -24.8661 -24.8661 -24.8660 -24.8574 -24.8574 -24.8394 -24.8319 -24.8319
   -24.8319 -24.8319 -24.8139 -24.8138 -24.8138 -24.8137 -24.8061 -24.8061
   -24.8061 -24.8061 -24.8053 -24.8053 -24.8053 -24.8052 -24.7983 -24.7727
   -24.7726 -24.7726 -24.7726 -24.7658 -24.7658 -24.7658 -24.7657 -24.7654
   -24.7654 -24.7654 -24.7654 -24.7404 -24.7404 -24.7404 -24.7404 -24.7339
   -24.7339 -24.7310 -24.7309 -24.7308 -24.7308 -24.7297 -24.7296 -24.7295
   -24.7295 -24.7123 -24.7082 -24.7081 -24.7081 -24.7081 -24.7076 -24.7076
   -24.7076 -24.7076 -24.6942 -24.6941 -24.6941 -24.6940 -24.6911 -24.6911
   -24.6910 -24.6910 -24.6889 -24.6889 -24.6889 -24.6889 -24.6650 -24.6649
   -24.6649 -24.6648 -24.6335 -24.6335 -24.6267 -24.6267 -24.6266 -24.6266
   -11.8462 -11.3400 -11.3400 -11.3399 -11.3399 -11.2808 -10.9291 -10.9272
   -10.8842 -10.8842 -10.8842 -10.8841 -10.8609 -10.8608 -10.8608 -10.8608
   -10.8512 -10.8433 -10.8433 -10.8433 -10.8433 -10.7699 -10.6732 -10.6731
   -10.6731 -10.6731 -10.5157 -10.5156 -10.5156 -10.5155 -10.5150 -10.5149
   -10.5149 -10.5149 -10.5144 -10.5144 -10.5144 -10.5144 -10.4815 -10.4815
   -10.4815 -10.4815 -10.3901 -10.3779 -10.3779 -10.3779 -10.3779 -10.3372
   -10.2230 -10.2229 -10.2229 -10.2229 -10.1508 -10.1508 -10.1507 -10.1507
   -10.1416 -10.1416 -10.1416 -10.1416 -10.0346 -10.0346 -10.0346 -10.0345
    -9.9788  -9.9788  -9.9788  -9.9788  -9.9247  -9.9246  -9.9246  -9.9245
    -2.2854  -2.2854  -2.2854  -2.2853  -2.2795  -2.2794  -2.2794  -2.2794
    -2.1453  -2.1452  -2.1452  -2.1452  -2.0850  -2.0850  -2.0850  -2.0850
    -1.6610  -1.6609  -1.6609  -1.6608  -1.6345  -1.6345  -1.6345  -1.6345
    -1.5987  -1.5987  -1.5986  -1.5986  -1.5761  -1.5760  -1.5760  -1.5760
    -1.4918  -1.4917  -1.4917  -1.4917  -1.3927  -1.3926  -1.3926  -1.3926
    -1.3265  -1.2575  -1.2575  -1.2575  -1.2574  -1.1743  -1.1743  -1.1742
    -1.1742  -1.1658  -1.1658  -1.1658  -1.1657  -0.9456  -0.9456  -0.9136
    -0.8323  -0.8323  -0.8322  -0.8322  -0.6264  -0.6263  -0.6263  -0.6263
    -0.6092  -0.6092  -0.6076  -0.6076  -0.6076  -0.6075  -0.5499  -0.5499
    -0.5499  -0.5498  -0.5474  -0.5474  -0.5474  -0.5474  -0.4859  -0.4859
    -0.4859  -0.4858  -0.4445  -0.4445  -0.4445  -0.4445  -0.4119  -0.4119
    -0.4119  -0.4118  -0.3745  -0.3745  -0.3745  -0.3745  -0.3654  -0.3654
    -0.3653  -0.3653  -0.3151  -0.3150  -0.3150  -0.3150  -0.2524  -0.2523
    -0.2523  -0.2523  -0.2234  -0.2234  -0.2234  -0.2234  -0.1710  -0.1710
    -0.1710  -0.1709  -0.1450  -0.1450  -0.1450  -0.1449  -0.1361  -0.1282
    -0.1281  -0.1281  -0.1281  -0.1274  -0.1186  -0.1186  -0.1185  -0.1185
    -0.0981  -0.0737  -0.0736  -0.0736  -0.0736  -0.0355  -0.0355  -0.0354
    -0.0354  -0.0291  -0.0291  -0.0291  -0.0291  -0.0210  -0.0210  -0.0210
    -0.0209   0.0881   0.0881   0.1314   0.1314   0.1314   0.1314   0.1333
     0.1334   0.1334   0.1334   0.1710   0.1710   0.1711   0.1711   0.1856
     0.1856   0.1856   0.1856   0.1975   0.1975   0.1976   0.1976   0.1982
     0.1982   0.1983   0.1983   0.2007   0.2007   0.2008   0.2008   0.3118
     0.3118   0.3119   0.3119   0.3937   0.3937   0.3937   0.3938   0.7461
     0.7461   0.7462   0.7462   0.7827   0.7951   0.7952   0.7952   0.7952
     0.8219   0.8219   0.8301   0.8301   0.8301   0.8301   0.8301   0.8301
     0.8302   0.8302   1.0662   1.0662   1.1843   1.2425   1.2509   1.2509
     1.2510   1.2510   1.2607   1.2607   1.7928   1.7928   2.0548   2.0548
     2.1536   2.6939   2.6939   2.7011   3.1128   3.1129   3.1130   3.1130
     3.5020   3.8785   4.1334   4.1334   4.1335   4.1335   4.1520   4.1567
     4.1567   4.4042   4.4043   4.4044   4.4044   4.4066   4.4291   4.4292
     4.4292   4.4292   4.4336   4.4336   4.4337   4.4338   4.4768   4.4769
     4.4769   4.4770   4.5559   4.5559   4.5560   4.5560   4.5794   4.5795
     4.5795   4.5795   4.7090   4.7090   4.7091   4.7091   4.7462   4.7462
     4.7463   4.7463   4.7664   4.7665   4.7667   4.7668   4.8561   4.8562
     4.8562   4.8564   4.8736   4.8736   5.1386   5.2230   5.2231   5.2232
     5.2233   5.2540   5.2541   5.2541   5.2541   5.3138   5.3139   5.3139
     5.3140   5.3349   5.3350   5.3350   5.3350   5.4386   5.4387   5.4387
     5.4388   5.4419   5.4419   5.4419   5.4419   5.4588   5.4589   5.4589
     5.4589   5.5661   5.5661   5.5661   5.5662   5.6469   5.6469   5.6470
     5.6471   5.7112   5.7692   5.7692   5.8119   5.8129   5.8129   5.8129
     5.8129   5.8222   5.8222   5.8826   5.8827   5.8833   5.8834   5.9210
     5.9553   5.9646   5.9905

          k = 0.0000 0.2500 0.0000 (165664 PWs)   bands (ev):

   -46.5143 -46.5051 -46.4973 -46.4973 -46.4924 -46.4924 -46.4896 -46.4843
   -46.4843 -46.4757 -46.4757 -46.4723 -46.4687 -46.4687 -46.4649 -46.4649
   -46.4577 -46.4495 -46.4109 -46.4014 -46.3932 -46.3931 -46.3880 -46.3879
   -46.3853 -46.3796 -46.3795 -46.3707 -46.3706 -46.3674 -46.3637 -46.3636
   -46.3599 -46.3598 -46.3526 -46.3444 -46.2011 -46.1903 -46.1808 -46.1807
   -46.1742 -46.1742 -46.1716 -46.1635 -46.1635 -46.1527 -46.1527 -46.1508
   -46.1453 -46.1453 -46.1420 -46.1420 -46.1340 -46.1278 -46.1251 -46.1230
   -46.1189 -46.1188 -46.1177 -46.1177 -46.1149 -46.1148 -46.1140 -46.1094
   -46.1094 -46.1024 -46.1022 -46.1021 -46.0969 -46.0969 -46.0903 -46.0824
   -25.3895 -25.3895 -25.3861 -25.3850 -25.3850 -25.3782 -25.3782 -25.3760
   -25.3698 -25.3698 -25.3607 -25.3584 -25.3584 -25.3442 -25.3442 -25.3398
   -25.3311 -25.3311 -25.3225 -25.3225 -25.3127 -25.3098 -25.3098 -25.2992
   -25.2991 -25.2965 -25.2908 -25.2908 -25.2906 -25.2905 -25.2874 -25.2856
   -25.2811 -25.2810 -25.2760 -25.2759 -25.2714 -25.2530 -25.2479 -25.2478
   -25.2469 -25.2469 -25.2394 -25.2387 -25.2297 -25.2296 -25.2276 -25.2276
   -25.2255 -25.2207 -25.2207 -25.2180 -25.2180 -25.2105 -25.2008 -25.1906
   -25.1707 -25.1574 -25.1526 -25.1433 -25.1433 -25.1416 -25.1416 -25.1343
   -25.1343 -25.1340 -25.1254 -25.1254 -25.1234 -25.1209 -25.1181 -25.0896
   -25.0804 -25.0803 -25.0640 -25.0640 -25.0612 -25.0571 -25.0526 -25.0526
   -25.0497 -25.0407 -25.0407 -25.0405 -25.0331 -25.0331 -25.0275 -25.0275
   -25.0238 -25.0180 -25.0180 -25.0173 -25.0173 -25.0170 -25.0103 -24.9973
   -24.9973 -24.9951 -24.9910 -24.9908 -24.9883 -24.9883 -24.9842 -24.9842
   -24.9749 -24.9741 -24.9741 -24.9706 -24.9696 -24.9560 -24.9559 -24.9527
   -24.9462 -24.9462 -24.9406 -24.9306 -24.9306 -24.9254 -24.9253 -24.9232
   -24.9132 -24.9132 -24.9130 -24.9021 -24.9005 -24.9005 -24.9004 -24.9004
   -24.8917 -24.8916 -24.8842 -24.8774 -24.8742 -24.8704 -24.8690 -24.8645
   -24.8645 -24.8626 -24.8584 -24.8581 -24.8581 -24.8498 -24.8404 -24.8383
   -24.8374 -24.8374 -24.8302 -24.8215 -24.8215 -24.8102 -24.8053 -24.8053
   -24.8044 -24.8044 -24.7928 -24.7916 -24.7892 -24.7892 -24.7851 -24.7764
   -24.7740 -24.7740 -24.7708 -24.7708 -24.7628 -24.7627 -24.7623 -24.7623
   -24.7611 -24.7611 -24.7583 -24.7583 -24.7556 -24.7556 -24.7554 -24.7413
   -24.7413 -24.7389 -24.7317 -24.7317 -24.7312 -24.7311 -24.7284 -24.7284
   -24.7255 -24.7252 -24.7252 -24.7231 -24.7107 -24.7107 -24.7073 -24.7070
   -24.7070 -24.7025 -24.7025 -24.6949 -24.6864 -24.6841 -24.6841 -24.6805
   -24.6804 -24.6757 -24.6757 -24.6730 -24.6730 -24.6726 -24.6691 -24.6657
   -24.6657 -24.6648 -24.6404 -24.6376 -24.6328 -24.6328 -24.6319 -24.6319
   -11.8079 -11.5342 -11.3050 -11.3050 -11.2474 -11.1472 -11.0570 -11.0570
   -11.0150 -10.9155 -10.9049 -10.8845 -10.8512 -10.8318 -10.8318 -10.8219
   -10.8158 -10.8158 -10.7550 -10.7388 -10.7256 -10.7182 -10.7182 -10.6556
   -10.6555 -10.6354 -10.6354 -10.6301 -10.6300 -10.6269 -10.6181 -10.5535
   -10.5535 -10.5224 -10.5217 -10.5216 -10.4543 -10.4543 -10.4258 -10.4258
   -10.4238 -10.4238 -10.3723 -10.3552 -10.3498 -10.3498 -10.3193 -10.2670
   -10.2661 -10.2661 -10.2477 -10.2170 -10.2070 -10.2006 -10.2006 -10.1574
   -10.1574 -10.1301 -10.1301 -10.1283 -10.0564 -10.0564 -10.0300 -10.0300
    -9.9978  -9.9978  -9.9389  -9.9389  -9.9324  -9.9323  -9.8772  -9.8772
    -2.4273  -2.4273  -2.4144  -2.4144  -2.3489  -2.3489  -2.3095  -2.3095
    -2.0723  -2.0723  -2.0578  -2.0578  -1.8975  -1.8975  -1.8006  -1.8006
    -1.7516  -1.7462  -1.7462  -1.7091  -1.7091  -1.7069  -1.7069  -1.6850
    -1.6409  -1.6409  -1.6356  -1.6356  -1.6150  -1.5374  -1.5373  -1.4785
    -1.4785  -1.4780  -1.4703  -1.4703  -1.4673  -1.4063  -1.4017  -1.4017
    -1.3438  -1.3341  -1.3270  -1.3270  -1.2799  -1.2196  -1.2195  -1.0816
    -1.0782  -1.0782  -1.0257  -0.9640  -0.9407  -0.9374  -0.9374  -0.9291
    -0.9207  -0.9194  -0.9194  -0.8906  -0.7530  -0.7398  -0.6687  -0.6524
    -0.6524  -0.6446  -0.6445  -0.6034  -0.5791  -0.5791  -0.5673  -0.5673
    -0.5477  -0.5476  -0.5120  -0.5120  -0.4988  -0.4987  -0.4868  -0.4868
    -0.4853  -0.4853  -0.4666  -0.4666  -0.4636  -0.4636  -0.4497  -0.4497
    -0.4467  -0.4467  -0.4319  -0.4319  -0.4164  -0.4071  -0.4070  -0.4033
    -0.4033  -0.3908  -0.3396  -0.3395  -0.3163  -0.3104  -0.3062  -0.3046
    -0.3046  -0.2909  -0.2784  -0.2669  -0.2668  -0.2425  -0.1939  -0.1939
    -0.1642  -0.1642  -0.1536  -0.1536  -0.1417  -0.1417  -0.1364  -0.1270
    -0.1270  -0.1145  -0.1144  -0.1144  -0.0822  -0.0786  -0.0786  -0.0681
    -0.0594  -0.0594  -0.0557  -0.0557  -0.0448  -0.0448  -0.0226  -0.0226
    -0.0084   0.0230   0.0230   0.0343   0.0343   0.0394   0.0394   0.0471
     0.0478   0.0478   0.0932   0.0994   0.0995   0.1229   0.1291   0.1291
     0.1310   0.1342   0.1368   0.1369   0.1426   0.1526   0.1746   0.1747
     0.1976   0.1976   0.2027   0.2027   0.2497   0.2721   0.2721   0.2828
     0.2931   0.3260   0.3311   0.3311   0.3639   0.3639   0.3669   0.3669
     0.4365   0.4365   0.4623   0.4648   0.4649   0.5576   0.5763   0.5944
     0.6792   0.6795   0.6795   0.6926   0.7256   0.7257   0.7368   0.7419
     0.7580   0.7581   0.7621   0.7622   0.8145   0.8193   0.8615   0.8727
     0.8749   0.9271   0.9609   1.0608   1.0779   1.0919   1.1053   1.1077
     1.1089   1.1090   1.1988   1.4672   1.6031   1.6400   1.7942   1.9369
     2.4521   2.7203   2.8654   2.9311   2.9455   3.2380   3.2381   3.3394
     3.6778   3.6794   3.8435   3.8809   3.9106   4.0541   4.0542   4.0746
     4.1747   4.1769   4.1949   4.1950   4.2332   4.2916   4.3381   4.3903
     4.3903   4.3992   4.4247   4.4277   4.4278   4.4609   4.4609   4.4654
     4.4654   4.5515   4.5539   4.5539   4.5878   4.5878   4.6485   4.6657
     4.6658   4.6769   4.6893   4.6893   4.7007   4.7476   4.7476   4.8226
     4.8247   4.8260   4.8261   4.8514   4.8514   4.9011   4.9011   4.9068
     4.9678   4.9796   4.9797   5.0208   5.0326   5.0326   5.0520   5.0885
     5.0885   5.0930   5.1252   5.1698   5.1698   5.1892   5.2273   5.2273
     5.2451   5.2451   5.2540   5.2540   5.3147   5.3147   5.3461   5.3461
     5.4373   5.4774   5.4888   5.5717   5.5834   5.5834   5.5866   5.5866
     5.5872   5.6339   5.6339   5.6490   5.6490   5.7216   5.7255   5.7256
     5.7347   5.7348   5.7351   5.7528   5.7639   5.8166   5.8167   5.8198
     5.8355   5.8385   5.8466   5.8471   5.8592   5.8592   5.8958   5.8958
     5.9409   5.9495   5.9496

          k = 0.0000-0.5000 0.0000 (165810 PWs)   bands (ev):

   -46.5108 -46.5107 -46.4954 -46.4954 -46.4954 -46.4953 -46.4809 -46.4809
   -46.4799 -46.4799 -46.4799 -46.4799 -46.4663 -46.4663 -46.4663 -46.4663
   -46.4527 -46.4527 -46.4073 -46.4071 -46.3912 -46.3912 -46.3911 -46.3910
   -46.3763 -46.3762 -46.3751 -46.3751 -46.3750 -46.3748 -46.3614 -46.3614
   -46.3613 -46.3611 -46.3476 -46.3474 -46.1970 -46.1969 -46.1783 -46.1782
   -46.1782 -46.1782 -46.1611 -46.1611 -46.1579 -46.1578 -46.1578 -46.1578
   -46.1432 -46.1432 -46.1432 -46.1431 -46.1285 -46.1284 -46.1260 -46.1259
   -46.1186 -46.1184 -46.1184 -46.1183 -46.1127 -46.1125 -46.1124 -46.1123
   -46.1085 -46.1083 -46.0992 -46.0990 -46.0990 -46.0989 -46.0856 -46.0855
   -25.3903 -25.3902 -25.3902 -25.3902 -25.3820 -25.3820 -25.3729 -25.3729
   -25.3729 -25.3729 -25.3511 -25.3510 -25.3427 -25.3427 -25.3427 -25.3427
   -25.3399 -25.3399 -25.3399 -25.3398 -25.2988 -25.2988 -25.2988 -25.2988
   -25.2984 -25.2983 -25.2932 -25.2930 -25.2847 -25.2846 -25.2846 -25.2844
   -25.2757 -25.2757 -25.2757 -25.2757 -25.2627 -25.2626 -25.2570 -25.2570
   -25.2570 -25.2569 -25.2410 -25.2409 -25.2409 -25.2409 -25.2262 -25.2262
   -25.2245 -25.2245 -25.2080 -25.2079 -25.1851 -25.1851 -25.1850 -25.1850
   -25.1781 -25.1781 -25.1781 -25.1781 -25.1480 -25.1480 -25.1423 -25.1422
   -25.1374 -25.1373 -25.0991 -25.0991 -25.0991 -25.0991 -25.0955 -25.0955
   -25.0903 -25.0903 -25.0902 -25.0902 -25.0698 -25.0697 -25.0519 -25.0518
   -25.0518 -25.0518 -25.0334 -25.0334 -25.0333 -25.0333 -25.0252 -25.0251
   -25.0216 -25.0215 -25.0102 -25.0102 -25.0101 -25.0101 -25.0101 -25.0101
   -25.0066 -25.0065 -25.0065 -25.0065 -24.9967 -24.9966 -24.9674 -24.9674
   -24.9613 -24.9612 -24.9559 -24.9559 -24.9559 -24.9559 -24.9457 -24.9457
   -24.9414 -24.9414 -24.9414 -24.9414 -24.9320 -24.9320 -24.9320 -24.9319
   -24.9109 -24.9109 -24.9109 -24.9109 -24.9102 -24.9102 -24.9102 -24.9102
   -24.8829 -24.8829 -24.8779 -24.8777 -24.8769 -24.8769 -24.8638 -24.8637
   -24.8616 -24.8614 -24.8572 -24.8571 -24.8482 -24.8482 -24.8481 -24.8481
   -24.8284 -24.8283 -24.8283 -24.8283 -24.8170 -24.8170 -24.8170 -24.8169
   -24.8117 -24.8117 -24.7847 -24.7846 -24.7819 -24.7818 -24.7818 -24.7817
   -24.7774 -24.7773 -24.7638 -24.7638 -24.7637 -24.7637 -24.7582 -24.7582
   -24.7582 -24.7582 -24.7543 -24.7541 -24.7534 -24.7534 -24.7487 -24.7487
   -24.7487 -24.7487 -24.7404 -24.7403 -24.7359 -24.7359 -24.7359 -24.7359
   -24.7319 -24.7318 -24.7318 -24.7317 -24.7147 -24.7146 -24.7145 -24.7145
   -24.6917 -24.6917 -24.6917 -24.6917 -24.6872 -24.6872 -24.6781 -24.6781
   -24.6726 -24.6725 -24.6725 -24.6724 -24.6583 -24.6582 -24.6498 -24.6498
   -24.6498 -24.6497 -24.6497 -24.6497 -24.6476 -24.6476 -24.6475 -24.6475
   -11.6986 -11.6986 -11.2056 -11.2056 -11.2055 -11.2055 -11.1531 -11.1530
   -10.9878 -10.9878 -10.8838 -10.8838 -10.8414 -10.8413 -10.7507 -10.7507
   -10.7506 -10.7506 -10.7392 -10.7392 -10.7391 -10.7391 -10.7391 -10.7391
   -10.6510 -10.6510 -10.6420 -10.6420 -10.6095 -10.6095 -10.6094 -10.6094
   -10.5903 -10.5903 -10.5903 -10.5902 -10.3910 -10.3909 -10.3909 -10.3909
   -10.3776 -10.3776 -10.3776 -10.3776 -10.3253 -10.3253 -10.2709 -10.2709
   -10.2709 -10.2709 -10.2709 -10.2708 -10.2619 -10.2619 -10.1595 -10.1594
   -10.1395 -10.1395 -10.1394 -10.1394 -10.0738 -10.0738 -10.0738 -10.0737
    -9.9566  -9.9565  -9.9565  -9.9565  -9.8765  -9.8765  -9.8764  -9.8764
    -2.4517  -2.4517  -2.4516  -2.4516  -2.4268  -2.4268  -2.4268  -2.4267
    -1.8560  -1.8560  -1.8559  -1.8559  -1.8194  -1.8194  -1.8193  -1.8193
    -1.7547  -1.7547  -1.7546  -1.7546  -1.7250  -1.7250  -1.6771  -1.6770
    -1.6770  -1.6770  -1.6715  -1.6715  -1.6715  -1.6714  -1.6458  -1.6457
    -1.5237  -1.5237  -1.5236  -1.5236  -1.3584  -1.3584  -1.3398  -1.3398
    -1.3398  -1.3397  -1.2277  -1.2276  -1.2139  -1.2138  -1.1569  -1.1568
    -1.1568  -1.1568  -1.0434  -1.0433  -0.9798  -0.9798  -0.9242  -0.9241
    -0.7674  -0.7674  -0.7673  -0.7673  -0.7469  -0.7469  -0.7469  -0.7469
    -0.7103  -0.7103  -0.6103  -0.6103  -0.6040  -0.6040  -0.5973  -0.5973
    -0.5973  -0.5972  -0.5845  -0.5845  -0.5544  -0.5544  -0.5544  -0.5543
    -0.4922  -0.4921  -0.4921  -0.4921  -0.4913  -0.4913  -0.4913  -0.4913
    -0.4550  -0.4550  -0.4549  -0.4549  -0.4061  -0.4061  -0.4060  -0.4060
    -0.3725  -0.3725  -0.3055  -0.3055  -0.3055  -0.3054  -0.3025  -0.3024
    -0.2686  -0.2686  -0.2685  -0.2685  -0.2540  -0.2539  -0.2387  -0.2386
    -0.2386  -0.2385  -0.1855  -0.1855  -0.1854  -0.1854  -0.1706  -0.1705
    -0.1116  -0.1116  -0.1116  -0.1116  -0.0749  -0.0749  -0.0748  -0.0748
    -0.0491  -0.0490  -0.0399  -0.0399  -0.0399  -0.0399  -0.0068  -0.0068
    -0.0067  -0.0067   0.0762   0.0762   0.0763   0.0763   0.1100   0.1101
     0.1115   0.1116   0.1116   0.1116   0.1333   0.1333   0.1334   0.1334
     0.1416   0.1416   0.1416   0.1416   0.1541   0.1541   0.1571   0.1571
     0.2675   0.2675   0.2675   0.2676   0.3453   0.3454   0.4067   0.4068
     0.4843   0.4843   0.4844   0.4844   0.4915   0.4915   0.5276   0.5277
     0.5277   0.5277   0.5302   0.5303   0.5831   0.5831   0.5831   0.5831
     0.6320   0.6321   0.6321   0.6321   0.6493   0.6493   0.6903   0.6903
     0.7277   0.7278   0.7745   0.7745   0.7746   0.7746   0.7916   0.7917
     0.8143   0.8144   0.8486   0.8486   0.9528   0.9529   1.1003   1.1003
     1.1739   1.1739   1.2108   1.2109   1.3576   1.3576   1.7093   1.7094
     2.7994   2.7996   3.0226   3.0226   3.2898   3.2900   3.4612   3.4613
     3.5784   3.5786   3.5786   3.5786   3.6008   3.6009   4.0086   4.0087
     4.1022   4.1023   4.2374   4.2375   4.3549   4.3550   4.3551   4.3551
     4.3996   4.3996   4.3997   4.3997   4.4298   4.4301   4.4646   4.4647
     4.5138   4.5139   4.5139   4.5141   4.5972   4.5973   4.5973   4.5973
     4.6497   4.6498   4.6898   4.6900   4.7934   4.7934   4.7935   4.7935
     4.8052   4.8052   4.8053   4.8053   4.8419   4.8420   4.8897   4.8898
     4.8898   4.8898   4.9281   4.9282   4.9960   4.9961   4.9961   4.9963
     5.1261   5.1262   5.1262   5.1262   5.2213   5.2214   5.2504   5.2504
     5.2505   5.2505   5.3393   5.3394   5.3453   5.3453   5.3454   5.3454
     5.3503   5.3503   5.4801   5.4802   5.4802   5.4803   5.6372   5.6373
     5.7222   5.7223   5.7223   5.7223   5.7316   5.7316   5.7316   5.7317
     5.7434   5.7434   5.8165   5.8166   5.8166   5.8167   5.8513   5.8513
     5.8752   5.8754   5.8905   5.8906   5.9020   5.9020   5.9020   5.9020
     5.9077   5.9077   5.9234

          k = 0.2500 0.2500 0.0000 (165752 PWs)   bands (ev):

   -46.5131 -46.5043 -46.5043 -46.4976 -46.4892 -46.4892 -46.4865 -46.4865
   -46.4820 -46.4775 -46.4742 -46.4742 -46.4725 -46.4725 -46.4641 -46.4584
   -46.4584 -46.4506 -46.4097 -46.4004 -46.4004 -46.3934 -46.3849 -46.3848
   -46.3818 -46.3818 -46.3771 -46.3725 -46.3692 -46.3692 -46.3676 -46.3676
   -46.3590 -46.3534 -46.3533 -46.3454 -46.1997 -46.1892 -46.1892 -46.1808
   -46.1711 -46.1710 -46.1667 -46.1667 -46.1601 -46.1544 -46.1517 -46.1516
   -46.1509 -46.1508 -46.1403 -46.1347 -46.1347 -46.1272 -46.1262 -46.1227
   -46.1226 -46.1200 -46.1148 -46.1147 -46.1145 -46.1142 -46.1141 -46.1118
   -46.1068 -46.1067 -46.1029 -46.1029 -46.0976 -46.0913 -46.0912 -46.0834
   -25.3979 -25.3961 -25.3848 -25.3786 -25.3786 -25.3769 -25.3760 -25.3760
   -25.3698 -25.3697 -25.3627 -25.3627 -25.3621 -25.3497 -25.3437 -25.3436
   -25.3436 -25.3169 -25.3169 -25.3128 -25.3128 -25.3103 -25.3052 -25.2959
   -25.2957 -25.2957 -25.2955 -25.2905 -25.2888 -25.2876 -25.2876 -25.2812
   -25.2812 -25.2740 -25.2739 -25.2632 -25.2623 -25.2621 -25.2621 -25.2587
   -25.2587 -25.2492 -25.2481 -25.2419 -25.2419 -25.2312 -25.2312 -25.2214
   -25.2177 -25.2177 -25.2097 -25.2097 -25.2066 -25.1977 -25.1855 -25.1791
   -25.1791 -25.1685 -25.1685 -25.1632 -25.1587 -25.1587 -25.1541 -25.1541
   -25.1374 -25.1276 -25.1276 -25.1040 -25.0974 -25.0974 -25.0958 -25.0875
   -25.0875 -25.0863 -25.0863 -25.0764 -25.0764 -25.0660 -25.0587 -25.0587
   -25.0516 -25.0421 -25.0222 -25.0222 -25.0219 -25.0219 -25.0190 -25.0189
   -25.0169 -25.0169 -25.0152 -25.0151 -25.0108 -25.0095 -25.0072 -25.0071
   -25.0045 -25.0035 -25.0035 -25.0027 -25.0016 -25.0016 -24.9813 -24.9813
   -24.9700 -24.9700 -24.9610 -24.9610 -24.9606 -24.9606 -24.9573 -24.9573
   -24.9499 -24.9436 -24.9396 -24.9291 -24.9261 -24.9261 -24.9250 -24.9219
   -24.9219 -24.9211 -24.9211 -24.9170 -24.9064 -24.8993 -24.8993 -24.8902
   -24.8789 -24.8789 -24.8777 -24.8742 -24.8742 -24.8735 -24.8735 -24.8714
   -24.8661 -24.8661 -24.8654 -24.8528 -24.8484 -24.8484 -24.8369 -24.8368
   -24.8326 -24.8326 -24.8305 -24.8305 -24.8232 -24.8229 -24.8177 -24.8104
   -24.8002 -24.8001 -24.7923 -24.7892 -24.7892 -24.7881 -24.7785 -24.7781
   -24.7781 -24.7777 -24.7724 -24.7690 -24.7690 -24.7608 -24.7607 -24.7596
   -24.7546 -24.7545 -24.7542 -24.7538 -24.7524 -24.7524 -24.7513 -24.7512
   -24.7510 -24.7510 -24.7449 -24.7432 -24.7431 -24.7303 -24.7207 -24.7198
   -24.7198 -24.7142 -24.7141 -24.7082 -24.7082 -24.7081 -24.7080 -24.7078
   -24.7055 -24.7041 -24.7040 -24.6985 -24.6984 -24.6900 -24.6886 -24.6846
   -24.6846 -24.6787 -24.6742 -24.6740 -24.6740 -24.6681 -24.6680 -24.6559
   -24.6519 -24.6500 -24.6500 -24.6473 -24.6472 -24.6324 -24.6288 -24.6272
   -11.7699 -11.4980 -11.4979 -11.2391 -11.2143 -11.1140 -11.1139 -10.9840
   -10.9839 -10.8928 -10.8911 -10.8792 -10.8791 -10.8551 -10.8551 -10.8255
   -10.8255 -10.7927 -10.7713 -10.7397 -10.7396 -10.7079 -10.6991 -10.6990
   -10.6553 -10.6540 -10.6525 -10.6524 -10.6066 -10.6066 -10.5900 -10.5900
   -10.5679 -10.5244 -10.5244 -10.4930 -10.4930 -10.4826 -10.4825 -10.4120
   -10.4110 -10.3956 -10.3576 -10.3542 -10.3288 -10.3288 -10.3012 -10.2900
   -10.2465 -10.2464 -10.2212 -10.2212 -10.1930 -10.1930 -10.1876 -10.1876
   -10.1479 -10.1478 -10.1182 -10.1058 -10.1058 -10.0645 -10.0426 -10.0426
   -10.0334 -10.0334  -9.9598  -9.9598  -9.9286  -9.8752  -9.8460  -9.8206
    -2.5802  -2.5738  -2.5409  -2.5151  -2.2033  -2.2033  -2.1792  -2.1792
    -2.0968  -2.0968  -2.0367  -2.0367  -1.8895  -1.8538  -1.8487  -1.8481
    -1.8465  -1.8094  -1.8094  -1.7518  -1.7518  -1.7094  -1.6834  -1.6769
    -1.6768  -1.5623  -1.5623  -1.5542  -1.5541  -1.5231  -1.5063  -1.5062
    -1.4858  -1.4858  -1.4333  -1.4332  -1.4136  -1.4136  -1.3445  -1.3444
    -1.3434  -1.3185  -1.3184  -1.3046  -1.2800  -1.2360  -1.2360  -1.1300
    -1.1300  -1.0370  -1.0348  -1.0095  -1.0094  -0.9920  -0.9920  -0.9484
    -0.9484  -0.9477  -0.9377  -0.9377  -0.7592  -0.7534  -0.7521  -0.7343
    -0.7343  -0.6956  -0.6353  -0.6159  -0.6113  -0.6020  -0.6019  -0.5617
    -0.5442  -0.5442  -0.5309  -0.5232  -0.5232  -0.5181  -0.5181  -0.5126
    -0.5109  -0.5108  -0.4988  -0.4852  -0.4573  -0.4552  -0.4228  -0.4228
    -0.4054  -0.4053  -0.3886  -0.3886  -0.3854  -0.3854  -0.3725  -0.3725
    -0.3684  -0.3684  -0.3454  -0.3454  -0.3318  -0.3318  -0.2877  -0.2876
    -0.2831  -0.2831  -0.2673  -0.2672  -0.2397  -0.2396  -0.2339  -0.2283
    -0.2031  -0.2030  -0.1627  -0.1623  -0.1537  -0.1530  -0.1498  -0.1456
    -0.1456  -0.1352  -0.1342  -0.1342  -0.1106  -0.1105  -0.0954  -0.0948
    -0.0557  -0.0556  -0.0525  -0.0110  -0.0110   0.0063   0.0063   0.0177
     0.0280   0.0280   0.0484   0.0484   0.0671   0.0680   0.1029   0.1039
     0.1040   0.1283   0.1455   0.1465   0.1470   0.1470   0.1656   0.1662
     0.1867   0.1867   0.2029   0.2029   0.2098   0.2098   0.2221   0.2221
     0.2365   0.2365   0.2737   0.2737   0.2840   0.2841   0.2908   0.2908
     0.3162   0.3162   0.3656   0.3656   0.3718   0.3718   0.4186   0.4811
     0.4962   0.4962   0.5457   0.5457   0.5560   0.5560   0.5673   0.5866
     0.5870   0.6608   0.6652   0.6653   0.6758   0.6810   0.6810   0.6849
     0.7285   0.7285   0.7322   0.7602   0.7602   0.8305   0.8305   0.8795
     0.8795   0.8850   0.9045   0.9468   0.9468   0.9974   0.9974   1.0566
     1.0811   1.1119   1.3141   1.3141   1.3941   1.5794   1.6091   1.7950
     2.6468   2.8863   2.8865   3.0701   3.0701   3.1160   3.4512   3.4512
     3.7441   3.7442   3.8158   3.8448   3.8448   3.9348   3.9422   3.9440
     3.9626   3.9626   4.1278   4.1279   4.2004   4.2004   4.2043   4.2043
     4.2517   4.2533   4.3731   4.3847   4.4011   4.4023   4.4024   4.4121
     4.4121   4.4198   4.5180   4.5180   4.5296   4.6620   4.6620   4.6623
     4.6624   4.6861   4.6862   4.6888   4.7365   4.7365   4.8327   4.8327
     4.8504   4.8505   4.8618   4.8618   4.8934   4.9412   4.9498   4.9558
     4.9614   4.9614   5.0647   5.0726   5.0726   5.0815   5.1062   5.1062
     5.1207   5.1290   5.1291   5.1452   5.1453   5.1618   5.1926   5.2036
     5.2403   5.3355   5.3355   5.3700   5.3700   5.4349   5.4349   5.4790
     5.4790   5.4859   5.4859   5.5157   5.5157   5.5342   5.5517   5.5517
     5.5820   5.5849   5.5849   5.5998   5.5999   5.6422   5.6422   5.6972
     5.6972   5.7209   5.7470   5.7470   5.7593   5.7651   5.8077   5.8077
     5.8099   5.8519   5.8547   5.8678   5.8826   5.8997   5.8997   5.9300
     5.9391   5.9426   5.9644

          k = 0.2500-0.5000 0.0000 (165780 PWs)   bands (ev):

   -46.5097 -46.5097 -46.5017 -46.5017 -46.4882 -46.4881 -46.4808 -46.4808
   -46.4802 -46.4802 -46.4797 -46.4797 -46.4731 -46.4731 -46.4606 -46.4606
   -46.4536 -46.4536 -46.4062 -46.4060 -46.3978 -46.3976 -46.3837 -46.3836
   -46.3762 -46.3760 -46.3755 -46.3753 -46.3748 -46.3746 -46.3683 -46.3681
   -46.3556 -46.3554 -46.3485 -46.3483 -46.1957 -46.1956 -46.1860 -46.1859
   -46.1694 -46.1693 -46.1608 -46.1608 -46.1590 -46.1590 -46.1570 -46.1569
   -46.1511 -46.1511 -46.1368 -46.1368 -46.1294 -46.1294 -46.1255 -46.1254
   -46.1217 -46.1216 -46.1145 -46.1143 -46.1137 -46.1134 -46.1112 -46.1109
   -46.1089 -46.1086 -46.1045 -46.1044 -46.0939 -46.0937 -46.0866 -46.0865
   -25.4006 -25.4006 -25.3812 -25.3811 -25.3764 -25.3764 -25.3761 -25.3761
   -25.3690 -25.3689 -25.3639 -25.3639 -25.3546 -25.3545 -25.3542 -25.3542
   -25.3284 -25.3283 -25.3123 -25.3122 -25.3058 -25.3057 -25.3025 -25.3024
   -25.2927 -25.2925 -25.2881 -25.2880 -25.2816 -25.2815 -25.2780 -25.2779
   -25.2777 -25.2776 -25.2725 -25.2725 -25.2669 -25.2668 -25.2632 -25.2631
   -25.2548 -25.2548 -25.2481 -25.2481 -25.2464 -25.2462 -25.2142 -25.2141
   -25.2135 -25.2135 -25.2049 -25.2049 -25.1976 -25.1976 -25.1867 -25.1867
   -25.1848 -25.1848 -25.1765 -25.1765 -25.1613 -25.1613 -25.1356 -25.1356
   -25.1333 -25.1333 -25.1285 -25.1285 -25.1146 -25.1146 -25.1059 -25.1059
   -25.0634 -25.0634 -25.0622 -25.0622 -25.0609 -25.0608 -25.0593 -25.0592
   -25.0476 -25.0476 -25.0469 -25.0469 -25.0352 -25.0352 -25.0213 -25.0213
   -25.0165 -25.0164 -25.0149 -25.0148 -25.0116 -25.0116 -25.0008 -25.0007
   -24.9904 -24.9903 -24.9888 -24.9888 -24.9880 -24.9879 -24.9875 -24.9874
   -24.9712 -24.9711 -24.9709 -24.9708 -24.9664 -24.9664 -24.9543 -24.9543
   -24.9442 -24.9442 -24.9384 -24.9383 -24.9350 -24.9350 -24.9323 -24.9323
   -24.9121 -24.9120 -24.9095 -24.9095 -24.8995 -24.8995 -24.8924 -24.8924
   -24.8870 -24.8870 -24.8832 -24.8832 -24.8780 -24.8779 -24.8667 -24.8667
   -24.8527 -24.8527 -24.8520 -24.8519 -24.8506 -24.8505 -24.8488 -24.8487
   -24.8376 -24.8376 -24.8262 -24.8262 -24.8107 -24.8107 -24.8089 -24.8089
   -24.8075 -24.8075 -24.8053 -24.8053 -24.7950 -24.7950 -24.7824 -24.7824
   -24.7748 -24.7747 -24.7670 -24.7670 -24.7615 -24.7614 -24.7599 -24.7599
   -24.7578 -24.7577 -24.7547 -24.7547 -24.7517 -24.7516 -24.7510 -24.7510
   -24.7365 -24.7365 -24.7352 -24.7352 -24.7350 -24.7349 -24.7331 -24.7330
   -24.7264 -24.7264 -24.7223 -24.7223 -24.7159 -24.7157 -24.7106 -24.7105
   -24.6964 -24.6963 -24.6885 -24.6884 -24.6849 -24.6848 -24.6794 -24.6793
   -24.6747 -24.6747 -24.6737 -24.6736 -24.6730 -24.6729 -24.6721 -24.6721
   -24.6698 -24.6698 -24.6365 -24.6365 -24.6355 -24.6355 -24.6336 -24.6336
   -11.6613 -11.6612 -11.3944 -11.3943 -11.1208 -11.1207 -11.0194 -11.0193
   -10.9564 -10.9563 -10.8969 -10.8969 -10.8595 -10.8594 -10.8275 -10.8274
   -10.7723 -10.7722 -10.7543 -10.7542 -10.7370 -10.7369 -10.7104 -10.7103
   -10.7000 -10.7000 -10.6259 -10.6258 -10.6207 -10.6207 -10.6186 -10.6185
   -10.5522 -10.5521 -10.5109 -10.5109 -10.4692 -10.4691 -10.4590 -10.4590
   -10.4102 -10.4102 -10.3515 -10.3515 -10.3062 -10.3062 -10.2549 -10.2549
   -10.2523 -10.2522 -10.2366 -10.2366 -10.1909 -10.1908 -10.1474 -10.1474
   -10.1351 -10.1350 -10.1349 -10.1349 -10.1266 -10.1266 -10.0648 -10.0647
   -10.0441 -10.0441  -9.9725  -9.9724  -9.8706  -9.8706  -9.8069  -9.8068
    -2.6239  -2.6238  -2.6099  -2.6099  -2.2114  -2.2114  -2.1731  -2.1731
    -1.9740  -1.9740  -1.9342  -1.9342  -1.9305  -1.9305  -1.8568  -1.8568
    -1.8511  -1.8511  -1.7899  -1.7898  -1.7604  -1.7604  -1.7177  -1.7176
    -1.6386  -1.6386  -1.6043  -1.6043  -1.5218  -1.5217  -1.5008  -1.5008
    -1.4646  -1.4645  -1.4187  -1.4187  -1.3735  -1.3734  -1.2804  -1.2804
    -1.2554  -1.2553  -1.2435  -1.2434  -1.2087  -1.2087  -1.1649  -1.1649
    -1.1475  -1.1475  -1.0942  -1.0942  -1.0816  -1.0816  -1.0235  -1.0235
    -1.0087  -1.0087  -0.9296  -0.9295  -0.9023  -0.9023  -0.8142  -0.8142
    -0.6180  -0.6179  -0.6046  -0.6046  -0.5785  -0.5785  -0.5721  -0.5720
    -0.5179  -0.5179  -0.5070  -0.5069  -0.5049  -0.5048  -0.4933  -0.4932
    -0.4859  -0.4859  -0.4753  -0.4753  -0.4750  -0.4750  -0.4665  -0.4665
    -0.4419  -0.4419  -0.4372  -0.4372  -0.4282  -0.4282  -0.4094  -0.4094
    -0.3644  -0.3644  -0.3559  -0.3559  -0.3297  -0.3296  -0.3243  -0.3243
    -0.3203  -0.3203  -0.3078  -0.3077  -0.2753  -0.2753  -0.2379  -0.2379
    -0.2115  -0.2115  -0.2067  -0.2066  -0.1601  -0.1601  -0.1586  -0.1586
    -0.1128  -0.1127  -0.1047  -0.1047  -0.0960  -0.0960  -0.0324  -0.0324
     0.0026   0.0026   0.0113   0.0113   0.0166   0.0166   0.0310   0.0310
     0.0632   0.0632   0.1037   0.1037   0.1148   0.1148   0.1364   0.1365
     0.1372   0.1373   0.1386   0.1387   0.1600   0.1600   0.1892   0.1893
     0.2112   0.2112   0.2137   0.2137   0.2234   0.2235   0.2459   0.2460
     0.3197   0.3198   0.3306   0.3306   0.3400   0.3400   0.3687   0.3688
     0.3779   0.3780   0.4116   0.4117   0.4857   0.4858   0.5249   0.5249
     0.5488   0.5489   0.5596   0.5596   0.5691   0.5691   0.5693   0.5693
     0.6300   0.6301   0.6364   0.6364   0.6477   0.6478   0.6679   0.6680
     0.6825   0.6825   0.7189   0.7190   0.8030   0.8030   0.8158   0.8159
     0.8314   0.8314   0.8535   0.8535   0.9735   0.9736   1.0069   1.0069
     1.0644   1.0645   1.1007   1.1007   1.3037   1.3037   1.5500   1.5500
     2.9528   2.9530   3.1288   3.1289   3.3019   3.3020   3.4383   3.4384
     3.5542   3.5543   3.6987   3.6987   3.7614   3.7615   3.8695   3.8696
     3.9721   3.9721   4.0381   4.0383   4.1797   4.1798   4.1922   4.1923
     4.2809   4.2810   4.3109   4.3110   4.3253   4.3254   4.3718   4.3718
     4.3962   4.3964   4.4304   4.4306   4.4805   4.4807   4.6242   4.6243
     4.7090   4.7091   4.7312   4.7313   4.7411   4.7412   4.8017   4.8018
     4.8163   4.8163   4.8471   4.8471   4.8687   4.8688   4.9586   4.9587
     4.9754   4.9754   5.0316   5.0316   5.1041   5.1041   5.1459   5.1459
     5.1840   5.1841   5.1942   5.1943   5.2454   5.2455   5.2677   5.2678
     5.2874   5.2875   5.3070   5.3071   5.3764   5.3765   5.3914   5.3914
     5.4801   5.4801   5.4973   5.4974   5.4988   5.4988   5.5207   5.5208
     5.5870   5.5870   5.6460   5.6461   5.6570   5.6571   5.7621   5.7621
     5.7966   5.7966   5.8133   5.8134   5.8485   5.8486   5.8641   5.8644
     5.8921   5.8925   5.8955   5.8957   5.9109   5.9111   5.9489   5.9490
     5.9529   5.9532   5.9862

          k =-0.5000-0.5000 0.0000 (165708 PWs)   bands (ev):

   -46.5066 -46.5066 -46.5066 -46.5065 -46.4806 -46.4806 -46.4806 -46.4806
   -46.4805 -46.4805 -46.4805 -46.4805 -46.4796 -46.4796 -46.4563 -46.4563
   -46.4563 -46.4562 -46.4029 -46.4029 -46.4028 -46.4027 -46.3760 -46.3760
   -46.3759 -46.3759 -46.3759 -46.3758 -46.3756 -46.3755 -46.3747 -46.3744
   -46.3513 -46.3512 -46.3511 -46.3510 -46.1920 -46.1919 -46.1919 -46.1918
   -46.1601 -46.1601 -46.1601 -46.1601 -46.1600 -46.1600 -46.1600 -46.1600
   -46.1566 -46.1566 -46.1322 -46.1322 -46.1322 -46.1321 -46.1242 -46.1240
   -46.1240 -46.1239 -46.1141 -46.1139 -46.1100 -46.1099 -46.1097 -46.1097
   -46.1097 -46.1096 -46.1096 -46.1095 -46.0896 -46.0895 -46.0894 -46.0893
   -25.4044 -25.4044 -25.3790 -25.3789 -25.3789 -25.3789 -25.3724 -25.3724
   -25.3632 -25.3632 -25.3632 -25.3632 -25.3632 -25.3632 -25.3632 -25.3631
   -25.3172 -25.3172 -25.3137 -25.3137 -25.3136 -25.3136 -25.2910 -25.2910
   -25.2909 -25.2908 -25.2797 -25.2797 -25.2796 -25.2796 -25.2796 -25.2796
   -25.2795 -25.2793 -25.2706 -25.2706 -25.2638 -25.2638 -25.2638 -25.2638
   -25.2395 -25.2395 -25.2395 -25.2395 -25.2395 -25.2395 -25.2395 -25.2395
   -25.2296 -25.2296 -25.2295 -25.2294 -25.1775 -25.1775 -25.1774 -25.1774
   -25.1655 -25.1655 -25.1655 -25.1655 -25.1579 -25.1578 -25.1578 -25.1578
   -25.1577 -25.1577 -25.1577 -25.1577 -25.0900 -25.0900 -25.0900 -25.0900
   -25.0884 -25.0884 -25.0883 -25.0883 -25.0655 -25.0655 -25.0263 -25.0263
   -25.0263 -25.0263 -25.0263 -25.0263 -25.0263 -25.0263 -25.0192 -25.0192
   -25.0192 -25.0192 -25.0186 -25.0186 -25.0041 -25.0041 -25.0041 -25.0041
   -24.9934 -24.9934 -24.9934 -24.9934 -24.9934 -24.9934 -24.9934 -24.9934
   -24.9748 -24.9748 -24.9748 -24.9747 -24.9595 -24.9595 -24.9595 -24.9595
   -24.9595 -24.9595 -24.9595 -24.9594 -24.9324 -24.9324 -24.9324 -24.9324
   -24.8950 -24.8949 -24.8949 -24.8949 -24.8877 -24.8877 -24.8877 -24.8877
   -24.8876 -24.8876 -24.8876 -24.8875 -24.8861 -24.8861 -24.8655 -24.8655
   -24.8655 -24.8655 -24.8505 -24.8505 -24.8505 -24.8505 -24.8403 -24.8403
   -24.8402 -24.8402 -24.8354 -24.8354 -24.8353 -24.8353 -24.7966 -24.7965
   -24.7965 -24.7965 -24.7875 -24.7875 -24.7814 -24.7814 -24.7813 -24.7813
   -24.7813 -24.7813 -24.7813 -24.7813 -24.7665 -24.7663 -24.7663 -24.7662
   -24.7585 -24.7585 -24.7584 -24.7584 -24.7584 -24.7584 -24.7584 -24.7584
   -24.7527 -24.7527 -24.7203 -24.7203 -24.7202 -24.7202 -24.7181 -24.7179
   -24.7111 -24.7111 -24.7110 -24.7110 -24.7006 -24.7006 -24.7005 -24.7005
   -24.7005 -24.7005 -24.7004 -24.7004 -24.6915 -24.6914 -24.6914 -24.6913
   -24.6913 -24.6913 -24.6913 -24.6912 -24.6761 -24.6760 -24.6760 -24.6759
   -24.6677 -24.6677 -24.6307 -24.6307 -24.6298 -24.6298 -24.6297 -24.6297
   -11.5547 -11.5546 -11.5546 -11.5545 -11.0297 -11.0296 -11.0296 -11.0295
   -10.8675 -10.8675 -10.8674 -10.8674 -10.8674 -10.8674 -10.8674 -10.8674
   -10.7933 -10.7932 -10.7931 -10.7930 -10.7916 -10.7915 -10.7915 -10.7915
   -10.6293 -10.6293 -10.6293 -10.6293 -10.5548 -10.5547 -10.5546 -10.5546
   -10.5546 -10.5546 -10.5546 -10.5546 -10.5351 -10.5351 -10.5351 -10.5350
   -10.3739 -10.3737 -10.3729 -10.3729 -10.2553 -10.2553 -10.2553 -10.2553
   -10.2021 -10.2020 -10.2020 -10.2019 -10.1660 -10.1660 -10.1659 -10.1659
   -10.1659 -10.1659 -10.1659 -10.1659 -10.0671 -10.0671 -10.0671 -10.0670
   -10.0670 -10.0670 -10.0670 -10.0669  -9.8369  -9.8369  -9.7822  -9.7821
    -2.6846  -2.6846  -2.6779  -2.6779  -1.9841  -1.9841  -1.9683  -1.9682
    -1.9682  -1.9682  -1.9682  -1.9682  -1.9682  -1.9681  -1.9412  -1.9412
    -1.9126  -1.9126  -1.9126  -1.9126  -1.9125  -1.9125  -1.9125  -1.9125
    -1.4233  -1.4233  -1.4233  -1.4232  -1.3790  -1.3789  -1.3789  -1.3789
    -1.3749  -1.3748  -1.3748  -1.3748  -1.3335  -1.3335  -1.3334  -1.3334
    -1.3334  -1.3334  -1.3333  -1.3333  -1.1845  -1.1845  -1.1845  -1.1845
    -1.1845  -1.1845  -1.1844  -1.1844  -1.1034  -1.1034  -1.1034  -1.1034
    -1.0074  -1.0074  -1.0074  -1.0074  -0.9973  -0.9973  -0.9972  -0.9972
    -0.6405  -0.6405  -0.6341  -0.6341  -0.5608  -0.5608  -0.5443  -0.5442
    -0.5144  -0.5144  -0.5144  -0.5144  -0.5144  -0.5143  -0.5143  -0.5143
    -0.4347  -0.4346  -0.4346  -0.4346  -0.4346  -0.4346  -0.4345  -0.4345
    -0.3652  -0.3652  -0.3651  -0.3651  -0.3651  -0.3651  -0.3651  -0.3650
    -0.3503  -0.3503  -0.3503  -0.3503  -0.3470  -0.3470  -0.3469  -0.3469
    -0.3231  -0.3231  -0.3230  -0.3230  -0.2674  -0.2673  -0.2673  -0.2673
    -0.2673  -0.2673  -0.2673  -0.2672  -0.2465  -0.2465  -0.1948  -0.1948
    -0.1184  -0.1183  -0.1183  -0.1183  -0.1169  -0.1169  -0.0455  -0.0455
     0.0632   0.0632   0.0632   0.0632   0.0718   0.0719   0.0719   0.0719
     0.0870   0.0870   0.0870   0.0870   0.0871   0.0871   0.0871   0.0871
     0.1919   0.1919   0.1919   0.1920   0.1920   0.1920   0.1920   0.1920
     0.3281   0.3282   0.3282   0.3282   0.3456   0.3456   0.3457   0.3457
     0.3853   0.3853   0.3853   0.3854   0.4127   0.4127   0.4128   0.4128
     0.5124   0.5125   0.5125   0.5126   0.5126   0.5126   0.5127   0.5127
     0.5147   0.5148   0.5148   0.5148   0.5356   0.5356   0.5357   0.5357
     0.5357   0.5357   0.5357   0.5357   0.6531   0.6531   0.6532   0.6532
     0.7429   0.7429   0.7429   0.7429   0.7567   0.7567   0.7567   0.7567
     0.8134   0.8134   0.8134   0.8134   0.8764   0.8765   0.8766   0.8767
     1.0941   1.0941   1.0941   1.0942   1.2370   1.2370   1.2370   1.2371
     3.3455   3.3455   3.3456   3.3456   3.3484   3.3484   3.3484   3.3485
     3.4598   3.4599   3.4599   3.4599   3.8530   3.8531   3.8531   3.8531
     3.9739   3.9740   3.9741   3.9741   3.9741   3.9742   3.9742   3.9743
     4.1291   4.1291   4.1292   4.1293   4.3821   4.3822   4.3823   4.3825
     4.4408   4.4408   4.4408   4.4409   4.5278   4.5278   4.5279   4.5279
     4.5336   4.5336   4.5337   4.5337   4.8575   4.8576   4.8576   4.8576
     4.8576   4.8576   4.8576   4.8576   4.9265   4.9266   4.9266   4.9267
     4.9960   4.9960   4.9960   4.9960   5.1881   5.1881   5.1881   5.1882
     5.2253   5.2254   5.2254   5.2254   5.2254   5.2254   5.2254   5.2256
     5.2579   5.2579   5.3434   5.3434   5.4548   5.4548   5.4549   5.4549
     5.4550   5.4551   5.4551   5.4555   5.5442   5.5442   5.5442   5.5442
     5.7615   5.7615   5.7616   5.7616   5.7889   5.7889   5.7890   5.7890
     5.8429   5.8429   5.8430   5.8432   5.8433   5.8434   5.8434   5.8435
     5.9611   5.9638   5.9710   5.9710   5.9711   5.9712   5.9713   5.9715
     5.9716   5.9716   6.0884

          k = 0.2500 0.0000 0.0000 (165664 PWs)   bands (ev):

   -46.5143 -46.5051 -46.4973 -46.4973 -46.4924 -46.4924 -46.4896 -46.4843
   -46.4843 -46.4757 -46.4757 -46.4723 -46.4687 -46.4687 -46.4649 -46.4649
   -46.4577 -46.4495 -46.4109 -46.4014 -46.3933 -46.3930 -46.3881 -46.3879
   -46.3853 -46.3797 -46.3794 -46.3708 -46.3705 -46.3674 -46.3637 -46.3635
   -46.3600 -46.3597 -46.3526 -46.3444 -46.2011 -46.1903 -46.1808 -46.1807
   -46.1743 -46.1742 -46.1716 -46.1635 -46.1635 -46.1527 -46.1527 -46.1508
   -46.1453 -46.1453 -46.1420 -46.1419 -46.1340 -46.1278 -46.1251 -46.1230
   -46.1189 -46.1187 -46.1178 -46.1176 -46.1150 -46.1148 -46.1140 -46.1095
   -46.1093 -46.1024 -46.1022 -46.1021 -46.0970 -46.0968 -46.0903 -46.0824
   -25.3895 -25.3895 -25.3861 -25.3850 -25.3850 -25.3782 -25.3782 -25.3760
   -25.3698 -25.3698 -25.3607 -25.3584 -25.3584 -25.3442 -25.3442 -25.3398
   -25.3311 -25.3311 -25.3225 -25.3224 -25.3127 -25.3098 -25.3098 -25.2992
   -25.2991 -25.2965 -25.2908 -25.2907 -25.2907 -25.2905 -25.2874 -25.2856
   -25.2812 -25.2810 -25.2760 -25.2759 -25.2714 -25.2530 -25.2479 -25.2478
   -25.2469 -25.2469 -25.2394 -25.2387 -25.2297 -25.2296 -25.2276 -25.2276
   -25.2255 -25.2207 -25.2207 -25.2180 -25.2180 -25.2105 -25.2008 -25.1906
   -25.1707 -25.1574 -25.1526 -25.1433 -25.1433 -25.1417 -25.1416 -25.1343
   -25.1343 -25.1340 -25.1254 -25.1254 -25.1234 -25.1209 -25.1181 -25.0896
   -25.0804 -25.0803 -25.0640 -25.0640 -25.0612 -25.0571 -25.0526 -25.0526
   -25.0497 -25.0407 -25.0407 -25.0405 -25.0331 -25.0331 -25.0276 -25.0275
   -25.0238 -25.0180 -25.0179 -25.0173 -25.0173 -25.0170 -25.0103 -24.9974
   -24.9973 -24.9951 -24.9910 -24.9908 -24.9883 -24.9883 -24.9842 -24.9842
   -24.9749 -24.9741 -24.9741 -24.9706 -24.9696 -24.9560 -24.9559 -24.9527
   -24.9462 -24.9461 -24.9406 -24.9306 -24.9306 -24.9254 -24.9253 -24.9232
   -24.9132 -24.9132 -24.9130 -24.9021 -24.9005 -24.9005 -24.9004 -24.9004
   -24.8917 -24.8916 -24.8842 -24.8774 -24.8742 -24.8704 -24.8690 -24.8646
   -24.8645 -24.8626 -24.8584 -24.8581 -24.8581 -24.8498 -24.8404 -24.8383
   -24.8374 -24.8374 -24.8302 -24.8215 -24.8215 -24.8102 -24.8053 -24.8053
   -24.8045 -24.8043 -24.7928 -24.7916 -24.7892 -24.7892 -24.7851 -24.7764
   -24.7740 -24.7739 -24.7708 -24.7708 -24.7628 -24.7627 -24.7624 -24.7623
   -24.7612 -24.7611 -24.7584 -24.7583 -24.7556 -24.7556 -24.7554 -24.7413
   -24.7413 -24.7389 -24.7317 -24.7316 -24.7312 -24.7311 -24.7284 -24.7284
   -24.7255 -24.7253 -24.7251 -24.7231 -24.7107 -24.7107 -24.7073 -24.7070
   -24.7069 -24.7025 -24.7024 -24.6949 -24.6864 -24.6841 -24.6840 -24.6805
   -24.6804 -24.6757 -24.6757 -24.6731 -24.6730 -24.6726 -24.6691 -24.6657
   -24.6657 -24.6648 -24.6404 -24.6376 -24.6328 -24.6328 -24.6319 -24.6319
   -11.8079 -11.5342 -11.3050 -11.3050 -11.2474 -11.1472 -11.0570 -11.0570
   -11.0150 -10.9155 -10.9049 -10.8845 -10.8512 -10.8318 -10.8318 -10.8219
   -10.8158 -10.8158 -10.7550 -10.7388 -10.7256 -10.7182 -10.7182 -10.6556
   -10.6555 -10.6354 -10.6354 -10.6300 -10.6300 -10.6269 -10.6181 -10.5535
   -10.5535 -10.5224 -10.5217 -10.5216 -10.4543 -10.4543 -10.4258 -10.4258
   -10.4238 -10.4238 -10.3723 -10.3552 -10.3498 -10.3498 -10.3193 -10.2670
   -10.2661 -10.2661 -10.2477 -10.2170 -10.2070 -10.2006 -10.2006 -10.1574
   -10.1574 -10.1301 -10.1300 -10.1283 -10.0564 -10.0564 -10.0300 -10.0300
    -9.9978  -9.9977  -9.9389  -9.9389  -9.9324  -9.9323  -9.8772  -9.8771
    -2.4273  -2.4273  -2.4144  -2.4144  -2.3489  -2.3489  -2.3095  -2.3095
    -2.0724  -2.0723  -2.0579  -2.0578  -1.8975  -1.8975  -1.8006  -1.8006
    -1.7516  -1.7463  -1.7462  -1.7092  -1.7091  -1.7069  -1.7069  -1.6850
    -1.6409  -1.6408  -1.6357  -1.6356  -1.6150  -1.5374  -1.5373  -1.4785
    -1.4785  -1.4780  -1.4703  -1.4703  -1.4673  -1.4063  -1.4017  -1.4017
    -1.3438  -1.3341  -1.3270  -1.3269  -1.2799  -1.2196  -1.2195  -1.0816
    -1.0782  -1.0782  -1.0257  -0.9640  -0.9407  -0.9374  -0.9374  -0.9291
    -0.9207  -0.9194  -0.9193  -0.8906  -0.7530  -0.7398  -0.6687  -0.6525
    -0.6524  -0.6446  -0.6445  -0.6034  -0.5791  -0.5790  -0.5673  -0.5673
    -0.5477  -0.5476  -0.5120  -0.5120  -0.4988  -0.4987  -0.4869  -0.4868
    -0.4853  -0.4852  -0.4666  -0.4666  -0.4636  -0.4636  -0.4497  -0.4497
    -0.4467  -0.4467  -0.4319  -0.4319  -0.4164  -0.4071  -0.4070  -0.4033
    -0.4032  -0.3908  -0.3396  -0.3395  -0.3163  -0.3104  -0.3062  -0.3046
    -0.3046  -0.2909  -0.2784  -0.2669  -0.2668  -0.2425  -0.1939  -0.1939
    -0.1642  -0.1642  -0.1536  -0.1536  -0.1417  -0.1417  -0.1364  -0.1270
    -0.1270  -0.1145  -0.1144  -0.1143  -0.0822  -0.0786  -0.0785  -0.0681
    -0.0594  -0.0594  -0.0557  -0.0557  -0.0448  -0.0448  -0.0226  -0.0226
    -0.0084   0.0230   0.0230   0.0343   0.0343   0.0393   0.0394   0.0471
     0.0477   0.0478   0.0932   0.0994   0.0995   0.1229   0.1291   0.1291
     0.1310   0.1342   0.1368   0.1369   0.1426   0.1526   0.1746   0.1747
     0.1976   0.1976   0.2027   0.2027   0.2497   0.2721   0.2721   0.2828
     0.2931   0.3260   0.3311   0.3311   0.3638   0.3639   0.3669   0.3669
     0.4364   0.4365   0.4623   0.4648   0.4649   0.5576   0.5763   0.5944
     0.6792   0.6795   0.6795   0.6926   0.7256   0.7257   0.7368   0.7419
     0.7580   0.7581   0.7621   0.7622   0.8145   0.8193   0.8615   0.8727
     0.8749   0.9271   0.9609   1.0608   1.0779   1.0919   1.1053   1.1077
     1.1089   1.1090   1.1988   1.4672   1.6031   1.6400   1.7942   1.9369
     2.4521   2.7203   2.8654   2.9311   2.9455   3.2380   3.2381   3.3394
     3.6778   3.6794   3.8435   3.8809   3.9106   4.0541   4.0542   4.0746
     4.1747   4.1769   4.1949   4.1950   4.2332   4.2916   4.3381   4.3903
     4.3904   4.3992   4.4247   4.4277   4.4278   4.4609   4.4609   4.4654
     4.4655   4.5515   4.5539   4.5539   4.5877   4.5878   4.6485   4.6657
     4.6658   4.6769   4.6893   4.6894   4.7007   4.7476   4.7477   4.8226
     4.8247   4.8260   4.8261   4.8514   4.8514   4.9011   4.9011   4.9068
     4.9678   4.9796   4.9797   5.0208   5.0326   5.0326   5.0520   5.0884
     5.0885   5.0930   5.1252   5.1698   5.1698   5.1892   5.2272   5.2274
     5.2451   5.2451   5.2540   5.2541   5.3146   5.3148   5.3460   5.3461
     5.4373   5.4774   5.4888   5.5717   5.5834   5.5834   5.5867   5.5869
     5.5872   5.6338   5.6341   5.6490   5.6491   5.7216   5.7255   5.7256
     5.7349   5.7350   5.7351   5.7529   5.7640   5.8170   5.8176   5.8199
     5.8355   5.8385   5.8465   5.8466   5.8594   5.8595   5.8957   5.8959
     5.9409   5.9497   5.9499

          k =-0.5000 0.0000 0.0000 (165810 PWs)   bands (ev):

   -46.5108 -46.5107 -46.4954 -46.4954 -46.4954 -46.4954 -46.4809 -46.4809
   -46.4799 -46.4799 -46.4799 -46.4799 -46.4663 -46.4663 -46.4663 -46.4663
   -46.4527 -46.4527 -46.4072 -46.4072 -46.3913 -46.3912 -46.3911 -46.3909
   -46.3763 -46.3762 -46.3751 -46.3751 -46.3750 -46.3746 -46.3614 -46.3614
   -46.3613 -46.3611 -46.3476 -46.3475 -46.1970 -46.1969 -46.1783 -46.1782
   -46.1782 -46.1782 -46.1611 -46.1610 -46.1579 -46.1579 -46.1578 -46.1578
   -46.1432 -46.1432 -46.1432 -46.1432 -46.1285 -46.1284 -46.1260 -46.1259
   -46.1186 -46.1184 -46.1184 -46.1183 -46.1128 -46.1124 -46.1124 -46.1123
   -46.1085 -46.1083 -46.0992 -46.0990 -46.0989 -46.0989 -46.0856 -46.0855
   -25.3903 -25.3902 -25.3902 -25.3902 -25.3820 -25.3820 -25.3729 -25.3729
   -25.3729 -25.3729 -25.3511 -25.3510 -25.3427 -25.3427 -25.3427 -25.3427
   -25.3399 -25.3399 -25.3398 -25.3398 -25.2989 -25.2988 -25.2988 -25.2987
   -25.2984 -25.2983 -25.2931 -25.2931 -25.2847 -25.2846 -25.2845 -25.2844
   -25.2757 -25.2757 -25.2757 -25.2757 -25.2627 -25.2626 -25.2570 -25.2570
   -25.2570 -25.2569 -25.2410 -25.2410 -25.2409 -25.2409 -25.2262 -25.2262
   -25.2245 -25.2245 -25.2080 -25.2080 -25.1851 -25.1851 -25.1850 -25.1850
   -25.1781 -25.1781 -25.1781 -25.1781 -25.1480 -25.1480 -25.1422 -25.1422
   -25.1374 -25.1374 -25.0991 -25.0991 -25.0991 -25.0991 -25.0955 -25.0955
   -25.0903 -25.0903 -25.0902 -25.0902 -25.0698 -25.0697 -25.0519 -25.0518
   -25.0518 -25.0518 -25.0334 -25.0334 -25.0334 -25.0333 -25.0251 -25.0251
   -25.0216 -25.0215 -25.0102 -25.0102 -25.0102 -25.0101 -25.0101 -25.0100
   -25.0066 -25.0066 -25.0065 -25.0065 -24.9967 -24.9966 -24.9674 -24.9674
   -24.9612 -24.9612 -24.9559 -24.9559 -24.9559 -24.9559 -24.9457 -24.9457
   -24.9414 -24.9414 -24.9414 -24.9414 -24.9320 -24.9320 -24.9320 -24.9319
   -24.9109 -24.9109 -24.9109 -24.9109 -24.9102 -24.9102 -24.9102 -24.9102
   -24.8829 -24.8829 -24.8778 -24.8778 -24.8769 -24.8769 -24.8638 -24.8637
   -24.8615 -24.8615 -24.8572 -24.8571 -24.8482 -24.8482 -24.8481 -24.8481
   -24.8284 -24.8283 -24.8283 -24.8283 -24.8171 -24.8171 -24.8169 -24.8169
   -24.8117 -24.8117 -24.7847 -24.7846 -24.7819 -24.7818 -24.7817 -24.7817
   -24.7774 -24.7773 -24.7638 -24.7637 -24.7637 -24.7637 -24.7582 -24.7582
   -24.7582 -24.7581 -24.7543 -24.7541 -24.7534 -24.7534 -24.7487 -24.7487
   -24.7487 -24.7487 -24.7404 -24.7403 -24.7359 -24.7359 -24.7359 -24.7359
   -24.7319 -24.7318 -24.7318 -24.7317 -24.7147 -24.7146 -24.7145 -24.7145
   -24.6917 -24.6917 -24.6917 -24.6916 -24.6873 -24.6871 -24.6781 -24.6781
   -24.6726 -24.6725 -24.6725 -24.6725 -24.6583 -24.6582 -24.6498 -24.6498
   -24.6498 -24.6497 -24.6497 -24.6496 -24.6476 -24.6476 -24.6475 -24.6475
   -11.6986 -11.6986 -11.2056 -11.2056 -11.2055 -11.2055 -11.1531 -11.1530
   -10.9878 -10.9878 -10.8838 -10.8837 -10.8414 -10.8413 -10.7507 -10.7507
   -10.7506 -10.7506 -10.7392 -10.7392 -10.7391 -10.7391 -10.7391 -10.7391
   -10.6510 -10.6510 -10.6420 -10.6419 -10.6095 -10.6095 -10.6094 -10.6094
   -10.5903 -10.5903 -10.5903 -10.5902 -10.3910 -10.3909 -10.3909 -10.3909
   -10.3777 -10.3776 -10.3776 -10.3776 -10.3253 -10.3253 -10.2709 -10.2709
   -10.2709 -10.2709 -10.2708 -10.2708 -10.2619 -10.2619 -10.1594 -10.1594
   -10.1395 -10.1395 -10.1394 -10.1394 -10.0738 -10.0738 -10.0737 -10.0737
    -9.9566  -9.9566  -9.9565  -9.9565  -9.8765  -9.8765  -9.8765  -9.8764
    -2.4517  -2.4517  -2.4516  -2.4516  -2.4268  -2.4268  -2.4268  -2.4267
    -1.8560  -1.8559  -1.8559  -1.8559  -1.8194  -1.8193  -1.8193  -1.8193
    -1.7547  -1.7547  -1.7546  -1.7546  -1.7250  -1.7250  -1.6771  -1.6770
    -1.6770  -1.6770  -1.6715  -1.6715  -1.6715  -1.6714  -1.6457  -1.6457
    -1.5237  -1.5236  -1.5236  -1.5236  -1.3584  -1.3584  -1.3398  -1.3398
    -1.3398  -1.3397  -1.2277  -1.2276  -1.2139  -1.2138  -1.1569  -1.1568
    -1.1568  -1.1568  -1.0434  -1.0434  -0.9798  -0.9797  -0.9242  -0.9241
    -0.7674  -0.7674  -0.7673  -0.7673  -0.7470  -0.7469  -0.7469  -0.7468
    -0.7103  -0.7103  -0.6103  -0.6103  -0.6040  -0.6040  -0.5973  -0.5973
    -0.5972  -0.5972  -0.5845  -0.5845  -0.5544  -0.5544  -0.5544  -0.5543
    -0.4922  -0.4921  -0.4921  -0.4921  -0.4913  -0.4913  -0.4913  -0.4913
    -0.4550  -0.4550  -0.4549  -0.4549  -0.4061  -0.4061  -0.4060  -0.4060
    -0.3725  -0.3725  -0.3055  -0.3055  -0.3055  -0.3055  -0.3025  -0.3024
    -0.2686  -0.2686  -0.2685  -0.2685  -0.2540  -0.2539  -0.2387  -0.2386
    -0.2386  -0.2385  -0.1855  -0.1854  -0.1854  -0.1854  -0.1706  -0.1706
    -0.1116  -0.1116  -0.1116  -0.1116  -0.0749  -0.0749  -0.0748  -0.0748
    -0.0491  -0.0490  -0.0399  -0.0399  -0.0399  -0.0399  -0.0068  -0.0067
    -0.0067  -0.0067   0.0762   0.0762   0.0762   0.0763   0.1100   0.1100
     0.1115   0.1116   0.1116   0.1116   0.1332   0.1333   0.1334   0.1334
     0.1415   0.1416   0.1416   0.1416   0.1541   0.1541   0.1571   0.1571
     0.2675   0.2675   0.2675   0.2676   0.3453   0.3453   0.4067   0.4068
     0.4843   0.4843   0.4844   0.4844   0.4915   0.4915   0.5277   0.5277
     0.5277   0.5277   0.5302   0.5303   0.5830   0.5831   0.5831   0.5831
     0.6320   0.6321   0.6321   0.6321   0.6493   0.6493   0.6902   0.6904
     0.7278   0.7278   0.7745   0.7745   0.7746   0.7746   0.7916   0.7917
     0.8143   0.8144   0.8486   0.8486   0.9528   0.9529   1.1003   1.1003
     1.1739   1.1739   1.2108   1.2109   1.3576   1.3576   1.7093   1.7094
     2.7994   2.7996   3.0225   3.0226   3.2899   3.2900   3.4612   3.4612
     3.5785   3.5786   3.5786   3.5786   3.6007   3.6010   4.0086   4.0087
     4.1022   4.1023   4.2374   4.2374   4.3550   4.3550   4.3550   4.3551
     4.3995   4.3996   4.3997   4.3997   4.4299   4.4300   4.4647   4.4647
     4.5139   4.5139   4.5139   4.5141   4.5972   4.5973   4.5973   4.5973
     4.6497   4.6498   4.6898   4.6899   4.7934   4.7935   4.7935   4.7935
     4.8052   4.8052   4.8053   4.8054   4.8419   4.8419   4.8897   4.8898
     4.8898   4.8898   4.9281   4.9282   4.9961   4.9961   4.9961   4.9963
     5.1261   5.1262   5.1262   5.1262   5.2213   5.2214   5.2503   5.2504
     5.2505   5.2506   5.3393   5.3394   5.3453   5.3454   5.3454   5.3454
     5.3501   5.3504   5.4801   5.4802   5.4802   5.4803   5.6372   5.6372
     5.7222   5.7223   5.7223   5.7223   5.7315   5.7316   5.7317   5.7317
     5.7433   5.7434   5.8165   5.8165   5.8165   5.8168   5.8513   5.8521
     5.8753   5.8753   5.8906   5.8906   5.9020   5.9020   5.9021   5.9021
     5.9077   5.9226   6.0017

          k =-0.5000 0.2500 0.0000 (165780 PWs)   bands (ev):

   -46.5097 -46.5097 -46.5017 -46.5017 -46.4882 -46.4881 -46.4808 -46.4808
   -46.4802 -46.4802 -46.4797 -46.4797 -46.4731 -46.4731 -46.4606 -46.4606
   -46.4536 -46.4536 -46.4061 -46.4061 -46.3977 -46.3977 -46.3837 -46.3836
   -46.3762 -46.3761 -46.3755 -46.3753 -46.3748 -46.3745 -46.3682 -46.3682
   -46.3555 -46.3555 -46.3485 -46.3484 -46.1957 -46.1956 -46.1860 -46.1859
   -46.1694 -46.1693 -46.1608 -46.1608 -46.1590 -46.1590 -46.1570 -46.1569
   -46.1511 -46.1511 -46.1368 -46.1368 -46.1294 -46.1294 -46.1255 -46.1254
   -46.1217 -46.1216 -46.1145 -46.1144 -46.1137 -46.1134 -46.1112 -46.1109
   -46.1089 -46.1086 -46.1045 -46.1044 -46.0939 -46.0938 -46.0866 -46.0865
   -25.4006 -25.4006 -25.3812 -25.3811 -25.3764 -25.3764 -25.3761 -25.3761
   -25.3690 -25.3689 -25.3639 -25.3639 -25.3546 -25.3545 -25.3542 -25.3542
   -25.3284 -25.3283 -25.3123 -25.3122 -25.3058 -25.3057 -25.3025 -25.3025
   -25.2926 -25.2926 -25.2881 -25.2880 -25.2816 -25.2815 -25.2780 -25.2779
   -25.2777 -25.2777 -25.2725 -25.2725 -25.2669 -25.2668 -25.2632 -25.2631
   -25.2548 -25.2548 -25.2481 -25.2481 -25.2463 -25.2463 -25.2142 -25.2142
   -25.2135 -25.2135 -25.2049 -25.2048 -25.1976 -25.1976 -25.1867 -25.1867
   -25.1848 -25.1848 -25.1765 -25.1765 -25.1613 -25.1613 -25.1356 -25.1356
   -25.1333 -25.1333 -25.1285 -25.1285 -25.1146 -25.1146 -25.1059 -25.1059
   -25.0634 -25.0634 -25.0622 -25.0622 -25.0609 -25.0609 -25.0593 -25.0592
   -25.0476 -25.0476 -25.0469 -25.0469 -25.0352 -25.0352 -25.0213 -25.0213
   -25.0165 -25.0164 -25.0149 -25.0148 -25.0116 -25.0116 -25.0008 -25.0007
   -24.9903 -24.9903 -24.9888 -24.9888 -24.9880 -24.9880 -24.9875 -24.9874
   -24.9712 -24.9711 -24.9709 -24.9708 -24.9664 -24.9664 -24.9543 -24.9543
   -24.9442 -24.9442 -24.9384 -24.9383 -24.9350 -24.9350 -24.9323 -24.9323
   -24.9121 -24.9120 -24.9095 -24.9095 -24.8995 -24.8995 -24.8924 -24.8924
   -24.8870 -24.8870 -24.8832 -24.8832 -24.8780 -24.8779 -24.8667 -24.8667
   -24.8527 -24.8527 -24.8519 -24.8519 -24.8506 -24.8505 -24.8487 -24.8487
   -24.8376 -24.8376 -24.8262 -24.8262 -24.8107 -24.8107 -24.8089 -24.8089
   -24.8075 -24.8075 -24.8053 -24.8053 -24.7950 -24.7950 -24.7824 -24.7824
   -24.7748 -24.7747 -24.7670 -24.7670 -24.7615 -24.7614 -24.7599 -24.7599
   -24.7578 -24.7577 -24.7547 -24.7547 -24.7517 -24.7516 -24.7510 -24.7510
   -24.7366 -24.7365 -24.7352 -24.7352 -24.7349 -24.7349 -24.7331 -24.7330
   -24.7264 -24.7264 -24.7223 -24.7223 -24.7159 -24.7157 -24.7106 -24.7105
   -24.6964 -24.6963 -24.6885 -24.6884 -24.6849 -24.6849 -24.6794 -24.6793
   -24.6747 -24.6747 -24.6737 -24.6736 -24.6730 -24.6730 -24.6721 -24.6721
   -24.6698 -24.6698 -24.6365 -24.6365 -24.6355 -24.6355 -24.6336 -24.6336
   -11.6613 -11.6612 -11.3944 -11.3943 -11.1208 -11.1207 -11.0194 -11.0193
   -10.9564 -10.9563 -10.8969 -10.8969 -10.8595 -10.8594 -10.8275 -10.8274
   -10.7723 -10.7722 -10.7543 -10.7542 -10.7370 -10.7369 -10.7104 -10.7103
   -10.7000 -10.7000 -10.6259 -10.6258 -10.6207 -10.6207 -10.6186 -10.6185
   -10.5522 -10.5521 -10.5109 -10.5109 -10.4692 -10.4691 -10.4590 -10.4590
   -10.4102 -10.4102 -10.3516 -10.3515 -10.3062 -10.3062 -10.2549 -10.2549
   -10.2523 -10.2523 -10.2366 -10.2366 -10.1909 -10.1908 -10.1474 -10.1474
   -10.1351 -10.1350 -10.1349 -10.1349 -10.1266 -10.1266 -10.0648 -10.0647
   -10.0441 -10.0441  -9.9725  -9.9724  -9.8706  -9.8706  -9.8069  -9.8068
    -2.6239  -2.6239  -2.6099  -2.6099  -2.2114  -2.2114  -2.1731  -2.1731
    -1.9740  -1.9739  -1.9342  -1.9342  -1.9305  -1.9305  -1.8568  -1.8568
    -1.8511  -1.8510  -1.7899  -1.7899  -1.7604  -1.7604  -1.7177  -1.7177
    -1.6386  -1.6386  -1.6043  -1.6043  -1.5218  -1.5217  -1.5008  -1.5008
    -1.4645  -1.4645  -1.4187  -1.4186  -1.3735  -1.3734  -1.2804  -1.2803
    -1.2554  -1.2553  -1.2434  -1.2434  -1.2087  -1.2087  -1.1649  -1.1649
    -1.1475  -1.1475  -1.0942  -1.0942  -1.0816  -1.0816  -1.0235  -1.0235
    -1.0087  -1.0087  -0.9296  -0.9295  -0.9023  -0.9023  -0.8142  -0.8142
    -0.6180  -0.6179  -0.6046  -0.6045  -0.5785  -0.5785  -0.5721  -0.5720
    -0.5179  -0.5179  -0.5070  -0.5069  -0.5049  -0.5048  -0.4933  -0.4932
    -0.4859  -0.4859  -0.4753  -0.4753  -0.4750  -0.4750  -0.4665  -0.4665
    -0.4419  -0.4419  -0.4372  -0.4372  -0.4282  -0.4282  -0.4094  -0.4094
    -0.3644  -0.3644  -0.3559  -0.3559  -0.3297  -0.3296  -0.3243  -0.3243
    -0.3203  -0.3203  -0.3078  -0.3077  -0.2753  -0.2753  -0.2379  -0.2379
    -0.2115  -0.2115  -0.2067  -0.2066  -0.1601  -0.1601  -0.1586  -0.1586
    -0.1128  -0.1128  -0.1047  -0.1047  -0.0960  -0.0960  -0.0324  -0.0324
     0.0025   0.0026   0.0113   0.0113   0.0166   0.0166   0.0310   0.0310
     0.0632   0.0632   0.1037   0.1037   0.1148   0.1148   0.1364   0.1365
     0.1373   0.1373   0.1387   0.1387   0.1600   0.1600   0.1892   0.1893
     0.2112   0.2112   0.2136   0.2137   0.2234   0.2234   0.2459   0.2460
     0.3197   0.3198   0.3306   0.3306   0.3400   0.3401   0.3688   0.3688
     0.3779   0.3779   0.4116   0.4117   0.4857   0.4858   0.5249   0.5249
     0.5488   0.5489   0.5596   0.5596   0.5691   0.5691   0.5693   0.5693
     0.6300   0.6301   0.6364   0.6364   0.6477   0.6478   0.6679   0.6680
     0.6825   0.6825   0.7189   0.7190   0.8030   0.8030   0.8158   0.8159
     0.8314   0.8315   0.8535   0.8535   0.9735   0.9736   1.0069   1.0069
     1.0644   1.0645   1.1007   1.1007   1.3037   1.3037   1.5500   1.5500
     2.9528   2.9529   3.1288   3.1289   3.3019   3.3020   3.4383   3.4384
     3.5542   3.5543   3.6986   3.6988   3.7614   3.7615   3.8695   3.8696
     3.9720   3.9721   4.0382   4.0382   4.1797   4.1798   4.1922   4.1923
     4.2809   4.2809   4.3110   4.3110   4.3253   4.3254   4.3717   4.3719
     4.3962   4.3963   4.4305   4.4306   4.4806   4.4806   4.6242   4.6243
     4.7091   4.7091   4.7313   4.7313   4.7411   4.7411   4.8017   4.8018
     4.8163   4.8163   4.8471   4.8471   4.8687   4.8687   4.9586   4.9587
     4.9754   4.9754   5.0316   5.0317   5.1041   5.1041   5.1458   5.1459
     5.1840   5.1841   5.1942   5.1943   5.2454   5.2455   5.2677   5.2678
     5.2875   5.2875   5.3070   5.3070   5.3763   5.3766   5.3914   5.3914
     5.4801   5.4801   5.4973   5.4974   5.4987   5.4988   5.5207   5.5208
     5.5869   5.5872   5.6460   5.6461   5.6570   5.6571   5.7621   5.7622
     5.7966   5.7966   5.8134   5.8135   5.8486   5.8488   5.8642   5.8643
     5.8925   5.8926   5.8955   5.8956   5.9110   5.9110   5.9491   5.9491
     5.9530   5.9844   5.9858

     the Fermi energy is     2.0662 ev

!    total energy              =   -8262.70667617 Ry
     estimated scf accuracy    <       0.00000466 Ry
     smearing contrib. (-TS)   =       0.00533581 Ry
     internal energy E=F+TS    =   -8262.71201198 Ry

     The total energy is F=E-TS. E is the sum of the following terms:
     one-electron contribution =  -99703.04767308 Ry
     hartree contribution      =   49975.92474360 Ry
     xc contribution           =   -1355.51531987 Ry
     ewald contribution        =   42822.74573327 Ry
     DFT-D3 Dispersion         =      -2.81949589 Ry

     convergence has been achieved in   5 iterations

     negative rho (up, down):  7.705E-03 0.000E+00

     Forces acting on atoms (cartesian axes, Ry/au):

     atom    1 type  1   force =     0.00000071   -0.00000131    0.01840259
     atom    2 type  1   force =     0.00000654   -0.00000482   -0.00022525
     atom    3 type  1   force =     0.00000812    0.00000256   -0.00023776
     atom    4 type  1   force =     0.00000130   -0.00000149    0.01840459
     atom    5 type  1   force =     0.00000736    0.00000807   -0.00194910
     atom    6 type  1   force =     0.00000179   -0.00000512   -0.00769606
     atom    7 type  1   force =     0.00000602   -0.00000700   -0.00749485
     atom    8 type  1   force =    -0.00000762    0.00000251   -0.00195007
     atom    9 type  1   force =     0.00000163    0.00000022    0.01840202
     atom   10 type  1   force =     0.00000269    0.00000559   -0.00022644
     atom   11 type  1   force =     0.00000075    0.00000690   -0.00023359
     atom   12 type  1   force =     0.00000207    0.00000171    0.01840843
     atom   13 type  1   force =     0.00000629   -0.00001330   -0.00194673
     atom   14 type  1   force =     0.00000669    0.00000180   -0.00769032
     atom   15 type  1   force =     0.00000453    0.00001019   -0.00768524
     atom   16 type  1   force =     0.00001262    0.00000205   -0.00194541
     atom   17 type  1   force =     0.00000109    0.00000109    0.01840515
     atom   18 type  1   force =     0.00000245   -0.00000079   -0.00022137
     atom   19 type  1   force =     0.00000173   -0.00000954   -0.00023256
     atom   20 type  1   force =     0.00000121   -0.00000037    0.01840757
     atom   21 type  1   force =     0.00000933    0.00000502   -0.00194706
     atom   22 type  1   force =     0.00000357    0.00000298   -0.00770340
     atom   23 type  1   force =     0.00000156   -0.00000107   -0.00770197
     atom   24 type  1   force =     0.00001120   -0.00000434   -0.00194658
     atom   25 type  1   force =     0.00000000   -0.00000130    0.01840738
     atom   26 type  1   force =    -0.00000654   -0.00000482   -0.00022525
     atom   27 type  1   force =     0.00000000   -0.00000111   -0.00023509
     atom   28 type  1   force =    -0.00000130   -0.00000149    0.01840459
     atom   29 type  1   force =     0.00000000   -0.00000933   -0.00194947
     atom   30 type  1   force =    -0.00000179   -0.00000512   -0.00769606
     atom   31 type  1   force =     0.00000000   -0.00000391   -0.00769741
     atom   32 type  1   force =     0.00000762    0.00000251   -0.00195007
     atom   33 type  1   force =     0.00000000    0.00000082    0.01840506
     atom   34 type  1   force =    -0.00000269    0.00000559   -0.00022644
     atom   35 type  1   force =     0.00000000    0.00000288   -0.00022047
     atom   36 type  1   force =    -0.00000207    0.00000171    0.01840843
     atom   37 type  1   force =     0.00000000    0.00000683   -0.00194403
     atom   38 type  1   force =    -0.00000669    0.00000180   -0.00769032
     atom   39 type  1   force =     0.00000000    0.00000350   -0.00769610
     atom   40 type  1   force =    -0.00001262    0.00000205   -0.00194541
     atom   41 type  1   force =     0.00000000    0.00000035    0.01840752
     atom   42 type  1   force =    -0.00000245   -0.00000079   -0.00022137
     atom   43 type  1   force =     0.00000000   -0.00000182   -0.00022379
     atom   44 type  1   force =    -0.00000121   -0.00000037    0.01840757
     atom   45 type  1   force =     0.00000000    0.00000228   -0.00194719
     atom   46 type  1   force =    -0.00000357    0.00000298   -0.00770340
     atom   47 type  1   force =     0.00000000   -0.00000054   -0.00769503
     atom   48 type  1   force =    -0.00001120   -0.00000434   -0.00194658
     atom   49 type  1   force =    -0.00000071   -0.00000131    0.01840259
     atom   50 type  1   force =     0.00000000   -0.00000764   -0.00022852
     atom   51 type  1   force =    -0.00000812    0.00000256   -0.00023776
     atom   52 type  1   force =     0.00000000   -0.00000249    0.01840229
     atom   53 type  1   force =    -0.00000736    0.00000807   -0.00194910
     atom   54 type  1   force =     0.00000000   -0.00000640   -0.00770676
     atom   55 type  1   force =    -0.00000602   -0.00000700   -0.00749485
     atom   56 type  1   force =     0.00000000    0.00000437   -0.00194996
     atom   57 type  1   force =    -0.00000163    0.00000022    0.01840202
     atom   58 type  1   force =     0.00000000    0.00000906   -0.00023150
     atom   59 type  1   force =    -0.00000075    0.00000690   -0.00023359
     atom   60 type  1   force =     0.00000000    0.00000239    0.01840799
     atom   61 type  1   force =    -0.00000629   -0.00001330   -0.00194673
     atom   62 type  1   force =     0.00000000    0.00000093   -0.00769215
     atom   63 type  1   force =    -0.00000453    0.00001019   -0.00768524
     atom   64 type  1   force =     0.00000000   -0.00000259   -0.00194297
     atom   65 type  1   force =    -0.00000109    0.00000109    0.01840515
     atom   66 type  1   force =     0.00000000   -0.00000163   -0.00022332
     atom   67 type  1   force =    -0.00000173   -0.00000954   -0.00023256
     atom   68 type  1   force =     0.00000000    0.00000001    0.01840737
     atom   69 type  1   force =    -0.00000933    0.00000502   -0.00194706
     atom   70 type  1   force =     0.00000000    0.00000579   -0.00768432
     atom   71 type  1   force =    -0.00000156   -0.00000107   -0.00770197
     atom   72 type  1   force =     0.00000000   -0.00000215   -0.00194606
     atom   73 type  2   force =    -0.00000135    0.00000171    0.00174550
     atom   74 type  2   force =    -0.00000156    0.00000150    0.00174242
     atom   75 type  2   force =    -0.00000068    0.00000088   -0.00800017
     atom   76 type  2   force =     0.00000124    0.00000201   -0.00800427
     atom   77 type  2   force =    -0.00000033   -0.00000198    0.00027179
     atom   78 type  2   force =    -0.00000402   -0.00000270    0.00027223
     atom   79 type  2   force =    -0.00000307    0.00000812   -0.00255902
     atom   80 type  2   force =    -0.00000523    0.00000375   -0.00257152
     atom   81 type  2   force =    -0.00000095   -0.00000262    0.00174782
     atom   82 type  2   force =    -0.00000199   -0.00000088    0.00174671
     atom   83 type  2   force =    -0.00000479    0.00000436   -0.00797065
     atom   84 type  2   force =    -0.00000378   -0.00000168   -0.00800095
     atom   85 type  2   force =    -0.00000357    0.00000136    0.00027951
     atom   86 type  2   force =     0.00000071    0.00000454    0.00028117
     atom   87 type  2   force =    -0.00000523   -0.00000732   -0.00275807
     atom   88 type  2   force =    -0.00000388   -0.00000500   -0.00255393
     atom   89 type  2   force =    -0.00000094    0.00000090    0.00174602
     atom   90 type  2   force =    -0.00000117   -0.00000072    0.00174253
     atom   91 type  2   force =    -0.00000134   -0.00000515   -0.00799538
     atom   92 type  2   force =    -0.00000213   -0.00000009   -0.00800148
     atom   93 type  2   force =    -0.00000327    0.00000049    0.00027503
     atom   94 type  2   force =    -0.00000344   -0.00000165    0.00027622
     atom   95 type  2   force =    -0.00000330   -0.00000257   -0.00254368
     atom   96 type  2   force =    -0.00000321    0.00000185   -0.00255682
     atom   97 type  2   force =     0.00000000    0.00000127    0.00174418
     atom   98 type  2   force =     0.00000156    0.00000150    0.00174242
     atom   99 type  2   force =     0.00000000    0.00000105   -0.00800187
     atom  100 type  2   force =    -0.00000124    0.00000201   -0.00800427
     atom  101 type  2   force =     0.00000000    0.00000329    0.00027016
     atom  102 type  2   force =     0.00000402   -0.00000270    0.00027223
     atom  103 type  2   force =     0.00000000    0.00000527   -0.00255792
     atom  104 type  2   force =     0.00000523    0.00000375   -0.00257152
     atom  105 type  2   force =     0.00000000   -0.00000156    0.00174269
     atom  106 type  2   force =     0.00000199   -0.00000088    0.00174671
     atom  107 type  2   force =     0.00000000   -0.00000017   -0.00799404
     atom  108 type  2   force =     0.00000378   -0.00000168   -0.00800095
     atom  109 type  2   force =     0.00000000   -0.00000206    0.00027761
     atom  110 type  2   force =    -0.00000071    0.00000454    0.00028117
     atom  111 type  2   force =     0.00000000   -0.00000421   -0.00253892
     atom  112 type  2   force =     0.00000388   -0.00000500   -0.00255393
     atom  113 type  2   force =     0.00000000    0.00000042    0.00174341
     atom  114 type  2   force =     0.00000117   -0.00000072    0.00174253
     atom  115 type  2   force =     0.00000000   -0.00000086   -0.00799919
     atom  116 type  2   force =     0.00000213   -0.00000009   -0.00800148
     atom  117 type  2   force =     0.00000000   -0.00000074    0.00027664
     atom  118 type  2   force =     0.00000344   -0.00000165    0.00027622
     atom  119 type  2   force =     0.00000000   -0.00000141   -0.00256597
     atom  120 type  2   force =     0.00000321    0.00000185   -0.00255682
     atom  121 type  2   force =     0.00000135    0.00000171    0.00174550
     atom  122 type  2   force =     0.00000000    0.00000188    0.00174275
     atom  123 type  2   force =     0.00000068    0.00000088   -0.00800017
     atom  124 type  2   force =     0.00000000    0.00000305   -0.00800903
     atom  125 type  2   force =     0.00000033   -0.00000198    0.00027179
     atom  126 type  2   force =     0.00000000   -0.00000649    0.00026815
     atom  127 type  2   force =     0.00000307    0.00000812   -0.00255902
     atom  128 type  2   force =     0.00000000    0.00000499   -0.00255940
     atom  129 type  2   force =     0.00000095   -0.00000262    0.00174782
     atom  130 type  2   force =     0.00000000   -0.00000109    0.00174937
     atom  131 type  2   force =     0.00000479    0.00000436   -0.00797065
     atom  132 type  2   force =     0.00000000   -0.00000211   -0.00799788
     atom  133 type  2   force =     0.00000357    0.00000136    0.00027951
     atom  134 type  2   force =     0.00000000    0.00000845    0.00028503
     atom  135 type  2   force =     0.00000523   -0.00000732   -0.00275807
     atom  136 type  2   force =     0.00000000   -0.00000522   -0.00256501
     atom  137 type  2   force =     0.00000094    0.00000090    0.00174602
     atom  138 type  2   force =     0.00000000   -0.00000086    0.00174269
     atom  139 type  2   force =     0.00000134   -0.00000515   -0.00799538
     atom  140 type  2   force =     0.00000000   -0.00000133   -0.00800051
     atom  141 type  2   force =     0.00000327    0.00000049    0.00027503
     atom  142 type  2   force =     0.00000000   -0.00000163    0.00027493
     atom  143 type  2   force =     0.00000330   -0.00000257   -0.00254368
     atom  144 type  2   force =     0.00000000    0.00000048   -0.00256657

     Total force =     0.035346     Total SCF correction =     0.003120
     Energy error            =      1.9E-03 Ry
     Gradient error          =      7.7E-03 Ry/Bohr

     number of scf cycles    =   2
     number of bfgs steps    =   1

     energy             old  =   -8262.7047483350 Ry
     energy             new  =   -8262.7066761674 Ry

     CASE: energy            _new < energy            _old

     new trust radius        =       0.0116176810 bohr
     new conv_thr            =       0.0000004953 Ry


ATOMIC_POSITIONS (angstrom)
Sc               0.0000000000        0.0000000000       10.0000000000    0   0   0
Sc               2.2382160900        0.0000000000       12.2382160900    0   0   0
Sc               0.0000000000        2.2382160900       12.2382160900    0   0   0
Sc               2.2382160900        2.2382160900       10.0000000000    0   0   0
Sc              -0.0000054473       -0.0000817496       14.5106417725
Sc               2.2381984575        0.0000240463       16.7142687609
Sc              -0.0000084826        2.2382263292       16.7139371132
Sc               2.2382761961        2.2382288516       14.5106588821
Sc               0.0000000000        4.4764321800       10.0000000000    0   0   0
Sc               2.2382160900        4.4764321800       12.2382160900    0   0   0
Sc               0.0000000000        6.7146482700       12.2382160900    0   0   0
Sc               2.2382160900        6.7146482700       10.0000000000    0   0   0
Sc              -0.0000058092        4.4765208309       14.5107210380
Sc               2.2381867489        4.4764115023       16.7144027165
Sc              -0.0000095742        6.7146269656       16.7144075376
Sc               2.2382077784        6.7146448429       14.5107343161
Sc               0.0000000000        8.9528643500       10.0000000000    0   0   0
Sc               2.2382160900        8.9528643500       12.2382160900    0   0   0
Sc               0.0000000000       11.1910804400       12.2382160900    0   0   0
Sc               2.2382160900       11.1910804400       10.0000000000    0   0   0
Sc              -0.0000016030        8.9528569212       14.5107183987
Sc               2.2382138594        8.9528620060       16.7143184289
Sc              -0.0000064852       11.1910897373       16.7143032919
Sc               2.2382175190       11.1910709013       14.5107074056
Sc               4.4764321800        0.0000000000       10.0000000000    0   0   0
Sc               6.7146482700        0.0000000000       12.2382160900    0   0   0
Sc               4.4764321800        2.2382160900       12.2382160900    0   0   0
Sc               6.7146482700        2.2382160900       10.0000000000    0   0   0
Sc               4.4764348900       -0.0000146087       14.5107010111
Sc               6.7146649825        0.0000243563       16.7142856609
Sc               4.4764323100        2.2382167440       16.7142923841
Sc               6.7145865239        2.2382247216       14.5106587921
Sc               4.4764321800        4.4764321800       10.0000000000    0   0   0
Sc               6.7146482700        4.4764321800       12.2382160900    0   0   0
Sc               4.4764321800        6.7146482700       12.2382160900    0   0   0
Sc               6.7146482700        6.7146482700       10.0000000000    0   0   0
Sc               4.4764301000        4.4764511137       14.5107197038
Sc               6.7146798011        4.4764104823       16.7143789565
Sc               4.4764311400        6.7146403695       16.7143039143
Sc               6.7146573516        6.7146476629       14.5107312761
Sc               4.4764321800        8.9528643500       10.0000000000    0   0   0
Sc               6.7146482700        8.9528643500       12.2382160900    0   0   0
Sc               4.4764321800       11.1910804400       12.2382160900    0   0   0
Sc               6.7146482700       11.1910804400       10.0000000000    0   0   0
Sc               4.4764324400        8.9528604282       14.5107105831
Sc               6.7146489806        8.9528610460       16.7143189289
Sc               4.4764327100       11.1910886383       16.7143118217
Sc               6.7146478910       11.1910730913       14.5107098156
Sc               8.9528643500        0.0000000000       10.0000000000    0   0   0
Sc              11.1910804400        0.0000000000       12.2382160900    0   0   0
Sc               8.9528643500        2.2382160900       12.2382160900    0   0   0
Sc              11.1910804400        2.2382160900       10.0000000000    0   0   0
Sc               8.9528665473       -0.0000839696       14.5106428325
Sc              11.1910813800        0.0000387831       16.7142675617
Sc               8.9528734226        2.2382252592       16.7139326732
Sc              11.1910805600        2.2382372503       14.5106094859
Sc               8.9528643500        4.4764321800       10.0000000000    0   0   0
Sc              11.1910804400        4.4764321800       12.2382160900    0   0   0
Sc               8.9528643500        6.7146482700       12.2382160900    0   0   0
Sc              11.1910804400        6.7146482700       10.0000000000    0   0   0
Sc               8.9528734792        4.4765218509       14.5107190880
Sc              11.1910818400        4.4763959872       16.7144948102
Sc               8.9528734742        6.7146252856       16.7144215876
Sc              11.1910808600        6.7146320878       14.5107549785
Sc               8.9528643500        8.9528643500       10.0000000000    0   0   0
Sc              11.1910804400        8.9528643500       12.2382160900    0   0   0
Sc               8.9528643500       11.1910804400       12.2382160900    0   0   0
Sc              11.1910804400       11.1910804400       10.0000000000    0   0   0
Sc               8.9528657230        8.9528579412       14.5107184487
Sc              11.1910806400        8.9528590045       16.7142866605
Sc               8.9528718052       11.1910886773       16.7143351319
Sc              11.1910796900       11.1910747878       14.5107067636
N                0.0000000000        2.2382160900       10.0000000000    0   0   0
N                2.2382160900        0.0000000000       10.0000000000    0   0   0
N                0.0000000000        0.0000000000       12.2382160900    0   0   0
N                2.2382160900        2.2382160900       12.2382160900    0   0   0
N                0.0000058757        2.2382823971       14.5196903133
N                2.2382228743       -0.0000030330       14.5197395959
N               -0.0000010893       -0.0000181643       16.7298932268
N                2.2382428786        2.2382013950       16.7298890510
N                0.0000000000        6.7146482700       10.0000000000    0   0   0
N                2.2382160900        4.4764321800       10.0000000000    0   0   0
N                0.0000000000        4.4764321800       12.2382160900    0   0   0
N                2.2382160900        6.7146482700       12.2382160900    0   0   0
N               -0.0000050836        6.7145897743       14.5198141327
N                2.2381661114        4.4764398761       14.5197962302
N               -0.0000000823        4.4764506128       16.7304997809
N                2.2382257480        6.7146635646       16.7300027030
N                0.0000000000       11.1910804400       10.0000000000    0   0   0
N                2.2382160900        8.9528643500       10.0000000000    0   0   0
N                0.0000000000        8.9528643500       12.2382160900    0   0   0
N                2.2382160900       11.1910804400       12.2382160900    0   0   0
N               -0.0000043323       11.1910737161       14.5197622784
N                2.2382127864        8.9528603721       14.5197707086
N                0.0000016807        8.9528679312       16.7299912721
N                2.2382118198       11.1910790607       16.7299887841
N                4.4764321800        2.2382160900       10.0000000000    0   0   0
N                6.7146482700        0.0000000000       10.0000000000    0   0   0
N                4.4764321800        0.0000000000       12.2382160900    0   0   0
N                6.7146482700        2.2382160900       12.2382160900    0   0   0
N                4.4764324400        2.2382269335       14.5197483533
N                6.7146431657       -0.0000049330       14.5197431159
N                4.4764319700       -0.0000030388       16.7299967170
N                6.7146206714        2.2382002750       16.7298876910
N                4.4764321800        6.7146482700       10.0000000000    0   0   0
N                6.7146482700        4.4764321800       10.0000000000    0   0   0
N                4.4764321800        4.4764321800       12.2382160900    0   0   0
N                6.7146482700        6.7146482700       12.2382160900    0   0   0
N                4.4764310300        6.7146406969       14.5197689251
N                6.7146974886        4.4764379161       14.5197946502
N                4.4764316100        4.4764325265       16.7299910041
N                6.7146396020        6.7146641046       16.7299828830
N                4.4764321800       11.1910804400       10.0000000000    0   0   0
N                6.7146482700        8.9528643500       10.0000000000    0   0   0
N                4.4764321800        8.9528643500       12.2382160900    0   0   0
N                6.7146482700       11.1910804400       12.2382160900    0   0   0
N                4.4764330700       11.1910779021       14.5197715140
N                6.7146512336        8.9528627621       14.5197706386
N                4.4764329900        8.9528676793       16.7300336196
N                6.7146524402       11.1910804507       16.7300142041
N                8.9528643500        2.2382160900       10.0000000000    0   0   0
N               11.1910804400        0.0000000000       10.0000000000    0   0   0
N                8.9528643500        0.0000000000       12.2382160900    0   0   0
N               11.1910804400        2.2382160900       12.2382160900    0   0   0
N                8.9528591643        2.2382814471       14.5196909633
N               11.1910809200       -0.0000183510       14.5197173229
N                8.9528643693       -0.0000187743       16.7298796268
N               11.1910794100        2.2381871221       16.7297364819
N                8.9528643500        6.7146482700       10.0000000000    0   0   0
N               11.1910804400        4.4764321800       10.0000000000    0   0   0
N                8.9528643500        4.4764321800       12.2382160900    0   0   0
N               11.1910804400        6.7146482700       12.2382160900    0   0   0
N                8.9528700636        6.7145895443       14.5198144727
N               11.1910789200        4.4764546841       14.5198243013
N                8.9528643423        4.4764516828       16.7304993209
N               11.1910803400        6.7146763114       16.7300199512
N                8.9528643500       11.1910804400       10.0000000000    0   0   0
N               11.1910804400        8.9528643500       10.0000000000    0   0   0
N                8.9528643500        8.9528643500       12.2382160900    0   0   0
N               11.1910804400       11.1910804400       12.2382160900    0   0   0
N                8.9528678823       11.1910746761       14.5197636184
N               11.1910809700        8.9528597912       14.5197666069
N                8.9528630493        8.9528670912       16.7299628921
N               11.1910796900       11.1910816034       16.7300225282



     Writing config-only to output data dir ./tmp/ScN_slab.save/ :
     XML data file
     NEW-OLD atomic charge density approx. for the potential

     negative rho (up, down):  7.833E-03 0.000E+00

     total cpu time spent up to now is     3856.3 secs

     per-process dynamical memory:  1046.7 Mb

     Self-consistent Calculation

     iteration #  1     ecut=    45.00 Ry     beta= 0.25
     Davidson diagonalization with overlap
     ethr =  1.00E-06,  avg # of iterations =  5.0

     Threshold (ethr) on eigenvalues was too large:
     Diagonalizing with lowered threshold

     Davidson diagonalization with overlap
     ethr =  3.08E-08,  avg # of iterations =  4.0

     negative rho (up, down):  7.797E-03 0.000E+00

     total cpu time spent up to now is     4176.4 secs

     total energy              =   -8262.70821088 Ry
     estimated scf accuracy    <       0.00034314 Ry

     iteration #  2     ecut=    45.00 Ry     beta= 0.25
     Davidson diagonalization with overlap
     ethr =  2.98E-08,  avg # of iterations =  3.8

     negative rho (up, down):  7.775E-03 0.000E+00

     total cpu time spent up to now is     4296.5 secs

     total energy              =   -8262.70825171 Ry
     estimated scf accuracy    <       0.00015839 Ry

     iteration #  3     ecut=    45.00 Ry     beta= 0.25
     Davidson diagonalization with overlap
     ethr =  1.37E-08,  avg # of iterations =  2.0

     negative rho (up, down):  7.757E-03 0.000E+00

     total cpu time spent up to now is     4407.0 secs

     total energy              =   -8262.70826548 Ry
     estimated scf accuracy    <       0.00003228 Ry

     iteration #  4     ecut=    45.00 Ry     beta= 0.25
     Davidson diagonalization with overlap
     ethr =  2.80E-09,  avg # of iterations =  2.4

     negative rho (up, down):  7.744E-03 0.000E+00

     total cpu time spent up to now is     4522.1 secs

     total energy              =   -8262.70826684 Ry
     estimated scf accuracy    <       0.00001115 Ry

     iteration #  5     ecut=    45.00 Ry     beta= 0.25
     Davidson diagonalization with overlap
     ethr =  9.68E-10,  avg # of iterations =  2.2

     negative rho (up, down):  7.736E-03 0.000E+00

     total cpu time spent up to now is     4640.3 secs

     total energy              =   -8262.70826809 Ry
     estimated scf accuracy    <       0.00000258 Ry

     iteration #  6     ecut=    45.00 Ry     beta= 0.25
     Davidson diagonalization with overlap
     ethr =  2.24E-10,  avg # of iterations =  3.1

     negative rho (up, down):  7.731E-03 0.000E+00

     total cpu time spent up to now is     4786.0 secs

     total energy              =   -8262.70826848 Ry
     estimated scf accuracy    <       0.00000052 Ry

     iteration #  7     ecut=    45.00 Ry     beta= 0.25
     Davidson diagonalization with overlap
     ethr =  4.50E-11,  avg # of iterations =  4.0

     negative rho (up, down):  7.720E-03 0.000E+00

     total cpu time spent up to now is     4918.6 secs

     End of self-consistent calculation

          k = 0.0000 0.0000 0.0000 (165739 PWs)   bands (ev):

   -46.5326 -46.5150 -46.5150 -46.5150 -46.5150 -46.5057 -46.5056 -46.5056
   -46.5056 -46.4889 -46.4889 -46.4889 -46.4889 -46.4814 -46.4814 -46.4814
   -46.4814 -46.4655 -46.3995 -46.3810 -46.3809 -46.3808 -46.3808 -46.3710
   -46.3709 -46.3708 -46.3707 -46.3536 -46.3535 -46.3534 -46.3533 -46.3462
   -46.3461 -46.3460 -46.3460 -46.3300 -46.2176 -46.1972 -46.1971 -46.1971
   -46.1971 -46.1852 -46.1852 -46.1852 -46.1851 -46.1651 -46.1651 -46.1651
   -46.1651 -46.1580 -46.1580 -46.1580 -46.1580 -46.1406 -46.1379 -46.1283
   -46.1282 -46.1282 -46.1281 -46.1256 -46.1255 -46.1254 -46.1254 -46.1144
   -46.1143 -46.1142 -46.1141 -46.1048 -46.1047 -46.1047 -46.1046 -46.0896
   -25.4044 -25.4009 -25.4009 -25.4009 -25.4009 -25.3905 -25.3905 -25.3905
   -25.3904 -25.3858 -25.3858 -25.3858 -25.3858 -25.3481 -25.3481 -25.3481
   -25.3480 -25.3438 -25.3438 -25.3438 -25.3438 -25.3025 -25.3025 -25.3025
   -25.3025 -25.2966 -25.2916 -25.2916 -25.2915 -25.2915 -25.2894 -25.2810
   -25.2810 -25.2810 -25.2810 -25.2716 -25.2716 -25.2715 -25.2715 -25.2612
   -25.2612 -25.2347 -25.2347 -25.2346 -25.2346 -25.2316 -25.2315 -25.2315
   -25.2315 -25.2077 -25.2077 -25.2077 -25.2077 -25.1867 -25.1867 -25.1867
   -25.1867 -25.1828 -25.1828 -25.1828 -25.1828 -25.1678 -25.1585 -25.1585
   -25.1096 -25.1095 -25.1095 -25.1095 -25.0962 -25.0962 -25.0962 -25.0962
   -25.0868 -25.0868 -25.0868 -25.0868 -25.0815 -25.0815 -25.0815 -25.0814
   -25.0384 -25.0384 -25.0384 -25.0384 -25.0288 -25.0288 -25.0288 -25.0288
   -25.0249 -25.0249 -25.0249 -25.0249 -25.0249 -25.0248 -25.0183 -25.0183
   -25.0183 -25.0183 -25.0082 -25.0082 -25.0082 -25.0082 -24.9851 -24.9851
   -24.9850 -24.9850 -24.9822 -24.9734 -24.9734 -24.9734 -24.9734 -24.9646
   -24.9646 -24.9570 -24.9570 -24.9570 -24.9570 -24.9265 -24.9265 -24.9264
   -24.9264 -24.9186 -24.9186 -24.9186 -24.9186 -24.8931 -24.8931 -24.8931
   -24.8931 -24.8930 -24.8930 -24.8930 -24.8930 -24.8819 -24.8819 -24.8564
   -24.8564 -24.8564 -24.8563 -24.8558 -24.8490 -24.8489 -24.8447 -24.8447
   -24.8447 -24.8447 -24.8230 -24.8229 -24.8229 -24.8229 -24.8182 -24.8182
   -24.8182 -24.8181 -24.8060 -24.7940 -24.7940 -24.7940 -24.7939 -24.7831
   -24.7831 -24.7830 -24.7830 -24.7794 -24.7794 -24.7794 -24.7794 -24.7766
   -24.7765 -24.7765 -24.7765 -24.7555 -24.7555 -24.7555 -24.7555 -24.7468
   -24.7468 -24.7394 -24.7393 -24.7393 -24.7392 -24.7360 -24.7359 -24.7358
   -24.7358 -24.7218 -24.7178 -24.7178 -24.7178 -24.7178 -24.7170 -24.7170
   -24.7170 -24.7170 -24.7042 -24.7042 -24.7042 -24.7042 -24.7037 -24.7036
   -24.7036 -24.7036 -24.6993 -24.6992 -24.6992 -24.6992 -24.6737 -24.6736
   -24.6736 -24.6736 -24.6431 -24.6431 -24.6368 -24.6367 -24.6367 -24.6367
   -11.8611 -11.3551 -11.3551 -11.3550 -11.3550 -11.2950 -10.9448 -10.9445
   -10.8996 -10.8995 -10.8995 -10.8995 -10.8764 -10.8764 -10.8764 -10.8763
   -10.8655 -10.8593 -10.8593 -10.8593 -10.8593 -10.7704 -10.6899 -10.6899
   -10.6899 -10.6898 -10.5319 -10.5319 -10.5318 -10.5318 -10.5315 -10.5314
   -10.5314 -10.5314 -10.5309 -10.5309 -10.5308 -10.5308 -10.4940 -10.4940
   -10.4940 -10.4940 -10.4068 -10.3788 -10.3788 -10.3788 -10.3788 -10.3323
   -10.2373 -10.2373 -10.2373 -10.2373 -10.1534 -10.1534 -10.1534 -10.1534
   -10.1481 -10.1481 -10.1481 -10.1480 -10.0349 -10.0349 -10.0349 -10.0348
    -9.9956  -9.9956  -9.9956  -9.9956  -9.9194  -9.9194  -9.9194  -9.9193
    -2.3012  -2.3011  -2.3011  -2.3011  -2.2946  -2.2945  -2.2945  -2.2945
    -2.1600  -2.1600  -2.1600  -2.1600  -2.1004  -2.1004  -2.1004  -2.1003
    -1.6773  -1.6773  -1.6773  -1.6772  -1.6514  -1.6514  -1.6514  -1.6514
    -1.5999  -1.5999  -1.5998  -1.5998  -1.5899  -1.5898  -1.5898  -1.5898
    -1.5066  -1.5065  -1.5065  -1.5065  -1.4019  -1.4019  -1.4019  -1.4019
    -1.3406  -1.2698  -1.2698  -1.2698  -1.2698  -1.1851  -1.1851  -1.1851
    -1.1850  -1.1755  -1.1754  -1.1754  -1.1754  -0.9612  -0.9612  -0.9227
    -0.8480  -0.8480  -0.8480  -0.8480  -0.6371  -0.6371  -0.6371  -0.6371
    -0.6224  -0.6224  -0.6214  -0.6214  -0.6214  -0.6213  -0.5654  -0.5654
    -0.5654  -0.5653  -0.5634  -0.5634  -0.5634  -0.5633  -0.4992  -0.4992
    -0.4992  -0.4992  -0.4539  -0.4539  -0.4539  -0.4539  -0.4218  -0.4218
    -0.4217  -0.4217  -0.3904  -0.3904  -0.3904  -0.3904  -0.3773  -0.3773
    -0.3773  -0.3772  -0.3324  -0.3323  -0.3323  -0.3323  -0.2696  -0.2696
    -0.2696  -0.2696  -0.2366  -0.2366  -0.2366  -0.2365  -0.1872  -0.1872
    -0.1871  -0.1871  -0.1603  -0.1603  -0.1603  -0.1603  -0.1515  -0.1427
    -0.1396  -0.1396  -0.1396  -0.1395  -0.1332  -0.1332  -0.1332  -0.1332
    -0.1024  -0.0901  -0.0901  -0.0901  -0.0901  -0.0337  -0.0337  -0.0337
    -0.0336  -0.0275  -0.0275  -0.0275  -0.0275  -0.0272  -0.0272  -0.0271
    -0.0271   0.0809   0.0809   0.1168   0.1168   0.1169   0.1169   0.1169
     0.1169   0.1169   0.1169   0.1574   0.1574   0.1574   0.1574   0.1766
     0.1766   0.1767   0.1767   0.1902   0.1902   0.1903   0.1903   0.2008
     0.2008   0.2008   0.2009   0.2071   0.2071   0.2071   0.2072   0.3034
     0.3035   0.3035   0.3035   0.3876   0.3876   0.3876   0.3876   0.7359
     0.7359   0.7360   0.7360   0.7715   0.7875   0.7876   0.7876   0.7876
     0.8102   0.8102   0.8190   0.8190   0.8190   0.8190   0.8247   0.8247
     0.8248   0.8248   1.0493   1.0493   1.1677   1.2408   1.2408   1.2409
     1.2409   1.2448   1.2448   1.2474   1.7848   1.7848   2.0471   2.0471
     2.1380   2.6791   2.6791   2.6909   3.0985   3.0985   3.0986   3.0986
     3.4956   3.8790   4.1194   4.1194   4.1195   4.1195   4.1456   4.1541
     4.1541   4.4017   4.4017   4.4018   4.4018   4.4147   4.4147   4.4147
     4.4148   4.4173   4.4211   4.4211   4.4211   4.4212   4.4739   4.4739
     4.4739   4.4740   4.5405   4.5405   4.5405   4.5405   4.5725   4.5726
     4.5726   4.5726   4.7000   4.7000   4.7001   4.7001   4.7321   4.7321
     4.7321   4.7321   4.7773   4.7774   4.7775   4.7776   4.8599   4.8599
     4.8674   4.8674   4.8675   4.8676   5.1424   5.2200   5.2201   5.2201
     5.2202   5.2468   5.2468   5.2468   5.2468   5.3089   5.3089   5.3090
     5.3090   5.3204   5.3204   5.3204   5.3204   5.4333   5.4333   5.4333
     5.4334   5.4365   5.4366   5.4366   5.4366   5.4473   5.4473   5.4474
     5.4474   5.5573   5.5574   5.5574   5.5574   5.6402   5.6403   5.6403
     5.6404   5.7161   5.7653   5.7653   5.7978   5.8093   5.8093   5.8093
     5.8093   5.8218   5.8218   5.8773   5.8774   5.8777   5.8778   5.9231
     5.9557   5.9560   5.9814

          k = 0.0000 0.2500 0.0000 (165664 PWs)   bands (ev):

   -46.5313 -46.5222 -46.5143 -46.5143 -46.5094 -46.5094 -46.5067 -46.5014
   -46.5014 -46.4927 -46.4927 -46.4893 -46.4857 -46.4857 -46.4819 -46.4819
   -46.4748 -46.4666 -46.3982 -46.3885 -46.3802 -46.3801 -46.3749 -46.3749
   -46.3722 -46.3664 -46.3663 -46.3574 -46.3573 -46.3542 -46.3503 -46.3503
   -46.3466 -46.3465 -46.3393 -46.3310 -46.2162 -46.2056 -46.1963 -46.1963
   -46.1900 -46.1900 -46.1874 -46.1797 -46.1797 -46.1693 -46.1693 -46.1670
   -46.1619 -46.1619 -46.1584 -46.1584 -46.1506 -46.1417 -46.1372 -46.1323
   -46.1281 -46.1280 -46.1268 -46.1268 -46.1236 -46.1236 -46.1231 -46.1179
   -46.1178 -46.1111 -46.1106 -46.1106 -46.1055 -46.1054 -46.0988 -46.0908
   -25.4058 -25.4058 -25.4030 -25.4016 -25.4016 -25.3948 -25.3948 -25.3930
   -25.3868 -25.3867 -25.3776 -25.3752 -25.3752 -25.3577 -25.3577 -25.3567
   -25.3481 -25.3481 -25.3324 -25.3324 -25.3297 -25.3245 -25.3245 -25.3027
   -25.3005 -25.3005 -25.2941 -25.2941 -25.2882 -25.2847 -25.2847 -25.2791
   -25.2750 -25.2749 -25.2730 -25.2730 -25.2633 -25.2561 -25.2554 -25.2497
   -25.2497 -25.2460 -25.2453 -25.2453 -25.2399 -25.2399 -25.2364 -25.2363
   -25.2284 -25.2175 -25.2174 -25.2155 -25.2155 -25.2101 -25.2101 -25.1869
   -25.1820 -25.1533 -25.1509 -25.1509 -25.1508 -25.1452 -25.1408 -25.1408
   -25.1391 -25.1389 -25.1389 -25.1352 -25.1352 -25.1134 -25.1111 -25.0957
   -25.0957 -25.0845 -25.0781 -25.0781 -25.0753 -25.0741 -25.0487 -25.0487
   -25.0456 -25.0456 -25.0442 -25.0434 -25.0433 -25.0416 -25.0364 -25.0302
   -25.0302 -25.0296 -25.0296 -25.0274 -25.0204 -25.0204 -25.0203 -25.0078
   -25.0043 -25.0040 -25.0029 -25.0029 -25.0022 -25.0022 -24.9999 -24.9999
   -24.9852 -24.9849 -24.9849 -24.9765 -24.9697 -24.9643 -24.9643 -24.9639
   -24.9550 -24.9518 -24.9518 -24.9473 -24.9473 -24.9296 -24.9296 -24.9275
   -24.9269 -24.9269 -24.9239 -24.9175 -24.9175 -24.8957 -24.8956 -24.8956
   -24.8943 -24.8922 -24.8922 -24.8876 -24.8865 -24.8780 -24.8780 -24.8779
   -24.8697 -24.8628 -24.8620 -24.8620 -24.8542 -24.8521 -24.8506 -24.8474
   -24.8451 -24.8278 -24.8278 -24.8230 -24.8138 -24.8138 -24.8120 -24.8120
   -24.8055 -24.8055 -24.8033 -24.8004 -24.7958 -24.7958 -24.7943 -24.7888
   -24.7872 -24.7872 -24.7812 -24.7811 -24.7746 -24.7746 -24.7717 -24.7717
   -24.7703 -24.7703 -24.7701 -24.7701 -24.7684 -24.7651 -24.7635 -24.7517
   -24.7502 -24.7501 -24.7395 -24.7395 -24.7393 -24.7393 -24.7376 -24.7376
   -24.7354 -24.7353 -24.7347 -24.7326 -24.7233 -24.7233 -24.7210 -24.7210
   -24.7159 -24.7118 -24.7118 -24.7048 -24.6984 -24.6983 -24.6969 -24.6896
   -24.6896 -24.6853 -24.6853 -24.6829 -24.6829 -24.6813 -24.6786 -24.6745
   -24.6745 -24.6734 -24.6501 -24.6473 -24.6428 -24.6428 -24.6419 -24.6419
   -11.8229 -11.5492 -11.3202 -11.3201 -11.2617 -11.1625 -11.0722 -11.0722
   -11.0299 -10.9319 -10.9215 -10.9003 -10.8674 -10.8474 -10.8474 -10.8360
   -10.8319 -10.8318 -10.7717 -10.7417 -10.7394 -10.7338 -10.7337 -10.6723
   -10.6723 -10.6516 -10.6515 -10.6462 -10.6462 -10.6437 -10.6312 -10.5701
   -10.5701 -10.5378 -10.5377 -10.5232 -10.4667 -10.4667 -10.4424 -10.4423
   -10.4406 -10.4405 -10.3890 -10.3671 -10.3507 -10.3507 -10.3143 -10.2828
   -10.2780 -10.2780 -10.2484 -10.2299 -10.2152 -10.2152 -10.2029 -10.1581
   -10.1581 -10.1272 -10.1272 -10.1272 -10.0724 -10.0724 -10.0423 -10.0423
    -9.9933  -9.9933  -9.9546  -9.9546  -9.9318  -9.9318  -9.8730  -9.8730
    -2.4429  -2.4429  -2.4297  -2.4297  -2.3639  -2.3639  -2.3251  -2.3251
    -2.0880  -2.0880  -2.0730  -2.0730  -1.9122  -1.9122  -1.8153  -1.8153
    -1.7681  -1.7630  -1.7630  -1.7255  -1.7254  -1.7076  -1.7076  -1.6991
    -1.6549  -1.6549  -1.6454  -1.6454  -1.6303  -1.5522  -1.5522  -1.4916
    -1.4915  -1.4915  -1.4834  -1.4787  -1.4787  -1.4208  -1.4080  -1.4079
    -1.3574  -1.3482  -1.3397  -1.3397  -1.2899  -1.2294  -1.2294  -1.0923
    -1.0882  -1.0882  -1.0412  -0.9779  -0.9563  -0.9508  -0.9508  -0.9384
    -0.9321  -0.9321  -0.9308  -0.9063  -0.7664  -0.7557  -0.6774  -0.6662
    -0.6662  -0.6571  -0.6571  -0.6167  -0.5959  -0.5959  -0.5830  -0.5830
    -0.5610  -0.5568  -0.5262  -0.5262  -0.5081  -0.5081  -0.5026  -0.5025
    -0.4986  -0.4985  -0.4820  -0.4820  -0.4802  -0.4801  -0.4625  -0.4624
    -0.4586  -0.4586  -0.4444  -0.4444  -0.4324  -0.4203  -0.4203  -0.4186
    -0.4186  -0.4041  -0.3477  -0.3477  -0.3285  -0.3190  -0.3188  -0.3184
    -0.3184  -0.3030  -0.2841  -0.2796  -0.2796  -0.2553  -0.2086  -0.2086
    -0.1802  -0.1802  -0.1708  -0.1708  -0.1534  -0.1534  -0.1473  -0.1421
    -0.1421  -0.1188  -0.1144  -0.1143  -0.0972  -0.0816  -0.0779  -0.0779
    -0.0753  -0.0753  -0.0629  -0.0629  -0.0596  -0.0596  -0.0368  -0.0368
    -0.0240   0.0119   0.0119   0.0231   0.0232   0.0321   0.0321   0.0361
     0.0502   0.0502   0.0860   0.0937   0.0937   0.1142   0.1159   0.1179
     0.1281   0.1281   0.1312   0.1312   0.1354   0.1427   0.1673   0.1673
     0.1901   0.1901   0.1915   0.1915   0.2439   0.2610   0.2610   0.2755
     0.2803   0.3184   0.3199   0.3199   0.3573   0.3573   0.3677   0.3677
     0.4346   0.4346   0.4484   0.4552   0.4553   0.5523   0.5688   0.5873
     0.6676   0.6710   0.6710   0.6834   0.7147   0.7148   0.7301   0.7306
     0.7486   0.7487   0.7570   0.7571   0.8031   0.8077   0.8448   0.8619
     0.8648   0.9106   0.9567   1.0531   1.0676   1.0796   1.0892   1.0925
     1.0996   1.0996   1.1991   1.4574   1.5941   1.6319   1.7877   1.9281
     2.4369   2.7055   2.8511   2.9166   2.9354   3.2239   3.2240   3.3253
     3.6625   3.6731   3.8301   3.8671   3.9108   4.0412   4.0413   4.0647
     4.1729   4.1742   4.1814   4.1814   4.2303   4.2850   4.3352   4.3804
     4.3805   4.4088   4.4134   4.4232   4.4232   4.4502   4.4502   4.4545
     4.4545   4.5401   4.5401   4.5617   4.5818   4.5818   4.6454   4.6738
     4.6751   4.6751   4.6776   4.6776   4.6917   4.7384   4.7384   4.8109
     4.8190   4.8340   4.8341   4.8398   4.8398   4.8864   4.8865   4.8979
     4.9559   4.9730   4.9730   5.0175   5.0369   5.0369   5.0629   5.0784
     5.0828   5.0828   5.1181   5.1605   5.1605   5.1930   5.2241   5.2241
     5.2387   5.2387   5.2471   5.2471   5.3105   5.3105   5.3418   5.3418
     5.4271   5.4771   5.4850   5.5621   5.5761   5.5761   5.5801   5.5801
     5.5908   5.6270   5.6270   5.6417   5.6417   5.7180   5.7226   5.7226
     5.7307   5.7308   5.7313   5.7474   5.7678   5.8027   5.8028   5.8128
     5.8350   5.8377   5.8429   5.8432   5.8531   5.8531   5.8943   5.8943
     5.9400   5.9402   5.9403

          k = 0.0000-0.5000 0.0000 (165810 PWs)   bands (ev):

   -46.5278 -46.5278 -46.5124 -46.5124 -46.5124 -46.5124 -46.4979 -46.4979
   -46.4970 -46.4970 -46.4969 -46.4969 -46.4834 -46.4834 -46.4833 -46.4833
   -46.4697 -46.4697 -46.3945 -46.3944 -46.3782 -46.3782 -46.3781 -46.3780
   -46.3631 -46.3630 -46.3618 -46.3618 -46.3617 -46.3616 -46.3481 -46.3480
   -46.3480 -46.3478 -46.3343 -46.3341 -46.2121 -46.2121 -46.1939 -46.1939
   -46.1938 -46.1938 -46.1771 -46.1771 -46.1743 -46.1743 -46.1743 -46.1743
   -46.1597 -46.1597 -46.1597 -46.1597 -46.1451 -46.1451 -46.1354 -46.1353
   -46.1277 -46.1276 -46.1276 -46.1275 -46.1212 -46.1211 -46.1210 -46.1209
   -46.1174 -46.1172 -46.1076 -46.1075 -46.1075 -46.1074 -46.0940 -46.0939
   -25.4067 -25.4067 -25.4067 -25.4066 -25.3989 -25.3989 -25.3897 -25.3897
   -25.3897 -25.3897 -25.3680 -25.3679 -25.3596 -25.3596 -25.3596 -25.3596
   -25.3524 -25.3524 -25.3524 -25.3524 -25.3154 -25.3153 -25.3008 -25.3008
   -25.3007 -25.3007 -25.2899 -25.2899 -25.2899 -25.2899 -25.2848 -25.2847
   -25.2773 -25.2773 -25.2772 -25.2771 -25.2551 -25.2551 -25.2550 -25.2550
   -25.2549 -25.2549 -25.2430 -25.2430 -25.2412 -25.2412 -25.2347 -25.2347
   -25.2347 -25.2347 -25.2006 -25.2005 -25.1937 -25.1937 -25.1937 -25.1937
   -25.1771 -25.1771 -25.1771 -25.1770 -25.1642 -25.1642 -25.1379 -25.1379
   -25.1283 -25.1283 -25.1151 -25.1151 -25.1151 -25.1151 -25.1124 -25.1124
   -25.0890 -25.0890 -25.0890 -25.0890 -25.0681 -25.0681 -25.0652 -25.0652
   -25.0652 -25.0652 -25.0387 -25.0387 -25.0354 -25.0354 -25.0354 -25.0354
   -25.0330 -25.0330 -25.0194 -25.0194 -25.0194 -25.0194 -25.0136 -25.0135
   -25.0135 -25.0135 -25.0068 -25.0067 -25.0041 -25.0040 -24.9844 -24.9844
   -24.9713 -24.9713 -24.9713 -24.9713 -24.9676 -24.9675 -24.9566 -24.9566
   -24.9489 -24.9489 -24.9489 -24.9488 -24.9287 -24.9286 -24.9286 -24.9286
   -24.9277 -24.9277 -24.9277 -24.9277 -24.9216 -24.9216 -24.9216 -24.9216
   -24.8940 -24.8939 -24.8882 -24.8881 -24.8765 -24.8765 -24.8697 -24.8696
   -24.8662 -24.8661 -24.8565 -24.8565 -24.8437 -24.8437 -24.8437 -24.8437
   -24.8405 -24.8405 -24.8404 -24.8404 -24.8249 -24.8249 -24.8079 -24.8079
   -24.8079 -24.8079 -24.7978 -24.7978 -24.7921 -24.7921 -24.7921 -24.7920
   -24.7851 -24.7851 -24.7736 -24.7736 -24.7736 -24.7735 -24.7680 -24.7680
   -24.7680 -24.7680 -24.7661 -24.7661 -24.7636 -24.7634 -24.7577 -24.7577
   -24.7577 -24.7576 -24.7495 -24.7494 -24.7494 -24.7494 -24.7494 -24.7494
   -24.7399 -24.7399 -24.7398 -24.7398 -24.7236 -24.7236 -24.7235 -24.7235
   -24.7061 -24.7060 -24.7060 -24.7060 -24.6960 -24.6959 -24.6883 -24.6883
   -24.6817 -24.6816 -24.6816 -24.6815 -24.6674 -24.6674 -24.6596 -24.6596
   -24.6595 -24.6595 -24.6594 -24.6594 -24.6575 -24.6575 -24.6574 -24.6574
   -11.7136 -11.7136 -11.2207 -11.2207 -11.2207 -11.2207 -11.1676 -11.1676
   -11.0033 -11.0033 -10.9002 -10.9001 -10.8579 -10.8579 -10.7665 -10.7665
   -10.7665 -10.7664 -10.7552 -10.7552 -10.7552 -10.7552 -10.7528 -10.7528
   -10.6586 -10.6586 -10.6517 -10.6517 -10.6262 -10.6262 -10.6261 -10.6261
   -10.6061 -10.6061 -10.6061 -10.6060 -10.4077 -10.4077 -10.4076 -10.4076
   -10.3898 -10.3898 -10.3898 -10.3898 -10.3418 -10.3418 -10.2740 -10.2739
   -10.2718 -10.2718 -10.2718 -10.2717 -10.2660 -10.2660 -10.1595 -10.1594
   -10.1546 -10.1546 -10.1546 -10.1546 -10.0703 -10.0703 -10.0703 -10.0702
    -9.9702  -9.9702  -9.9702  -9.9702  -9.8744  -9.8743  -9.8743  -9.8743
    -2.4670  -2.4670  -2.4670  -2.4669  -2.4423  -2.4423  -2.4423  -2.4423
    -1.8720  -1.8719  -1.8719  -1.8719  -1.8340  -1.8340  -1.8340  -1.8340
    -1.7671  -1.7671  -1.7671  -1.7671  -1.7411  -1.7410  -1.6919  -1.6919
    -1.6919  -1.6918  -1.6766  -1.6766  -1.6765  -1.6765  -1.6598  -1.6597
    -1.5374  -1.5374  -1.5374  -1.5374  -1.3727  -1.3727  -1.3504  -1.3504
    -1.3504  -1.3504  -1.2434  -1.2433  -1.2255  -1.2254  -1.1671  -1.1671
    -1.1670  -1.1670  -1.0569  -1.0568  -0.9895  -0.9895  -0.9398  -0.9397
    -0.7822  -0.7822  -0.7822  -0.7822  -0.7568  -0.7567  -0.7567  -0.7567
    -0.7187  -0.7186  -0.6214  -0.6214  -0.6200  -0.6199  -0.6112  -0.6112
    -0.6112  -0.6112  -0.5978  -0.5977  -0.5716  -0.5716  -0.5716  -0.5716
    -0.5086  -0.5086  -0.5086  -0.5086  -0.5048  -0.5048  -0.5047  -0.5047
    -0.4672  -0.4671  -0.4671  -0.4671  -0.4210  -0.4210  -0.4210  -0.4210
    -0.3829  -0.3829  -0.3177  -0.3177  -0.3177  -0.3177  -0.3141  -0.3141
    -0.2817  -0.2817  -0.2817  -0.2817  -0.2674  -0.2673  -0.2428  -0.2428
    -0.2427  -0.2427  -0.1975  -0.1975  -0.1975  -0.1975  -0.1756  -0.1756
    -0.1258  -0.1258  -0.1258  -0.1258  -0.0787  -0.0786  -0.0786  -0.0786
    -0.0634  -0.0633  -0.0564  -0.0564  -0.0564  -0.0564  -0.0095  -0.0095
    -0.0095  -0.0095   0.0674   0.0674   0.0674   0.0674   0.1028   0.1028
     0.1038   0.1038   0.1038   0.1039   0.1288   0.1288   0.1288   0.1289
     0.1303   0.1303   0.1304   0.1304   0.1423   0.1423   0.1510   0.1511
     0.2592   0.2592   0.2592   0.2592   0.3341   0.3341   0.3993   0.3994
     0.4750   0.4751   0.4751   0.4751   0.4751   0.4752   0.5138   0.5139
     0.5198   0.5198   0.5198   0.5198   0.5791   0.5791   0.5791   0.5791
     0.6213   0.6213   0.6213   0.6213   0.6396   0.6396   0.6823   0.6823
     0.7117   0.7118   0.7678   0.7678   0.7678   0.7678   0.7773   0.7773
     0.8028   0.8029   0.8398   0.8398   0.9423   0.9423   1.0972   1.0972
     1.1578   1.1578   1.2115   1.2116   1.3497   1.3498   1.6999   1.7000
     2.7848   2.7849   3.0072   3.0072   3.2761   3.2762   3.4511   3.4511
     3.5650   3.5650   3.5651   3.5651   3.5868   3.5869   4.0079   4.0080
     4.0960   4.0961   4.2346   4.2347   4.3422   4.3422   4.3422   4.3422
     4.3892   4.3892   4.3892   4.3892   4.4392   4.4394   4.4613   4.4614
     4.5159   4.5159   4.5159   4.5161   4.5842   4.5842   4.5843   4.5843
     4.6428   4.6429   4.6760   4.6761   4.7875   4.7875   4.7875   4.7876
     4.7941   4.7941   4.7941   4.7941   4.8388   4.8388   4.8804   4.8804
     4.8804   4.8804   4.9241   4.9241   4.9974   4.9975   4.9975   4.9976
     5.1243   5.1243   5.1243   5.1243   5.2111   5.2111   5.2469   5.2469
     5.2470   5.2470   5.3387   5.3387   5.3387   5.3387   5.3431   5.3431
     5.3591   5.3591   5.4773   5.4773   5.4774   5.4774   5.6333   5.6334
     5.7137   5.7137   5.7137   5.7137   5.7243   5.7243   5.7244   5.7245
     5.7295   5.7295   5.8208   5.8209   5.8210   5.8210   5.8448   5.8448
     5.8746   5.8747   5.8889   5.8890   5.8934   5.8934   5.8934   5.8934
     5.9130   5.9131   5.9191

          k = 0.2500 0.2500 0.0000 (165752 PWs)   bands (ev):

   -46.5302 -46.5213 -46.5213 -46.5146 -46.5063 -46.5063 -46.5035 -46.5035
   -46.4991 -46.4946 -46.4912 -46.4912 -46.4895 -46.4895 -46.4811 -46.4755
   -46.4755 -46.4676 -46.3969 -46.3875 -46.3875 -46.3804 -46.3718 -46.3718
   -46.3687 -46.3686 -46.3638 -46.3592 -46.3559 -46.3559 -46.3544 -46.3544
   -46.3456 -46.3400 -46.3400 -46.3321 -46.2149 -46.2045 -46.2045 -46.1964
   -46.1868 -46.1868 -46.1828 -46.1828 -46.1765 -46.1711 -46.1681 -46.1681
   -46.1671 -46.1671 -46.1570 -46.1513 -46.1513 -46.1428 -46.1366 -46.1320
   -46.1319 -46.1292 -46.1237 -46.1236 -46.1233 -46.1232 -46.1231 -46.1202
   -46.1154 -46.1153 -46.1116 -46.1116 -46.1061 -46.0997 -46.0997 -46.0918
   -25.4142 -25.4127 -25.4017 -25.3951 -25.3951 -25.3937 -25.3929 -25.3929
   -25.3864 -25.3864 -25.3796 -25.3796 -25.3756 -25.3621 -25.3606 -25.3606
   -25.3605 -25.3339 -25.3339 -25.3256 -25.3256 -25.3124 -25.3118 -25.3075
   -25.3075 -25.2953 -25.2952 -25.2873 -25.2820 -25.2819 -25.2816 -25.2794
   -25.2794 -25.2738 -25.2738 -25.2663 -25.2663 -25.2648 -25.2606 -25.2587
   -25.2587 -25.2554 -25.2532 -25.2532 -25.2432 -25.2381 -25.2253 -25.2253
   -25.2250 -25.2250 -25.2108 -25.2108 -25.2010 -25.1981 -25.1900 -25.1848
   -25.1848 -25.1749 -25.1749 -25.1747 -25.1747 -25.1574 -25.1460 -25.1460
   -25.1309 -25.1213 -25.1213 -25.1202 -25.1138 -25.1138 -25.1022 -25.1022
   -25.0946 -25.0814 -25.0814 -25.0799 -25.0759 -25.0759 -25.0731 -25.0731
   -25.0648 -25.0423 -25.0378 -25.0378 -25.0357 -25.0357 -25.0313 -25.0246
   -25.0210 -25.0193 -25.0193 -25.0191 -25.0191 -25.0188 -25.0187 -25.0187
   -25.0128 -25.0125 -25.0096 -25.0096 -25.0078 -25.0078 -24.9883 -24.9882
   -24.9763 -24.9763 -24.9760 -24.9760 -24.9747 -24.9747 -24.9620 -24.9606
   -24.9606 -24.9606 -24.9479 -24.9371 -24.9370 -24.9352 -24.9340 -24.9286
   -24.9286 -24.9275 -24.9275 -24.9233 -24.9226 -24.9072 -24.8992 -24.8992
   -24.8889 -24.8870 -24.8870 -24.8841 -24.8841 -24.8739 -24.8673 -24.8673
   -24.8652 -24.8651 -24.8651 -24.8623 -24.8623 -24.8442 -24.8424 -24.8423
   -24.8396 -24.8396 -24.8376 -24.8342 -24.8245 -24.8245 -24.8137 -24.8137
   -24.8126 -24.8011 -24.8011 -24.8003 -24.7957 -24.7915 -24.7875 -24.7875
   -24.7865 -24.7849 -24.7829 -24.7829 -24.7802 -24.7718 -24.7691 -24.7691
   -24.7656 -24.7644 -24.7644 -24.7643 -24.7639 -24.7639 -24.7625 -24.7624
   -24.7605 -24.7605 -24.7519 -24.7519 -24.7518 -24.7434 -24.7333 -24.7333
   -24.7269 -24.7226 -24.7226 -24.7199 -24.7180 -24.7180 -24.7168 -24.7168
   -24.7151 -24.7139 -24.7138 -24.7082 -24.7081 -24.7053 -24.6998 -24.6944
   -24.6943 -24.6905 -24.6872 -24.6828 -24.6828 -24.6771 -24.6770 -24.6654
   -24.6614 -24.6597 -24.6596 -24.6573 -24.6572 -24.6421 -24.6387 -24.6372
   -11.7848 -11.5130 -11.5129 -11.2542 -11.2287 -11.1293 -11.1292 -10.9990
   -10.9990 -10.9086 -10.9083 -10.8946 -10.8945 -10.8709 -10.8708 -10.8418
   -10.8417 -10.8066 -10.7869 -10.7563 -10.7563 -10.7153 -10.7152 -10.7086
   -10.6714 -10.6707 -10.6684 -10.6684 -10.6234 -10.6234 -10.6030 -10.6030
   -10.5837 -10.5410 -10.5409 -10.4993 -10.4992 -10.4939 -10.4938 -10.4284
   -10.4272 -10.4079 -10.3744 -10.3709 -10.3408 -10.3408 -10.2962 -10.2908
   -10.2624 -10.2624 -10.2219 -10.2219 -10.2060 -10.2060 -10.1834 -10.1833
   -10.1598 -10.1597 -10.1350 -10.1046 -10.1045 -10.0594 -10.0477 -10.0477
   -10.0428 -10.0428  -9.9571  -9.9571  -9.9420  -9.8919  -9.8441  -9.8153
    -2.5963  -2.5887  -2.5560  -2.5308  -2.2190  -2.2189  -2.1944  -2.1943
    -2.1118  -2.1117  -2.0519  -2.0519  -1.9064  -1.8690  -1.8642  -1.8570
    -1.8482  -1.8258  -1.8258  -1.7660  -1.7660  -1.7161  -1.6981  -1.6921
    -1.6921  -1.5758  -1.5758  -1.5681  -1.5680  -1.5367  -1.5223  -1.5223
    -1.4907  -1.4907  -1.4479  -1.4478  -1.4276  -1.4276  -1.3576  -1.3552
    -1.3552  -1.3287  -1.3287  -1.3216  -1.2836  -1.2453  -1.2452  -1.1411
    -1.1411  -1.0517  -1.0513  -1.0205  -1.0205  -1.0059  -1.0059  -0.9621
    -0.9621  -0.9572  -0.9489  -0.9489  -0.7708  -0.7693  -0.7626  -0.7442
    -0.7442  -0.7079  -0.6489  -0.6324  -0.6289  -0.6133  -0.6132  -0.5791
    -0.5574  -0.5574  -0.5484  -0.5372  -0.5372  -0.5348  -0.5348  -0.5292
    -0.5239  -0.5238  -0.5104  -0.4973  -0.4721  -0.4683  -0.4361  -0.4361
    -0.4160  -0.4159  -0.4016  -0.4016  -0.4012  -0.4011  -0.3828  -0.3827
    -0.3775  -0.3775  -0.3621  -0.3620  -0.3384  -0.3384  -0.3015  -0.3015
    -0.2979  -0.2979  -0.2786  -0.2786  -0.2552  -0.2551  -0.2483  -0.2392
    -0.2197  -0.2164  -0.1779  -0.1661  -0.1647  -0.1645  -0.1593  -0.1593
    -0.1497  -0.1496  -0.1485  -0.1397  -0.1218  -0.1218  -0.1043  -0.0901
    -0.0689  -0.0687  -0.0687  -0.0196  -0.0196  -0.0004  -0.0004   0.0163
     0.0163   0.0247   0.0408   0.0408   0.0498   0.0657   0.0957   0.0970
     0.0970   0.1119   0.1346   0.1375   0.1375   0.1377   0.1487   0.1646
     0.1779   0.1779   0.1966   0.1966   0.1996   0.1996   0.2138   0.2138
     0.2317   0.2317   0.2603   0.2604   0.2707   0.2707   0.2875   0.2876
     0.3124   0.3124   0.3561   0.3561   0.3631   0.3631   0.4022   0.4864
     0.4893   0.4893   0.5374   0.5374   0.5462   0.5462   0.5553   0.5704
     0.5759   0.6555   0.6556   0.6600   0.6626   0.6738   0.6739   0.6750
     0.7180   0.7180   0.7215   0.7500   0.7500   0.8198   0.8199   0.8701
     0.8756   0.8756   0.8875   0.9371   0.9371   0.9896   0.9896   1.0404
     1.0650   1.1158   1.3053   1.3053   1.3848   1.5710   1.6010   1.7884
     2.6315   2.8719   2.8723   3.0559   3.0559   3.1059   3.4372   3.4372
     3.7288   3.7289   3.8095   3.8317   3.8317   3.9200   3.9332   3.9420
     3.9492   3.9492   4.1180   4.1180   4.1916   4.1916   4.1968   4.1968
     4.2486   4.2505   4.3580   4.3928   4.3946   4.4016   4.4016   4.4081
     4.4087   4.4087   4.5066   4.5066   4.5416   4.6579   4.6579   4.6609
     4.6609   4.6793   4.6835   4.6835   4.7300   4.7300   4.8291   4.8291
     4.8437   4.8438   4.8620   4.8620   4.8801   4.9361   4.9454   4.9461
     4.9531   4.9531   5.0490   5.0681   5.0703   5.0703   5.1032   5.1033
     5.1220   5.1260   5.1261   5.1384   5.1385   5.1554   5.1805   5.2117
     5.2441   5.3282   5.3282   5.3682   5.3682   5.4251   5.4252   5.4649
     5.4650   5.4853   5.4854   5.5114   5.5114   5.5275   5.5423   5.5423
     5.5777   5.5847   5.5847   5.5974   5.5975   5.6460   5.6460   5.6887
     5.6888   5.7150   5.7433   5.7433   5.7481   5.7610   5.8011   5.8011
     5.8150   5.8506   5.8542   5.8635   5.8801   5.8934   5.8935   5.9191
     5.9316   5.9397   5.9632

          k = 0.2500-0.5000 0.0000 (165780 PWs)   bands (ev):

   -46.5267 -46.5267 -46.5187 -46.5187 -46.5052 -46.5052 -46.4978 -46.4978
   -46.4973 -46.4973 -46.4967 -46.4967 -46.4902 -46.4901 -46.4776 -46.4776
   -46.4706 -46.4706 -46.3933 -46.3932 -46.3848 -46.3847 -46.3706 -46.3705
   -46.3630 -46.3629 -46.3622 -46.3621 -46.3614 -46.3613 -46.3550 -46.3549
   -46.3422 -46.3421 -46.3352 -46.3350 -46.2109 -46.2108 -46.2014 -46.2014
   -46.1852 -46.1852 -46.1768 -46.1768 -46.1753 -46.1753 -46.1735 -46.1735
   -46.1675 -46.1674 -46.1534 -46.1534 -46.1460 -46.1460 -46.1349 -46.1348
   -46.1310 -46.1309 -46.1235 -46.1234 -46.1221 -46.1219 -46.1199 -46.1197
   -46.1178 -46.1176 -46.1132 -46.1131 -46.1023 -46.1022 -46.0950 -46.0949
   -25.4170 -25.4170 -25.3981 -25.3981 -25.3930 -25.3930 -25.3929 -25.3929
   -25.3857 -25.3857 -25.3771 -25.3771 -25.3714 -25.3713 -25.3710 -25.3710
   -25.3454 -25.3453 -25.3195 -25.3195 -25.3146 -25.3146 -25.3146 -25.3146
   -25.2891 -25.2891 -25.2843 -25.2843 -25.2838 -25.2838 -25.2818 -25.2818
   -25.2802 -25.2801 -25.2753 -25.2752 -25.2650 -25.2650 -25.2605 -25.2604
   -25.2599 -25.2599 -25.2566 -25.2565 -25.2419 -25.2418 -25.2293 -25.2293
   -25.2142 -25.2142 -25.2074 -25.2073 -25.2029 -25.2029 -25.1992 -25.1992
   -25.1760 -25.1760 -25.1697 -25.1697 -25.1540 -25.1540 -25.1507 -25.1507
   -25.1499 -25.1499 -25.1254 -25.1254 -25.1087 -25.1087 -25.1023 -25.1023
   -25.0788 -25.0788 -25.0758 -25.0758 -25.0755 -25.0755 -25.0618 -25.0618
   -25.0589 -25.0588 -25.0485 -25.0485 -25.0477 -25.0477 -25.0350 -25.0350
   -25.0303 -25.0303 -25.0198 -25.0198 -25.0188 -25.0187 -25.0062 -25.0062
   -25.0038 -25.0038 -24.9970 -24.9969 -24.9957 -24.9957 -24.9930 -24.9929
   -24.9808 -24.9808 -24.9796 -24.9795 -24.9681 -24.9680 -24.9592 -24.9592
   -24.9538 -24.9538 -24.9527 -24.9527 -24.9512 -24.9512 -24.9426 -24.9426
   -24.9171 -24.9170 -24.9094 -24.9094 -24.9053 -24.9053 -24.9052 -24.9052
   -24.8996 -24.8996 -24.8901 -24.8900 -24.8804 -24.8804 -24.8639 -24.8639
   -24.8606 -24.8606 -24.8605 -24.8605 -24.8453 -24.8453 -24.8426 -24.8425
   -24.8401 -24.8400 -24.8286 -24.8286 -24.8231 -24.8231 -24.8208 -24.8208
   -24.8203 -24.8203 -24.8179 -24.8178 -24.7946 -24.7945 -24.7844 -24.7844
   -24.7823 -24.7822 -24.7767 -24.7767 -24.7725 -24.7725 -24.7714 -24.7714
   -24.7667 -24.7667 -24.7663 -24.7663 -24.7606 -24.7606 -24.7590 -24.7589
   -24.7495 -24.7495 -24.7483 -24.7483 -24.7448 -24.7447 -24.7424 -24.7424
   -24.7360 -24.7360 -24.7358 -24.7358 -24.7224 -24.7223 -24.7193 -24.7192
   -24.7060 -24.7059 -24.6972 -24.6972 -24.6957 -24.6957 -24.6913 -24.6913
   -24.6886 -24.6885 -24.6820 -24.6820 -24.6819 -24.6819 -24.6818 -24.6818
   -24.6795 -24.6795 -24.6463 -24.6463 -24.6452 -24.6452 -24.6435 -24.6435
   -11.6763 -11.6762 -11.4094 -11.4094 -11.1354 -11.1354 -11.0347 -11.0347
   -10.9719 -10.9718 -10.9122 -10.9122 -10.8758 -10.8758 -10.8440 -10.8440
   -10.7881 -10.7881 -10.7706 -10.7705 -10.7526 -10.7525 -10.7239 -10.7239
   -10.7166 -10.7166 -10.6422 -10.6422 -10.6352 -10.6352 -10.6214 -10.6214
   -10.5690 -10.5690 -10.5237 -10.5236 -10.4860 -10.4859 -10.4750 -10.4750
   -10.4111 -10.4111 -10.3681 -10.3681 -10.3228 -10.3228 -10.2668 -10.2668
   -10.2487 -10.2487 -10.2474 -10.2474 -10.2073 -10.2072 -10.1479 -10.1479
   -10.1400 -10.1400 -10.1349 -10.1348 -10.1303 -10.1303 -10.0774 -10.0774
   -10.0424 -10.0424  -9.9715  -9.9714  -9.8861  -9.8861  -9.8028  -9.8028
    -2.6395  -2.6395  -2.6253  -2.6252  -2.2268  -2.2267  -2.1884  -2.1883
    -1.9899  -1.9899  -1.9489  -1.9489  -1.9440  -1.9440  -1.8662  -1.8662
    -1.8602  -1.8602  -1.8058  -1.8058  -1.7750  -1.7750  -1.7320  -1.7319
    -1.6544  -1.6544  -1.6192  -1.6192  -1.5365  -1.5365  -1.5176  -1.5175
    -1.4665  -1.4664  -1.4296  -1.4296  -1.3879  -1.3878  -1.2926  -1.2926
    -1.2712  -1.2711  -1.2552  -1.2551  -1.2175  -1.2175  -1.1772  -1.1772
    -1.1622  -1.1622  -1.1045  -1.1044  -1.0969  -1.0969  -1.0303  -1.0303
    -1.0187  -1.0187  -0.9438  -0.9438  -0.9118  -0.9118  -0.8259  -0.8259
    -0.6352  -0.6352  -0.6214  -0.6214  -0.5938  -0.5938  -0.5851  -0.5850
    -0.5286  -0.5286  -0.5178  -0.5177  -0.5174  -0.5174  -0.5081  -0.5081
    -0.5010  -0.5009  -0.4920  -0.4920  -0.4890  -0.4890  -0.4796  -0.4796
    -0.4555  -0.4555  -0.4495  -0.4495  -0.4386  -0.4386  -0.4210  -0.4209
    -0.3791  -0.3791  -0.3651  -0.3651  -0.3446  -0.3446  -0.3380  -0.3380
    -0.3328  -0.3327  -0.3182  -0.3181  -0.2919  -0.2918  -0.2506  -0.2506
    -0.2281  -0.2281  -0.2121  -0.2121  -0.1714  -0.1714  -0.1557  -0.1557
    -0.1252  -0.1251  -0.1184  -0.1184  -0.1083  -0.1083  -0.0443  -0.0443
     0.0042   0.0042   0.0056   0.0056   0.0080   0.0080   0.0224   0.0224
     0.0563   0.0563   0.0936   0.0936   0.1076   0.1076   0.1263   0.1263
     0.1277   0.1278   0.1323   0.1323   0.1534   0.1534   0.1793   0.1793
     0.2023   0.2023   0.2071   0.2071   0.2092   0.2092   0.2297   0.2297
     0.3129   0.3129   0.3237   0.3237   0.3333   0.3333   0.3593   0.3594
     0.3668   0.3668   0.3976   0.3976   0.4766   0.4766   0.5188   0.5188
     0.5390   0.5390   0.5453   0.5453   0.5586   0.5586   0.5612   0.5612
     0.6195   0.6195   0.6223   0.6223   0.6393   0.6393   0.6570   0.6570
     0.6814   0.6814   0.7076   0.7077   0.7871   0.7872   0.8064   0.8064
     0.8214   0.8214   0.8432   0.8432   0.9685   0.9686   1.0048   1.0048
     1.0497   1.0497   1.0976   1.0976   1.2958   1.2958   1.5423   1.5423
     2.9386   2.9387   3.1135   3.1135   3.2882   3.2882   3.4247   3.4248
     3.5441   3.5442   3.6849   3.6850   3.7480   3.7481   3.8567   3.8567
     3.9569   3.9569   4.0366   4.0367   4.1738   4.1739   4.1796   4.1797
     4.2734   4.2734   4.3078   4.3079   4.3156   4.3156   4.3596   4.3596
     4.4028   4.4029   4.4378   4.4380   4.4772   4.4773   4.6201   4.6202
     4.7022   4.7023   4.7257   4.7258   4.7394   4.7395   4.7906   4.7906
     4.8127   4.8127   4.8405   4.8406   4.8648   4.8649   4.9511   4.9511
     4.9721   4.9721   5.0274   5.0274   5.0963   5.0964   5.1329   5.1329
     5.1822   5.1822   5.1846   5.1847   5.2342   5.2342   5.2718   5.2719
     5.2808   5.2809   5.3087   5.3088   5.3850   5.3851   5.3952   5.3952
     5.4716   5.4716   5.4883   5.4883   5.4910   5.4911   5.5194   5.5195
     5.5952   5.5953   5.6419   5.6420   5.6526   5.6526   5.7481   5.7482
     5.8003   5.8003   5.8086   5.8087   5.8436   5.8437   5.8576   5.8584
     5.8825   5.8829   5.8943   5.8944   5.9096   5.9097   5.9386   5.9387
     5.9581   5.9583   5.9824

          k =-0.5000-0.5000 0.0000 (165708 PWs)   bands (ev):

   -46.5236 -46.5236 -46.5236 -46.5236 -46.4976 -46.4976 -46.4976 -46.4976
   -46.4976 -46.4976 -46.4976 -46.4976 -46.4966 -46.4966 -46.4733 -46.4733
   -46.4733 -46.4733 -46.3901 -46.3900 -46.3899 -46.3899 -46.3628 -46.3627
   -46.3627 -46.3627 -46.3627 -46.3626 -46.3625 -46.3624 -46.3613 -46.3612
   -46.3379 -46.3379 -46.3378 -46.3377 -46.2072 -46.2072 -46.2072 -46.2071
   -46.1762 -46.1762 -46.1762 -46.1762 -46.1762 -46.1762 -46.1762 -46.1761
   -46.1733 -46.1732 -46.1488 -46.1488 -46.1488 -46.1488 -46.1335 -46.1334
   -46.1334 -46.1333 -46.1225 -46.1223 -46.1188 -46.1187 -46.1186 -46.1186
   -46.1185 -46.1184 -46.1184 -46.1183 -46.0979 -46.0979 -46.0979 -46.0978
   -25.4208 -25.4208 -25.3959 -25.3959 -25.3959 -25.3959 -25.3857 -25.3857
   -25.3799 -25.3799 -25.3799 -25.3799 -25.3799 -25.3799 -25.3799 -25.3799
   -25.3307 -25.3307 -25.3307 -25.3306 -25.3198 -25.3197 -25.2828 -25.2828
   -25.2827 -25.2827 -25.2808 -25.2808 -25.2808 -25.2808 -25.2765 -25.2765
   -25.2765 -25.2764 -25.2764 -25.2764 -25.2764 -25.2763 -25.2639 -25.2639
   -25.2535 -25.2534 -25.2534 -25.2534 -25.2534 -25.2534 -25.2534 -25.2534
   -25.2240 -25.2240 -25.2239 -25.2239 -25.1831 -25.1831 -25.1831 -25.1831
   -25.1680 -25.1680 -25.1679 -25.1679 -25.1528 -25.1528 -25.1528 -25.1527
   -25.1527 -25.1527 -25.1527 -25.1527 -25.1047 -25.1047 -25.1047 -25.1047
   -25.0842 -25.0842 -25.0841 -25.0841 -25.0793 -25.0792 -25.0412 -25.0412
   -25.0412 -25.0412 -25.0412 -25.0412 -25.0412 -25.0412 -25.0348 -25.0348
   -25.0347 -25.0347 -25.0205 -25.0205 -25.0078 -25.0078 -25.0078 -25.0077
   -25.0030 -25.0030 -25.0030 -25.0030 -25.0029 -25.0029 -25.0029 -25.0029
   -24.9764 -24.9764 -24.9764 -24.9764 -24.9681 -24.9680 -24.9680 -24.9680
   -24.9680 -24.9680 -24.9680 -24.9680 -24.9494 -24.9494 -24.9494 -24.9494
   -24.9031 -24.9031 -24.8964 -24.8963 -24.8963 -24.8963 -24.8827 -24.8827
   -24.8826 -24.8826 -24.8826 -24.8825 -24.8825 -24.8825 -24.8796 -24.8796
   -24.8796 -24.8795 -24.8639 -24.8638 -24.8638 -24.8638 -24.8437 -24.8437
   -24.8437 -24.8437 -24.8310 -24.8310 -24.8310 -24.8309 -24.8098 -24.8098
   -24.8098 -24.8097 -24.7957 -24.7957 -24.7957 -24.7957 -24.7957 -24.7957
   -24.7957 -24.7957 -24.7751 -24.7751 -24.7736 -24.7735 -24.7735 -24.7734
   -24.7673 -24.7672 -24.7672 -24.7672 -24.7672 -24.7672 -24.7672 -24.7672
   -24.7664 -24.7664 -24.7339 -24.7338 -24.7338 -24.7338 -24.7242 -24.7240
   -24.7214 -24.7214 -24.7213 -24.7213 -24.7102 -24.7101 -24.7101 -24.7101
   -24.7101 -24.7100 -24.7100 -24.7100 -24.7005 -24.7005 -24.7004 -24.7004
   -24.7004 -24.7004 -24.7004 -24.7003 -24.6845 -24.6845 -24.6845 -24.6845
   -24.6845 -24.6844 -24.6403 -24.6403 -24.6396 -24.6396 -24.6396 -24.6395
   -11.5697 -11.5696 -11.5696 -11.5696 -11.0445 -11.0445 -11.0445 -11.0444
   -10.8831 -10.8830 -10.8830 -10.8830 -10.8830 -10.8829 -10.8829 -10.8829
   -10.8091 -10.8091 -10.8091 -10.8090 -10.8086 -10.8086 -10.8086 -10.8085
   -10.6426 -10.6425 -10.6425 -10.6425 -10.5715 -10.5714 -10.5714 -10.5714
   -10.5714 -10.5713 -10.5713 -10.5713 -10.5360 -10.5359 -10.5359 -10.5359
   -10.3903 -10.3903 -10.3891 -10.3890 -10.2721 -10.2720 -10.2720 -10.2720
   -10.1970 -10.1970 -10.1970 -10.1969 -10.1782 -10.1782 -10.1782 -10.1782
   -10.1782 -10.1781 -10.1781 -10.1781 -10.0667 -10.0667 -10.0667 -10.0667
   -10.0667 -10.0667 -10.0666 -10.0666  -9.8536  -9.8536  -9.7769  -9.7768
    -2.7008  -2.7008  -2.6928  -2.6928  -2.0011  -2.0010  -1.9838  -1.9838
    -1.9838  -1.9838  -1.9838  -1.9838  -1.9838  -1.9838  -1.9409  -1.9409
    -1.9274  -1.9274  -1.9274  -1.9274  -1.9274  -1.9273  -1.9273  -1.9273
    -1.4379  -1.4379  -1.4378  -1.4378  -1.3934  -1.3934  -1.3934  -1.3933
    -1.3913  -1.3913  -1.3913  -1.3913  -1.3460  -1.3460  -1.3460  -1.3460
    -1.3460  -1.3459  -1.3459  -1.3459  -1.1920  -1.1920  -1.1920  -1.1920
    -1.1919  -1.1919  -1.1919  -1.1919  -1.1142  -1.1142  -1.1142  -1.1142
    -1.0248  -1.0248  -1.0248  -1.0248  -1.0040  -1.0040  -1.0040  -1.0039
    -0.6574  -0.6574  -0.6522  -0.6522  -0.5778  -0.5778  -0.5555  -0.5554
    -0.5268  -0.5268  -0.5268  -0.5268  -0.5268  -0.5267  -0.5267  -0.5267
    -0.4497  -0.4497  -0.4497  -0.4497  -0.4497  -0.4497  -0.4497  -0.4496
    -0.3773  -0.3772  -0.3772  -0.3772  -0.3772  -0.3772  -0.3772  -0.3771
    -0.3648  -0.3648  -0.3648  -0.3647  -0.3576  -0.3576  -0.3575  -0.3575
    -0.3304  -0.3304  -0.3303  -0.3303  -0.2806  -0.2806  -0.2805  -0.2805
    -0.2805  -0.2805  -0.2805  -0.2805  -0.2633  -0.2633  -0.1893  -0.1893
    -0.1339  -0.1339  -0.1338  -0.1338  -0.1332  -0.1332  -0.0384  -0.0383
     0.0494   0.0494   0.0494   0.0494   0.0629   0.0629   0.0629   0.0630
     0.0801   0.0801   0.0801   0.0801   0.0801   0.0801   0.0801   0.0801
     0.1857   0.1857   0.1857   0.1857   0.1857   0.1858   0.1858   0.1858
     0.3158   0.3158   0.3158   0.3159   0.3393   0.3393   0.3393   0.3394
     0.3695   0.3695   0.3695   0.3695   0.4071   0.4071   0.4071   0.4071
     0.4976   0.4977   0.4977   0.4977   0.5037   0.5038   0.5038   0.5038
     0.5038   0.5038   0.5039   0.5039   0.5276   0.5277   0.5277   0.5277
     0.5277   0.5277   0.5277   0.5277   0.6366   0.6367   0.6367   0.6367
     0.7341   0.7341   0.7341   0.7341   0.7405   0.7405   0.7406   0.7406
     0.8173   0.8173   0.8174   0.8174   0.8654   0.8655   0.8655   0.8656
     1.0844   1.0844   1.0844   1.0844   1.2328   1.2328   1.2329   1.2329
     3.3311   3.3311   3.3312   3.3312   3.3355   3.3355   3.3356   3.3356
     3.4446   3.4446   3.4446   3.4446   3.8431   3.8431   3.8431   3.8431
     3.9608   3.9609   3.9609   3.9610   3.9610   3.9610   3.9610   3.9611
     4.1257   4.1257   4.1257   4.1258   4.3891   4.3892   4.3892   4.3894
     4.4346   4.4346   4.4346   4.4347   4.5238   4.5238   4.5238   4.5239
     4.5304   4.5304   4.5305   4.5305   4.8538   4.8539   4.8539   4.8539
     4.8539   4.8539   4.8539   4.8539   4.9197   4.9198   4.9198   4.9199
     4.9833   4.9833   4.9834   4.9834   5.1819   5.1819   5.1819   5.1820
     5.2199   5.2199   5.2200   5.2200   5.2200   5.2200   5.2200   5.2201
     5.2422   5.2422   5.3527   5.3527   5.4629   5.4629   5.4629   5.4630
     5.4631   5.4631   5.4631   5.4634   5.5480   5.5480   5.5480   5.5480
     5.7565   5.7565   5.7565   5.7565   5.7854   5.7854   5.7855   5.7855
     5.8289   5.8291   5.8291   5.8293   5.8295   5.8295   5.8295   5.8296
     5.9586   5.9608   5.9608   5.9609   5.9610   5.9612   5.9613   5.9615
     5.9615   5.9624   6.0797

          k = 0.2500 0.0000 0.0000 (165664 PWs)   bands (ev):

   -46.5313 -46.5222 -46.5143 -46.5143 -46.5094 -46.5094 -46.5067 -46.5014
   -46.5014 -46.4927 -46.4927 -46.4893 -46.4857 -46.4857 -46.4819 -46.4819
   -46.4748 -46.4666 -46.3982 -46.3885 -46.3802 -46.3801 -46.3750 -46.3748
   -46.3722 -46.3664 -46.3662 -46.3574 -46.3572 -46.3542 -46.3504 -46.3502
   -46.3467 -46.3465 -46.3393 -46.3310 -46.2162 -46.2056 -46.1963 -46.1963
   -46.1901 -46.1900 -46.1874 -46.1798 -46.1797 -46.1693 -46.1693 -46.1670
   -46.1619 -46.1619 -46.1584 -46.1584 -46.1506 -46.1417 -46.1372 -46.1323
   -46.1281 -46.1280 -46.1269 -46.1267 -46.1237 -46.1235 -46.1231 -46.1179
   -46.1178 -46.1111 -46.1107 -46.1105 -46.1055 -46.1054 -46.0988 -46.0908
   -25.4058 -25.4058 -25.4030 -25.4016 -25.4016 -25.3948 -25.3948 -25.3930
   -25.3868 -25.3867 -25.3776 -25.3752 -25.3752 -25.3578 -25.3577 -25.3567
   -25.3481 -25.3481 -25.3324 -25.3324 -25.3297 -25.3245 -25.3245 -25.3027
   -25.3005 -25.3005 -25.2941 -25.2940 -25.2882 -25.2847 -25.2846 -25.2791
   -25.2750 -25.2749 -25.2731 -25.2729 -25.2633 -25.2561 -25.2554 -25.2497
   -25.2497 -25.2460 -25.2453 -25.2452 -25.2399 -25.2399 -25.2364 -25.2363
   -25.2284 -25.2175 -25.2174 -25.2155 -25.2155 -25.2101 -25.2101 -25.1869
   -25.1820 -25.1533 -25.1509 -25.1509 -25.1508 -25.1452 -25.1408 -25.1408
   -25.1391 -25.1389 -25.1389 -25.1352 -25.1352 -25.1134 -25.1111 -25.0957
   -25.0957 -25.0845 -25.0781 -25.0781 -25.0753 -25.0741 -25.0487 -25.0487
   -25.0456 -25.0456 -25.0442 -25.0434 -25.0433 -25.0416 -25.0364 -25.0302
   -25.0302 -25.0297 -25.0296 -25.0274 -25.0205 -25.0204 -25.0203 -25.0078
   -25.0043 -25.0040 -25.0029 -25.0029 -25.0022 -25.0021 -24.9999 -24.9999
   -24.9852 -24.9849 -24.9849 -24.9765 -24.9697 -24.9643 -24.9643 -24.9639
   -24.9550 -24.9519 -24.9518 -24.9473 -24.9473 -24.9296 -24.9296 -24.9275
   -24.9269 -24.9269 -24.9239 -24.9175 -24.9175 -24.8957 -24.8956 -24.8956
   -24.8943 -24.8922 -24.8922 -24.8876 -24.8865 -24.8780 -24.8780 -24.8779
   -24.8697 -24.8628 -24.8620 -24.8620 -24.8542 -24.8521 -24.8506 -24.8474
   -24.8451 -24.8278 -24.8278 -24.8230 -24.8138 -24.8137 -24.8121 -24.8120
   -24.8055 -24.8055 -24.8033 -24.8004 -24.7958 -24.7958 -24.7943 -24.7888
   -24.7872 -24.7872 -24.7812 -24.7811 -24.7746 -24.7745 -24.7717 -24.7716
   -24.7703 -24.7703 -24.7701 -24.7701 -24.7684 -24.7651 -24.7635 -24.7517
   -24.7502 -24.7501 -24.7396 -24.7395 -24.7393 -24.7392 -24.7376 -24.7376
   -24.7354 -24.7353 -24.7347 -24.7326 -24.7234 -24.7233 -24.7210 -24.7210
   -24.7159 -24.7118 -24.7118 -24.7048 -24.6984 -24.6983 -24.6969 -24.6896
   -24.6896 -24.6853 -24.6853 -24.6829 -24.6829 -24.6813 -24.6786 -24.6745
   -24.6745 -24.6734 -24.6501 -24.6473 -24.6428 -24.6428 -24.6419 -24.6419
   -11.8229 -11.5492 -11.3202 -11.3201 -11.2617 -11.1625 -11.0722 -11.0722
   -11.0299 -10.9319 -10.9215 -10.9003 -10.8674 -10.8474 -10.8474 -10.8360
   -10.8319 -10.8318 -10.7717 -10.7417 -10.7394 -10.7338 -10.7338 -10.6723
   -10.6723 -10.6516 -10.6516 -10.6462 -10.6462 -10.6437 -10.6312 -10.5701
   -10.5701 -10.5377 -10.5377 -10.5232 -10.4667 -10.4667 -10.4424 -10.4424
   -10.4406 -10.4406 -10.3890 -10.3671 -10.3507 -10.3507 -10.3143 -10.2828
   -10.2780 -10.2780 -10.2484 -10.2299 -10.2152 -10.2152 -10.2029 -10.1581
   -10.1581 -10.1273 -10.1272 -10.1272 -10.0724 -10.0724 -10.0423 -10.0423
    -9.9933  -9.9932  -9.9546  -9.9546  -9.9318  -9.9318  -9.8730  -9.8729
    -2.4429  -2.4429  -2.4297  -2.4297  -2.3639  -2.3639  -2.3251  -2.3251
    -2.0880  -2.0879  -2.0730  -2.0729  -1.9122  -1.9122  -1.8153  -1.8153
    -1.7681  -1.7630  -1.7630  -1.7255  -1.7254  -1.7076  -1.7076  -1.6991
    -1.6550  -1.6549  -1.6454  -1.6454  -1.6303  -1.5522  -1.5522  -1.4916
    -1.4915  -1.4915  -1.4834  -1.4787  -1.4787  -1.4208  -1.4080  -1.4079
    -1.3574  -1.3482  -1.3397  -1.3397  -1.2899  -1.2295  -1.2294  -1.0923
    -1.0882  -1.0882  -1.0412  -0.9779  -0.9563  -0.9508  -0.9508  -0.9384
    -0.9321  -0.9321  -0.9308  -0.9063  -0.7664  -0.7557  -0.6774  -0.6662
    -0.6662  -0.6571  -0.6571  -0.6167  -0.5959  -0.5958  -0.5830  -0.5830
    -0.5610  -0.5568  -0.5262  -0.5262  -0.5081  -0.5081  -0.5026  -0.5025
    -0.4986  -0.4985  -0.4820  -0.4820  -0.4802  -0.4801  -0.4625  -0.4624
    -0.4586  -0.4586  -0.4444  -0.4444  -0.4324  -0.4203  -0.4203  -0.4186
    -0.4186  -0.4041  -0.3477  -0.3477  -0.3285  -0.3190  -0.3188  -0.3184
    -0.3184  -0.3030  -0.2841  -0.2796  -0.2796  -0.2553  -0.2086  -0.2086
    -0.1802  -0.1802  -0.1708  -0.1707  -0.1534  -0.1533  -0.1473  -0.1421
    -0.1421  -0.1188  -0.1144  -0.1143  -0.0972  -0.0816  -0.0779  -0.0779
    -0.0753  -0.0753  -0.0629  -0.0629  -0.0596  -0.0596  -0.0368  -0.0368
    -0.0240   0.0119   0.0119   0.0231   0.0232   0.0321   0.0322   0.0361
     0.0502   0.0502   0.0860   0.0937   0.0937   0.1142   0.1159   0.1179
     0.1281   0.1281   0.1312   0.1312   0.1354   0.1427   0.1673   0.1673
     0.1901   0.1901   0.1915   0.1915   0.2439   0.2610   0.2610   0.2755
     0.2803   0.3184   0.3199   0.3199   0.3572   0.3573   0.3677   0.3677
     0.4346   0.4346   0.4484   0.4552   0.4553   0.5523   0.5688   0.5873
     0.6676   0.6710   0.6710   0.6834   0.7147   0.7148   0.7301   0.7306
     0.7486   0.7487   0.7570   0.7571   0.8031   0.8077   0.8448   0.8619
     0.8648   0.9106   0.9567   1.0531   1.0676   1.0796   1.0892   1.0925
     1.0996   1.0996   1.1991   1.4574   1.5941   1.6319   1.7877   1.9281
     2.4369   2.7055   2.8511   2.9166   2.9354   3.2239   3.2240   3.3253
     3.6625   3.6731   3.8301   3.8671   3.9108   4.0412   4.0413   4.0647
     4.1729   4.1742   4.1814   4.1815   4.2303   4.2850   4.3352   4.3804
     4.3805   4.4088   4.4134   4.4232   4.4232   4.4502   4.4502   4.4545
     4.4546   4.5401   4.5401   4.5617   4.5818   4.5818   4.6454   4.6738
     4.6750   4.6751   4.6776   4.6777   4.6917   4.7384   4.7385   4.8109
     4.8190   4.8340   4.8341   4.8398   4.8398   4.8864   4.8865   4.8979
     4.9559   4.9730   4.9730   5.0175   5.0369   5.0369   5.0629   5.0784
     5.0827   5.0828   5.1181   5.1605   5.1605   5.1930   5.2240   5.2242
     5.2387   5.2387   5.2471   5.2471   5.3105   5.3106   5.3417   5.3419
     5.4271   5.4771   5.4850   5.5621   5.5761   5.5761   5.5802   5.5804
     5.5908   5.6269   5.6271   5.6417   5.6417   5.7180   5.7226   5.7227
     5.7308   5.7309   5.7313   5.7475   5.7679   5.8031   5.8037   5.8129
     5.8350   5.8377   5.8428   5.8429   5.8533   5.8534   5.8943   5.8944
     5.9400   5.9404   5.9406

          k =-0.5000 0.0000 0.0000 (165810 PWs)   bands (ev):

   -46.5278 -46.5278 -46.5124 -46.5124 -46.5124 -46.5124 -46.4979 -46.4979
   -46.4970 -46.4969 -46.4969 -46.4969 -46.4834 -46.4834 -46.4834 -46.4833
   -46.4697 -46.4697 -46.3944 -46.3944 -46.3782 -46.3782 -46.3781 -46.3780
   -46.3631 -46.3630 -46.3618 -46.3618 -46.3617 -46.3615 -46.3481 -46.3480
   -46.3479 -46.3478 -46.3342 -46.3342 -46.2121 -46.2121 -46.1939 -46.1939
   -46.1938 -46.1938 -46.1771 -46.1771 -46.1743 -46.1743 -46.1743 -46.1742
   -46.1598 -46.1597 -46.1597 -46.1597 -46.1451 -46.1451 -46.1354 -46.1353
   -46.1277 -46.1276 -46.1275 -46.1275 -46.1213 -46.1210 -46.1210 -46.1209
   -46.1174 -46.1172 -46.1077 -46.1075 -46.1075 -46.1074 -46.0940 -46.0939
   -25.4067 -25.4067 -25.4067 -25.4066 -25.3989 -25.3989 -25.3897 -25.3897
   -25.3897 -25.3897 -25.3680 -25.3679 -25.3596 -25.3596 -25.3596 -25.3596
   -25.3524 -25.3524 -25.3524 -25.3524 -25.3154 -25.3153 -25.3008 -25.3008
   -25.3007 -25.3007 -25.2899 -25.2899 -25.2899 -25.2899 -25.2848 -25.2848
   -25.2773 -25.2773 -25.2772 -25.2771 -25.2551 -25.2550 -25.2550 -25.2550
   -25.2549 -25.2549 -25.2430 -25.2430 -25.2412 -25.2412 -25.2347 -25.2347
   -25.2347 -25.2346 -25.2006 -25.2006 -25.1937 -25.1937 -25.1937 -25.1937
   -25.1771 -25.1771 -25.1770 -25.1770 -25.1642 -25.1642 -25.1379 -25.1379
   -25.1283 -25.1283 -25.1151 -25.1151 -25.1151 -25.1151 -25.1124 -25.1124
   -25.0890 -25.0890 -25.0890 -25.0890 -25.0681 -25.0680 -25.0652 -25.0652
   -25.0652 -25.0652 -25.0387 -25.0387 -25.0354 -25.0354 -25.0354 -25.0354
   -25.0330 -25.0330 -25.0194 -25.0194 -25.0194 -25.0194 -25.0136 -25.0136
   -25.0135 -25.0134 -25.0068 -25.0068 -25.0041 -25.0040 -24.9844 -24.9844
   -24.9713 -24.9713 -24.9713 -24.9713 -24.9676 -24.9675 -24.9566 -24.9566
   -24.9489 -24.9489 -24.9489 -24.9488 -24.9287 -24.9286 -24.9286 -24.9286
   -24.9277 -24.9277 -24.9277 -24.9276 -24.9216 -24.9216 -24.9216 -24.9216
   -24.8940 -24.8939 -24.8882 -24.8882 -24.8765 -24.8765 -24.8697 -24.8697
   -24.8662 -24.8661 -24.8565 -24.8565 -24.8437 -24.8437 -24.8437 -24.8437
   -24.8405 -24.8405 -24.8404 -24.8404 -24.8249 -24.8249 -24.8079 -24.8079
   -24.8079 -24.8078 -24.7978 -24.7978 -24.7922 -24.7921 -24.7920 -24.7920
   -24.7851 -24.7851 -24.7736 -24.7736 -24.7736 -24.7735 -24.7680 -24.7680
   -24.7680 -24.7680 -24.7661 -24.7661 -24.7636 -24.7634 -24.7577 -24.7577
   -24.7577 -24.7576 -24.7495 -24.7494 -24.7494 -24.7494 -24.7494 -24.7494
   -24.7399 -24.7398 -24.7398 -24.7398 -24.7237 -24.7236 -24.7235 -24.7235
   -24.7061 -24.7060 -24.7060 -24.7060 -24.6960 -24.6959 -24.6883 -24.6883
   -24.6817 -24.6816 -24.6816 -24.6816 -24.6674 -24.6674 -24.6596 -24.6596
   -24.6595 -24.6595 -24.6594 -24.6594 -24.6575 -24.6575 -24.6574 -24.6574
   -11.7136 -11.7135 -11.2207 -11.2207 -11.2207 -11.2207 -11.1676 -11.1676
   -11.0033 -11.0033 -10.9002 -10.9001 -10.8580 -10.8579 -10.7665 -10.7665
   -10.7665 -10.7664 -10.7552 -10.7552 -10.7552 -10.7552 -10.7528 -10.7528
   -10.6586 -10.6586 -10.6517 -10.6517 -10.6262 -10.6262 -10.6261 -10.6261
   -10.6061 -10.6061 -10.6061 -10.6060 -10.4077 -10.4077 -10.4076 -10.4076
   -10.3898 -10.3898 -10.3898 -10.3898 -10.3418 -10.3418 -10.2739 -10.2739
   -10.2718 -10.2718 -10.2717 -10.2717 -10.2660 -10.2660 -10.1595 -10.1594
   -10.1546 -10.1546 -10.1546 -10.1546 -10.0703 -10.0703 -10.0702 -10.0702
    -9.9702  -9.9702  -9.9702  -9.9702  -9.8744  -9.8743  -9.8743  -9.8742
    -2.4670  -2.4670  -2.4670  -2.4669  -2.4423  -2.4423  -2.4423  -2.4423
    -1.8720  -1.8719  -1.8719  -1.8719  -1.8341  -1.8340  -1.8340  -1.8340
    -1.7671  -1.7671  -1.7671  -1.7671  -1.7410  -1.7410  -1.6919  -1.6919
    -1.6918  -1.6918  -1.6766  -1.6765  -1.6765  -1.6765  -1.6598  -1.6598
    -1.5374  -1.5374  -1.5374  -1.5374  -1.3727  -1.3727  -1.3505  -1.3504
    -1.3504  -1.3504  -1.2434  -1.2434  -1.2255  -1.2255  -1.1671  -1.1671
    -1.1670  -1.1670  -1.0568  -1.0568  -0.9895  -0.9895  -0.9398  -0.9397
    -0.7822  -0.7822  -0.7822  -0.7822  -0.7568  -0.7567  -0.7567  -0.7567
    -0.7187  -0.7187  -0.6214  -0.6214  -0.6199  -0.6199  -0.6113  -0.6112
    -0.6112  -0.6112  -0.5978  -0.5978  -0.5716  -0.5716  -0.5716  -0.5716
    -0.5087  -0.5086  -0.5086  -0.5086  -0.5048  -0.5047  -0.5047  -0.5047
    -0.4672  -0.4672  -0.4671  -0.4671  -0.4210  -0.4210  -0.4210  -0.4210
    -0.3829  -0.3829  -0.3177  -0.3177  -0.3177  -0.3177  -0.3141  -0.3141
    -0.2817  -0.2817  -0.2817  -0.2816  -0.2674  -0.2673  -0.2428  -0.2427
    -0.2427  -0.2427  -0.1976  -0.1975  -0.1975  -0.1975  -0.1756  -0.1756
    -0.1258  -0.1258  -0.1258  -0.1258  -0.0787  -0.0787  -0.0786  -0.0786
    -0.0634  -0.0633  -0.0564  -0.0564  -0.0564  -0.0564  -0.0096  -0.0095
    -0.0095  -0.0095   0.0674   0.0674   0.0674   0.0674   0.1028   0.1028
     0.1038   0.1038   0.1038   0.1039   0.1288   0.1288   0.1288   0.1289
     0.1303   0.1303   0.1304   0.1304   0.1423   0.1423   0.1510   0.1510
     0.2592   0.2592   0.2592   0.2592   0.3341   0.3341   0.3993   0.3994
     0.4750   0.4750   0.4751   0.4751   0.4751   0.4752   0.5138   0.5139
     0.5198   0.5198   0.5198   0.5198   0.5791   0.5791   0.5791   0.5791
     0.6213   0.6213   0.6213   0.6214   0.6396   0.6396   0.6822   0.6823
     0.7117   0.7118   0.7678   0.7678   0.7678   0.7678   0.7773   0.7773
     0.8028   0.8029   0.8398   0.8398   0.9422   0.9423   1.0972   1.0972
     1.1578   1.1578   1.2115   1.2115   1.3497   1.3498   1.6999   1.7000
     2.7848   2.7849   3.0072   3.0072   3.2761   3.2761   3.4511   3.4511
     3.5650   3.5650   3.5651   3.5651   3.5867   3.5870   4.0079   4.0079
     4.0960   4.0960   4.2347   4.2347   4.3422   4.3422   4.3422   4.3422
     4.3891   4.3892   4.3892   4.3893   4.4392   4.4393   4.4613   4.4613
     4.5159   4.5159   4.5160   4.5160   4.5842   4.5842   4.5842   4.5843
     4.6428   4.6428   4.6760   4.6761   4.7875   4.7875   4.7875   4.7876
     4.7940   4.7941   4.7941   4.7942   4.8388   4.8388   4.8804   4.8804
     4.8804   4.8804   4.9240   4.9241   4.9974   4.9975   4.9975   4.9976
     5.1243   5.1243   5.1243   5.1243   5.2111   5.2111   5.2468   5.2469
     5.2470   5.2470   5.3386   5.3387   5.3387   5.3387   5.3431   5.3432
     5.3590   5.3592   5.4773   5.4773   5.4774   5.4774   5.6334   5.6334
     5.7137   5.7137   5.7137   5.7138   5.7243   5.7244   5.7244   5.7245
     5.7293   5.7295   5.8208   5.8209   5.8209   5.8210   5.8448   5.8458
     5.8747   5.8747   5.8889   5.8890   5.8934   5.8934   5.8934   5.8934
     5.9130   5.9188   5.9923

          k =-0.5000 0.2500 0.0000 (165780 PWs)   bands (ev):

   -46.5267 -46.5267 -46.5187 -46.5187 -46.5052 -46.5052 -46.4978 -46.4978
   -46.4973 -46.4973 -46.4967 -46.4967 -46.4902 -46.4901 -46.4776 -46.4776
   -46.4706 -46.4706 -46.3933 -46.3933 -46.3848 -46.3848 -46.3705 -46.3705
   -46.3630 -46.3629 -46.3622 -46.3621 -46.3614 -46.3613 -46.3549 -46.3549
   -46.3422 -46.3422 -46.3351 -46.3351 -46.2109 -46.2109 -46.2014 -46.2014
   -46.1852 -46.1852 -46.1768 -46.1768 -46.1753 -46.1752 -46.1735 -46.1735
   -46.1675 -46.1675 -46.1534 -46.1534 -46.1460 -46.1460 -46.1349 -46.1348
   -46.1310 -46.1309 -46.1234 -46.1234 -46.1222 -46.1219 -46.1199 -46.1197
   -46.1177 -46.1176 -46.1131 -46.1131 -46.1023 -46.1022 -46.0950 -46.0949
   -25.4170 -25.4170 -25.3981 -25.3981 -25.3930 -25.3930 -25.3929 -25.3929
   -25.3857 -25.3857 -25.3771 -25.3771 -25.3714 -25.3713 -25.3710 -25.3710
   -25.3453 -25.3453 -25.3195 -25.3195 -25.3146 -25.3146 -25.3146 -25.3145
   -25.2891 -25.2891 -25.2843 -25.2843 -25.2838 -25.2838 -25.2818 -25.2818
   -25.2802 -25.2802 -25.2752 -25.2752 -25.2650 -25.2650 -25.2605 -25.2604
   -25.2599 -25.2598 -25.2566 -25.2565 -25.2418 -25.2418 -25.2293 -25.2293
   -25.2142 -25.2142 -25.2074 -25.2074 -25.2029 -25.2029 -25.1992 -25.1991
   -25.1760 -25.1760 -25.1697 -25.1697 -25.1540 -25.1540 -25.1507 -25.1507
   -25.1499 -25.1499 -25.1254 -25.1254 -25.1087 -25.1087 -25.1023 -25.1023
   -25.0788 -25.0788 -25.0758 -25.0758 -25.0755 -25.0755 -25.0618 -25.0618
   -25.0589 -25.0589 -25.0485 -25.0485 -25.0477 -25.0477 -25.0350 -25.0350
   -25.0303 -25.0303 -25.0198 -25.0198 -25.0188 -25.0187 -25.0062 -25.0062
   -25.0038 -25.0038 -24.9969 -24.9969 -24.9957 -24.9957 -24.9930 -24.9930
   -24.9808 -24.9808 -24.9796 -24.9795 -24.9681 -24.9680 -24.9592 -24.9592
   -24.9538 -24.9538 -24.9527 -24.9527 -24.9512 -24.9512 -24.9426 -24.9426
   -24.9170 -24.9170 -24.9094 -24.9094 -24.9053 -24.9053 -24.9052 -24.9052
   -24.8996 -24.8996 -24.8901 -24.8900 -24.8804 -24.8804 -24.8639 -24.8639
   -24.8606 -24.8606 -24.8605 -24.8605 -24.8453 -24.8453 -24.8425 -24.8425
   -24.8401 -24.8400 -24.8286 -24.8286 -24.8231 -24.8231 -24.8208 -24.8208
   -24.8203 -24.8203 -24.8179 -24.8179 -24.7946 -24.7945 -24.7844 -24.7844
   -24.7823 -24.7822 -24.7767 -24.7767 -24.7725 -24.7725 -24.7714 -24.7714
   -24.7667 -24.7667 -24.7663 -24.7663 -24.7606 -24.7606 -24.7590 -24.7589
   -24.7495 -24.7495 -24.7483 -24.7483 -24.7448 -24.7448 -24.7424 -24.7424
   -24.7360 -24.7360 -24.7358 -24.7358 -24.7224 -24.7223 -24.7192 -24.7192
   -24.7060 -24.7059 -24.6973 -24.6971 -24.6957 -24.6957 -24.6913 -24.6913
   -24.6886 -24.6885 -24.6820 -24.6820 -24.6819 -24.6819 -24.6818 -24.6818
   -24.6795 -24.6795 -24.6463 -24.6463 -24.6452 -24.6452 -24.6435 -24.6435
   -11.6763 -11.6762 -11.4095 -11.4094 -11.1354 -11.1353 -11.0347 -11.0347
   -10.9719 -10.9718 -10.9122 -10.9122 -10.8759 -10.8758 -10.8441 -10.8440
   -10.7881 -10.7881 -10.7706 -10.7705 -10.7526 -10.7525 -10.7239 -10.7239
   -10.7166 -10.7166 -10.6422 -10.6422 -10.6352 -10.6351 -10.6214 -10.6214
   -10.5690 -10.5689 -10.5237 -10.5236 -10.4860 -10.4859 -10.4751 -10.4750
   -10.4111 -10.4111 -10.3681 -10.3681 -10.3228 -10.3228 -10.2668 -10.2668
   -10.2487 -10.2487 -10.2474 -10.2474 -10.2073 -10.2072 -10.1479 -10.1479
   -10.1400 -10.1400 -10.1349 -10.1348 -10.1303 -10.1303 -10.0774 -10.0774
   -10.0424 -10.0424  -9.9715  -9.9715  -9.8861  -9.8861  -9.8028  -9.8028
    -2.6395  -2.6395  -2.6253  -2.6252  -2.2268  -2.2267  -2.1884  -2.1883
    -1.9900  -1.9899  -1.9490  -1.9489  -1.9440  -1.9440  -1.8662  -1.8662
    -1.8602  -1.8602  -1.8058  -1.8058  -1.7750  -1.7750  -1.7320  -1.7319
    -1.6544  -1.6544  -1.6192  -1.6192  -1.5365  -1.5364  -1.5176  -1.5176
    -1.4664  -1.4664  -1.4297  -1.4296  -1.3879  -1.3878  -1.2926  -1.2926
    -1.2711  -1.2711  -1.2552  -1.2552  -1.2175  -1.2175  -1.1772  -1.1772
    -1.1622  -1.1622  -1.1045  -1.1044  -1.0969  -1.0969  -1.0303  -1.0303
    -1.0187  -1.0187  -0.9438  -0.9438  -0.9118  -0.9118  -0.8259  -0.8259
    -0.6352  -0.6352  -0.6214  -0.6214  -0.5938  -0.5938  -0.5851  -0.5850
    -0.5286  -0.5286  -0.5177  -0.5177  -0.5174  -0.5174  -0.5081  -0.5081
    -0.5009  -0.5009  -0.4920  -0.4920  -0.4890  -0.4890  -0.4796  -0.4796
    -0.4555  -0.4555  -0.4495  -0.4495  -0.4386  -0.4386  -0.4209  -0.4209
    -0.3791  -0.3791  -0.3651  -0.3650  -0.3446  -0.3446  -0.3380  -0.3380
    -0.3328  -0.3327  -0.3182  -0.3181  -0.2918  -0.2918  -0.2506  -0.2506
    -0.2281  -0.2281  -0.2121  -0.2121  -0.1714  -0.1714  -0.1557  -0.1556
    -0.1251  -0.1251  -0.1184  -0.1184  -0.1083  -0.1083  -0.0443  -0.0443
     0.0042   0.0042   0.0056   0.0056   0.0080   0.0080   0.0224   0.0225
     0.0563   0.0563   0.0936   0.0936   0.1076   0.1076   0.1263   0.1263
     0.1277   0.1278   0.1323   0.1323   0.1534   0.1534   0.1793   0.1793
     0.2023   0.2023   0.2071   0.2071   0.2092   0.2092   0.2297   0.2297
     0.3129   0.3130   0.3237   0.3237   0.3333   0.3333   0.3593   0.3594
     0.3668   0.3668   0.3976   0.3976   0.4766   0.4766   0.5188   0.5188
     0.5390   0.5390   0.5453   0.5453   0.5586   0.5586   0.5612   0.5612
     0.6195   0.6195   0.6223   0.6223   0.6392   0.6394   0.6570   0.6570
     0.6814   0.6814   0.7077   0.7077   0.7872   0.7872   0.8064   0.8064
     0.8213   0.8215   0.8432   0.8432   0.9685   0.9686   1.0048   1.0048
     1.0497   1.0497   1.0976   1.0976   1.2958   1.2958   1.5423   1.5423
     2.9386   2.9387   3.1135   3.1135   3.2882   3.2882   3.4247   3.4248
     3.5441   3.5442   3.6848   3.6850   3.7480   3.7481   3.8567   3.8567
     3.9569   3.9569   4.0367   4.0367   4.1738   4.1739   4.1796   4.1797
     4.2734   4.2734   4.3079   4.3079   4.3156   4.3156   4.3595   4.3596
     4.4028   4.4029   4.4379   4.4379   4.4772   4.4772   4.6201   4.6201
     4.7022   4.7023   4.7257   4.7258   4.7394   4.7395   4.7906   4.7906
     4.8127   4.8127   4.8405   4.8406   4.8649   4.8649   4.9511   4.9511
     4.9721   4.9721   5.0274   5.0275   5.0963   5.0963   5.1329   5.1330
     5.1822   5.1822   5.1846   5.1847   5.2342   5.2342   5.2718   5.2719
     5.2808   5.2808   5.3087   5.3087   5.3850   5.3852   5.3952   5.3952
     5.4716   5.4716   5.4883   5.4883   5.4909   5.4910   5.5195   5.5195
     5.5952   5.5953   5.6419   5.6420   5.6526   5.6526   5.7482   5.7482
     5.8003   5.8003   5.8090   5.8091   5.8436   5.8439   5.8583   5.8583
     5.8829   5.8830   5.8944   5.8944   5.9096   5.9096   5.9387   5.9388
     5.9581   5.9810   5.9821

     the Fermi energy is     2.0572 ev

!    total energy              =   -8262.70826885 Ry
     estimated scf accuracy    <       0.00000015 Ry
     smearing contrib. (-TS)   =       0.00532515 Ry
     internal energy E=F+TS    =   -8262.71359400 Ry

     The total energy is F=E-TS. E is the sum of the following terms:
     one-electron contribution =  -99764.24780627 Ry
     hartree contribution      =   50006.21614693 Ry
     xc contribution           =   -1355.57460676 Ry
     ewald contribution        =   42853.71350608 Ry
     DFT-D3 Dispersion         =      -2.82083398 Ry

     convergence has been achieved in   7 iterations

     negative rho (up, down):  7.720E-03 0.000E+00

     Forces acting on atoms (cartesian axes, Ry/au):

     atom    1 type  1   force =     0.00000035   -0.00000066    0.01840361
     atom    2 type  1   force =     0.00000483   -0.00000323   -0.00017336
     atom    3 type  1   force =     0.00000645    0.00000476   -0.00017793
     atom    4 type  1   force =     0.00000072   -0.00000134    0.01840547
     atom    5 type  1   force =     0.00000340    0.00002159   -0.00148594
     atom    6 type  1   force =     0.00000313   -0.00000561   -0.00491678
     atom    7 type  1   force =     0.00000502   -0.00000690   -0.00478694
     atom    8 type  1   force =    -0.00001883    0.00000335   -0.00148653
     atom    9 type  1   force =     0.00000071   -0.00000009    0.01840411
     atom   10 type  1   force =    -0.00000041    0.00000477   -0.00017217
     atom   11 type  1   force =    -0.00000171    0.00000391   -0.00017639
     atom   12 type  1   force =     0.00000097    0.00000143    0.01840782
     atom   13 type  1   force =     0.00000055   -0.00001952   -0.00148927
     atom   14 type  1   force =     0.00000816    0.00000306   -0.00491980
     atom   15 type  1   force =     0.00000363    0.00000955   -0.00491598
     atom   16 type  1   force =     0.00000125   -0.00000305   -0.00148770
     atom   17 type  1   force =     0.00000011    0.00000071    0.01840558
     atom   18 type  1   force =    -0.00000001   -0.00000150   -0.00017067
     atom   19 type  1   force =    -0.00000021   -0.00000867   -0.00017975
     atom   20 type  1   force =     0.00000054   -0.00000009    0.01840708
     atom   21 type  1   force =     0.00000162   -0.00000186   -0.00148848
     atom   22 type  1   force =     0.00000161    0.00000230   -0.00491592
     atom   23 type  1   force =     0.00000118   -0.00000159   -0.00491801
     atom   24 type  1   force =     0.00000381   -0.00000030   -0.00148878
     atom   25 type  1   force =     0.00000000   -0.00000053    0.01840682
     atom   26 type  1   force =    -0.00000483   -0.00000323   -0.00017336
     atom   27 type  1   force =     0.00000000   -0.00000035   -0.00018106
     atom   28 type  1   force =    -0.00000072   -0.00000134    0.01840547
     atom   29 type  1   force =     0.00000000   -0.00000141   -0.00149034
     atom   30 type  1   force =    -0.00000313   -0.00000561   -0.00491678
     atom   31 type  1   force =     0.00000000   -0.00000270   -0.00491734
     atom   32 type  1   force =     0.00001883    0.00000335   -0.00148653
     atom   33 type  1   force =     0.00000000    0.00000019    0.01840491
     atom   34 type  1   force =     0.00000041    0.00000477   -0.00017217
     atom   35 type  1   force =     0.00000000    0.00000112   -0.00017056
     atom   36 type  1   force =    -0.00000097    0.00000143    0.01840782
     atom   37 type  1   force =     0.00000000    0.00000022   -0.00148579
     atom   38 type  1   force =    -0.00000816    0.00000306   -0.00491980
     atom   39 type  1   force =     0.00000000    0.00000230   -0.00490927
     atom   40 type  1   force =    -0.00000125   -0.00000305   -0.00148770
     atom   41 type  1   force =     0.00000000    0.00000040    0.01840632
     atom   42 type  1   force =     0.00000001   -0.00000150   -0.00017067
     atom   43 type  1   force =     0.00000000   -0.00000076   -0.00017360
     atom   44 type  1   force =    -0.00000054   -0.00000009    0.01840708
     atom   45 type  1   force =     0.00000000    0.00000125   -0.00148861
     atom   46 type  1   force =    -0.00000161    0.00000230   -0.00491592
     atom   47 type  1   force =     0.00000000   -0.00000003   -0.00491030
     atom   48 type  1   force =    -0.00000381   -0.00000030   -0.00148878
     atom   49 type  1   force =    -0.00000035   -0.00000066    0.01840361
     atom   50 type  1   force =     0.00000000   -0.00000678   -0.00017573
     atom   51 type  1   force =    -0.00000645    0.00000476   -0.00017793
     atom   52 type  1   force =     0.00000000   -0.00000172    0.01840370
     atom   53 type  1   force =    -0.00000340    0.00002159   -0.00148594
     atom   54 type  1   force =     0.00000000   -0.00000847   -0.00492829
     atom   55 type  1   force =    -0.00000502   -0.00000690   -0.00478694
     atom   56 type  1   force =     0.00000000    0.00000576   -0.00148158
     atom   57 type  1   force =    -0.00000071   -0.00000009    0.01840411
     atom   58 type  1   force =     0.00000000    0.00000994   -0.00017441
     atom   59 type  1   force =     0.00000171    0.00000391   -0.00017639
     atom   60 type  1   force =     0.00000000    0.00000208    0.01840876
     atom   61 type  1   force =    -0.00000055   -0.00001952   -0.00148927
     atom   62 type  1   force =     0.00000000    0.00000426   -0.00493415
     atom   63 type  1   force =    -0.00000363    0.00000955   -0.00491598
     atom   64 type  1   force =     0.00000000   -0.00000395   -0.00148783
     atom   65 type  1   force =    -0.00000011    0.00000071    0.01840558
     atom   66 type  1   force =     0.00000000   -0.00000309   -0.00016964
     atom   67 type  1   force =     0.00000021   -0.00000867   -0.00017975
     atom   68 type  1   force =     0.00000000   -0.00000034    0.01840786
     atom   69 type  1   force =    -0.00000162   -0.00000186   -0.00148848
     atom   70 type  1   force =     0.00000000    0.00000475   -0.00490509
     atom   71 type  1   force =    -0.00000118   -0.00000159   -0.00491801
     atom   72 type  1   force =     0.00000000   -0.00000189   -0.00149087
     atom   73 type  2   force =    -0.00000070    0.00000103    0.00173922
     atom   74 type  2   force =    -0.00000092    0.00000077    0.00173862
     atom   75 type  2   force =     0.00000020   -0.00000135   -0.00816522
     atom   76 type  2   force =     0.00000304    0.00000175   -0.00816894
     atom   77 type  2   force =     0.00000104   -0.00000833   -0.00147693
     atom   78 type  2   force =    -0.00000054   -0.00000407   -0.00148175
     atom   79 type  2   force =    -0.00000165    0.00000795   -0.00392114
     atom   80 type  2   force =    -0.00000679    0.00000274   -0.00392623
     atom   81 type  2   force =    -0.00000032   -0.00000147    0.00174250
     atom   82 type  2   force =    -0.00000110   -0.00000044    0.00174232
     atom   83 type  2   force =    -0.00000341    0.00000528   -0.00814227
     atom   84 type  2   force =    -0.00000208   -0.00000081   -0.00816307
     atom   85 type  2   force =     0.00000014    0.00000948   -0.00147864
     atom   86 type  2   force =     0.00000890    0.00000430   -0.00147729
     atom   87 type  2   force =    -0.00000308   -0.00000798   -0.00406505
     atom   88 type  2   force =    -0.00000229   -0.00000409   -0.00392352
     atom   89 type  2   force =    -0.00000025    0.00000049    0.00174162
     atom   90 type  2   force =    -0.00000049   -0.00000032    0.00173926
     atom   91 type  2   force =    -0.00000014   -0.00000385   -0.00815848
     atom   92 type  2   force =    -0.00000079   -0.00000090   -0.00816334
     atom   93 type  2   force =     0.00000002   -0.00000162   -0.00148103
     atom   94 type  2   force =    -0.00000026   -0.00000018   -0.00147940
     atom   95 type  2   force =    -0.00000086   -0.00000100   -0.00391897
     atom   96 type  2   force =    -0.00000088    0.00000167   -0.00393052
     atom   97 type  2   force =     0.00000000    0.00000082    0.00173971
     atom   98 type  2   force =     0.00000092    0.00000077    0.00173862
     atom   99 type  2   force =     0.00000000   -0.00000024   -0.00816408
     atom  100 type  2   force =    -0.00000304    0.00000175   -0.00816894
     atom  101 type  2   force =     0.00000000    0.00000113   -0.00148334
     atom  102 type  2   force =     0.00000054   -0.00000407   -0.00148175
     atom  103 type  2   force =     0.00000000    0.00000290   -0.00393112
     atom  104 type  2   force =     0.00000679    0.00000274   -0.00392623
     atom  105 type  2   force =     0.00000000   -0.00000084    0.00173943
     atom  106 type  2   force =     0.00000110   -0.00000044    0.00174232
     atom  107 type  2   force =     0.00000000    0.00000052   -0.00815684
     atom  108 type  2   force =     0.00000208   -0.00000081   -0.00816307
     atom  109 type  2   force =     0.00000000    0.00000006   -0.00147799
     atom  110 type  2   force =    -0.00000890    0.00000430   -0.00147729
     atom  111 type  2   force =     0.00000000   -0.00000255   -0.00391512
     atom  112 type  2   force =     0.00000229   -0.00000409   -0.00392352
     atom  113 type  2   force =     0.00000000   -0.00000002    0.00174030
     atom  114 type  2   force =     0.00000049   -0.00000032    0.00173926
     atom  115 type  2   force =     0.00000000   -0.00000027   -0.00816015
     atom  116 type  2   force =     0.00000079   -0.00000090   -0.00816334
     atom  117 type  2   force =     0.00000000   -0.00000131   -0.00147938
     atom  118 type  2   force =     0.00000026   -0.00000018   -0.00147940
     atom  119 type  2   force =     0.00000000   -0.00000044   -0.00393886
     atom  120 type  2   force =     0.00000088    0.00000167   -0.00393052
     atom  121 type  2   force =     0.00000070    0.00000103    0.00173922
     atom  122 type  2   force =     0.00000000    0.00000115    0.00173818
     atom  123 type  2   force =    -0.00000020   -0.00000135   -0.00816522
     atom  124 type  2   force =     0.00000000    0.00000304   -0.00817486
     atom  125 type  2   force =    -0.00000104   -0.00000833   -0.00147693
     atom  126 type  2   force =     0.00000000   -0.00000499   -0.00148330
     atom  127 type  2   force =     0.00000165    0.00000795   -0.00392114
     atom  128 type  2   force =     0.00000000    0.00000462   -0.00390410
     atom  129 type  2   force =     0.00000032   -0.00000147    0.00174250
     atom  130 type  2   force =     0.00000000   -0.00000079    0.00174367
     atom  131 type  2   force =     0.00000341    0.00000528   -0.00814227
     atom  132 type  2   force =     0.00000000   -0.00000137   -0.00816232
     atom  133 type  2   force =    -0.00000014    0.00000948   -0.00147864
     atom  134 type  2   force =     0.00000000    0.00000479   -0.00147677
     atom  135 type  2   force =     0.00000308   -0.00000798   -0.00406505
     atom  136 type  2   force =     0.00000000   -0.00000653   -0.00392575
     atom  137 type  2   force =     0.00000025    0.00000049    0.00174162
     atom  138 type  2   force =     0.00000000   -0.00000034    0.00173868
     atom  139 type  2   force =     0.00000014   -0.00000385   -0.00815848
     atom  140 type  2   force =     0.00000000   -0.00000163   -0.00816429
     atom  141 type  2   force =    -0.00000002   -0.00000162   -0.00148103
     atom  142 type  2   force =     0.00000000    0.00000015   -0.00147924
     atom  143 type  2   force =     0.00000086   -0.00000100   -0.00391897
     atom  144 type  2   force =     0.00000000    0.00000175   -0.00393646

     Total force =     0.028132     Total SCF correction =     0.001691
     Energy error            =      1.6E-03 Ry
     Gradient error          =      4.9E-03 Ry/Bohr

     number of scf cycles    =   3
     number of bfgs steps    =   2

     energy             old  =   -8262.7066761674 Ry
     energy             new  =   -8262.7082688519 Ry

     CASE: energy            _new < energy            _old

     new trust radius        =       0.0174265215 bohr
     new conv_thr            =       0.0000003171 Ry


ATOMIC_POSITIONS (angstrom)
Sc               0.0000000000        0.0000000000       10.0000000000    0   0   0
Sc               2.2382160900        0.0000000000       12.2382160900    0   0   0
Sc               0.0000000000        2.2382160900       12.2382160900    0   0   0
Sc               2.2382160900        2.2382160900       10.0000000000    0   0   0
Sc              -0.0000040910       -0.0000566212       14.5080332266
Sc               2.2381982547        0.0000201578       16.7050659651
Sc              -0.0000049454        2.2382200563       16.7049696539
Sc               2.2382521787        2.2382362426       14.5080496381
Sc               0.0000000000        4.4764321800       10.0000000000    0   0   0
Sc               2.2382160900        4.4764321800       12.2382160900    0   0   0
Sc               0.0000000000        6.7146482700       12.2382160900    0   0   0
Sc               2.2382160900        6.7146482700       10.0000000000    0   0   0
Sc              -0.0000095537        4.4764975089       14.5081105909
Sc               2.2381919705        4.4764137736       16.7052022701
Sc              -0.0000091437        6.7146364864       16.7052115873
Sc               2.2382092101        6.7146385168       14.5081293219
Sc               0.0000000000        8.9528643500       10.0000000000    0   0   0
Sc               2.2382160900        8.9528643500       12.2382160900    0   0   0
Sc               0.0000000000       11.1910804400       12.2382160900    0   0   0
Sc               2.2382160900       11.1910804400       10.0000000000    0   0   0
Sc              -0.0000024878        8.9528552568       14.5081099696
Sc               2.2382131247        8.9528632023       16.7051118417
Sc              -0.0000080417       11.1910885022       16.7050933575
Sc               2.2382206102       11.1910698880       14.5081010075
Sc               4.4764321800        0.0000000000       10.0000000000    0   0   0
Sc               6.7146482700        0.0000000000       12.2382160900    0   0   0
Sc               4.4764321800        2.2382160900       12.2382160900    0   0   0
Sc               6.7146482700        2.2382160900       10.0000000000    0   0   0
Sc               4.4764348900       -0.0000158763       14.5080913216
Sc               6.7146651853        0.0000204678       16.7050828651
Sc               4.4764323100        2.2382141241       16.7050875961
Sc               6.7146105413        2.2382321126       14.5080495481
Sc               4.4764321800        4.4764321800       10.0000000000    0   0   0
Sc               6.7146482700        4.4764321800       12.2382160900    0   0   0
Sc               4.4764321800        6.7146482700       12.2382160900    0   0   0
Sc               6.7146482700        6.7146482700       10.0000000000    0   0   0
Sc               4.4764301000        4.4764526461       14.5081168888
Sc               6.7146745795        4.4764127536       16.7051785101
Sc               4.4764311400        6.7146412595       16.7051075641
Sc               6.7146559199        6.7146413368       14.5081262819
Sc               4.4764321800        8.9528643500       10.0000000000    0   0   0
Sc               6.7146482700        8.9528643500       12.2382160900    0   0   0
Sc               4.4764321800       11.1910804400       12.2382160900    0   0   0
Sc               6.7146482700       11.1910804400       10.0000000000    0   0   0
Sc               4.4764324400        8.9528601109       14.5081053988
Sc               6.7146497153        8.9528622423       16.7051123417
Sc               4.4764327100       11.1910895454       16.7051164834
Sc               6.7146447998       11.1910720780       14.5081034175
Sc               8.9528643500        0.0000000000       10.0000000000    0   0   0
Sc              11.1910804400        0.0000000000       12.2382160900    0   0   0
Sc               8.9528643500        2.2382160900       12.2382160900    0   0   0
Sc              11.1910804400        2.2382160900       10.0000000000    0   0   0
Sc               8.9528651910       -0.0000588412       14.5080342866
Sc              11.1910813800        0.0000327065       16.7050458457
Sc               8.9528698854        2.2382189863       16.7049652139
Sc              11.1910805600        2.2382499352       14.5080016059
Sc               8.9528643500        4.4764321800       10.0000000000    0   0   0
Sc              11.1910804400        4.4764321800       12.2382160900    0   0   0
Sc               8.9528643500        6.7146482700       12.2382160900    0   0   0
Sc              11.1910804400        6.7146482700       10.0000000000    0   0   0
Sc               8.9528772237        4.4764985289       14.5081086409
Sc              11.1910818400        4.4763994631       16.7052802313
Sc               8.9528730437        6.7146348064       16.7052256373
Sc              11.1910808600        6.7146219582       14.5081487324
Sc               8.9528643500        8.9528643500       10.0000000000    0   0   0
Sc              11.1910804400        8.9528643500       12.2382160900    0   0   0
Sc               8.9528643500       11.1910804400       12.2382160900    0   0   0
Sc              11.1910804400       11.1910804400       10.0000000000    0   0   0
Sc               8.9528666078        8.9528562768       14.5081100196
Sc              11.1910806400        8.9528622564       16.7050966027
Sc               8.9528733617       11.1910874422       16.7051251975
Sc              11.1910796900       11.1910719948       14.5080962609
N                0.0000000000        2.2382160900       10.0000000000    0   0   0
N                2.2382160900        0.0000000000       10.0000000000    0   0   0
N                0.0000000000        0.0000000000       12.2382160900    0   0   0
N                2.2382160900        2.2382160900       12.2382160900    0   0   0
N                0.0000077956        2.2382750941       14.5190105002
N                2.2382208464       -0.0000087536       14.5190559296
N               -0.0000030430       -0.0000090272       16.7254786085
N                2.2382363836        2.2382048984       16.7254617294
N                0.0000000000        6.7146482700       10.0000000000    0   0   0
N                2.2382160900        4.4764321800       10.0000000000    0   0   0
N                0.0000000000        4.4764321800       12.2382160900    0   0   0
N                2.2382160900        6.7146482700       12.2382160900    0   0   0
N               -0.0000060445        6.7145973385       14.5191380700
N                2.2381731622        4.4764463592       14.5191222741
N               -0.0000042456        4.4764406025       16.7258416622
N                2.2382234801        6.7146587563       16.7255903370
N                0.0000000000       11.1910804400       10.0000000000    0   0   0
N                2.2382160900        8.9528643500       10.0000000000    0   0   0
N                0.0000000000        8.9528643500       12.2382160900    0   0   0
N                2.2382160900       11.1910804400       12.2382160900    0   0   0
N               -0.0000052747       11.1910728531       14.5190813790
N                2.2382115221        8.9528598087       14.5190916022
N                0.0000007452        8.9528669468       16.7255899601
N                2.2382104285       11.1910810295       16.7255696253
N                4.4764321800        2.2382160900       10.0000000000    0   0   0
N                6.7146482700        0.0000000000       10.0000000000    0   0   0
N                4.4764321800        0.0000000000       12.2382160900    0   0   0
N                6.7146482700        2.2382160900       12.2382160900    0   0   0
N                4.4764324400        2.2382291066       14.5190625054
N                6.7146451936       -0.0000106536       14.5190594496
N                4.4764319700        0.0000010033       16.7255760181
N                6.7146271664        2.2382037784       16.7254603694
N                4.4764321800        6.7146482700       10.0000000000    0   0   0
N                6.7146482700        4.4764321800       10.0000000000    0   0   0
N                4.4764321800        4.4764321800       12.2382160900    0   0   0
N                6.7146482700        6.7146482700       12.2382160900    0   0   0
N                4.4764310300        6.7146402609       14.5190914921
N                6.7146904378        4.4764443992       14.5191206941
N                4.4764316100        4.4764284894       16.7255952026
N                6.7146418699        6.7146592963       16.7255705170
N                4.4764321800       11.1910804400       10.0000000000    0   0   0
N                6.7146482700        8.9528643500       10.0000000000    0   0   0
N                4.4764321800        8.9528643500       12.2382160900    0   0   0
N                6.7146482700       11.1910804400       12.2382160900    0   0   0
N                4.4764330700       11.1910761994       14.5190927426
N                6.7146524979        8.9528621987       14.5190915322
N                4.4764329900        8.9528673398       16.7256015217
N                6.7146538315       11.1910824195       16.7255950453
N                8.9528643500        2.2382160900       10.0000000000    0   0   0
N               11.1910804400        0.0000000000       10.0000000000    0   0   0
N                8.9528643500        0.0000000000       12.2382160900    0   0   0
N               11.1910804400        2.2382160900       12.2382160900    0   0   0
N                8.9528572444        2.2382741441       14.5190111502
N               11.1910809200       -0.0000274890       14.5190301590
N                8.9528663230       -0.0000096372       16.7254650085
N               11.1910794100        2.2381924273       16.7253329708
N                8.9528643500        6.7146482700       10.0000000000    0   0   0
N               11.1910804400        4.4764321800       10.0000000000    0   0   0
N                8.9528643500        4.4764321800       12.2382160900    0   0   0
N               11.1910804400        6.7146482700       12.2382160900    0   0   0
N                8.9528710245        6.7145971085       14.5191384100
N               11.1910789200        4.4764642358       14.5191537279
N                8.9528685056        4.4764416725       16.7258412022
N               11.1910803400        6.7146692215       16.7255983300
N                8.9528643500       11.1910804400       10.0000000000    0   0   0
N               11.1910804400        8.9528643500       10.0000000000    0   0   0
N                8.9528643500        8.9528643500       12.2382160900    0   0   0
N               11.1910804400       11.1910804400       12.2382160900    0   0   0
N                8.9528688247       11.1910738131       14.5190827190
N               11.1910809700        8.9528594277       14.5190870107
N                8.9528639848        8.9528661068       16.7255615801
N               11.1910796900       11.1910832522       16.7255931459



     Writing config-only to output data dir ./tmp/ScN_slab.save/ :
     XML data file
     NEW-OLD atomic charge density approx. for the potential

     negative rho (up, down):  7.951E-03 0.000E+00

     total cpu time spent up to now is     4957.8 secs

     per-process dynamical memory:  1046.7 Mb

     Self-consistent Calculation

     iteration #  1     ecut=    45.00 Ry     beta= 0.25
     Davidson diagonalization with overlap
     ethr =  1.00E-06,  avg # of iterations =  5.0

     Threshold (ethr) on eigenvalues was too large:
     Diagonalizing with lowered threshold

     Davidson diagonalization with overlap
     ethr =  6.97E-08,  avg # of iterations =  2.4

     negative rho (up, down):  7.880E-03 0.000E+00

     total cpu time spent up to now is     5303.0 secs

     total energy              =   -8262.70999683 Ry
     estimated scf accuracy    <       0.00082248 Ry

     iteration #  2     ecut=    45.00 Ry     beta= 0.25
     Davidson diagonalization with overlap
     ethr =  7.14E-08,  avg # of iterations =  7.3

     negative rho (up, down):  7.835E-03 0.000E+00

     total cpu time spent up to now is     5432.1 secs

     total energy              =   -8262.71007347 Ry
     estimated scf accuracy    <       0.00033549 Ry

     iteration #  3     ecut=    45.00 Ry     beta= 0.25
     Davidson diagonalization with overlap
     ethr =  2.91E-08,  avg # of iterations =  2.0

     negative rho (up, down):  7.801E-03 0.000E+00

     total cpu time spent up to now is     5543.9 secs

     total energy              =   -8262.71009731 Ry
     estimated scf accuracy    <       0.00008896 Ry

     iteration #  4     ecut=    45.00 Ry     beta= 0.25
     Davidson diagonalization with overlap
     ethr =  7.72E-09,  avg # of iterations =  2.1

     negative rho (up, down):  7.778E-03 0.000E+00

     total cpu time spent up to now is     5657.4 secs

     total energy              =   -8262.71010144 Ry
     estimated scf accuracy    <       0.00002544 Ry

     iteration #  5     ecut=    45.00 Ry     beta= 0.25
     Davidson diagonalization with overlap
     ethr =  2.21E-09,  avg # of iterations =  3.7

     negative rho (up, down):  7.765E-03 0.000E+00

     total cpu time spent up to now is     5781.4 secs

     total energy              =   -8262.71010434 Ry
     estimated scf accuracy    <       0.00000356 Ry

     iteration #  6     ecut=    45.00 Ry     beta= 0.25
     Davidson diagonalization with overlap
     ethr =  3.09E-10,  avg # of iterations =  3.8

     negative rho (up, down):  7.757E-03 0.000E+00

     total cpu time spent up to now is     5903.0 secs

     total energy              =   -8262.71010507 Ry
     estimated scf accuracy    <       0.00000110 Ry

     iteration #  7     ecut=    45.00 Ry     beta= 0.25
     Davidson diagonalization with overlap
     ethr =  9.55E-11,  avg # of iterations =  3.8

     negative rho (up, down):  7.738E-03 0.000E+00

     total cpu time spent up to now is     6024.7 secs

     End of self-consistent calculation

          k = 0.0000 0.0000 0.0000 (165739 PWs)   bands (ev):

   -46.5485 -46.5309 -46.5309 -46.5309 -46.5309 -46.5216 -46.5216 -46.5216
   -46.5216 -46.5048 -46.5048 -46.5048 -46.5048 -46.4974 -46.4974 -46.4974
   -46.4974 -46.4815 -46.3839 -46.3650 -46.3649 -46.3648 -46.3648 -46.3546
   -46.3546 -46.3545 -46.3545 -46.3370 -46.3370 -46.3369 -46.3369 -46.3297
   -46.3296 -46.3296 -46.3296 -46.3134 -46.2323 -46.2123 -46.2122 -46.2122
   -46.2122 -46.2008 -46.2008 -46.2007 -46.2007 -46.1813 -46.1812 -46.1812
   -46.1812 -46.1740 -46.1740 -46.1740 -46.1739 -46.1567 -46.1454 -46.1357
   -46.1356 -46.1355 -46.1355 -46.1327 -46.1327 -46.1326 -46.1326 -46.1212
   -46.1211 -46.1211 -46.1210 -46.1117 -46.1116 -46.1116 -46.1116 -46.0964
   -25.4203 -25.4166 -25.4166 -25.4166 -25.4166 -25.4064 -25.4064 -25.4064
   -25.4064 -25.4018 -25.4018 -25.4018 -25.4018 -25.3627 -25.3627 -25.3627
   -25.3626 -25.3598 -25.3598 -25.3598 -25.3598 -25.3126 -25.3107 -25.3107
   -25.3107 -25.3107 -25.2903 -25.2903 -25.2903 -25.2903 -25.2825 -25.2825
   -25.2824 -25.2824 -25.2792 -25.2771 -25.2771 -25.2614 -25.2614 -25.2613
   -25.2613 -25.2325 -25.2325 -25.2325 -25.2325 -25.2229 -25.2229 -25.2229
   -25.2229 -25.2171 -25.2171 -25.2171 -25.2171 -25.2026 -25.2026 -25.2026
   -25.2026 -25.1784 -25.1784 -25.1784 -25.1784 -25.1546 -25.1546 -25.1532
   -25.1240 -25.1240 -25.1240 -25.1240 -25.1002 -25.1002 -25.1002 -25.1002
   -25.0869 -25.0869 -25.0869 -25.0868 -25.0765 -25.0765 -25.0765 -25.0765
   -25.0544 -25.0544 -25.0544 -25.0544 -25.0389 -25.0389 -25.0389 -25.0389
   -25.0329 -25.0329 -25.0285 -25.0285 -25.0285 -25.0285 -25.0243 -25.0243
   -25.0242 -25.0242 -25.0125 -25.0125 -25.0125 -25.0125 -24.9927 -24.9892
   -24.9891 -24.9891 -24.9891 -24.9890 -24.9890 -24.9890 -24.9890 -24.9806
   -24.9806 -24.9657 -24.9657 -24.9657 -24.9656 -24.9346 -24.9346 -24.9346
   -24.9346 -24.9190 -24.9190 -24.9190 -24.9189 -24.9041 -24.9041 -24.9041
   -24.9041 -24.8925 -24.8925 -24.8925 -24.8925 -24.8884 -24.8884 -24.8717
   -24.8565 -24.8565 -24.8565 -24.8565 -24.8457 -24.8456 -24.8456 -24.8456
   -24.8399 -24.8399 -24.8296 -24.8296 -24.8296 -24.8296 -24.8285 -24.8285
   -24.8285 -24.8285 -24.8125 -24.7920 -24.7920 -24.7920 -24.7920 -24.7920
   -24.7920 -24.7919 -24.7919 -24.7857 -24.7857 -24.7857 -24.7857 -24.7807
   -24.7807 -24.7806 -24.7806 -24.7684 -24.7684 -24.7684 -24.7684 -24.7583
   -24.7583 -24.7455 -24.7454 -24.7454 -24.7454 -24.7404 -24.7404 -24.7403
   -24.7403 -24.7295 -24.7257 -24.7257 -24.7257 -24.7257 -24.7250 -24.7250
   -24.7249 -24.7249 -24.7190 -24.7190 -24.7190 -24.7190 -24.7108 -24.7108
   -24.7108 -24.7108 -24.7052 -24.7051 -24.7051 -24.7051 -24.6800 -24.6800
   -24.6800 -24.6799 -24.6506 -24.6506 -24.6450 -24.6450 -24.6450 -24.6450
   -11.8776 -11.3718 -11.3718 -11.3718 -11.3717 -11.3100 -10.9633 -10.9624
   -10.9165 -10.9165 -10.9165 -10.9165 -10.8930 -10.8929 -10.8929 -10.8928
   -10.8803 -10.8770 -10.8770 -10.8769 -10.8769 -10.7700 -10.7082 -10.7082
   -10.7082 -10.7081 -10.5502 -10.5502 -10.5502 -10.5502 -10.5493 -10.5492
   -10.5492 -10.5492 -10.5485 -10.5484 -10.5484 -10.5484 -10.5072 -10.5072
   -10.5072 -10.5072 -10.4227 -10.3785 -10.3785 -10.3785 -10.3784 -10.3274
   -10.2517 -10.2517 -10.2517 -10.2517 -10.1659 -10.1659 -10.1659 -10.1659
   -10.1446 -10.1446 -10.1446 -10.1445 -10.0339 -10.0339 -10.0338 -10.0338
   -10.0114 -10.0114 -10.0114 -10.0114  -9.9143  -9.9142  -9.9142  -9.9142
    -2.3191  -2.3191  -2.3191  -2.3190  -2.3110  -2.3110  -2.3109  -2.3109
    -2.1763  -2.1763  -2.1763  -2.1763  -2.1174  -2.1174  -2.1174  -2.1174
    -1.6958  -1.6957  -1.6957  -1.6957  -1.6682  -1.6682  -1.6682  -1.6682
    -1.6051  -1.6051  -1.6051  -1.6051  -1.6017  -1.6017  -1.6017  -1.6017
    -1.5225  -1.5224  -1.5224  -1.5224  -1.4117  -1.4117  -1.4117  -1.4117
    -1.3550  -1.2833  -1.2832  -1.2832  -1.2832  -1.1958  -1.1958  -1.1958
    -1.1958  -1.1856  -1.1856  -1.1856  -1.1856  -0.9788  -0.9788  -0.9323
    -0.8658  -0.8658  -0.8658  -0.8658  -0.6479  -0.6479  -0.6479  -0.6479
    -0.6372  -0.6372  -0.6360  -0.6360  -0.6359  -0.6359  -0.5831  -0.5830
    -0.5830  -0.5830  -0.5806  -0.5805  -0.5805  -0.5805  -0.5141  -0.5140
    -0.5140  -0.5140  -0.4633  -0.4633  -0.4632  -0.4632  -0.4320  -0.4320
    -0.4320  -0.4320  -0.4069  -0.4069  -0.4069  -0.4069  -0.3903  -0.3902
    -0.3902  -0.3902  -0.3517  -0.3517  -0.3517  -0.3517  -0.2887  -0.2887
    -0.2887  -0.2886  -0.2508  -0.2507  -0.2507  -0.2507  -0.2055  -0.2055
    -0.2054  -0.2054  -0.1770  -0.1770  -0.1770  -0.1769  -0.1696  -0.1594
    -0.1514  -0.1514  -0.1514  -0.1514  -0.1485  -0.1485  -0.1485  -0.1485
    -0.1061  -0.1061  -0.1061  -0.1061  -0.1058  -0.0338  -0.0338  -0.0338
    -0.0338  -0.0306  -0.0306  -0.0306  -0.0306  -0.0254  -0.0254  -0.0254
    -0.0254   0.0730   0.0730   0.1013   0.1013   0.1013   0.1013   0.1022
     0.1022   0.1022   0.1022   0.1422   0.1422   0.1422   0.1422   0.1673
     0.1673   0.1673   0.1673   0.1823   0.1823   0.1823   0.1823   0.2040
     0.2040   0.2040   0.2040   0.2149   0.2149   0.2149   0.2149   0.2961
     0.2962   0.2962   0.2962   0.3816   0.3816   0.3816   0.3816   0.7259
     0.7259   0.7259   0.7259   0.7600   0.7794   0.7795   0.7795   0.7795
     0.7985   0.7985   0.8081   0.8081   0.8081   0.8081   0.8205   0.8206
     0.8206   0.8206   1.0299   1.0299   1.1520   1.2268   1.2268   1.2311
     1.2311   1.2311   1.2311   1.2529   1.7759   1.7759   2.0398   2.0398
     2.1207   2.6643   2.6643   2.6804   3.0841   3.0841   3.0842   3.0842
     3.4903   3.8804   4.1050   4.1050   4.1051   4.1051   4.1419   4.1537
     4.1537   4.3991   4.3991   4.3991   4.3992   4.3995   4.3995   4.3995
     4.3996   4.4083   4.4083   4.4083   4.4083   4.4315   4.4731   4.4731
     4.4731   4.4732   4.5254   4.5254   4.5254   4.5254   4.5650   4.5650
     4.5650   4.5651   4.6907   4.6908   4.6908   4.6908   4.7184   4.7184
     4.7184   4.7184   4.7924   4.7924   4.7924   4.7925   4.8461   4.8461
     4.8811   4.8812   4.8812   4.8813   5.1455   5.2185   5.2185   5.2186
     5.2186   5.2402   5.2402   5.2403   5.2403   5.3050   5.3050   5.3050
     5.3050   5.3059   5.3060   5.3060   5.3060   5.4287   5.4287   5.4287
     5.4288   5.4336   5.4336   5.4336   5.4336   5.4358   5.4358   5.4358
     5.4358   5.5484   5.5485   5.5485   5.5486   5.6359   5.6360   5.6360
     5.6360   5.7209   5.7635   5.7635   5.7833   5.8072   5.8072   5.8072
     5.8072   5.8254   5.8254   5.8734   5.8736   5.8737   5.8738   5.9245
     5.9467   5.9571   5.9712

          k = 0.0000 0.2500 0.0000 (165664 PWs)   bands (ev):

   -46.5473 -46.5381 -46.5303 -46.5303 -46.5254 -46.5254 -46.5226 -46.5173
   -46.5173 -46.5087 -46.5087 -46.5053 -46.5017 -46.5017 -46.4979 -46.4979
   -46.4907 -46.4825 -46.3825 -46.3726 -46.3641 -46.3641 -46.3587 -46.3587
   -46.3560 -46.3500 -46.3500 -46.3408 -46.3408 -46.3378 -46.3338 -46.3338
   -46.3301 -46.3301 -46.3228 -46.3145 -46.2309 -46.2205 -46.2114 -46.2114
   -46.2054 -46.2054 -46.2027 -46.1955 -46.1955 -46.1854 -46.1854 -46.1828
   -46.1780 -46.1780 -46.1744 -46.1744 -46.1666 -46.1578 -46.1447 -46.1398
   -46.1354 -46.1354 -46.1341 -46.1340 -46.1307 -46.1307 -46.1304 -46.1247
   -46.1247 -46.1181 -46.1175 -46.1175 -46.1124 -46.1123 -46.1057 -46.0976
   -25.4215 -25.4215 -25.4189 -25.4175 -25.4175 -25.4105 -25.4105 -25.4090
   -25.4027 -25.4027 -25.3935 -25.3912 -25.3912 -25.3727 -25.3719 -25.3719
   -25.3641 -25.3641 -25.3457 -25.3450 -25.3450 -25.3395 -25.3395 -25.3186
   -25.2999 -25.2999 -25.2930 -25.2930 -25.2781 -25.2777 -25.2777 -25.2723
   -25.2723 -25.2720 -25.2713 -25.2688 -25.2634 -25.2634 -25.2631 -25.2631
   -25.2599 -25.2599 -25.2533 -25.2440 -25.2383 -25.2334 -25.2319 -25.2318
   -25.2311 -25.2311 -25.2096 -25.2096 -25.2093 -25.2013 -25.2012 -25.2012
   -25.1729 -25.1668 -25.1665 -25.1665 -25.1556 -25.1556 -25.1542 -25.1493
   -25.1360 -25.1360 -25.1356 -25.1262 -25.1262 -25.1098 -25.1098 -25.1089
   -25.0991 -25.0909 -25.0909 -25.0900 -25.0890 -25.0806 -25.0567 -25.0567
   -25.0482 -25.0480 -25.0480 -25.0460 -25.0460 -25.0436 -25.0409 -25.0409
   -25.0387 -25.0360 -25.0302 -25.0302 -25.0284 -25.0238 -25.0203 -25.0203
   -25.0166 -25.0153 -25.0153 -25.0140 -25.0140 -25.0098 -25.0046 -25.0046
   -24.9948 -24.9948 -24.9936 -24.9856 -24.9837 -24.9702 -24.9702 -24.9684
   -24.9629 -24.9629 -24.9571 -24.9546 -24.9546 -24.9445 -24.9445 -24.9333
   -24.9333 -24.9329 -24.9282 -24.9274 -24.9274 -24.9062 -24.9019 -24.9019
   -24.8981 -24.8963 -24.8908 -24.8908 -24.8862 -24.8844 -24.8821 -24.8821
   -24.8752 -24.8663 -24.8620 -24.8597 -24.8597 -24.8586 -24.8540 -24.8453
   -24.8416 -24.8348 -24.8215 -24.8215 -24.8208 -24.8208 -24.8185 -24.8185
   -24.8136 -24.8067 -24.8029 -24.8029 -24.8011 -24.7996 -24.7995 -24.7995
   -24.7919 -24.7919 -24.7900 -24.7900 -24.7841 -24.7841 -24.7802 -24.7778
   -24.7778 -24.7757 -24.7757 -24.7730 -24.7716 -24.7716 -24.7695 -24.7631
   -24.7581 -24.7581 -24.7480 -24.7480 -24.7456 -24.7455 -24.7446 -24.7446
   -24.7443 -24.7443 -24.7420 -24.7396 -24.7346 -24.7346 -24.7306 -24.7305
   -24.7222 -24.7220 -24.7220 -24.7128 -24.7091 -24.7090 -24.7055 -24.6962
   -24.6962 -24.6935 -24.6935 -24.6907 -24.6907 -24.6877 -24.6859 -24.6809
   -24.6809 -24.6795 -24.6575 -24.6547 -24.6512 -24.6512 -24.6500 -24.6500
   -11.8394 -11.5658 -11.3369 -11.3369 -11.2768 -11.1794 -11.0891 -11.0890
   -11.0458 -10.9501 -10.9396 -10.9177 -10.8853 -10.8640 -10.8640 -10.8507
   -10.8495 -10.8495 -10.7900 -10.7590 -10.7509 -10.7509 -10.7390 -10.6906
   -10.6906 -10.6689 -10.6689 -10.6641 -10.6640 -10.6620 -10.6450 -10.5883
   -10.5882 -10.5555 -10.5554 -10.5230 -10.4798 -10.4798 -10.4605 -10.4605
   -10.4587 -10.4587 -10.4049 -10.3798 -10.3503 -10.3503 -10.3095 -10.2981
   -10.2906 -10.2906 -10.2478 -10.2432 -10.2297 -10.2297 -10.1985 -10.1575
   -10.1575 -10.1249 -10.1236 -10.1236 -10.0879 -10.0879 -10.0552 -10.0552
    -9.9886  -9.9885  -9.9698  -9.9698  -9.9300  -9.9299  -9.8684  -9.8684
    -2.4606  -2.4606  -2.4464  -2.4464  -2.3805  -2.3805  -2.3424  -2.3424
    -2.1056  -2.1056  -2.0897  -2.0897  -1.9284  -1.9284  -1.8317  -1.8317
    -1.7866  -1.7798  -1.7798  -1.7438  -1.7438  -1.7145  -1.7087  -1.7087
    -1.6705  -1.6705  -1.6559  -1.6559  -1.6471  -1.5682  -1.5682  -1.5065
    -1.5055  -1.5055  -1.5015  -1.4868  -1.4868  -1.4361  -1.4141  -1.4141
    -1.3725  -1.3627  -1.3537  -1.3537  -1.3005  -1.2399  -1.2399  -1.1039
    -1.0989  -1.0989  -1.0589  -0.9926  -0.9740  -0.9658  -0.9658  -0.9481
    -0.9450  -0.9450  -0.9416  -0.9240  -0.7814  -0.7736  -0.6861  -0.6808
    -0.6807  -0.6699  -0.6698  -0.6315  -0.6146  -0.6146  -0.6001  -0.6001
    -0.5758  -0.5663  -0.5419  -0.5419  -0.5199  -0.5199  -0.5176  -0.5176
    -0.5133  -0.5133  -0.4989  -0.4989  -0.4983  -0.4983  -0.4763  -0.4762
    -0.4709  -0.4709  -0.4576  -0.4576  -0.4506  -0.4391  -0.4391  -0.4306
    -0.4306  -0.4190  -0.3560  -0.3560  -0.3421  -0.3333  -0.3331  -0.3331
    -0.3272  -0.3154  -0.2930  -0.2930  -0.2883  -0.2689  -0.2247  -0.2247
    -0.1963  -0.1962  -0.1899  -0.1898  -0.1654  -0.1653  -0.1588  -0.1570
    -0.1570  -0.1223  -0.1163  -0.1163  -0.1142  -0.0966  -0.0929  -0.0929
    -0.0775  -0.0775  -0.0742  -0.0742  -0.0701  -0.0701  -0.0512  -0.0512
    -0.0409   0.0000   0.0000   0.0122   0.0122   0.0247   0.0251   0.0251
     0.0534   0.0534   0.0782   0.0888   0.0889   0.0959   0.0994   0.1089
     0.1191   0.1191   0.1275   0.1318   0.1358   0.1358   0.1594   0.1594
     0.1764   0.1764   0.1869   0.1869   0.2381   0.2497   0.2497   0.2657
     0.2675   0.3078   0.3078   0.3113   0.3508   0.3508   0.3708   0.3708
     0.4329   0.4335   0.4335   0.4466   0.4466   0.5474   0.5608   0.5803
     0.6561   0.6625   0.6625   0.6746   0.7040   0.7040   0.7189   0.7244
     0.7390   0.7390   0.7533   0.7534   0.7919   0.7961   0.8258   0.8513
     0.8547   0.8920   0.9538   1.0448   1.0576   1.0671   1.0711   1.0754
     1.0906   1.0906   1.2011   1.4479   1.5843   1.6229   1.7818   1.9196
     2.4201   2.6907   2.8367   2.9020   2.9249   3.2098   3.2098   3.3110
     3.6456   3.6677   3.8163   3.8531   3.9117   4.0280   4.0281   4.0543
     4.1675   4.1675   4.1716   4.1738   4.2297   4.2811   4.3346   4.3706
     4.3706   4.4018   4.4153   4.4153   4.4218   4.4424   4.4424   4.4435
     4.4435   4.5266   4.5266   4.5757   4.5777   4.5777   4.6445   4.6657
     4.6657   4.6711   4.6835   4.6863   4.6864   4.7289   4.7289   4.7971
     4.8172   4.8281   4.8281   4.8457   4.8458   4.8709   4.8709   4.8891
     4.9441   4.9670   4.9670   5.0159   5.0436   5.0436   5.0628   5.0779
     5.0787   5.0787   5.1133   5.1511   5.1511   5.1961   5.2225   5.2225
     5.2334   5.2334   5.2409   5.2409   5.3081   5.3081   5.3396   5.3396
     5.4171   5.4779   5.4832   5.5525   5.5697   5.5697   5.5746   5.5746
     5.5937   5.6223   5.6223   5.6358   5.6358   5.7166   5.7215   5.7215
     5.7280   5.7281   5.7294   5.7423   5.7726   5.7881   5.7883   5.8061
     5.8386   5.8406   5.8408   5.8408   5.8476   5.8477   5.8949   5.8949
     5.9309   5.9309   5.9432

          k = 0.0000-0.5000 0.0000 (165810 PWs)   bands (ev):

   -46.5438 -46.5437 -46.5284 -46.5284 -46.5284 -46.5284 -46.5139 -46.5139
   -46.5129 -46.5129 -46.5129 -46.5129 -46.4993 -46.4993 -46.4993 -46.4993
   -46.4857 -46.4857 -46.3787 -46.3786 -46.3621 -46.3620 -46.3620 -46.3620
   -46.3468 -46.3468 -46.3453 -46.3453 -46.3453 -46.3452 -46.3316 -46.3315
   -46.3315 -46.3314 -46.3177 -46.3176 -46.2269 -46.2269 -46.2091 -46.2091
   -46.2091 -46.2091 -46.1927 -46.1926 -46.1903 -46.1902 -46.1902 -46.1902
   -46.1758 -46.1758 -46.1757 -46.1757 -46.1612 -46.1612 -46.1429 -46.1428
   -46.1350 -46.1350 -46.1349 -46.1349 -46.1281 -46.1281 -46.1280 -46.1279
   -46.1246 -46.1244 -46.1145 -46.1144 -46.1144 -46.1144 -46.1008 -46.1007
   -25.4224 -25.4224 -25.4224 -25.4224 -25.4149 -25.4149 -25.4056 -25.4056
   -25.4056 -25.4056 -25.3839 -25.3839 -25.3756 -25.3756 -25.3756 -25.3756
   -25.3660 -25.3660 -25.3660 -25.3660 -25.3314 -25.3314 -25.3051 -25.3051
   -25.3051 -25.3051 -25.3001 -25.3001 -25.3001 -25.3001 -25.2746 -25.2746
   -25.2682 -25.2682 -25.2682 -25.2681 -25.2589 -25.2589 -25.2571 -25.2571
   -25.2503 -25.2503 -25.2503 -25.2503 -25.2458 -25.2458 -25.2275 -25.2275
   -25.2275 -25.2275 -25.2088 -25.2088 -25.2088 -25.2088 -25.1921 -25.1921
   -25.1794 -25.1794 -25.1683 -25.1683 -25.1682 -25.1682 -25.1337 -25.1337
   -25.1298 -25.1298 -25.1298 -25.1298 -25.1284 -25.1284 -25.1173 -25.1173
   -25.0880 -25.0880 -25.0880 -25.0880 -25.0772 -25.0772 -25.0772 -25.0772
   -25.0677 -25.0677 -25.0518 -25.0518 -25.0432 -25.0431 -25.0404 -25.0404
   -25.0403 -25.0403 -25.0275 -25.0275 -25.0275 -25.0275 -25.0150 -25.0149
   -25.0145 -25.0144 -25.0144 -25.0144 -25.0004 -25.0003 -24.9979 -24.9979
   -24.9862 -24.9862 -24.9862 -24.9862 -24.9701 -24.9701 -24.9674 -24.9674
   -24.9546 -24.9546 -24.9546 -24.9546 -24.9433 -24.9433 -24.9433 -24.9433
   -24.9310 -24.9310 -24.9310 -24.9310 -24.9225 -24.9225 -24.9224 -24.9224
   -24.9038 -24.9038 -24.8976 -24.8976 -24.8887 -24.8887 -24.8727 -24.8726
   -24.8611 -24.8611 -24.8588 -24.8587 -24.8587 -24.8587 -24.8489 -24.8488
   -24.8367 -24.8367 -24.8318 -24.8318 -24.8318 -24.8318 -24.8105 -24.8105
   -24.8017 -24.8017 -24.8016 -24.8016 -24.8001 -24.8001 -24.8001 -24.8001
   -24.7912 -24.7912 -24.7820 -24.7820 -24.7820 -24.7819 -24.7773 -24.7772
   -24.7713 -24.7713 -24.7712 -24.7712 -24.7705 -24.7704 -24.7644 -24.7644
   -24.7644 -24.7644 -24.7618 -24.7618 -24.7618 -24.7618 -24.7568 -24.7568
   -24.7456 -24.7456 -24.7455 -24.7455 -24.7333 -24.7333 -24.7333 -24.7333
   -24.7170 -24.7169 -24.7169 -24.7169 -24.7023 -24.7022 -24.6967 -24.6967
   -24.6884 -24.6883 -24.6883 -24.6883 -24.6742 -24.6742 -24.6679 -24.6679
   -24.6679 -24.6679 -24.6668 -24.6668 -24.6653 -24.6653 -24.6653 -24.6653
   -11.7301 -11.7301 -11.2375 -11.2375 -11.2375 -11.2374 -11.1830 -11.1830
   -11.0204 -11.0204 -10.9182 -10.9182 -10.8761 -10.8761 -10.7834 -10.7834
   -10.7834 -10.7833 -10.7730 -10.7729 -10.7729 -10.7729 -10.7672 -10.7672
   -10.6765 -10.6765 -10.6514 -10.6514 -10.6444 -10.6444 -10.6444 -10.6444
   -10.6235 -10.6235 -10.6235 -10.6235 -10.4259 -10.4259 -10.4259 -10.4259
   -10.4027 -10.4027 -10.4027 -10.4027 -10.3575 -10.3575 -10.2866 -10.2866
   -10.2713 -10.2713 -10.2713 -10.2713 -10.2612 -10.2612 -10.1695 -10.1695
   -10.1695 -10.1695 -10.1582 -10.1582 -10.0662 -10.0662 -10.0662 -10.0662
    -9.9841  -9.9841  -9.9841  -9.9841  -9.8712  -9.8712  -9.8711  -9.8711
    -2.4841  -2.4841  -2.4841  -2.4841  -2.4594  -2.4594  -2.4594  -2.4594
    -1.8900  -1.8900  -1.8900  -1.8900  -1.8503  -1.8503  -1.8503  -1.8503
    -1.7806  -1.7806  -1.7805  -1.7805  -1.7590  -1.7589  -1.7080  -1.7080
    -1.7080  -1.7080  -1.6808  -1.6808  -1.6808  -1.6808  -1.6753  -1.6752
    -1.5526  -1.5526  -1.5526  -1.5526  -1.3875  -1.3875  -1.3619  -1.3619
    -1.3619  -1.3619  -1.2612  -1.2612  -1.2378  -1.2377  -1.1780  -1.1779
    -1.1779  -1.1779  -1.0718  -1.0718  -0.9998  -0.9998  -0.9575  -0.9575
    -0.7981  -0.7981  -0.7981  -0.7981  -0.7668  -0.7668  -0.7668  -0.7667
    -0.7270  -0.7270  -0.6380  -0.6380  -0.6336  -0.6336  -0.6257  -0.6257
    -0.6257  -0.6257  -0.6126  -0.6125  -0.5908  -0.5907  -0.5907  -0.5907
    -0.5267  -0.5267  -0.5266  -0.5266  -0.5196  -0.5196  -0.5196  -0.5196
    -0.4801  -0.4800  -0.4800  -0.4800  -0.4372  -0.4372  -0.4372  -0.4372
    -0.3936  -0.3935  -0.3306  -0.3306  -0.3306  -0.3306  -0.3261  -0.3261
    -0.2959  -0.2959  -0.2959  -0.2958  -0.2823  -0.2822  -0.2466  -0.2465
    -0.2465  -0.2465  -0.2101  -0.2101  -0.2101  -0.2100  -0.1799  -0.1799
    -0.1401  -0.1401  -0.1401  -0.1401  -0.0835  -0.0835  -0.0835  -0.0835
    -0.0794  -0.0794  -0.0747  -0.0747  -0.0747  -0.0747  -0.0111  -0.0111
    -0.0111  -0.0111   0.0579   0.0579   0.0579   0.0580   0.0949   0.0949
     0.0955   0.0956   0.0956   0.0956   0.1153   0.1153   0.1153   0.1154
     0.1292   0.1292   0.1296   0.1296   0.1296   0.1296   0.1451   0.1451
     0.2511   0.2511   0.2511   0.2511   0.3230   0.3230   0.3913   0.3914
     0.4563   0.4564   0.4659   0.4659   0.4659   0.4659   0.4956   0.4956
     0.5116   0.5116   0.5116   0.5116   0.5770   0.5770   0.5771   0.5771
     0.6105   0.6105   0.6105   0.6105   0.6294   0.6294   0.6750   0.6750
     0.6939   0.6940   0.7612   0.7612   0.7618   0.7618   0.7618   0.7619
     0.7914   0.7914   0.8311   0.8311   0.9320   0.9320   1.0956   1.0956
     1.1422   1.1422   1.2116   1.2117   1.3412   1.3412   1.6907   1.6908
     2.7701   2.7702   2.9903   2.9903   3.2621   3.2622   3.4406   3.4406
     3.5513   3.5513   3.5513   3.5513   3.5727   3.5728   4.0077   4.0078
     4.0905   4.0905   4.2342   4.2342   4.3292   4.3292   4.3292   4.3292
     4.3788   4.3788   4.3788   4.3788   4.4521   4.4521   4.4599   4.4600
     4.5180   4.5180   4.5180   4.5180   4.5714   4.5714   4.5714   4.5715
     4.6381   4.6382   4.6623   4.6623   4.7828   4.7828   4.7828   4.7828
     4.7832   4.7832   4.7833   4.7833   4.8377   4.8378   4.8708   4.8708
     4.8708   4.8708   4.9205   4.9205   5.0014   5.0015   5.0015   5.0015
     5.1239   5.1239   5.1239   5.1239   5.2009   5.2009   5.2450   5.2451
     5.2451   5.2451   5.3327   5.3327   5.3328   5.3328   5.3462   5.3462
     5.3717   5.3718   5.4766   5.4766   5.4767   5.4767   5.6315   5.6316
     5.7062   5.7062   5.7062   5.7062   5.7146   5.7147   5.7193   5.7193
     5.7193   5.7194   5.8280   5.8280   5.8280   5.8281   5.8394   5.8395
     5.8781   5.8781   5.8849   5.8849   5.8849   5.8849   5.8904   5.8904
     5.9152   5.9185   5.9187

          k = 0.2500 0.2500 0.0000 (165752 PWs)   bands (ev):

   -46.5461 -46.5373 -46.5373 -46.5306 -46.5223 -46.5222 -46.5195 -46.5195
   -46.5150 -46.5105 -46.5072 -46.5072 -46.5055 -46.5055 -46.4971 -46.4914
   -46.4914 -46.4836 -46.3812 -46.3717 -46.3716 -46.3644 -46.3556 -46.3556
   -46.3524 -46.3523 -46.3474 -46.3427 -46.3395 -46.3394 -46.3380 -46.3379
   -46.3291 -46.3236 -46.3235 -46.3155 -46.2296 -46.2195 -46.2195 -46.2116
   -46.2022 -46.2022 -46.1984 -46.1984 -46.1925 -46.1872 -46.1841 -46.1841
   -46.1830 -46.1829 -46.1731 -46.1674 -46.1673 -46.1589 -46.1441 -46.1394
   -46.1394 -46.1366 -46.1308 -46.1307 -46.1305 -46.1305 -46.1301 -46.1271
   -46.1223 -46.1222 -46.1187 -46.1186 -46.1129 -46.1066 -46.1065 -46.0987
   -25.4299 -25.4285 -25.4176 -25.4109 -25.4109 -25.4095 -25.4089 -25.4089
   -25.4023 -25.4023 -25.3955 -25.3955 -25.3896 -25.3765 -25.3765 -25.3765
   -25.3756 -25.3500 -25.3500 -25.3398 -25.3398 -25.3274 -25.3235 -25.3127
   -25.3073 -25.3024 -25.3024 -25.2808 -25.2798 -25.2798 -25.2771 -25.2761
   -25.2761 -25.2746 -25.2746 -25.2728 -25.2693 -25.2693 -25.2569 -25.2568
   -25.2568 -25.2540 -25.2515 -25.2515 -25.2474 -25.2363 -25.2349 -25.2348
   -25.2181 -25.2181 -25.2160 -25.2030 -25.2029 -25.2003 -25.2003 -25.1901
   -25.1901 -25.1885 -25.1817 -25.1703 -25.1702 -25.1510 -25.1364 -25.1364
   -25.1350 -25.1294 -25.1294 -25.1226 -25.1164 -25.1164 -25.1148 -25.1148
   -25.0934 -25.0925 -25.0862 -25.0862 -25.0772 -25.0772 -25.0765 -25.0754
   -25.0754 -25.0512 -25.0512 -25.0492 -25.0492 -25.0422 -25.0406 -25.0380
   -25.0340 -25.0301 -25.0301 -25.0265 -25.0265 -25.0214 -25.0214 -25.0202
   -25.0185 -25.0176 -25.0176 -25.0135 -25.0068 -25.0068 -24.9932 -24.9932
   -24.9899 -24.9899 -24.9868 -24.9868 -24.9794 -24.9794 -24.9765 -24.9737
   -24.9635 -24.9634 -24.9565 -24.9515 -24.9515 -24.9500 -24.9414 -24.9392
   -24.9315 -24.9315 -24.9297 -24.9297 -24.9232 -24.9137 -24.8987 -24.8987
   -24.8985 -24.8968 -24.8968 -24.8846 -24.8846 -24.8802 -24.8758 -24.8758
   -24.8744 -24.8743 -24.8572 -24.8558 -24.8557 -24.8505 -24.8503 -24.8464
   -24.8464 -24.8393 -24.8393 -24.8348 -24.8264 -24.8264 -24.8172 -24.8172
   -24.8113 -24.8113 -24.8036 -24.8018 -24.8010 -24.7961 -24.7961 -24.7952
   -24.7944 -24.7944 -24.7940 -24.7939 -24.7827 -24.7764 -24.7764 -24.7732
   -24.7732 -24.7730 -24.7730 -24.7726 -24.7696 -24.7684 -24.7684 -24.7683
   -24.7682 -24.7655 -24.7584 -24.7584 -24.7566 -24.7551 -24.7467 -24.7467
   -24.7333 -24.7310 -24.7285 -24.7284 -24.7259 -24.7259 -24.7231 -24.7230
   -24.7221 -24.7220 -24.7216 -24.7201 -24.7159 -24.7158 -24.7078 -24.7065
   -24.7015 -24.7014 -24.6934 -24.6892 -24.6892 -24.6837 -24.6837 -24.6725
   -24.6697 -24.6671 -24.6671 -24.6655 -24.6654 -24.6496 -24.6471 -24.6452
   -11.8014 -11.5296 -11.5295 -11.2710 -11.2439 -11.1462 -11.1461 -11.0150
   -11.0149 -10.9271 -10.9261 -10.9116 -10.9115 -10.8883 -10.8882 -10.8597
   -10.8596 -10.8212 -10.8037 -10.7746 -10.7745 -10.7327 -10.7326 -10.7082
   -10.6898 -10.6884 -10.6860 -10.6859 -10.6417 -10.6416 -10.6168 -10.6168
   -10.6010 -10.5589 -10.5588 -10.5176 -10.5175 -10.4936 -10.4935 -10.4467
   -10.4448 -10.4209 -10.3926 -10.3868 -10.3534 -10.3534 -10.2913 -10.2905
   -10.2778 -10.2778 -10.2212 -10.2212 -10.2195 -10.2194 -10.1789 -10.1788
   -10.1723 -10.1723 -10.1508 -10.1021 -10.1021 -10.0620 -10.0620 -10.0543
   -10.0416 -10.0416  -9.9558  -9.9536  -9.9535  -9.9078  -9.8411  -9.8101
    -2.6145  -2.6049  -2.5730  -2.5480  -2.2365  -2.2365  -2.2111  -2.2110
    -2.1283  -2.1283  -2.0688  -2.0688  -1.9232  -1.8866  -1.8811  -1.8684
    -1.8484  -1.8441  -1.8441  -1.7818  -1.7818  -1.7221  -1.7141  -1.7089
    -1.7089  -1.5903  -1.5903  -1.5834  -1.5834  -1.5519  -1.5404  -1.5404
    -1.4953  -1.4953  -1.4633  -1.4633  -1.4432  -1.4432  -1.3722  -1.3670
    -1.3669  -1.3395  -1.3395  -1.3386  -1.2888  -1.2541  -1.2541  -1.1531
    -1.1531  -1.0694  -1.0690  -1.0327  -1.0327  -1.0206  -1.0206  -0.9772
    -0.9772  -0.9671  -0.9611  -0.9611  -0.7857  -0.7834  -0.7754  -0.7547
    -0.7547  -0.7200  -0.6630  -0.6515  -0.6475  -0.6246  -0.6246  -0.5985
    -0.5717  -0.5717  -0.5677  -0.5535  -0.5535  -0.5522  -0.5522  -0.5463
    -0.5383  -0.5383  -0.5229  -0.5102  -0.4883  -0.4830  -0.4505  -0.4505
    -0.4273  -0.4272  -0.4183  -0.4183  -0.4147  -0.4147  -0.3942  -0.3942
    -0.3866  -0.3866  -0.3803  -0.3803  -0.3456  -0.3456  -0.3163  -0.3163
    -0.3132  -0.3132  -0.2905  -0.2904  -0.2723  -0.2723  -0.2641  -0.2518
    -0.2356  -0.2302  -0.1938  -0.1817  -0.1764  -0.1746  -0.1746  -0.1668
    -0.1666  -0.1666  -0.1442  -0.1433  -0.1335  -0.1335  -0.1136  -0.0854
    -0.0844  -0.0830  -0.0830  -0.0291  -0.0291  -0.0071  -0.0070   0.0040
     0.0040   0.0305   0.0331   0.0336   0.0336   0.0657   0.0887   0.0901
     0.0901   0.0956   0.1231   0.1271   0.1272   0.1275   0.1300   0.1629
     0.1686   0.1686   0.1878   0.1878   0.1906   0.1906   0.2053   0.2053
     0.2268   0.2269   0.2436   0.2437   0.2584   0.2584   0.2856   0.2856
     0.3107   0.3107   0.3462   0.3462   0.3553   0.3553   0.3866   0.4821
     0.4821   0.4928   0.5293   0.5293   0.5361   0.5361   0.5425   0.5524
     0.5650   0.6461   0.6462   0.6497   0.6604   0.6652   0.6676   0.6676
     0.7076   0.7076   0.7105   0.7403   0.7403   0.8092   0.8092   0.8534
     0.8682   0.8732   0.8733   0.9277   0.9277   0.9812   0.9812   1.0249
     1.0469   1.1205   1.2969   1.2969   1.3747   1.5618   1.5933   1.7822
     2.6146   2.8575   2.8579   3.0416   3.0417   3.0954   3.4232   3.4232
     3.7121   3.7121   3.8040   3.8182   3.8182   3.9052   3.9217   3.9355
     3.9355   3.9424   4.1077   4.1077   4.1786   4.1786   4.1932   4.1932
     4.2477   4.2500   4.3417   4.3903   4.3966   4.4019   4.4019   4.4043
     4.4075   4.4075   4.4950   4.4950   4.5566   4.6556   4.6556   4.6608
     4.6609   4.6695   4.6815   4.6815   4.7257   4.7258   4.8272   4.8272
     4.8377   4.8377   4.8636   4.8636   4.8667   4.9322   4.9354   4.9447
     4.9451   4.9451   5.0339   5.0549   5.0673   5.0673   5.0935   5.0936
     5.1237   5.1339   5.1339   5.1350   5.1351   5.1500   5.1682   5.2224
     5.2472   5.3221   5.3221   5.3678   5.3678   5.4155   5.4155   5.4504
     5.4504   5.4861   5.4861   5.5090   5.5090   5.5215   5.5331   5.5331
     5.5761   5.5872   5.5872   5.5966   5.5966   5.6491   5.6491   5.6804
     5.6805   5.7106   5.7374   5.7410   5.7410   5.7588   5.7945   5.7945
     5.8203   5.8532   5.8577   5.8609   5.8796   5.8887   5.8889   5.9086
     5.9259   5.9388   5.9657

          k = 0.2500-0.5000 0.0000 (165780 PWs)   bands (ev):

   -46.5427 -46.5427 -46.5347 -46.5347 -46.5212 -46.5211 -46.5138 -46.5138
   -46.5132 -46.5132 -46.5127 -46.5127 -46.5061 -46.5061 -46.4936 -46.4936
   -46.4866 -46.4866 -46.3776 -46.3775 -46.3688 -46.3688 -46.3543 -46.3543
   -46.3467 -46.3466 -46.3458 -46.3458 -46.3449 -46.3449 -46.3385 -46.3385
   -46.3257 -46.3256 -46.3186 -46.3186 -46.2257 -46.2256 -46.2164 -46.2164
   -46.2007 -46.2007 -46.1924 -46.1924 -46.1911 -46.1911 -46.1896 -46.1896
   -46.1834 -46.1833 -46.1695 -46.1695 -46.1621 -46.1621 -46.1424 -46.1423
   -46.1384 -46.1383 -46.1307 -46.1306 -46.1290 -46.1288 -46.1269 -46.1267
   -46.1249 -46.1247 -46.1201 -46.1201 -46.1091 -46.1090 -46.1018 -46.1018
   -25.4328 -25.4328 -25.4141 -25.4141 -25.4090 -25.4090 -25.4087 -25.4087
   -25.4015 -25.4015 -25.3909 -25.3909 -25.3873 -25.3873 -25.3869 -25.3869
   -25.3614 -25.3614 -25.3355 -25.3355 -25.3272 -25.3272 -25.3150 -25.3150
   -25.3050 -25.3050 -25.2966 -25.2966 -25.2809 -25.2809 -25.2802 -25.2802
   -25.2742 -25.2741 -25.2706 -25.2706 -25.2678 -25.2677 -25.2575 -25.2575
   -25.2518 -25.2518 -25.2489 -25.2489 -25.2441 -25.2441 -25.2365 -25.2365
   -25.2301 -25.2301 -25.2179 -25.2179 -25.1998 -25.1998 -25.1928 -25.1928
   -25.1686 -25.1686 -25.1654 -25.1654 -25.1626 -25.1626 -25.1624 -25.1624
   -25.1456 -25.1456 -25.1222 -25.1222 -25.1013 -25.1013 -25.1003 -25.1003
   -25.0931 -25.0931 -25.0897 -25.0897 -25.0881 -25.0881 -25.0756 -25.0756
   -25.0605 -25.0605 -25.0557 -25.0556 -25.0490 -25.0490 -25.0479 -25.0479
   -25.0452 -25.0452 -25.0286 -25.0286 -25.0184 -25.0184 -25.0182 -25.0182
   -25.0099 -25.0099 -25.0013 -25.0013 -25.0012 -25.0012 -24.9984 -24.9983
   -24.9917 -24.9917 -24.9865 -24.9865 -24.9725 -24.9725 -24.9681 -24.9681
   -24.9677 -24.9677 -24.9665 -24.9665 -24.9513 -24.9512 -24.9484 -24.9484
   -24.9253 -24.9253 -24.9198 -24.9198 -24.9105 -24.9104 -24.9071 -24.9071
   -24.9008 -24.9008 -24.8986 -24.8985 -24.8782 -24.8782 -24.8747 -24.8747
   -24.8671 -24.8671 -24.8534 -24.8534 -24.8531 -24.8531 -24.8420 -24.8420
   -24.8350 -24.8350 -24.8346 -24.8345 -24.8325 -24.8325 -24.8297 -24.8297
   -24.8251 -24.8251 -24.8185 -24.8185 -24.8049 -24.8048 -24.7881 -24.7881
   -24.7848 -24.7848 -24.7840 -24.7840 -24.7835 -24.7835 -24.7785 -24.7785
   -24.7733 -24.7733 -24.7671 -24.7671 -24.7643 -24.7643 -24.7641 -24.7641
   -24.7615 -24.7615 -24.7601 -24.7601 -24.7527 -24.7526 -24.7503 -24.7503
   -24.7486 -24.7486 -24.7435 -24.7435 -24.7268 -24.7267 -24.7255 -24.7254
   -24.7128 -24.7127 -24.7076 -24.7076 -24.7047 -24.7047 -24.7036 -24.7035
   -24.6954 -24.6953 -24.6902 -24.6902 -24.6883 -24.6882 -24.6879 -24.6879
   -24.6873 -24.6873 -24.6538 -24.6538 -24.6536 -24.6536 -24.6513 -24.6513
   -11.6928 -11.6928 -11.4261 -11.4261 -11.1508 -11.1508 -11.0516 -11.0516
   -10.9890 -10.9890 -10.9284 -10.9284 -10.8939 -10.8939 -10.8622 -10.8622
   -10.8055 -10.8055 -10.7885 -10.7885 -10.7698 -10.7698 -10.7382 -10.7382
   -10.7348 -10.7348 -10.6598 -10.6598 -10.6532 -10.6532 -10.6211 -10.6211
   -10.5873 -10.5872 -10.5371 -10.5371 -10.5041 -10.5041 -10.4927 -10.4927
   -10.4108 -10.4108 -10.3862 -10.3862 -10.3386 -10.3386 -10.2793 -10.2793
   -10.2614 -10.2614 -10.2425 -10.2425 -10.2229 -10.2229 -10.1537 -10.1537
   -10.1471 -10.1471 -10.1335 -10.1335 -10.1255 -10.1255 -10.0905 -10.0905
   -10.0396 -10.0395  -9.9693  -9.9693  -9.9012  -9.9012  -9.7983  -9.7983
    -2.6571  -2.6571  -2.6421  -2.6421  -2.2439  -2.2439  -2.2053  -2.2053
    -2.0079  -2.0079  -1.9652  -1.9652  -1.9583  -1.9583  -1.8829  -1.8829
    -1.8627  -1.8627  -1.8235  -1.8235  -1.7912  -1.7912  -1.7477  -1.7477
    -1.6722  -1.6722  -1.6358  -1.6358  -1.5522  -1.5522  -1.5344  -1.5344
    -1.4688  -1.4687  -1.4414  -1.4413  -1.4028  -1.4028  -1.3060  -1.3060
    -1.2890  -1.2890  -1.2677  -1.2676  -1.2265  -1.2265  -1.1906  -1.1906
    -1.1788  -1.1788  -1.1155  -1.1155  -1.1131  -1.1131  -1.0372  -1.0372
    -1.0293  -1.0293  -0.9597  -0.9597  -0.9218  -0.9218  -0.8387  -0.8387
    -0.6546  -0.6545  -0.6398  -0.6398  -0.6098  -0.6098  -0.5985  -0.5985
    -0.5398  -0.5398  -0.5313  -0.5313  -0.5281  -0.5281  -0.5246  -0.5246
    -0.5178  -0.5177  -0.5108  -0.5108  -0.5036  -0.5036  -0.4941  -0.4940
    -0.4699  -0.4699  -0.4632  -0.4632  -0.4492  -0.4492  -0.4332  -0.4331
    -0.3952  -0.3952  -0.3745  -0.3745  -0.3606  -0.3605  -0.3530  -0.3530
    -0.3460  -0.3459  -0.3292  -0.3292  -0.3101  -0.3100  -0.2644  -0.2644
    -0.2439  -0.2439  -0.2169  -0.2169  -0.1857  -0.1857  -0.1520  -0.1520
    -0.1383  -0.1383  -0.1335  -0.1335  -0.1202  -0.1202  -0.0570  -0.0570
    -0.0029  -0.0029  -0.0015  -0.0014   0.0109   0.0109   0.0132   0.0132
     0.0496   0.0496   0.0825   0.0825   0.0999   0.0999   0.1143   0.1143
     0.1186   0.1187   0.1260   0.1260   0.1471   0.1471   0.1688   0.1688
     0.1889   0.1889   0.1921   0.1922   0.2056   0.2056   0.2128   0.2128
     0.3076   0.3076   0.3165   0.3166   0.3262   0.3262   0.3504   0.3504
     0.3557   0.3557   0.3824   0.3825   0.4676   0.4677   0.5143   0.5143
     0.5294   0.5294   0.5296   0.5296   0.5475   0.5475   0.5530   0.5530
     0.6004   0.6004   0.6152   0.6152   0.6315   0.6315   0.6462   0.6463
     0.6824   0.6825   0.6964   0.6964   0.7695   0.7695   0.7961   0.7961
     0.8117   0.8117   0.8327   0.8327   0.9645   0.9645   1.0045   1.0045
     1.0349   1.0349   1.0944   1.0944   1.2872   1.2872   1.5351   1.5352
     2.9243   2.9243   3.0966   3.0967   3.2743   3.2743   3.4109   3.4110
     3.5337   3.5337   3.6710   3.6711   3.7344   3.7344   3.8435   3.8436
     3.9404   3.9404   4.0355   4.0355   4.1669   4.1669   4.1687   4.1687
     4.2655   4.2655   4.3056   4.3056   4.3070   4.3070   4.3471   4.3471
     4.4124   4.4124   4.4482   4.4483   4.4758   4.4758   4.6179   4.6179
     4.6978   4.6979   4.7213   4.7213   4.7387   4.7388   4.7798   4.7799
     4.8106   4.8107   4.8348   4.8348   4.8628   4.8628   4.9445   4.9445
     4.9699   4.9699   5.0242   5.0243   5.0894   5.0895   5.1201   5.1201
     5.1752   5.1752   5.1790   5.1790   5.2249   5.2249   5.2764   5.2765
     5.2782   5.2782   5.3139   5.3140   5.3974   5.3975   5.3982   5.3982
     5.4643   5.4643   5.4795   5.4796   5.4836   5.4837   5.5197   5.5198
     5.6066   5.6067   5.6397   5.6398   5.6499   5.6500   5.7333   5.7334
     5.8034   5.8034   5.8058   5.8058   5.8402   5.8403   5.8524   5.8525
     5.8714   5.8714   5.8969   5.8969   5.9115   5.9116   5.9284   5.9285
     5.9635   5.9635   5.9803

          k =-0.5000-0.5000 0.0000 (165708 PWs)   bands (ev):

   -46.5396 -46.5396 -46.5396 -46.5396 -46.5136 -46.5136 -46.5136 -46.5136
   -46.5136 -46.5136 -46.5135 -46.5135 -46.5126 -46.5126 -46.4893 -46.4893
   -46.4893 -46.4893 -46.3742 -46.3741 -46.3741 -46.3741 -46.3464 -46.3463
   -46.3463 -46.3463 -46.3463 -46.3462 -46.3462 -46.3462 -46.3448 -46.3447
   -46.3214 -46.3213 -46.3213 -46.3212 -46.2221 -46.2221 -46.2221 -46.2220
   -46.1919 -46.1919 -46.1919 -46.1919 -46.1919 -46.1919 -46.1918 -46.1918
   -46.1894 -46.1894 -46.1649 -46.1649 -46.1649 -46.1649 -46.1409 -46.1409
   -46.1408 -46.1408 -46.1293 -46.1292 -46.1258 -46.1257 -46.1257 -46.1257
   -46.1256 -46.1256 -46.1255 -46.1255 -46.1047 -46.1047 -46.1047 -46.1046
   -25.4366 -25.4366 -25.4119 -25.4119 -25.4119 -25.4119 -25.3995 -25.3995
   -25.3958 -25.3957 -25.3957 -25.3957 -25.3957 -25.3957 -25.3957 -25.3957
   -25.3467 -25.3467 -25.3467 -25.3467 -25.3206 -25.3206 -25.2968 -25.2968
   -25.2968 -25.2968 -25.2799 -25.2799 -25.2799 -25.2799 -25.2799 -25.2799
   -25.2799 -25.2799 -25.2728 -25.2728 -25.2728 -25.2727 -25.2587 -25.2587
   -25.2587 -25.2587 -25.2586 -25.2586 -25.2586 -25.2586 -25.2561 -25.2561
   -25.2178 -25.2178 -25.2178 -25.2178 -25.1989 -25.1989 -25.1989 -25.1989
   -25.1578 -25.1578 -25.1578 -25.1577 -25.1475 -25.1474 -25.1474 -25.1474
   -25.1474 -25.1474 -25.1474 -25.1474 -25.1189 -25.1189 -25.1189 -25.1189
   -25.0917 -25.0917 -25.0787 -25.0787 -25.0787 -25.0786 -25.0552 -25.0552
   -25.0552 -25.0552 -25.0552 -25.0552 -25.0552 -25.0552 -25.0498 -25.0498
   -25.0498 -25.0498 -25.0197 -25.0197 -25.0121 -25.0121 -25.0121 -25.0121
   -25.0113 -25.0113 -25.0113 -25.0113 -25.0113 -25.0113 -25.0113 -25.0113
   -24.9758 -24.9758 -24.9758 -24.9757 -24.9750 -24.9750 -24.9750 -24.9750
   -24.9750 -24.9750 -24.9749 -24.9749 -24.9654 -24.9654 -24.9653 -24.9653
   -24.9191 -24.9191 -24.8943 -24.8943 -24.8943 -24.8942 -24.8921 -24.8921
   -24.8921 -24.8921 -24.8766 -24.8766 -24.8766 -24.8766 -24.8758 -24.8758
   -24.8757 -24.8757 -24.8757 -24.8757 -24.8757 -24.8757 -24.8504 -24.8504
   -24.8504 -24.8503 -24.8212 -24.8211 -24.8211 -24.8211 -24.8208 -24.8208
   -24.8207 -24.8207 -24.8095 -24.8095 -24.8095 -24.8095 -24.8094 -24.8094
   -24.8094 -24.8094 -24.7790 -24.7790 -24.7790 -24.7789 -24.7787 -24.7787
   -24.7735 -24.7735 -24.7735 -24.7735 -24.7735 -24.7735 -24.7735 -24.7735
   -24.7600 -24.7600 -24.7462 -24.7462 -24.7462 -24.7462 -24.7299 -24.7299
   -24.7298 -24.7298 -24.7281 -24.7280 -24.7179 -24.7179 -24.7178 -24.7178
   -24.7178 -24.7178 -24.7178 -24.7178 -24.7071 -24.7071 -24.7071 -24.7071
   -24.7071 -24.7070 -24.7070 -24.7070 -24.7010 -24.7010 -24.6907 -24.6907
   -24.6906 -24.6906 -24.6487 -24.6487 -24.6473 -24.6473 -24.6473 -24.6472
   -11.5862 -11.5862 -11.5862 -11.5862 -11.0603 -11.0602 -11.0602 -11.0602
   -10.9002 -10.9002 -10.9001 -10.9001 -10.9001 -10.9001 -10.9001 -10.9001
   -10.8276 -10.8275 -10.8275 -10.8275 -10.8264 -10.8263 -10.8263 -10.8262
   -10.6565 -10.6565 -10.6565 -10.6565 -10.5895 -10.5895 -10.5895 -10.5894
   -10.5894 -10.5894 -10.5894 -10.5894 -10.5357 -10.5356 -10.5356 -10.5356
   -10.4086 -10.4086 -10.4065 -10.4065 -10.2879 -10.2879 -10.2879 -10.2879
   -10.1920 -10.1920 -10.1920 -10.1920 -10.1910 -10.1910 -10.1909 -10.1909
   -10.1909 -10.1909 -10.1909 -10.1909 -10.0651 -10.0651 -10.0651 -10.0651
   -10.0650 -10.0650 -10.0650 -10.0650  -9.8695  -9.8695  -9.7716  -9.7716
    -2.7191  -2.7190  -2.7090  -2.7090  -2.0178  -2.0178  -2.0012  -2.0012
    -2.0012  -2.0012  -2.0012  -2.0012  -2.0012  -2.0012  -1.9438  -1.9438
    -1.9438  -1.9438  -1.9437  -1.9437  -1.9437  -1.9437  -1.9407  -1.9407
    -1.4532  -1.4531  -1.4531  -1.4531  -1.4106  -1.4105  -1.4105  -1.4105
    -1.4091  -1.4090  -1.4090  -1.4090  -1.3594  -1.3594  -1.3594  -1.3594
    -1.3594  -1.3594  -1.3594  -1.3594  -1.1994  -1.1994  -1.1994  -1.1994
    -1.1994  -1.1994  -1.1994  -1.1994  -1.1258  -1.1258  -1.1258  -1.1258
    -1.0421  -1.0421  -1.0421  -1.0421  -1.0132  -1.0132  -1.0132  -1.0131
    -0.6772  -0.6771  -0.6712  -0.6712  -0.5953  -0.5952  -0.5676  -0.5675
    -0.5397  -0.5397  -0.5397  -0.5397  -0.5397  -0.5396  -0.5396  -0.5396
    -0.4664  -0.4664  -0.4664  -0.4664  -0.4664  -0.4664  -0.4664  -0.4663
    -0.3899  -0.3899  -0.3899  -0.3899  -0.3899  -0.3898  -0.3898  -0.3898
    -0.3802  -0.3802  -0.3802  -0.3802  -0.3699  -0.3699  -0.3699  -0.3699
    -0.3374  -0.3374  -0.3374  -0.3374  -0.2950  -0.2950  -0.2950  -0.2949
    -0.2949  -0.2949  -0.2949  -0.2949  -0.2793  -0.2793  -0.1842  -0.1842
    -0.1509  -0.1509  -0.1509  -0.1509  -0.1487  -0.1487  -0.0298  -0.0298
     0.0349   0.0349   0.0349   0.0349   0.0526   0.0526   0.0526   0.0526
     0.0732   0.0732   0.0732   0.0732   0.0732   0.0732   0.0732   0.0732
     0.1792   0.1792   0.1792   0.1792   0.1792   0.1792   0.1793   0.1793
     0.3024   0.3024   0.3024   0.3024   0.3328   0.3328   0.3329   0.3329
     0.3539   0.3539   0.3539   0.3539   0.4014   0.4014   0.4015   0.4015
     0.4784   0.4784   0.4784   0.4784   0.4956   0.4957   0.4957   0.4957
     0.4957   0.4957   0.4957   0.4958   0.5205   0.5205   0.5205   0.5205
     0.5205   0.5206   0.5206   0.5206   0.6183   0.6183   0.6183   0.6183
     0.7251   0.7251   0.7251   0.7252   0.7255   0.7255   0.7256   0.7256
     0.8222   0.8223   0.8223   0.8223   0.8543   0.8543   0.8543   0.8544
     1.0738   1.0738   1.0738   1.0738   1.2296   1.2296   1.2297   1.2297
     3.3168   3.3168   3.3168   3.3168   3.3223   3.3223   3.3223   3.3223
     3.4279   3.4279   3.4279   3.4279   3.8327   3.8327   3.8327   3.8328
     3.9476   3.9476   3.9476   3.9476   3.9476   3.9476   3.9477   3.9477
     4.1222   4.1222   4.1222   4.1222   4.3988   4.3988   4.3988   4.3989
     4.4299   4.4299   4.4299   4.4299   4.5214   4.5214   4.5214   4.5214
     4.5296   4.5296   4.5296   4.5296   4.8514   4.8514   4.8514   4.8514
     4.8514   4.8514   4.8515   4.8515   4.9153   4.9154   4.9154   4.9154
     4.9705   4.9705   4.9705   4.9705   5.1765   5.1765   5.1765   5.1765
     5.2156   5.2156   5.2156   5.2156   5.2156   5.2156   5.2156   5.2157
     5.2275   5.2275   5.3639   5.3639   5.4746   5.4746   5.4747   5.4747
     5.4748   5.4748   5.4748   5.4749   5.5510   5.5510   5.5510   5.5511
     5.7531   5.7531   5.7531   5.7531   5.7838   5.7838   5.7838   5.7839
     5.8144   5.8147   5.8147   5.8149   5.8150   5.8150   5.8151   5.8151
     5.9507   5.9508   5.9508   5.9509   5.9511   5.9512   5.9513   5.9514
     5.9592   5.9640   6.0713

          k = 0.2500 0.0000 0.0000 (165664 PWs)   bands (ev):

   -46.5473 -46.5381 -46.5303 -46.5303 -46.5254 -46.5254 -46.5226 -46.5173
   -46.5173 -46.5087 -46.5087 -46.5053 -46.5017 -46.5017 -46.4979 -46.4979
   -46.4907 -46.4825 -46.3825 -46.3726 -46.3642 -46.3641 -46.3588 -46.3587
   -46.3560 -46.3500 -46.3499 -46.3409 -46.3408 -46.3378 -46.3338 -46.3338
   -46.3301 -46.3301 -46.3228 -46.3145 -46.2309 -46.2205 -46.2115 -46.2114
   -46.2054 -46.2054 -46.2027 -46.1955 -46.1955 -46.1854 -46.1853 -46.1828
   -46.1780 -46.1780 -46.1744 -46.1744 -46.1666 -46.1578 -46.1447 -46.1398
   -46.1355 -46.1354 -46.1341 -46.1340 -46.1307 -46.1306 -46.1304 -46.1248
   -46.1247 -46.1181 -46.1175 -46.1174 -46.1124 -46.1123 -46.1057 -46.0976
   -25.4215 -25.4215 -25.4189 -25.4175 -25.4175 -25.4105 -25.4105 -25.4090
   -25.4027 -25.4027 -25.3935 -25.3912 -25.3912 -25.3727 -25.3719 -25.3719
   -25.3641 -25.3641 -25.3457 -25.3450 -25.3450 -25.3395 -25.3395 -25.3186
   -25.2999 -25.2999 -25.2930 -25.2930 -25.2781 -25.2778 -25.2777 -25.2723
   -25.2723 -25.2720 -25.2713 -25.2688 -25.2634 -25.2634 -25.2631 -25.2631
   -25.2599 -25.2599 -25.2533 -25.2440 -25.2383 -25.2334 -25.2319 -25.2318
   -25.2312 -25.2311 -25.2096 -25.2096 -25.2093 -25.2013 -25.2012 -25.2012
   -25.1729 -25.1668 -25.1665 -25.1665 -25.1556 -25.1556 -25.1542 -25.1493
   -25.1360 -25.1360 -25.1356 -25.1262 -25.1262 -25.1098 -25.1098 -25.1089
   -25.0991 -25.0909 -25.0909 -25.0900 -25.0890 -25.0806 -25.0567 -25.0567
   -25.0482 -25.0480 -25.0480 -25.0460 -25.0460 -25.0436 -25.0409 -25.0409
   -25.0387 -25.0360 -25.0302 -25.0302 -25.0283 -25.0238 -25.0203 -25.0202
   -25.0166 -25.0153 -25.0153 -25.0140 -25.0140 -25.0098 -25.0046 -25.0046
   -24.9948 -24.9948 -24.9936 -24.9856 -24.9837 -24.9702 -24.9702 -24.9684
   -24.9629 -24.9629 -24.9571 -24.9546 -24.9546 -24.9445 -24.9445 -24.9333
   -24.9333 -24.9329 -24.9282 -24.9274 -24.9274 -24.9062 -24.9019 -24.9019
   -24.8981 -24.8963 -24.8908 -24.8908 -24.8862 -24.8844 -24.8821 -24.8821
   -24.8752 -24.8663 -24.8620 -24.8597 -24.8597 -24.8586 -24.8540 -24.8453
   -24.8416 -24.8348 -24.8215 -24.8215 -24.8208 -24.8207 -24.8185 -24.8185
   -24.8136 -24.8067 -24.8029 -24.8029 -24.8011 -24.7996 -24.7995 -24.7995
   -24.7919 -24.7919 -24.7900 -24.7900 -24.7841 -24.7840 -24.7802 -24.7778
   -24.7778 -24.7757 -24.7757 -24.7730 -24.7716 -24.7716 -24.7695 -24.7631
   -24.7581 -24.7581 -24.7480 -24.7480 -24.7456 -24.7455 -24.7446 -24.7446
   -24.7443 -24.7443 -24.7420 -24.7396 -24.7346 -24.7346 -24.7306 -24.7305
   -24.7222 -24.7220 -24.7220 -24.7128 -24.7091 -24.7090 -24.7055 -24.6963
   -24.6962 -24.6935 -24.6935 -24.6907 -24.6907 -24.6877 -24.6859 -24.6809
   -24.6809 -24.6795 -24.6575 -24.6547 -24.6512 -24.6512 -24.6500 -24.6500
   -11.8394 -11.5658 -11.3369 -11.3369 -11.2768 -11.1794 -11.0891 -11.0891
   -11.0458 -10.9501 -10.9396 -10.9177 -10.8853 -10.8640 -10.8640 -10.8507
   -10.8495 -10.8495 -10.7900 -10.7590 -10.7509 -10.7509 -10.7390 -10.6906
   -10.6906 -10.6689 -10.6689 -10.6641 -10.6641 -10.6620 -10.6450 -10.5882
   -10.5882 -10.5555 -10.5554 -10.5230 -10.4798 -10.4798 -10.4605 -10.4605
   -10.4587 -10.4587 -10.4049 -10.3798 -10.3503 -10.3503 -10.3095 -10.2981
   -10.2906 -10.2906 -10.2478 -10.2432 -10.2297 -10.2297 -10.1985 -10.1575
   -10.1575 -10.1249 -10.1236 -10.1235 -10.0879 -10.0879 -10.0552 -10.0552
    -9.9886  -9.9885  -9.9698  -9.9698  -9.9300  -9.9299  -9.8684  -9.8683
    -2.4606  -2.4606  -2.4464  -2.4464  -2.3805  -2.3805  -2.3424  -2.3424
    -2.1057  -2.1056  -2.0897  -2.0896  -1.9284  -1.9284  -1.8317  -1.8317
    -1.7866  -1.7798  -1.7798  -1.7438  -1.7438  -1.7145  -1.7087  -1.7087
    -1.6705  -1.6705  -1.6559  -1.6559  -1.6471  -1.5682  -1.5682  -1.5065
    -1.5055  -1.5055  -1.5015  -1.4868  -1.4868  -1.4361  -1.4141  -1.4141
    -1.3725  -1.3627  -1.3537  -1.3537  -1.3005  -1.2399  -1.2399  -1.1039
    -1.0989  -1.0989  -1.0589  -0.9926  -0.9740  -0.9658  -0.9658  -0.9481
    -0.9450  -0.9450  -0.9416  -0.9240  -0.7814  -0.7736  -0.6861  -0.6808
    -0.6808  -0.6699  -0.6698  -0.6315  -0.6146  -0.6146  -0.6002  -0.6001
    -0.5758  -0.5663  -0.5419  -0.5419  -0.5199  -0.5199  -0.5176  -0.5176
    -0.5133  -0.5133  -0.4989  -0.4989  -0.4983  -0.4983  -0.4763  -0.4762
    -0.4709  -0.4709  -0.4576  -0.4576  -0.4506  -0.4391  -0.4391  -0.4306
    -0.4306  -0.4190  -0.3560  -0.3559  -0.3421  -0.3333  -0.3331  -0.3331
    -0.3272  -0.3154  -0.2930  -0.2930  -0.2883  -0.2689  -0.2247  -0.2247
    -0.1963  -0.1962  -0.1899  -0.1898  -0.1654  -0.1653  -0.1588  -0.1570
    -0.1570  -0.1223  -0.1163  -0.1163  -0.1142  -0.0966  -0.0929  -0.0929
    -0.0775  -0.0775  -0.0742  -0.0742  -0.0701  -0.0701  -0.0512  -0.0512
    -0.0409   0.0000   0.0000   0.0122   0.0122   0.0247   0.0251   0.0251
     0.0534   0.0534   0.0782   0.0888   0.0889   0.0959   0.0994   0.1089
     0.1191   0.1191   0.1275   0.1318   0.1358   0.1358   0.1594   0.1594
     0.1764   0.1764   0.1869   0.1869   0.2381   0.2497   0.2497   0.2657
     0.2675   0.3078   0.3078   0.3113   0.3508   0.3508   0.3708   0.3708
     0.4329   0.4335   0.4335   0.4466   0.4466   0.5474   0.5608   0.5803
     0.6561   0.6625   0.6625   0.6746   0.7040   0.7040   0.7189   0.7244
     0.7390   0.7390   0.7533   0.7534   0.7919   0.7961   0.8258   0.8513
     0.8547   0.8920   0.9538   1.0448   1.0576   1.0671   1.0711   1.0754
     1.0906   1.0906   1.2011   1.4479   1.5843   1.6229   1.7818   1.9196
     2.4201   2.6907   2.8367   2.9020   2.9249   3.2098   3.2098   3.3110
     3.6456   3.6677   3.8163   3.8531   3.9117   4.0280   4.0281   4.0543
     4.1675   4.1675   4.1716   4.1738   4.2297   4.2811   4.3346   4.3706
     4.3707   4.4018   4.4153   4.4153   4.4218   4.4424   4.4424   4.4435
     4.4436   4.5266   4.5266   4.5757   4.5776   4.5777   4.6445   4.6657
     4.6658   4.6711   4.6835   4.6863   4.6864   4.7289   4.7289   4.7971
     4.8172   4.8281   4.8281   4.8457   4.8457   4.8709   4.8709   4.8891
     4.9441   4.9670   4.9670   5.0159   5.0436   5.0436   5.0628   5.0779
     5.0787   5.0787   5.1133   5.1510   5.1510   5.1961   5.2225   5.2226
     5.2334   5.2334   5.2408   5.2409   5.3081   5.3081   5.3396   5.3396
     5.4171   5.4779   5.4832   5.5525   5.5697   5.5697   5.5743   5.5743
     5.5937   5.6223   5.6224   5.6358   5.6358   5.7166   5.7215   5.7215
     5.7281   5.7283   5.7294   5.7424   5.7727   5.7886   5.7892   5.8061
     5.8386   5.8406   5.8406   5.8408   5.8468   5.8468   5.8948   5.8949
     5.9310   5.9312   5.9432

          k =-0.5000 0.0000 0.0000 (165810 PWs)   bands (ev):

   -46.5438 -46.5437 -46.5284 -46.5284 -46.5284 -46.5284 -46.5139 -46.5139
   -46.5129 -46.5129 -46.5129 -46.5129 -46.4993 -46.4993 -46.4993 -46.4993
   -46.4857 -46.4857 -46.3787 -46.3787 -46.3621 -46.3620 -46.3620 -46.3620
   -46.3468 -46.3468 -46.3453 -46.3453 -46.3452 -46.3452 -46.3316 -46.3315
   -46.3315 -46.3315 -46.3177 -46.3177 -46.2269 -46.2269 -46.2091 -46.2091
   -46.2091 -46.2091 -46.1926 -46.1926 -46.1903 -46.1903 -46.1902 -46.1902
   -46.1758 -46.1758 -46.1757 -46.1757 -46.1612 -46.1612 -46.1429 -46.1428
   -46.1350 -46.1349 -46.1349 -46.1349 -46.1281 -46.1280 -46.1280 -46.1279
   -46.1246 -46.1244 -46.1145 -46.1144 -46.1144 -46.1144 -46.1008 -46.1008
   -25.4224 -25.4224 -25.4224 -25.4224 -25.4149 -25.4149 -25.4056 -25.4056
   -25.4056 -25.4056 -25.3839 -25.3839 -25.3756 -25.3756 -25.3756 -25.3756
   -25.3660 -25.3660 -25.3660 -25.3660 -25.3314 -25.3314 -25.3051 -25.3051
   -25.3051 -25.3051 -25.3001 -25.3001 -25.3001 -25.3001 -25.2746 -25.2746
   -25.2682 -25.2682 -25.2682 -25.2681 -25.2589 -25.2589 -25.2571 -25.2571
   -25.2503 -25.2503 -25.2503 -25.2503 -25.2458 -25.2458 -25.2276 -25.2275
   -25.2275 -25.2275 -25.2088 -25.2088 -25.2088 -25.2088 -25.1921 -25.1921
   -25.1794 -25.1794 -25.1683 -25.1683 -25.1682 -25.1682 -25.1337 -25.1337
   -25.1298 -25.1298 -25.1298 -25.1298 -25.1284 -25.1284 -25.1173 -25.1173
   -25.0880 -25.0880 -25.0880 -25.0880 -25.0772 -25.0772 -25.0772 -25.0772
   -25.0677 -25.0677 -25.0518 -25.0518 -25.0432 -25.0431 -25.0403 -25.0403
   -25.0403 -25.0403 -25.0275 -25.0275 -25.0275 -25.0275 -25.0150 -25.0150
   -25.0145 -25.0145 -25.0144 -25.0144 -25.0004 -25.0003 -24.9979 -24.9979
   -24.9862 -24.9862 -24.9862 -24.9862 -24.9701 -24.9701 -24.9674 -24.9674
   -24.9546 -24.9546 -24.9546 -24.9546 -24.9433 -24.9433 -24.9433 -24.9433
   -24.9310 -24.9310 -24.9310 -24.9310 -24.9225 -24.9224 -24.9224 -24.9224
   -24.9038 -24.9038 -24.8976 -24.8976 -24.8887 -24.8887 -24.8727 -24.8726
   -24.8611 -24.8611 -24.8588 -24.8587 -24.8587 -24.8587 -24.8488 -24.8488
   -24.8367 -24.8367 -24.8318 -24.8318 -24.8318 -24.8318 -24.8105 -24.8105
   -24.8017 -24.8017 -24.8016 -24.8016 -24.8002 -24.8001 -24.8001 -24.8001
   -24.7912 -24.7912 -24.7820 -24.7820 -24.7820 -24.7820 -24.7773 -24.7772
   -24.7713 -24.7713 -24.7712 -24.7712 -24.7705 -24.7704 -24.7644 -24.7644
   -24.7644 -24.7644 -24.7618 -24.7618 -24.7618 -24.7618 -24.7568 -24.7568
   -24.7456 -24.7455 -24.7455 -24.7455 -24.7333 -24.7333 -24.7333 -24.7333
   -24.7170 -24.7169 -24.7169 -24.7169 -24.7023 -24.7022 -24.6967 -24.6967
   -24.6884 -24.6883 -24.6883 -24.6883 -24.6742 -24.6742 -24.6679 -24.6679
   -24.6679 -24.6679 -24.6668 -24.6668 -24.6653 -24.6653 -24.6653 -24.6653
   -11.7301 -11.7301 -11.2375 -11.2375 -11.2374 -11.2374 -11.1830 -11.1830
   -11.0204 -11.0204 -10.9182 -10.9182 -10.8762 -10.8761 -10.7834 -10.7834
   -10.7834 -10.7833 -10.7730 -10.7729 -10.7729 -10.7729 -10.7672 -10.7672
   -10.6765 -10.6765 -10.6514 -10.6514 -10.6444 -10.6444 -10.6444 -10.6444
   -10.6235 -10.6235 -10.6235 -10.6235 -10.4259 -10.4259 -10.4259 -10.4259
   -10.4027 -10.4027 -10.4027 -10.4027 -10.3575 -10.3575 -10.2866 -10.2866
   -10.2714 -10.2713 -10.2713 -10.2713 -10.2612 -10.2612 -10.1695 -10.1695
   -10.1695 -10.1695 -10.1582 -10.1582 -10.0662 -10.0662 -10.0662 -10.0661
    -9.9841  -9.9841  -9.9841  -9.9841  -9.8712  -9.8712  -9.8711  -9.8711
    -2.4841  -2.4841  -2.4841  -2.4841  -2.4594  -2.4594  -2.4594  -2.4594
    -1.8900  -1.8900  -1.8900  -1.8899  -1.8503  -1.8503  -1.8503  -1.8503
    -1.7806  -1.7806  -1.7805  -1.7805  -1.7589  -1.7589  -1.7080  -1.7080
    -1.7080  -1.7080  -1.6809  -1.6808  -1.6808  -1.6808  -1.6753  -1.6752
    -1.5526  -1.5526  -1.5526  -1.5526  -1.3875  -1.3875  -1.3619  -1.3619
    -1.3619  -1.3618  -1.2612  -1.2612  -1.2378  -1.2377  -1.1779  -1.1779
    -1.1779  -1.1779  -1.0718  -1.0718  -0.9998  -0.9998  -0.9575  -0.9574
    -0.7981  -0.7981  -0.7981  -0.7981  -0.7668  -0.7668  -0.7668  -0.7667
    -0.7270  -0.7270  -0.6380  -0.6380  -0.6336  -0.6336  -0.6258  -0.6257
    -0.6257  -0.6257  -0.6126  -0.6125  -0.5908  -0.5908  -0.5907  -0.5907
    -0.5267  -0.5267  -0.5266  -0.5266  -0.5196  -0.5196  -0.5196  -0.5196
    -0.4800  -0.4800  -0.4800  -0.4800  -0.4372  -0.4372  -0.4372  -0.4372
    -0.3935  -0.3935  -0.3306  -0.3306  -0.3306  -0.3306  -0.3261  -0.3261
    -0.2959  -0.2959  -0.2959  -0.2958  -0.2823  -0.2822  -0.2466  -0.2465
    -0.2465  -0.2465  -0.2101  -0.2101  -0.2101  -0.2100  -0.1799  -0.1799
    -0.1401  -0.1401  -0.1401  -0.1401  -0.0835  -0.0835  -0.0835  -0.0835
    -0.0794  -0.0794  -0.0747  -0.0747  -0.0747  -0.0747  -0.0111  -0.0111
    -0.0111  -0.0111   0.0579   0.0579   0.0579   0.0580   0.0949   0.0949
     0.0955   0.0956   0.0956   0.0956   0.1153   0.1153   0.1153   0.1154
     0.1292   0.1292   0.1296   0.1296   0.1296   0.1296   0.1451   0.1451
     0.2511   0.2511   0.2511   0.2511   0.3230   0.3230   0.3913   0.3914
     0.4563   0.4564   0.4659   0.4659   0.4659   0.4659   0.4956   0.4956
     0.5116   0.5116   0.5116   0.5116   0.5770   0.5770   0.5771   0.5771
     0.6105   0.6105   0.6105   0.6105   0.6294   0.6294   0.6750   0.6750
     0.6939   0.6940   0.7612   0.7612   0.7618   0.7618   0.7618   0.7619
     0.7914   0.7914   0.8311   0.8311   0.9319   0.9320   1.0956   1.0956
     1.1422   1.1422   1.2116   1.2117   1.3412   1.3412   1.6907   1.6908
     2.7701   2.7702   2.9903   2.9903   3.2621   3.2622   3.4406   3.4406
     3.5512   3.5513   3.5513   3.5513   3.5727   3.5728   4.0078   4.0078
     4.0905   4.0905   4.2342   4.2342   4.3291   4.3292   4.3292   4.3292
     4.3788   4.3788   4.3788   4.3788   4.4521   4.4522   4.4600   4.4600
     4.5180   4.5180   4.5180   4.5180   4.5714   4.5714   4.5714   4.5715
     4.6381   4.6382   4.6623   4.6623   4.7827   4.7828   4.7828   4.7828
     4.7832   4.7833   4.7833   4.7833   4.8377   4.8378   4.8708   4.8708
     4.8708   4.8708   4.9205   4.9205   5.0014   5.0015   5.0015   5.0015
     5.1239   5.1239   5.1239   5.1240   5.2009   5.2009   5.2450   5.2451
     5.2451   5.2452   5.3327   5.3328   5.3328   5.3328   5.3462   5.3463
     5.3717   5.3718   5.4766   5.4767   5.4767   5.4767   5.6315   5.6315
     5.7062   5.7062   5.7062   5.7063   5.7143   5.7147   5.7193   5.7193
     5.7194   5.7194   5.8279   5.8280   5.8280   5.8280   5.8395   5.8405
     5.8781   5.8781   5.8849   5.8849   5.8850   5.8850   5.8904   5.8904
     5.9153   5.9185   5.9828

          k =-0.5000 0.2500 0.0000 (165780 PWs)   bands (ev):

   -46.5427 -46.5427 -46.5347 -46.5347 -46.5212 -46.5211 -46.5138 -46.5138
   -46.5132 -46.5132 -46.5127 -46.5127 -46.5061 -46.5061 -46.4936 -46.4936
   -46.4866 -46.4866 -46.3775 -46.3775 -46.3688 -46.3688 -46.3543 -46.3543
   -46.3467 -46.3466 -46.3458 -46.3458 -46.3449 -46.3449 -46.3385 -46.3385
   -46.3257 -46.3256 -46.3186 -46.3186 -46.2257 -46.2256 -46.2164 -46.2164
   -46.2007 -46.2007 -46.1924 -46.1924 -46.1911 -46.1911 -46.1896 -46.1896
   -46.1834 -46.1833 -46.1695 -46.1695 -46.1621 -46.1621 -46.1424 -46.1423
   -46.1384 -46.1383 -46.1307 -46.1306 -46.1290 -46.1288 -46.1269 -46.1267
   -46.1249 -46.1247 -46.1201 -46.1201 -46.1091 -46.1091 -46.1018 -46.1018
   -25.4328 -25.4328 -25.4141 -25.4141 -25.4090 -25.4090 -25.4087 -25.4087
   -25.4015 -25.4015 -25.3909 -25.3909 -25.3873 -25.3873 -25.3869 -25.3869
   -25.3614 -25.3614 -25.3355 -25.3355 -25.3272 -25.3272 -25.3150 -25.3150
   -25.3050 -25.3050 -25.2966 -25.2966 -25.2809 -25.2809 -25.2802 -25.2801
   -25.2742 -25.2741 -25.2706 -25.2706 -25.2678 -25.2678 -25.2575 -25.2575
   -25.2518 -25.2518 -25.2489 -25.2489 -25.2441 -25.2441 -25.2365 -25.2365
   -25.2301 -25.2301 -25.2179 -25.2179 -25.1998 -25.1998 -25.1928 -25.1928
   -25.1686 -25.1686 -25.1654 -25.1654 -25.1626 -25.1626 -25.1624 -25.1624
   -25.1456 -25.1456 -25.1222 -25.1222 -25.1013 -25.1013 -25.1003 -25.1002
   -25.0931 -25.0931 -25.0897 -25.0897 -25.0881 -25.0881 -25.0756 -25.0756
   -25.0605 -25.0605 -25.0557 -25.0557 -25.0490 -25.0490 -25.0479 -25.0479
   -25.0452 -25.0452 -25.0286 -25.0286 -25.0184 -25.0184 -25.0182 -25.0182
   -25.0099 -25.0099 -25.0013 -25.0013 -25.0012 -25.0012 -24.9983 -24.9983
   -24.9917 -24.9917 -24.9865 -24.9865 -24.9725 -24.9725 -24.9681 -24.9681
   -24.9677 -24.9677 -24.9665 -24.9665 -24.9513 -24.9513 -24.9484 -24.9484
   -24.9253 -24.9253 -24.9198 -24.9198 -24.9104 -24.9104 -24.9071 -24.9071
   -24.9008 -24.9008 -24.8986 -24.8986 -24.8782 -24.8782 -24.8747 -24.8747
   -24.8671 -24.8671 -24.8534 -24.8534 -24.8531 -24.8531 -24.8420 -24.8420
   -24.8350 -24.8350 -24.8345 -24.8345 -24.8325 -24.8325 -24.8297 -24.8297
   -24.8251 -24.8251 -24.8185 -24.8185 -24.8049 -24.8049 -24.7881 -24.7881
   -24.7848 -24.7848 -24.7840 -24.7840 -24.7835 -24.7835 -24.7785 -24.7785
   -24.7733 -24.7733 -24.7671 -24.7671 -24.7643 -24.7643 -24.7641 -24.7641
   -24.7615 -24.7615 -24.7601 -24.7601 -24.7527 -24.7526 -24.7503 -24.7503
   -24.7486 -24.7486 -24.7435 -24.7435 -24.7268 -24.7267 -24.7254 -24.7254
   -24.7128 -24.7127 -24.7076 -24.7076 -24.7047 -24.7047 -24.7036 -24.7035
   -24.6954 -24.6954 -24.6902 -24.6902 -24.6883 -24.6883 -24.6879 -24.6879
   -24.6873 -24.6873 -24.6538 -24.6538 -24.6536 -24.6536 -24.6513 -24.6513
   -11.6928 -11.6928 -11.4261 -11.4261 -11.1509 -11.1508 -11.0517 -11.0516
   -10.9890 -10.9890 -10.9284 -10.9284 -10.8939 -10.8939 -10.8622 -10.8622
   -10.8056 -10.8055 -10.7885 -10.7885 -10.7698 -10.7698 -10.7382 -10.7382
   -10.7348 -10.7347 -10.6598 -10.6598 -10.6532 -10.6531 -10.6211 -10.6211
   -10.5873 -10.5872 -10.5371 -10.5371 -10.5042 -10.5041 -10.4927 -10.4927
   -10.4108 -10.4108 -10.3862 -10.3862 -10.3386 -10.3386 -10.2793 -10.2793
   -10.2614 -10.2614 -10.2425 -10.2425 -10.2229 -10.2229 -10.1537 -10.1537
   -10.1471 -10.1471 -10.1335 -10.1335 -10.1255 -10.1255 -10.0905 -10.0905
   -10.0396 -10.0395  -9.9693  -9.9693  -9.9012  -9.9012  -9.7983  -9.7983
    -2.6571  -2.6571  -2.6421  -2.6421  -2.2439  -2.2439  -2.2053  -2.2053
    -2.0079  -2.0078  -1.9652  -1.9652  -1.9583  -1.9583  -1.8829  -1.8829
    -1.8627  -1.8627  -1.8235  -1.8235  -1.7912  -1.7912  -1.7477  -1.7477
    -1.6722  -1.6722  -1.6358  -1.6358  -1.5522  -1.5522  -1.5344  -1.5344
    -1.4688  -1.4688  -1.4414  -1.4413  -1.4028  -1.4028  -1.3060  -1.3060
    -1.2890  -1.2890  -1.2677  -1.2676  -1.2265  -1.2265  -1.1906  -1.1906
    -1.1788  -1.1788  -1.1155  -1.1155  -1.1131  -1.1131  -1.0372  -1.0372
    -1.0293  -1.0293  -0.9597  -0.9597  -0.9218  -0.9218  -0.8387  -0.8387
    -0.6546  -0.6545  -0.6398  -0.6398  -0.6098  -0.6098  -0.5985  -0.5985
    -0.5398  -0.5398  -0.5313  -0.5313  -0.5281  -0.5281  -0.5246  -0.5246
    -0.5178  -0.5178  -0.5108  -0.5108  -0.5036  -0.5036  -0.4941  -0.4940
    -0.4699  -0.4699  -0.4632  -0.4632  -0.4492  -0.4492  -0.4332  -0.4331
    -0.3952  -0.3952  -0.3745  -0.3745  -0.3606  -0.3605  -0.3530  -0.3530
    -0.3460  -0.3459  -0.3292  -0.3292  -0.3101  -0.3101  -0.2644  -0.2644
    -0.2439  -0.2439  -0.2169  -0.2169  -0.1857  -0.1857  -0.1520  -0.1520
    -0.1383  -0.1383  -0.1335  -0.1335  -0.1202  -0.1202  -0.0570  -0.0570
    -0.0029  -0.0029  -0.0015  -0.0015   0.0109   0.0109   0.0132   0.0132
     0.0496   0.0496   0.0825   0.0825   0.0999   0.0999   0.1143   0.1143
     0.1186   0.1187   0.1260   0.1260   0.1471   0.1471   0.1688   0.1688
     0.1889   0.1889   0.1921   0.1922   0.2056   0.2056   0.2128   0.2128
     0.3075   0.3076   0.3165   0.3166   0.3262   0.3262   0.3504   0.3504
     0.3557   0.3557   0.3825   0.3825   0.4676   0.4677   0.5143   0.5143
     0.5294   0.5294   0.5296   0.5296   0.5475   0.5475   0.5530   0.5530
     0.6004   0.6004   0.6152   0.6152   0.6315   0.6316   0.6462   0.6463
     0.6824   0.6825   0.6964   0.6964   0.7695   0.7695   0.7961   0.7961
     0.8117   0.8117   0.8327   0.8327   0.9645   0.9645   1.0045   1.0045
     1.0349   1.0349   1.0944   1.0944   1.2872   1.2872   1.5351   1.5352
     2.9243   2.9243   3.0966   3.0966   3.2743   3.2743   3.4109   3.4110
     3.5337   3.5337   3.6710   3.6711   3.7344   3.7344   3.8435   3.8436
     3.9404   3.9404   4.0355   4.0355   4.1669   4.1669   4.1687   4.1687
     4.2655   4.2655   4.3056   4.3056   4.3070   4.3070   4.3471   4.3472
     4.4124   4.4124   4.4482   4.4483   4.4758   4.4758   4.6179   4.6179
     4.6978   4.6978   4.7213   4.7213   4.7387   4.7388   4.7798   4.7799
     4.8106   4.8107   4.8348   4.8348   4.8628   4.8628   4.9445   4.9445
     4.9699   4.9699   5.0242   5.0243   5.0894   5.0894   5.1201   5.1201
     5.1752   5.1752   5.1790   5.1790   5.2249   5.2249   5.2765   5.2765
     5.2782   5.2782   5.3139   5.3140   5.3974   5.3975   5.3982   5.3983
     5.4643   5.4643   5.4795   5.4795   5.4836   5.4836   5.5197   5.5197
     5.6066   5.6067   5.6397   5.6398   5.6499   5.6500   5.7334   5.7334
     5.8034   5.8034   5.8055   5.8055   5.8402   5.8405   5.8523   5.8524
     5.8714   5.8714   5.8969   5.8969   5.9115   5.9116   5.9285   5.9285
     5.9635   5.9792   5.9801

     the Fermi energy is     2.0484 ev

!    total energy              =   -8262.71010572 Ry
     estimated scf accuracy    <       0.00000026 Ry
     smearing contrib. (-TS)   =       0.00529473 Ry
     internal energy E=F+TS    =   -8262.71540045 Ry

     The total energy is F=E-TS. E is the sum of the following terms:
     one-electron contribution =  -99865.35085655 Ry
     hartree contribution      =   50056.47429048 Ry
     xc contribution           =   -1355.67183933 Ry
     ewald contribution        =   42904.65601827 Ry
     DFT-D3 Dispersion         =      -2.82301331 Ry

     convergence has been achieved in   7 iterations

     negative rho (up, down):  7.738E-03 0.000E+00

     Forces acting on atoms (cartesian axes, Ry/au):

     atom    1 type  1   force =     0.00000032   -0.00000018    0.01822685
     atom    2 type  1   force =     0.00000435   -0.00000308   -0.00061964
     atom    3 type  1   force =     0.00000556    0.00000589   -0.00061692
     atom    4 type  1   force =     0.00000053   -0.00000105    0.01822850
     atom    5 type  1   force =     0.00000280    0.00002683   -0.00110708
     atom    6 type  1   force =     0.00000537   -0.00000700   -0.00135402
     atom    7 type  1   force =     0.00000379   -0.00000598   -0.00133017
     atom    8 type  1   force =    -0.00002124    0.00000081   -0.00110724
     atom    9 type  1   force =     0.00000085   -0.00000031    0.01822834
     atom   10 type  1   force =    -0.00000123    0.00000504   -0.00061702
     atom   11 type  1   force =    -0.00000142    0.00000114   -0.00061815
     atom   12 type  1   force =     0.00000074    0.00000107    0.01823027
     atom   13 type  1   force =     0.00000187   -0.00002220   -0.00111139
     atom   14 type  1   force =     0.00000956    0.00000443   -0.00136968
     atom   15 type  1   force =     0.00000383    0.00000815   -0.00136727
     atom   16 type  1   force =    -0.00000324   -0.00000203   -0.00111784
     atom   17 type  1   force =     0.00000017    0.00000047    0.01822838
     atom   18 type  1   force =    -0.00000004   -0.00000202   -0.00061649
     atom   19 type  1   force =     0.00000026   -0.00000713   -0.00062382
     atom   20 type  1   force =     0.00000025   -0.00000005    0.01822975
     atom   21 type  1   force =     0.00000061   -0.00000450   -0.00111595
     atom   22 type  1   force =     0.00000147    0.00000288   -0.00134611
     atom   23 type  1   force =     0.00000157   -0.00000162   -0.00134929
     atom   24 type  1   force =     0.00000021    0.00000115   -0.00111835
     atom   25 type  1   force =     0.00000000    0.00000006    0.01822934
     atom   26 type  1   force =    -0.00000435   -0.00000308   -0.00061964
     atom   27 type  1   force =     0.00000000    0.00000060   -0.00062334
     atom   28 type  1   force =    -0.00000053   -0.00000105    0.01822850
     atom   29 type  1   force =     0.00000000    0.00000323   -0.00111867
     atom   30 type  1   force =    -0.00000537   -0.00000700   -0.00135402
     atom   31 type  1   force =     0.00000000   -0.00000242   -0.00135444
     atom   32 type  1   force =     0.00002124    0.00000081   -0.00110724
     atom   33 type  1   force =     0.00000000   -0.00000007    0.01822814
     atom   34 type  1   force =     0.00000123    0.00000504   -0.00061702
     atom   35 type  1   force =     0.00000000    0.00000052   -0.00061677
     atom   36 type  1   force =    -0.00000074    0.00000107    0.01823027
     atom   37 type  1   force =     0.00000000   -0.00000384   -0.00111606
     atom   38 type  1   force =    -0.00000956    0.00000443   -0.00136968
     atom   39 type  1   force =     0.00000000    0.00000307   -0.00134134
     atom   40 type  1   force =     0.00000324   -0.00000203   -0.00111784
     atom   41 type  1   force =     0.00000000    0.00000005    0.01822891
     atom   42 type  1   force =     0.00000004   -0.00000202   -0.00061649
     atom   43 type  1   force =     0.00000000   -0.00000124   -0.00061975
     atom   44 type  1   force =    -0.00000025   -0.00000005    0.01822975
     atom   45 type  1   force =     0.00000000    0.00000038   -0.00111769
     atom   46 type  1   force =    -0.00000147    0.00000288   -0.00134611
     atom   47 type  1   force =     0.00000000   -0.00000045   -0.00134518
     atom   48 type  1   force =    -0.00000021    0.00000115   -0.00111835
     atom   49 type  1   force =    -0.00000032   -0.00000018    0.01822685
     atom   50 type  1   force =     0.00000000   -0.00000652   -0.00062249
     atom   51 type  1   force =    -0.00000556    0.00000589   -0.00061692
     atom   52 type  1   force =     0.00000000   -0.00000164    0.01822671
     atom   53 type  1   force =    -0.00000280    0.00002683   -0.00110708
     atom   54 type  1   force =     0.00000000   -0.00001179   -0.00136101
     atom   55 type  1   force =    -0.00000379   -0.00000598   -0.00133017
     atom   56 type  1   force =     0.00000000    0.00000001   -0.00109428
     atom   57 type  1   force =    -0.00000085   -0.00000031    0.01822834
     atom   58 type  1   force =     0.00000000    0.00001046   -0.00061954
     atom   59 type  1   force =     0.00000142    0.00000114   -0.00061815
     atom   60 type  1   force =     0.00000000    0.00000182    0.01823097
     atom   61 type  1   force =    -0.00000187   -0.00002220   -0.00111139
     atom   62 type  1   force =     0.00000000    0.00000721   -0.00139564
     atom   63 type  1   force =    -0.00000383    0.00000815   -0.00136727
     atom   64 type  1   force =     0.00000000    0.00000134   -0.00111813
     atom   65 type  1   force =    -0.00000017    0.00000047    0.01822838
     atom   66 type  1   force =     0.00000000   -0.00000393   -0.00061536
     atom   67 type  1   force =    -0.00000026   -0.00000713   -0.00062382
     atom   68 type  1   force =     0.00000000   -0.00000020    0.01823006
     atom   69 type  1   force =    -0.00000061   -0.00000450   -0.00111595
     atom   70 type  1   force =     0.00000000    0.00000529   -0.00134140
     atom   71 type  1   force =    -0.00000157   -0.00000162   -0.00134929
     atom   72 type  1   force =     0.00000000   -0.00000114   -0.00111969
     atom   73 type  2   force =    -0.00000037    0.00000032    0.00177762
     atom   74 type  2   force =    -0.00000053    0.00000026    0.00177902
     atom   75 type  2   force =     0.00000040   -0.00000281   -0.00843086
     atom   76 type  2   force =     0.00000352    0.00000198   -0.00843399
     atom   77 type  2   force =    -0.00000077   -0.00001392   -0.00334035
     atom   78 type  2   force =     0.00000065   -0.00000188   -0.00335335
     atom   79 type  2   force =    -0.00000129    0.00000988   -0.00512741
     atom   80 type  2   force =    -0.00001047    0.00000292   -0.00512308
     atom   81 type  2   force =    -0.00000006   -0.00000044    0.00178189
     atom   82 type  2   force =    -0.00000042   -0.00000020    0.00178218
     atom   83 type  2   force =    -0.00000282    0.00000583   -0.00841746
     atom   84 type  2   force =    -0.00000142   -0.00000065   -0.00842557
     atom   85 type  2   force =     0.00000152    0.00001641   -0.00335710
     atom   86 type  2   force =     0.00001506    0.00000191   -0.00335639
     atom   87 type  2   force =    -0.00000206   -0.00000890   -0.00519619
     atom   88 type  2   force =    -0.00000344   -0.00000486   -0.00513839
     atom   89 type  2   force =    -0.00000008    0.00000009    0.00178105
     atom   90 type  2   force =    -0.00000019   -0.00000016    0.00177981
     atom   91 type  2   force =     0.00000005   -0.00000295   -0.00842244
     atom   92 type  2   force =    -0.00000015   -0.00000140   -0.00842661
     atom   93 type  2   force =     0.00000147   -0.00000267   -0.00335569
     atom   94 type  2   force =     0.00000065   -0.00000008   -0.00335398
     atom   95 type  2   force =    -0.00000122   -0.00000155   -0.00514123
     atom   96 type  2   force =    -0.00000031    0.00000203   -0.00514883
     atom   97 type  2   force =     0.00000000    0.00000046    0.00177906
     atom   98 type  2   force =     0.00000053    0.00000026    0.00177902
     atom   99 type  2   force =     0.00000000   -0.00000094   -0.00842739
     atom  100 type  2   force =    -0.00000352    0.00000198   -0.00843399
     atom  101 type  2   force =     0.00000000    0.00000009   -0.00335466
     atom  102 type  2   force =    -0.00000065   -0.00000188   -0.00335335
     atom  103 type  2   force =     0.00000000    0.00000252   -0.00514915
     atom  104 type  2   force =     0.00001047    0.00000292   -0.00512308
     atom  105 type  2   force =     0.00000000   -0.00000028    0.00177991
     atom  106 type  2   force =     0.00000042   -0.00000020    0.00178218
     atom  107 type  2   force =     0.00000000    0.00000129   -0.00842088
     atom  108 type  2   force =     0.00000142   -0.00000065   -0.00842557
     atom  109 type  2   force =     0.00000000    0.00000054   -0.00335187
     atom  110 type  2   force =    -0.00001506    0.00000191   -0.00335639
     atom  111 type  2   force =     0.00000000   -0.00000173   -0.00513918
     atom  112 type  2   force =     0.00000344   -0.00000486   -0.00513839
     atom  113 type  2   force =     0.00000000   -0.00000020    0.00178073
     atom  114 type  2   force =     0.00000019   -0.00000016    0.00177981
     atom  115 type  2   force =     0.00000000   -0.00000022   -0.00842358
     atom  116 type  2   force =     0.00000015   -0.00000140   -0.00842661
     atom  117 type  2   force =     0.00000000   -0.00000079   -0.00335450
     atom  118 type  2   force =    -0.00000065   -0.00000008   -0.00335398
     atom  119 type  2   force =     0.00000000   -0.00000076   -0.00515369
     atom  120 type  2   force =     0.00000031    0.00000203   -0.00514883
     atom  121 type  2   force =     0.00000037    0.00000032    0.00177762
     atom  122 type  2   force =     0.00000000    0.00000065    0.00177860
     atom  123 type  2   force =    -0.00000040   -0.00000281   -0.00843086
     atom  124 type  2   force =     0.00000000    0.00000375   -0.00843881
     atom  125 type  2   force =     0.00000077   -0.00001392   -0.00334035
     atom  126 type  2   force =     0.00000000    0.00000213   -0.00335312
     atom  127 type  2   force =     0.00000129    0.00000988   -0.00512741
     atom  128 type  2   force =     0.00000000    0.00000589   -0.00509155
     atom  129 type  2   force =     0.00000006   -0.00000044    0.00178189
     atom  130 type  2   force =     0.00000000   -0.00000060    0.00178359
     atom  131 type  2   force =     0.00000282    0.00000583   -0.00841746
     atom  132 type  2   force =     0.00000000   -0.00000180   -0.00842532
     atom  133 type  2   force =    -0.00000152    0.00001641   -0.00335710
     atom  134 type  2   force =     0.00000000   -0.00000223   -0.00336147
     atom  135 type  2   force =     0.00000206   -0.00000890   -0.00519619
     atom  136 type  2   force =     0.00000000   -0.00000824   -0.00513283
     atom  137 type  2   force =     0.00000008    0.00000009    0.00178105
     atom  138 type  2   force =     0.00000000   -0.00000013    0.00177913
     atom  139 type  2   force =    -0.00000005   -0.00000295   -0.00842244
     atom  140 type  2   force =     0.00000000   -0.00000212   -0.00842834
     atom  141 type  2   force =    -0.00000147   -0.00000267   -0.00335569
     atom  142 type  2   force =     0.00000000    0.00000002   -0.00335220
     atom  143 type  2   force =     0.00000122   -0.00000155   -0.00514123
     atom  144 type  2   force =     0.00000000    0.00000209   -0.00515245

     Total force =     0.027089     Total SCF correction =     0.001215
     Energy error            =      1.8E-03 Ry
     Gradient error          =      5.2E-03 Ry/Bohr

     number of scf cycles    =   4
     number of bfgs steps    =   3

     energy             old  =   -8262.7082688519 Ry
     energy             new  =   -8262.7101057181 Ry

     CASE: energy            _new < energy            _old

     new trust radius        =       0.0261397822 bohr
     new conv_thr            =       0.0000003339 Ry


ATOMIC_POSITIONS (angstrom)
Sc               0.0000000000        0.0000000000       10.0000000000    0   0   0
Sc               2.2382160900        0.0000000000       12.2382160900    0   0   0
Sc               0.0000000000        2.2382160900       12.2382160900    0   0   0
Sc               2.2382160900        2.2382160900       10.0000000000    0   0   0
Sc              -0.0000040549       -0.0000042639       14.5034398054
Sc               2.2381987217        0.0000128619       16.6912798832
Sc              -0.0000011902        2.2382107005       16.6915174389
Sc               2.2382042157        2.2382483900       14.5034554895
Sc               0.0000000000        4.4764321800       10.0000000000    0   0   0
Sc               2.2382160900        4.4764321800       12.2382160900    0   0   0
Sc               0.0000000000        6.7146482700       12.2382160900    0   0   0
Sc               2.2382160900        6.7146482700       10.0000000000    0   0   0
Sc              -0.0000175760        4.4764518435       14.5035128846
Sc               2.2382010194        4.4764188894       16.6914080908
Sc              -0.0000100552        6.7146511164       16.6914237472
Sc               2.2382053489        6.7146263787       14.5035342655
Sc               0.0000000000        8.9528643500       10.0000000000    0   0   0
Sc               2.2382160900        8.9528643500       12.2382160900    0   0   0
Sc               0.0000000000       11.1910804400       12.2382160900    0   0   0
Sc               2.2382160900       11.1910804400       10.0000000000    0   0   0
Sc              -0.0000074807        8.9528487369       14.5035106436
Sc               2.2382101828        8.9528651861       16.6913255474
Sc              -0.0000118190       11.1910864898       16.6912989982
Sc               2.2382205982       11.1910698820       14.5035040082
Sc               4.4764321800        0.0000000000       10.0000000000    0   0   0
Sc               6.7146482700        0.0000000000       12.2382160900    0   0   0
Sc               4.4764321800        2.2382160900       12.2382160900    0   0   0
Sc               6.7146482700        2.2382160900       10.0000000000    0   0   0
Sc               4.4764348900       -0.0000118356       14.5034892944
Sc               6.7146647183        0.0000131719       16.6912967832
Sc               4.4764323100        2.2382101479       16.6912975794
Sc               6.7146585043        2.2382442600       14.5034553995
Sc               4.4764321800        4.4764321800       10.0000000000    0   0   0
Sc               6.7146482700        4.4764321800       12.2382160900    0   0   0
Sc               4.4764321800        6.7146482700       12.2382160900    0   0   0
Sc               6.7146482700        6.7146482700       10.0000000000    0   0   0
Sc               4.4764301000        4.4764506517       14.5035256308
Sc               6.7146655306        4.4764178694       16.6913843308
Sc               4.4764311400        6.7146427096       16.6913385614
Sc               6.7146597811        6.7146291987       14.5035312255
Sc               4.4764321800        8.9528643500       10.0000000000    0   0   0
Sc               6.7146482700        8.9528643500       12.2382160900    0   0   0
Sc               4.4764321800       11.1910804400       12.2382160900    0   0   0
Sc               6.7146482700       11.1910804400       10.0000000000    0   0   0
Sc               4.4764324400        8.9528576247       14.5035116961
Sc               6.7146526572        8.9528642261       16.6913260474
Sc               4.4764327100       11.1910912125       16.6913469616
Sc               6.7146448118       11.1910720720       14.5035064182
Sc               8.9528643500        0.0000000000       10.0000000000    0   0   0
Sc              11.1910804400        0.0000000000       12.2382160900    0   0   0
Sc               8.9528643500        2.2382160900       12.2382160900    0   0   0
Sc              11.1910804400        2.2382160900       10.0000000000    0   0   0
Sc               8.9528651549       -0.0000064839       14.5034408654
Sc              11.1910813800        0.0000197077       16.6912282470
Sc               8.9528661302        2.2382096305       16.6915129989
Sc              11.1910805600        2.2382692468       14.5034172593
Sc               8.9528643500        4.4764321800       10.0000000000    0   0   0
Sc              11.1910804400        4.4764321800       12.2382160900    0   0   0
Sc               8.9528643500        6.7146482700       12.2382160900    0   0   0
Sc              11.1910804400        6.7146482700       10.0000000000    0   0   0
Sc               8.9528852460        4.4764528635       14.5035109346
Sc              11.1910818400        4.4764086581       16.6914476573
Sc               8.9528739552        6.7146494364       16.6914377972
Sc              11.1910808600        6.7146069216       14.5035504085
Sc               8.9528643500        8.9528643500       10.0000000000    0   0   0
Sc              11.1910804400        8.9528643500       12.2382160900    0   0   0
Sc               8.9528643500       11.1910804400       12.2382160900    0   0   0
Sc              11.1910804400       11.1910804400       10.0000000000    0   0   0
Sc               8.9528716007        8.9528497569       14.5035106936
Sc              11.1910806400        8.9528674457       16.6913338554
Sc               8.9528771390       11.1910854298       16.6913308382
Sc              11.1910796900       11.1910675888       14.5034916434
N                0.0000000000        2.2382160900       10.0000000000    0   0   0
N                2.2382160900        0.0000000000       10.0000000000    0   0   0
N                0.0000000000        0.0000000000       12.2382160900    0   0   0
N                2.2382160900        2.2382160900       12.2382160900    0   0   0
N                0.0000097394        2.2382562050       14.5160099344
N                2.2382183264       -0.0000171940       14.5160396344
N               -0.0000059626        0.0000093295       16.7161654365
N                2.2382211981        2.2382113593       16.7161340158
N                0.0000000000        6.7146482700       10.0000000000    0   0   0
N                2.2382160900        4.4764321800       10.0000000000    0   0   0
N                0.0000000000        4.4764321800       12.2382160900    0   0   0
N                2.2382160900        6.7146482700       12.2382160900    0   0   0
N               -0.0000062941        6.7146178869       14.5161291257
N                2.2381920310        4.4764559671       14.5161165970
N               -0.0000105488        4.4764213001       16.7161478531
N                2.2382185658        6.7146494243       16.7162731219
N                0.0000000000       11.1910804400       10.0000000000    0   0   0
N                2.2382160900        8.9528643500       10.0000000000    0   0   0
N                0.0000000000        8.9528643500       12.2382160900    0   0   0
N                2.2382160900       11.1910804400       12.2382160900    0   0   0
N               -0.0000053837       11.1910703772       14.5160672905
N                2.2382102182        8.9528589299       14.5160808075
N               -0.0000009734        8.9528648701       16.7162863266
N                2.2382087001       11.1910849200       16.7162366060
N                4.4764321800        2.2382160900       10.0000000000    0   0   0
N                6.7146482700        0.0000000000       10.0000000000    0   0   0
N                4.4764321800        0.0000000000       12.2382160900    0   0   0
N                6.7146482700        2.2382160900       12.2382160900    0   0   0
N                4.4764324400        2.2382319605       14.5160425332
N                6.7146477136       -0.0000190940       14.5160431544
N                4.4764319700        0.0000078007       16.7162402370
N                6.7146423519        2.2382102393       16.7161326558
N                4.4764321800        6.7146482700       10.0000000000    0   0   0
N                6.7146482700        4.4764321800       10.0000000000    0   0   0
N                4.4764321800        4.4764321800       12.2382160900    0   0   0
N                6.7146482700        6.7146482700       12.2382160900    0   0   0
N                4.4764310300        6.7146400465       14.5160844848
N                6.7146715690        4.4764540071       14.5161150170
N                4.4764316100        4.4764219021       16.7162997842
N                6.7146467842        6.7146499643       16.7162533019
N                4.4764321800       11.1910804400       10.0000000000    0   0   0
N                6.7146482700        8.9528643500       10.0000000000    0   0   0
N                4.4764321800        8.9528643500       12.2382160900    0   0   0
N                6.7146482700       11.1910804400       12.2382160900    0   0   0
N                4.4764330700       11.1910735712       14.5160820495
N                6.7146538018        8.9528613199       14.5160807375
N                4.4764329900        8.9528665959       16.7162478201
N                6.7146555599       11.1910863100       16.7162620260
N                8.9528643500        2.2382160900       10.0000000000    0   0   0
N               11.1910804400        0.0000000000       10.0000000000    0   0   0
N                8.9528643500        0.0000000000       12.2382160900    0   0   0
N               11.1910804400        2.2382160900       12.2382160900    0   0   0
N                8.9528553006        2.2382552550       14.5160105844
N               11.1910809200       -0.0000373350       14.5160091065
N                8.9528692426        0.0000087195       16.7161518365
N               11.1910794100        2.2382032093       16.7160584658
N                8.9528643500        6.7146482700       10.0000000000    0   0   0
N               11.1910804400        4.4764321800       10.0000000000    0   0   0
N                8.9528643500        4.4764321800       12.2382160900    0   0   0
N               11.1910804400        6.7146482700       12.2382160900    0   0   0
N                8.9528712741        6.7146176569       14.5161294657
N               11.1910789200        4.4764749555       14.5161488124
N                8.9528748088        4.4764223701       16.7161473931
N               11.1910803400        6.7146547600       16.7162711638
N                8.9528643500       11.1910804400       10.0000000000    0   0   0
N               11.1910804400        8.9528643500       10.0000000000    0   0   0
N                8.9528643500        8.9528643500       12.2382160900    0   0   0
N               11.1910804400       11.1910804400       12.2382160900    0   0   0
N                8.9528689337       11.1910713372       14.5160686305
N               11.1910809700        8.9528586104       14.5160769970
N                8.9528657034        8.9528640301       16.7162579466
N               11.1910796900       11.1910865448       16.7162433646



     Writing config-only to output data dir ./tmp/ScN_slab.save/ :
     XML data file
     NEW-OLD atomic charge density approx. for the potential

     negative rho (up, down):  8.166E-03 0.000E+00

     total cpu time spent up to now is     6070.2 secs

     per-process dynamical memory:  1046.7 Mb

     Self-consistent Calculation

     iteration #  1     ecut=    45.00 Ry     beta= 0.25
     Davidson diagonalization with overlap
     ethr =  1.00E-06,  avg # of iterations =  6.7

     negative rho (up, down):  8.018E-03 0.000E+00

     total cpu time spent up to now is     6348.2 secs

     total energy              =   -8262.71195520 Ry
     estimated scf accuracy    <       0.00207264 Ry

     iteration #  2     ecut=    45.00 Ry     beta= 0.25
     Davidson diagonalization with overlap
     ethr =  1.80E-07,  avg # of iterations =  4.8

     negative rho (up, down):  7.923E-03 0.000E+00

     total cpu time spent up to now is     6475.1 secs

     total energy              =   -8262.71209528 Ry
     estimated scf accuracy    <       0.00060007 Ry

     iteration #  3     ecut=    45.00 Ry     beta= 0.25
     Davidson diagonalization with overlap
     ethr =  5.21E-08,  avg # of iterations =  2.7

     negative rho (up, down):  7.862E-03 0.000E+00

     total cpu time spent up to now is     6597.6 secs

     total energy              =   -8262.71212029 Ry
     estimated scf accuracy    <       0.00023068 Ry

     iteration #  4     ecut=    45.00 Ry     beta= 0.25
     Davidson diagonalization with overlap
     ethr =  2.00E-08,  avg # of iterations =  3.0

     negative rho (up, down):  7.823E-03 0.000E+00

     total cpu time spent up to now is     6714.9 secs

     total energy              =   -8262.71213418 Ry
     estimated scf accuracy    <       0.00007021 Ry

     iteration #  5     ecut=    45.00 Ry     beta= 0.25
     Davidson diagonalization with overlap
     ethr =  6.09E-09,  avg # of iterations =  3.4

     negative rho (up, down):  7.800E-03 0.000E+00

     total cpu time spent up to now is     6838.0 secs

     total energy              =   -8262.71214252 Ry
     estimated scf accuracy    <       0.00001731 Ry

     iteration #  6     ecut=    45.00 Ry     beta= 0.25
     Davidson diagonalization with overlap
     ethr =  1.50E-09,  avg # of iterations =  3.6

     negative rho (up, down):  7.785E-03 0.000E+00

     total cpu time spent up to now is     6961.2 secs

     total energy              =   -8262.71214548 Ry
     estimated scf accuracy    <       0.00000430 Ry

     iteration #  7     ecut=    45.00 Ry     beta= 0.25
     Davidson diagonalization with overlap
     ethr =  3.73E-10,  avg # of iterations =  3.3

     negative rho (up, down):  7.776E-03 0.000E+00

     total cpu time spent up to now is     7085.6 secs

     total energy              =   -8262.71214622 Ry
     estimated scf accuracy    <       0.00000096 Ry

     iteration #  8     ecut=    45.00 Ry     beta= 0.25
     Davidson diagonalization with overlap
     ethr =  8.31E-11,  avg # of iterations =  3.7

     negative rho (up, down):  7.768E-03 0.000E+00

     total cpu time spent up to now is     7222.0 secs

     total energy              =   -8262.71214670 Ry
     estimated scf accuracy    <       0.00000035 Ry

     iteration #  9     ecut=    45.00 Ry     beta= 0.25
     Davidson diagonalization with overlap
     ethr =  3.06E-11,  avg # of iterations =  2.3

     negative rho (up, down):  7.753E-03 0.000E+00

     total cpu time spent up to now is     7338.5 secs

     End of self-consistent calculation

          k = 0.0000 0.0000 0.0000 (165739 PWs)   bands (ev):

   -46.5632 -46.5456 -46.5456 -46.5456 -46.5456 -46.5363 -46.5363 -46.5363
   -46.5363 -46.5195 -46.5195 -46.5195 -46.5195 -46.5120 -46.5120 -46.5120
   -46.5120 -46.4961 -46.3676 -46.3482 -46.3481 -46.3480 -46.3480 -46.3376
   -46.3375 -46.3374 -46.3374 -46.3197 -46.3196 -46.3195 -46.3195 -46.3124
   -46.3124 -46.3123 -46.3122 -46.2960 -46.2444 -46.2249 -46.2249 -46.2249
   -46.2248 -46.2138 -46.2138 -46.2138 -46.2138 -46.1948 -46.1947 -46.1947
   -46.1947 -46.1874 -46.1873 -46.1873 -46.1873 -46.1702 -46.1483 -46.1385
   -46.1385 -46.1384 -46.1384 -46.1354 -46.1354 -46.1354 -46.1353 -46.1236
   -46.1236 -46.1236 -46.1235 -46.1143 -46.1142 -46.1142 -46.1141 -46.0989
   -25.4348 -25.4310 -25.4310 -25.4310 -25.4310 -25.4210 -25.4210 -25.4210
   -25.4209 -25.4164 -25.4164 -25.4164 -25.4164 -25.3765 -25.3765 -25.3765
   -25.3765 -25.3745 -25.3745 -25.3745 -25.3745 -25.3272 -25.3228 -25.3228
   -25.3228 -25.3228 -25.2916 -25.2916 -25.2891 -25.2890 -25.2890 -25.2890
   -25.2792 -25.2792 -25.2792 -25.2792 -25.2690 -25.2513 -25.2513 -25.2512
   -25.2512 -25.2427 -25.2427 -25.2427 -25.2427 -25.2172 -25.2172 -25.2172
   -25.2172 -25.2155 -25.2155 -25.2155 -25.2155 -25.2133 -25.2133 -25.2132
   -25.2132 -25.1752 -25.1752 -25.1752 -25.1752 -25.1523 -25.1523 -25.1381
   -25.1372 -25.1372 -25.1372 -25.1372 -25.1111 -25.1111 -25.1111 -25.1111
   -25.0805 -25.0805 -25.0805 -25.0804 -25.0733 -25.0733 -25.0733 -25.0733
   -25.0690 -25.0690 -25.0690 -25.0690 -25.0440 -25.0440 -25.0439 -25.0439
   -25.0383 -25.0383 -25.0362 -25.0362 -25.0362 -25.0362 -25.0209 -25.0208
   -25.0208 -25.0208 -25.0174 -25.0173 -25.0173 -25.0173 -25.0032 -25.0032
   -25.0032 -25.0032 -25.0010 -24.9953 -24.9953 -24.9901 -24.9901 -24.9901
   -24.9901 -24.9715 -24.9715 -24.9714 -24.9714 -24.9492 -24.9492 -24.9492
   -24.9492 -24.9135 -24.9135 -24.9134 -24.9134 -24.9129 -24.9129 -24.9129
   -24.9129 -24.8909 -24.8909 -24.8909 -24.8909 -24.8903 -24.8903 -24.8853
   -24.8651 -24.8651 -24.8651 -24.8651 -24.8376 -24.8375 -24.8375 -24.8375
   -24.8356 -24.8356 -24.8356 -24.8356 -24.8328 -24.8328 -24.8318 -24.8318
   -24.8317 -24.8317 -24.8153 -24.8016 -24.8016 -24.8016 -24.8016 -24.7974
   -24.7974 -24.7973 -24.7973 -24.7912 -24.7912 -24.7912 -24.7912 -24.7753
   -24.7753 -24.7753 -24.7753 -24.7682 -24.7682 -24.7681 -24.7681 -24.7663
   -24.7663 -24.7469 -24.7468 -24.7468 -24.7468 -24.7409 -24.7409 -24.7409
   -24.7409 -24.7331 -24.7311 -24.7311 -24.7311 -24.7311 -24.7296 -24.7296
   -24.7296 -24.7296 -24.7290 -24.7290 -24.7290 -24.7290 -24.7135 -24.7135
   -24.7135 -24.7135 -24.7063 -24.7063 -24.7063 -24.7063 -24.6816 -24.6816
   -24.6816 -24.6815 -24.6536 -24.6536 -24.6493 -24.6493 -24.6492 -24.6492
   -11.8961 -11.3905 -11.3904 -11.3904 -11.3904 -11.3255 -10.9833 -10.9821
   -10.9354 -10.9353 -10.9353 -10.9353 -10.9102 -10.9102 -10.9101 -10.9101
   -10.8965 -10.8964 -10.8964 -10.8964 -10.8953 -10.7713 -10.7280 -10.7279
   -10.7279 -10.7279 -10.5691 -10.5690 -10.5690 -10.5689 -10.5689 -10.5689
   -10.5688 -10.5688 -10.5680 -10.5680 -10.5680 -10.5679 -10.5209 -10.5209
   -10.5209 -10.5209 -10.4373 -10.3797 -10.3797 -10.3796 -10.3796 -10.3257
   -10.2656 -10.2656 -10.2656 -10.2656 -10.1788 -10.1788 -10.1788 -10.1788
   -10.1436 -10.1436 -10.1435 -10.1435 -10.0344 -10.0344 -10.0344 -10.0344
   -10.0261 -10.0261 -10.0261 -10.0261  -9.9121  -9.9121  -9.9121  -9.9121
    -2.3400  -2.3400  -2.3400  -2.3399  -2.3289  -2.3289  -2.3289  -2.3289
    -2.1946  -2.1946  -2.1946  -2.1946  -2.1366  -2.1366  -2.1366  -2.1366
    -1.7168  -1.7167  -1.7167  -1.7167  -1.6846  -1.6846  -1.6846  -1.6845
    -1.6225  -1.6224  -1.6224  -1.6224  -1.6067  -1.6067  -1.6067  -1.6067
    -1.5390  -1.5389  -1.5389  -1.5389  -1.4229  -1.4229  -1.4228  -1.4228
    -1.3686  -1.2986  -1.2986  -1.2985  -1.2985  -1.2070  -1.2070  -1.2070
    -1.2070  -1.1972  -1.1972  -1.1972  -1.1972  -0.9994  -0.9994  -0.9430
    -0.8866  -0.8866  -0.8865  -0.8865  -0.6586  -0.6586  -0.6585  -0.6585
    -0.6545  -0.6545  -0.6514  -0.6514  -0.6514  -0.6514  -0.6037  -0.6036
    -0.6036  -0.6036  -0.5986  -0.5986  -0.5986  -0.5986  -0.5313  -0.5313
    -0.5313  -0.5313  -0.4733  -0.4733  -0.4733  -0.4733  -0.4435  -0.4435
    -0.4435  -0.4435  -0.4237  -0.4236  -0.4236  -0.4236  -0.4048  -0.4047
    -0.4047  -0.4047  -0.3735  -0.3734  -0.3734  -0.3734  -0.3096  -0.3096
    -0.3096  -0.3096  -0.2660  -0.2660  -0.2660  -0.2660  -0.2266  -0.2266
    -0.2266  -0.2266  -0.1950  -0.1950  -0.1950  -0.1950  -0.1915  -0.1775
    -0.1643  -0.1643  -0.1643  -0.1642  -0.1640  -0.1640  -0.1640  -0.1640
    -0.1213  -0.1213  -0.1213  -0.1213  -0.1094  -0.0408  -0.0408  -0.0408
    -0.0408  -0.0298  -0.0297  -0.0297  -0.0296  -0.0267  -0.0267  -0.0267
    -0.0266   0.0626   0.0626   0.0871   0.0871   0.0871   0.0871   0.0880
     0.0880   0.0880   0.0880   0.1246   0.1246   0.1246   0.1246   0.1566
     0.1566   0.1566   0.1567   0.1720   0.1720   0.1720   0.1720   0.2039
     0.2040   0.2040   0.2040   0.2220   0.2220   0.2220   0.2220   0.2896
     0.2896   0.2896   0.2897   0.3750   0.3750   0.3750   0.3750   0.7158
     0.7158   0.7158   0.7159   0.7481   0.7692   0.7692   0.7693   0.7693
     0.7867   0.7867   0.7970   0.7970   0.7970   0.7970   0.8168   0.8169
     0.8169   0.8169   1.0072   1.0072   1.1379   1.2061   1.2061   1.2210
     1.2210   1.2211   1.2211   1.2570   1.7649   1.7649   2.0311   2.0311
     2.1014   2.6505   2.6505   2.6690   3.0705   3.0705   3.0706   3.0706
     3.4853   3.8819   4.0908   4.0908   4.0908   4.0908   4.1422   4.1560
     4.1560   4.3823   4.3823   4.3824   4.3824   4.3956   4.3956   4.3956
     4.3956   4.3973   4.3973   4.3973   4.3974   4.4470   4.4748   4.4748
     4.4748   4.4748   4.5113   4.5113   4.5113   4.5113   4.5563   4.5563
     4.5563   4.5564   4.6805   4.6805   4.6805   4.6805   4.7056   4.7056
     4.7056   4.7056   4.8090   4.8090   4.8092   4.8093   4.8327   4.8327
     4.8949   4.8949   4.8950   4.8950   5.1485   5.2180   5.2180   5.2180
     5.2180   5.2336   5.2336   5.2336   5.2336   5.2892   5.2893   5.2893
     5.2893   5.3053   5.3053   5.3053   5.3053   5.4246   5.4246   5.4246
     5.4246   5.4252   5.4252   5.4252   5.4253   5.4333   5.4333   5.4333
     5.4333   5.5388   5.5390   5.5390   5.5390   5.6347   5.6347   5.6347
     5.6348   5.7256   5.7636   5.7636   5.7685   5.8058   5.8058   5.8058
     5.8059   5.8339   5.8339   5.8702   5.8704   5.8705   5.8705   5.9255
     5.9379   5.9589   5.9626

          k = 0.0000 0.2500 0.0000 (165664 PWs)   bands (ev):

   -46.5619 -46.5528 -46.5449 -46.5449 -46.5400 -46.5400 -46.5373 -46.5320
   -46.5320 -46.5233 -46.5233 -46.5199 -46.5163 -46.5163 -46.5125 -46.5125
   -46.5054 -46.4972 -46.3662 -46.3560 -46.3474 -46.3473 -46.3418 -46.3417
   -46.3391 -46.3328 -46.3327 -46.3235 -46.3234 -46.3205 -46.3165 -46.3164
   -46.3128 -46.3127 -46.3054 -46.2971 -46.2431 -46.2329 -46.2241 -46.2241
   -46.2183 -46.2183 -46.2155 -46.2088 -46.2087 -46.1988 -46.1988 -46.1961
   -46.1915 -46.1915 -46.1878 -46.1878 -46.1801 -46.1713 -46.1477 -46.1427
   -46.1383 -46.1383 -46.1369 -46.1368 -46.1334 -46.1333 -46.1332 -46.1273
   -46.1272 -46.1207 -46.1200 -46.1200 -46.1149 -46.1149 -46.1082 -46.1000
   -25.4358 -25.4358 -25.4334 -25.4320 -25.4319 -25.4250 -25.4250 -25.4236
   -25.4173 -25.4173 -25.4081 -25.4058 -25.4058 -25.3873 -25.3855 -25.3855
   -25.3787 -25.3787 -25.3604 -25.3580 -25.3580 -25.3536 -25.3536 -25.3333
   -25.2992 -25.2991 -25.2909 -25.2909 -25.2865 -25.2858 -25.2776 -25.2776
   -25.2774 -25.2774 -25.2698 -25.2698 -25.2679 -25.2670 -25.2670 -25.2587
   -25.2586 -25.2533 -25.2533 -25.2480 -25.2435 -25.2342 -25.2250 -25.2250
   -25.2250 -25.2250 -25.2111 -25.2050 -25.2050 -25.2017 -25.1937 -25.1937
   -25.1814 -25.1805 -25.1805 -25.1692 -25.1692 -25.1680 -25.1659 -25.1469
   -25.1343 -25.1343 -25.1249 -25.1213 -25.1213 -25.1182 -25.1182 -25.1061
   -25.1047 -25.1014 -25.1011 -25.1011 -25.0869 -25.0798 -25.0651 -25.0651
   -25.0578 -25.0550 -25.0550 -25.0544 -25.0544 -25.0468 -25.0419 -25.0387
   -25.0387 -25.0384 -25.0350 -25.0338 -25.0332 -25.0332 -25.0276 -25.0251
   -25.0251 -25.0214 -25.0214 -25.0174 -25.0173 -25.0101 -25.0041 -25.0041
   -25.0029 -25.0029 -25.0003 -24.9992 -24.9909 -24.9799 -24.9771 -24.9771
   -24.9740 -24.9740 -24.9568 -24.9568 -24.9548 -24.9548 -24.9522 -24.9478
   -24.9478 -24.9389 -24.9277 -24.9277 -24.9261 -24.9144 -24.9077 -24.9075
   -24.9074 -24.9026 -24.9013 -24.9013 -24.8863 -24.8855 -24.8801 -24.8728
   -24.8728 -24.8686 -24.8677 -24.8630 -24.8560 -24.8551 -24.8551 -24.8429
   -24.8383 -24.8352 -24.8351 -24.8340 -24.8233 -24.8233 -24.8202 -24.8146
   -24.8146 -24.8093 -24.8089 -24.8089 -24.8070 -24.8034 -24.7983 -24.7983
   -24.7953 -24.7953 -24.7953 -24.7953 -24.7888 -24.7886 -24.7886 -24.7779
   -24.7779 -24.7774 -24.7739 -24.7739 -24.7711 -24.7711 -24.7627 -24.7627
   -24.7610 -24.7610 -24.7587 -24.7587 -24.7475 -24.7474 -24.7468 -24.7468
   -24.7456 -24.7454 -24.7454 -24.7445 -24.7444 -24.7422 -24.7329 -24.7329
   -24.7314 -24.7314 -24.7236 -24.7168 -24.7120 -24.7120 -24.7101 -24.6982
   -24.6982 -24.6981 -24.6980 -24.6942 -24.6942 -24.6892 -24.6888 -24.6826
   -24.6825 -24.6810 -24.6604 -24.6577 -24.6557 -24.6557 -24.6540 -24.6540
   -11.8579 -11.5844 -11.3555 -11.3555 -11.2924 -11.1982 -11.1078 -11.1078
   -11.0622 -10.9700 -10.9595 -10.9369 -10.9050 -10.8814 -10.8814 -10.8690
   -10.8690 -10.8656 -10.8098 -10.7772 -10.7699 -10.7699 -10.7403 -10.7104
   -10.7103 -10.6871 -10.6870 -10.6836 -10.6836 -10.6815 -10.6593 -10.6080
   -10.6079 -10.5749 -10.5748 -10.5242 -10.4934 -10.4934 -10.4802 -10.4801
   -10.4780 -10.4780 -10.4195 -10.3930 -10.3515 -10.3515 -10.3125 -10.3077
   -10.3037 -10.3037 -10.2565 -10.2487 -10.2437 -10.2437 -10.1969 -10.1584
   -10.1584 -10.1246 -10.1224 -10.1224 -10.1024 -10.1024 -10.0682 -10.0682
    -9.9867  -9.9867  -9.9842  -9.9842  -9.9299  -9.9299  -9.8666  -9.8665
    -2.4810  -2.4810  -2.4647  -2.4647  -2.3994  -2.3994  -2.3617  -2.3617
    -2.1261  -2.1261  -2.1082  -2.1082  -1.9463  -1.9463  -1.8503  -1.8502
    -1.8075  -1.7961  -1.7961  -1.7648  -1.7647  -1.7320  -1.7126  -1.7126
    -1.6883  -1.6883  -1.6677  -1.6677  -1.6654  -1.5849  -1.5849  -1.5235
    -1.5223  -1.5203  -1.5203  -1.4956  -1.4956  -1.4512  -1.4227  -1.4226
    -1.3897  -1.3765  -1.3697  -1.3696  -1.3122  -1.2518  -1.2518  -1.1170
    -1.1111  -1.1110  -1.0795  -1.0083  -0.9945  -0.9834  -0.9833  -0.9591
    -0.9578  -0.9578  -0.9541  -0.9447  -0.7988  -0.7944  -0.6961  -0.6960
    -0.6956  -0.6823  -0.6823  -0.6488  -0.6356  -0.6356  -0.6188  -0.6188
    -0.5931  -0.5768  -0.5596  -0.5596  -0.5390  -0.5390  -0.5303  -0.5303
    -0.5277  -0.5277  -0.5201  -0.5201  -0.5149  -0.5149  -0.4915  -0.4915
    -0.4843  -0.4842  -0.4720  -0.4719  -0.4716  -0.4597  -0.4597  -0.4436
    -0.4436  -0.4363  -0.3656  -0.3656  -0.3568  -0.3500  -0.3488  -0.3488
    -0.3360  -0.3281  -0.3077  -0.3076  -0.2932  -0.2840  -0.2424  -0.2424
    -0.2121  -0.2121  -0.2112  -0.2112  -0.1784  -0.1783  -0.1719  -0.1715
    -0.1715  -0.1336  -0.1260  -0.1253  -0.1252  -0.1140  -0.1126  -0.1125
    -0.0872  -0.0872  -0.0801  -0.0801  -0.0781  -0.0781  -0.0651  -0.0651
    -0.0589  -0.0129  -0.0129   0.0016   0.0016   0.0119   0.0174   0.0174
     0.0536   0.0536   0.0677   0.0760   0.0780   0.0830   0.0831   0.1009
     0.1089   0.1089   0.1171   0.1184   0.1408   0.1408   0.1493   0.1493
     0.1608   0.1608   0.1834   0.1834   0.2316   0.2384   0.2384   0.2496
     0.2573   0.2951   0.2951   0.3024   0.3439   0.3439   0.3744   0.3744
     0.4150   0.4298   0.4298   0.4390   0.4391   0.5413   0.5506   0.5731
     0.6444   0.6533   0.6533   0.6660   0.6930   0.6930   0.7066   0.7191
     0.7280   0.7280   0.7502   0.7502   0.7805   0.7843   0.8036   0.8405
     0.8440   0.8704   0.9514   1.0345   1.0474   1.0504   1.0552   1.0556
     1.0811   1.0811   1.2029   1.4380   1.5727   1.6118   1.7743   1.9100
     2.4013   2.6770   2.8231   2.8884   2.9134   3.1962   3.1963   3.2975
     3.6271   3.6623   3.8028   3.8397   3.9128   4.0150   4.0150   4.0429
     4.1537   4.1537   4.1702   4.1760   4.2314   4.2810   4.3365   4.3610
     4.3610   4.3901   4.4030   4.4030   4.4324   4.4324   4.4359   4.4378
     4.4378   4.5138   4.5138   4.5757   4.5757   4.5912   4.6458   4.6538
     4.6539   4.6684   4.6758   4.6974   4.6974   4.7184   4.7185   4.7837
     4.8165   4.8165   4.8169   4.8548   4.8548   4.8591   4.8592   4.8805
     4.9327   4.9608   4.9608   5.0157   5.0461   5.0507   5.0507   5.0766
     5.0766   5.0948   5.1118   5.1409   5.1409   5.1992   5.2220   5.2220
     5.2290   5.2290   5.2346   5.2346   5.3073   5.3073   5.3396   5.3396
     5.4070   5.4787   5.4836   5.5431   5.5641   5.5641   5.5691   5.5692
     5.5966   5.6207   5.6207   5.6319   5.6319   5.7168   5.7219   5.7219
     5.7264   5.7264   5.7295   5.7382   5.7735   5.7736   5.7774   5.7995
     5.8388   5.8389   5.8426   5.8427   5.8470   5.8482   5.8967   5.8967
     5.9217   5.9217   5.9510

          k = 0.0000-0.5000 0.0000 (165810 PWs)   bands (ev):

   -46.5584 -46.5584 -46.5430 -46.5430 -46.5430 -46.5430 -46.5285 -46.5285
   -46.5276 -46.5276 -46.5276 -46.5276 -46.5140 -46.5140 -46.5140 -46.5140
   -46.5003 -46.5003 -46.3623 -46.3622 -46.3453 -46.3452 -46.3451 -46.3450
   -46.3297 -46.3296 -46.3281 -46.3279 -46.3279 -46.3279 -46.3143 -46.3142
   -46.3141 -46.3140 -46.3004 -46.3002 -46.2392 -46.2391 -46.2219 -46.2219
   -46.2218 -46.2218 -46.2057 -46.2057 -46.2036 -46.2036 -46.2036 -46.2036
   -46.1892 -46.1892 -46.1892 -46.1891 -46.1747 -46.1746 -46.1458 -46.1457
   -46.1378 -46.1378 -46.1378 -46.1377 -46.1306 -46.1306 -46.1306 -46.1306
   -46.1272 -46.1272 -46.1170 -46.1170 -46.1169 -46.1169 -46.1033 -46.1032
   -25.4368 -25.4368 -25.4368 -25.4368 -25.4295 -25.4295 -25.4202 -25.4201
   -25.4201 -25.4201 -25.3985 -25.3985 -25.3902 -25.3902 -25.3902 -25.3902
   -25.3793 -25.3793 -25.3793 -25.3793 -25.3460 -25.3460 -25.3194 -25.3194
   -25.3194 -25.3194 -25.2991 -25.2990 -25.2990 -25.2990 -25.2735 -25.2735
   -25.2716 -25.2716 -25.2645 -25.2644 -25.2594 -25.2594 -25.2593 -25.2593
   -25.2460 -25.2459 -25.2459 -25.2459 -25.2373 -25.2372 -25.2227 -25.2227
   -25.2227 -25.2227 -25.2216 -25.2216 -25.2215 -25.2215 -25.1929 -25.1929
   -25.1848 -25.1847 -25.1624 -25.1623 -25.1623 -25.1623 -25.1430 -25.1430
   -25.1408 -25.1408 -25.1408 -25.1408 -25.1312 -25.1312 -25.1061 -25.1061
   -25.0882 -25.0882 -25.0882 -25.0881 -25.0866 -25.0866 -25.0866 -25.0866
   -25.0694 -25.0694 -25.0635 -25.0635 -25.0507 -25.0507 -25.0499 -25.0499
   -25.0499 -25.0499 -25.0276 -25.0275 -25.0275 -25.0275 -25.0205 -25.0204
   -25.0150 -25.0150 -25.0126 -25.0125 -25.0125 -25.0125 -24.9998 -24.9998
   -24.9998 -24.9998 -24.9937 -24.9937 -24.9771 -24.9771 -24.9687 -24.9687
   -24.9596 -24.9596 -24.9595 -24.9595 -24.9576 -24.9576 -24.9576 -24.9576
   -24.9363 -24.9363 -24.9363 -24.9363 -24.9157 -24.9157 -24.9156 -24.9156
   -24.9112 -24.9112 -24.9039 -24.9039 -24.8989 -24.8989 -24.8747 -24.8746
   -24.8717 -24.8717 -24.8716 -24.8716 -24.8545 -24.8544 -24.8445 -24.8444
   -24.8408 -24.8407 -24.8248 -24.8248 -24.8247 -24.8247 -24.8211 -24.8211
   -24.8036 -24.8036 -24.8036 -24.8035 -24.8022 -24.8022 -24.8022 -24.8021
   -24.7932 -24.7931 -24.7869 -24.7869 -24.7869 -24.7868 -24.7850 -24.7850
   -24.7731 -24.7731 -24.7731 -24.7731 -24.7728 -24.7728 -24.7648 -24.7648
   -24.7648 -24.7648 -24.7644 -24.7643 -24.7643 -24.7643 -24.7606 -24.7606
   -24.7465 -24.7465 -24.7464 -24.7464 -24.7437 -24.7437 -24.7437 -24.7436
   -24.7201 -24.7200 -24.7200 -24.7200 -24.7037 -24.7037 -24.7011 -24.7011
   -24.6904 -24.6904 -24.6903 -24.6903 -24.6763 -24.6763 -24.6726 -24.6726
   -24.6726 -24.6726 -24.6697 -24.6697 -24.6689 -24.6689 -24.6689 -24.6689
   -11.7487 -11.7486 -11.2562 -11.2561 -11.2561 -11.2561 -11.1989 -11.1989
   -11.0394 -11.0394 -10.9380 -10.9380 -10.8960 -10.8960 -10.8011 -10.8010
   -10.8010 -10.8010 -10.7925 -10.7924 -10.7924 -10.7924 -10.7818 -10.7818
   -10.6955 -10.6955 -10.6642 -10.6642 -10.6641 -10.6641 -10.6527 -10.6526
   -10.6427 -10.6427 -10.6427 -10.6426 -10.4455 -10.4455 -10.4455 -10.4454
   -10.4161 -10.4161 -10.4161 -10.4161 -10.3721 -10.3721 -10.2996 -10.2996
   -10.2725 -10.2724 -10.2724 -10.2724 -10.2595 -10.2594 -10.1836 -10.1836
   -10.1836 -10.1836 -10.1586 -10.1586 -10.0648 -10.0648 -10.0647 -10.0647
    -9.9977  -9.9977  -9.9977  -9.9977  -9.8702  -9.8702  -9.8702  -9.8701
    -2.5037  -2.5037  -2.5037  -2.5037  -2.4783  -2.4783  -2.4783  -2.4783
    -1.9106  -1.9106  -1.9105  -1.9105  -1.8687  -1.8687  -1.8687  -1.8687
    -1.7948  -1.7948  -1.7948  -1.7948  -1.7790  -1.7790  -1.7254  -1.7254
    -1.7254  -1.7253  -1.6927  -1.6927  -1.6866  -1.6866  -1.6866  -1.6866
    -1.5700  -1.5700  -1.5700  -1.5699  -1.4018  -1.4017  -1.3747  -1.3747
    -1.3746  -1.3746  -1.2819  -1.2818  -1.2511  -1.2511  -1.1910  -1.1910
    -1.1910  -1.1910  -1.0892  -1.0892  -1.0115  -1.0115  -0.9781  -0.9781
    -0.8150  -0.8150  -0.8150  -0.8149  -0.7774  -0.7774  -0.7774  -0.7774
    -0.7363  -0.7363  -0.6589  -0.6589  -0.6478  -0.6477  -0.6404  -0.6404
    -0.6404  -0.6404  -0.6299  -0.6298  -0.6121  -0.6121  -0.6121  -0.6121
    -0.5462  -0.5462  -0.5462  -0.5462  -0.5365  -0.5364  -0.5364  -0.5364
    -0.4940  -0.4940  -0.4940  -0.4940  -0.4550  -0.4550  -0.4549  -0.4549
    -0.4046  -0.4046  -0.3442  -0.3442  -0.3442  -0.3442  -0.3390  -0.3390
    -0.3113  -0.3113  -0.3113  -0.3113  -0.2996  -0.2996  -0.2526  -0.2526
    -0.2525  -0.2525  -0.2238  -0.2238  -0.2238  -0.2238  -0.1844  -0.1843
    -0.1540  -0.1540  -0.1540  -0.1540  -0.0979  -0.0979  -0.0950  -0.0950
    -0.0950  -0.0950  -0.0904  -0.0904  -0.0904  -0.0904  -0.0142  -0.0141
    -0.0141  -0.0141   0.0468   0.0468   0.0468   0.0468   0.0845   0.0845
     0.0854   0.0854   0.0854   0.0854   0.1005   0.1005   0.1006   0.1006
     0.1139   0.1139   0.1300   0.1300   0.1301   0.1301   0.1382   0.1382
     0.2427   0.2427   0.2427   0.2427   0.3117   0.3118   0.3812   0.3812
     0.4347   0.4347   0.4560   0.4561   0.4561   0.4561   0.4751   0.4751
     0.5022   0.5022   0.5022   0.5022   0.5758   0.5758   0.5759   0.5759
     0.5994   0.5995   0.5995   0.5995   0.6182   0.6183   0.6680   0.6681
     0.6738   0.6738   0.7426   0.7427   0.7549   0.7549   0.7549   0.7549
     0.7797   0.7798   0.8224   0.8225   0.9214   0.9215   1.0943   1.0944
     1.1275   1.1275   1.2081   1.2082   1.3305   1.3306   1.6808   1.6808
     2.7564   2.7565   2.9714   2.9714   3.2486   3.2487   3.4290   3.4290
     3.5378   3.5379   3.5379   3.5379   3.5592   3.5593   4.0076   4.0077
     4.0846   4.0847   4.2362   4.2363   4.3164   4.3164   4.3164   4.3164
     4.3684   4.3684   4.3684   4.3684   4.4606   4.4606   4.4662   4.4665
     4.5173   4.5174   4.5174   4.5174   4.5602   4.5602   4.5603   4.5603
     4.6363   4.6364   4.6498   4.6498   4.7715   4.7715   4.7715   4.7715
     4.7811   4.7811   4.7811   4.7811   4.8389   4.8389   4.8603   4.8603
     4.8604   4.8604   4.9171   4.9171   5.0068   5.0069   5.0070   5.0070
     5.1238   5.1238   5.1238   5.1239   5.1911   5.1911   5.2446   5.2446
     5.2447   5.2447   5.3268   5.3268   5.3269   5.3269   5.3492   5.3492
     5.3857   5.3857   5.4780   5.4780   5.4780   5.4780   5.6317   5.6317
     5.6990   5.6990   5.7000   5.7000   5.7000   5.7000   5.7173   5.7174
     5.7174   5.7174   5.8353   5.8354   5.8362   5.8362   5.8363   5.8363
     5.8767   5.8767   5.8767   5.8767   5.8861   5.8863   5.8950   5.8952
     5.9124   5.9239   5.9241

          k = 0.2500 0.2500 0.0000 (165752 PWs)   bands (ev):

   -46.5608 -46.5519 -46.5519 -46.5453 -46.5369 -46.5369 -46.5341 -46.5341
   -46.5297 -46.5252 -46.5218 -46.5218 -46.5201 -46.5201 -46.5117 -46.5061
   -46.5061 -46.4982 -46.3649 -46.3551 -46.3550 -46.3475 -46.3387 -46.3386
   -46.3353 -46.3352 -46.3301 -46.3253 -46.3222 -46.3221 -46.3208 -46.3206
   -46.3117 -46.3062 -46.3061 -46.2981 -46.2418 -46.2319 -46.2319 -46.2243
   -46.2151 -46.2150 -46.2115 -46.2114 -46.2058 -46.2007 -46.1975 -46.1975
   -46.1962 -46.1962 -46.1866 -46.1808 -46.1808 -46.1724 -46.1471 -46.1423
   -46.1423 -46.1394 -46.1336 -46.1335 -46.1333 -46.1333 -46.1327 -46.1296
   -46.1249 -46.1248 -46.1213 -46.1212 -46.1154 -46.1091 -46.1090 -46.1011
   -25.4443 -25.4430 -25.4322 -25.4253 -25.4253 -25.4241 -25.4235 -25.4235
   -25.4168 -25.4168 -25.4101 -25.4101 -25.4030 -25.3911 -25.3911 -25.3911
   -25.3888 -25.3646 -25.3646 -25.3535 -25.3535 -25.3418 -25.3381 -25.3143
   -25.3143 -25.3127 -25.3067 -25.2953 -25.2892 -25.2892 -25.2774 -25.2774
   -25.2728 -25.2727 -25.2685 -25.2669 -25.2642 -25.2612 -25.2612 -25.2594
   -25.2593 -25.2537 -25.2476 -25.2475 -25.2405 -25.2322 -25.2322 -25.2305
   -25.2297 -25.2175 -25.2175 -25.2089 -25.2088 -25.2041 -25.2041 -25.1965
   -25.1964 -25.1808 -25.1751 -25.1669 -25.1669 -25.1468 -25.1462 -25.1435
   -25.1434 -25.1294 -25.1294 -25.1277 -25.1276 -25.1136 -25.1102 -25.1101
   -25.1026 -25.0968 -25.0968 -25.0934 -25.0856 -25.0821 -25.0821 -25.0694
   -25.0694 -25.0612 -25.0612 -25.0608 -25.0608 -25.0504 -25.0499 -25.0476
   -25.0386 -25.0386 -25.0366 -25.0335 -25.0335 -25.0269 -25.0269 -25.0230
   -25.0230 -25.0222 -25.0167 -25.0113 -25.0043 -25.0043 -24.9999 -24.9999
   -24.9969 -24.9969 -24.9960 -24.9960 -24.9912 -24.9838 -24.9807 -24.9806
   -24.9653 -24.9653 -24.9648 -24.9647 -24.9637 -24.9637 -24.9537 -24.9427
   -24.9379 -24.9344 -24.9343 -24.9291 -24.9290 -24.9078 -24.9078 -24.9053
   -24.9049 -24.8938 -24.8938 -24.8872 -24.8872 -24.8824 -24.8821 -24.8821
   -24.8820 -24.8820 -24.8640 -24.8589 -24.8500 -24.8488 -24.8488 -24.8484
   -24.8484 -24.8365 -24.8365 -24.8335 -24.8335 -24.8275 -24.8178 -24.8178
   -24.8135 -24.8134 -24.8126 -24.8070 -24.8069 -24.8041 -24.8008 -24.7981
   -24.7969 -24.7969 -24.7967 -24.7909 -24.7901 -24.7853 -24.7853 -24.7770
   -24.7770 -24.7769 -24.7727 -24.7727 -24.7702 -24.7701 -24.7697 -24.7696
   -24.7634 -24.7608 -24.7607 -24.7605 -24.7581 -24.7581 -24.7569 -24.7509
   -24.7436 -24.7355 -24.7306 -24.7298 -24.7297 -24.7297 -24.7296 -24.7262
   -24.7262 -24.7244 -24.7244 -24.7204 -24.7202 -24.7194 -24.7193 -24.7118
   -24.7035 -24.7034 -24.6949 -24.6908 -24.6907 -24.6859 -24.6859 -24.6750
   -24.6746 -24.6701 -24.6701 -24.6697 -24.6696 -24.6527 -24.6519 -24.6489
   -11.8199 -11.5482 -11.5481 -11.2896 -11.2596 -11.1649 -11.1649 -11.0316
   -11.0315 -10.9470 -10.9459 -10.9305 -10.9304 -10.9075 -10.9075 -10.8793
   -10.8793 -10.8361 -10.8211 -10.7944 -10.7943 -10.7509 -10.7509 -10.7095
   -10.7091 -10.7085 -10.7053 -10.7052 -10.6612 -10.6612 -10.6309 -10.6309
   -10.6202 -10.5778 -10.5777 -10.5372 -10.5371 -10.4948 -10.4948 -10.4653
   -10.4652 -10.4344 -10.4121 -10.4014 -10.3666 -10.3665 -10.2922 -10.2922
   -10.2916 -10.2896 -10.2328 -10.2328 -10.2221 -10.2220 -10.1852 -10.1852
   -10.1772 -10.1772 -10.1655 -10.1017 -10.1017 -10.0759 -10.0759 -10.0523
   -10.0421 -10.0420  -9.9693  -9.9524  -9.9523  -9.9224  -9.8402  -9.8078
    -2.6355  -2.6227  -2.5924  -2.5671  -2.2566  -2.2566  -2.2297  -2.2297
    -2.1470  -2.1470  -2.0879  -2.0879  -1.9395  -1.9075  -1.8994  -1.8808
    -1.8649  -1.8649  -1.8514  -1.7995  -1.7995  -1.7312  -1.7291  -1.7273
    -1.7272  -1.6054  -1.6054  -1.6008  -1.6008  -1.5692  -1.5612  -1.5612
    -1.5021  -1.5020  -1.4787  -1.4787  -1.4611  -1.4611  -1.3861  -1.3800
    -1.3800  -1.3552  -1.3515  -1.3515  -1.2978  -1.2638  -1.2638  -1.1668
    -1.1668  -1.0901  -1.0895  -1.0463  -1.0463  -1.0362  -1.0362  -0.9954
    -0.9953  -0.9783  -0.9753  -0.9753  -0.8029  -0.7978  -0.7924  -0.7667
    -0.7666  -0.7317  -0.6768  -0.6742  -0.6664  -0.6360  -0.6360  -0.6204
    -0.5884  -0.5875  -0.5874  -0.5742  -0.5741  -0.5685  -0.5685  -0.5634
    -0.5551  -0.5550  -0.5365  -0.5241  -0.5065  -0.4996  -0.4667  -0.4667
    -0.4402  -0.4402  -0.4352  -0.4352  -0.4293  -0.4293  -0.4076  -0.4076
    -0.4004  -0.4004  -0.3964  -0.3964  -0.3561  -0.3561  -0.3320  -0.3319
    -0.3282  -0.3281  -0.3037  -0.3036  -0.2914  -0.2913  -0.2820  -0.2671
    -0.2505  -0.2441  -0.2101  -0.1964  -0.1920  -0.1919  -0.1905  -0.1853
    -0.1853  -0.1712  -0.1472  -0.1460  -0.1460  -0.1436  -0.1233  -0.0995
    -0.0995  -0.0985  -0.0844  -0.0401  -0.0401  -0.0144  -0.0144  -0.0100
    -0.0100   0.0087   0.0258   0.0258   0.0409   0.0667   0.0798   0.0808
     0.0823   0.0823   0.1091   0.1098   0.1142   0.1157   0.1157   0.1574
     0.1574   0.1590   0.1740   0.1740   0.1835   0.1835   0.1954   0.1954
     0.2204   0.2205   0.2236   0.2237   0.2456   0.2456   0.2822   0.2822
     0.3102   0.3102   0.3342   0.3342   0.3481   0.3482   0.3724   0.4730
     0.4730   0.4986   0.5211   0.5211   0.5246   0.5246   0.5293   0.5318
     0.5544   0.6368   0.6368   0.6368   0.6548   0.6583   0.6618   0.6619
     0.6968   0.6968   0.6986   0.7303   0.7303   0.7980   0.7980   0.8342
     0.8457   0.8714   0.8715   0.9179   0.9179   0.9708   0.9708   1.0110
     1.0263   1.1241   1.2878   1.2879   1.3628   1.5506   1.5843   1.7747
     2.5957   2.8440   2.8443   3.0281   3.0281   3.0838   3.4097   3.4097
     3.6938   3.6938   3.7984   3.8050   3.8050   3.8913   3.9095   3.9223
     3.9223   3.9429   4.0964   4.0964   4.1658   4.1658   4.1894   4.1894
     4.2490   4.2519   4.3245   4.3857   4.3901   4.4019   4.4020   4.4086
     4.4086   4.4168   4.4834   4.4834   4.5717   4.6550   4.6550   4.6590
     4.6607   4.6607   4.6796   4.6796   4.7237   4.7238   4.8269   4.8270
     4.8318   4.8318   4.8536   4.8656   4.8656   4.9262   4.9296   4.9379
     4.9379   4.9459   5.0201   5.0424   5.0616   5.0616   5.0838   5.0838
     5.1243   5.1326   5.1327   5.1447   5.1488   5.1490   5.1563   5.2333
     5.2503   5.3178   5.3179   5.3679   5.3680   5.4060   5.4060   5.4358
     5.4358   5.4870   5.4871   5.5085   5.5085   5.5163   5.5243   5.5243
     5.5772   5.5916   5.5916   5.5967   5.5968   5.6522   5.6522   5.6717
     5.6717   5.7075   5.7270   5.7406   5.7406   5.7584   5.7882   5.7882
     5.8253   5.8598   5.8601   5.8656   5.8809   5.8835   5.8835   5.8989
     5.9221   5.9394   5.9725

          k = 0.2500-0.5000 0.0000 (165780 PWs)   bands (ev):

   -46.5573 -46.5573 -46.5493 -46.5493 -46.5358 -46.5358 -46.5284 -46.5284
   -46.5279 -46.5279 -46.5273 -46.5273 -46.5208 -46.5208 -46.5083 -46.5082
   -46.5012 -46.5012 -46.3611 -46.3610 -46.3522 -46.3520 -46.3374 -46.3372
   -46.3296 -46.3295 -46.3286 -46.3285 -46.3276 -46.3275 -46.3213 -46.3211
   -46.3084 -46.3082 -46.3013 -46.3011 -46.2380 -46.2379 -46.2290 -46.2290
   -46.2137 -46.2136 -46.2055 -46.2055 -46.2043 -46.2043 -46.2031 -46.2031
   -46.1967 -46.1966 -46.1830 -46.1830 -46.1756 -46.1756 -46.1453 -46.1452
   -46.1413 -46.1412 -46.1335 -46.1334 -46.1315 -46.1314 -46.1295 -46.1294
   -46.1275 -46.1275 -46.1227 -46.1227 -46.1116 -46.1115 -46.1043 -46.1042
   -25.4472 -25.4472 -25.4287 -25.4287 -25.4236 -25.4235 -25.4231 -25.4231
   -25.4160 -25.4160 -25.4042 -25.4042 -25.4018 -25.4018 -25.4015 -25.4015
   -25.3760 -25.3760 -25.3501 -25.3501 -25.3403 -25.3403 -25.3195 -25.3195
   -25.3151 -25.3151 -25.3102 -25.3102 -25.2955 -25.2955 -25.2773 -25.2772
   -25.2646 -25.2645 -25.2641 -25.2640 -25.2612 -25.2611 -25.2538 -25.2537
   -25.2531 -25.2530 -25.2463 -25.2463 -25.2446 -25.2446 -25.2424 -25.2424
   -25.2320 -25.2320 -25.2293 -25.2293 -25.1935 -25.1934 -25.1878 -25.1878
   -25.1810 -25.1810 -25.1787 -25.1787 -25.1568 -25.1568 -25.1546 -25.1546
   -25.1385 -25.1385 -25.1204 -25.1204 -25.1075 -25.1075 -25.1051 -25.1051
   -25.0978 -25.0978 -25.0951 -25.0951 -25.0934 -25.0934 -25.0880 -25.0880
   -25.0699 -25.0699 -25.0590 -25.0590 -25.0586 -25.0586 -25.0513 -25.0513
   -25.0507 -25.0506 -25.0369 -25.0369 -25.0312 -25.0312 -25.0152 -25.0151
   -25.0119 -25.0119 -25.0036 -25.0036 -25.0032 -25.0031 -25.0030 -25.0030
   -25.0022 -25.0021 -24.9915 -24.9915 -24.9838 -24.9838 -24.9807 -24.9807
   -24.9790 -24.9790 -24.9678 -24.9678 -24.9569 -24.9569 -24.9433 -24.9433
   -24.9399 -24.9399 -24.9255 -24.9254 -24.9137 -24.9136 -24.9086 -24.9086
   -24.9060 -24.9060 -24.8918 -24.8918 -24.8897 -24.8897 -24.8695 -24.8694
   -24.8687 -24.8687 -24.8644 -24.8644 -24.8489 -24.8489 -24.8476 -24.8476
   -24.8470 -24.8470 -24.8400 -24.8400 -24.8294 -24.8294 -24.8285 -24.8285
   -24.8251 -24.8251 -24.8110 -24.8110 -24.8100 -24.8100 -24.7950 -24.7950
   -24.7904 -24.7904 -24.7899 -24.7898 -24.7867 -24.7867 -24.7827 -24.7827
   -24.7756 -24.7756 -24.7688 -24.7688 -24.7686 -24.7686 -24.7682 -24.7682
   -24.7652 -24.7652 -24.7592 -24.7592 -24.7551 -24.7550 -24.7545 -24.7544
   -24.7504 -24.7504 -24.7472 -24.7472 -24.7270 -24.7270 -24.7267 -24.7266
   -24.7211 -24.7211 -24.7144 -24.7143 -24.7096 -24.7096 -24.7050 -24.7050
   -24.6976 -24.6975 -24.6946 -24.6946 -24.6907 -24.6907 -24.6902 -24.6901
   -24.6893 -24.6892 -24.6585 -24.6585 -24.6569 -24.6569 -24.6548 -24.6548
   -11.7113 -11.7113 -11.4447 -11.4447 -11.1669 -11.1668 -11.0705 -11.0704
   -11.0080 -11.0080 -10.9453 -10.9453 -10.9137 -10.9137 -10.8821 -10.8820
   -10.8248 -10.8248 -10.8082 -10.8082 -10.7889 -10.7889 -10.7546 -10.7545
   -10.7528 -10.7528 -10.6783 -10.6783 -10.6722 -10.6722 -10.6224 -10.6224
   -10.6069 -10.6068 -10.5510 -10.5510 -10.5236 -10.5235 -10.5120 -10.5120
   -10.4121 -10.4120 -10.4058 -10.4058 -10.3532 -10.3532 -10.2923 -10.2923
   -10.2744 -10.2744 -10.2408 -10.2407 -10.2375 -10.2375 -10.1672 -10.1672
   -10.1479 -10.1478 -10.1338 -10.1338 -10.1237 -10.1236 -10.1037 -10.1037
   -10.0389 -10.0388  -9.9690  -9.9690  -9.9155  -9.9155  -9.7965  -9.7965
    -2.6774  -2.6774  -2.6605  -2.6604  -2.2633  -2.2633  -2.2242  -2.2242
    -2.0282  -2.0282  -1.9836  -1.9836  -1.9731  -1.9731  -1.9014  -1.9014
    -1.8670  -1.8670  -1.8434  -1.8434  -1.8095  -1.8095  -1.7655  -1.7655
    -1.6928  -1.6927  -1.6547  -1.6546  -1.5684  -1.5683  -1.5509  -1.5509
    -1.4738  -1.4738  -1.4543  -1.4542  -1.4173  -1.4172  -1.3214  -1.3214
    -1.3097  -1.3096  -1.2812  -1.2811  -1.2374  -1.2373  -1.2052  -1.2051
    -1.1979  -1.1979  -1.1298  -1.1298  -1.1296  -1.1295  -1.0459  -1.0458
    -1.0413  -1.0413  -0.9779  -0.9779  -0.9334  -0.9334  -0.8541  -0.8541
    -0.6767  -0.6767  -0.6594  -0.6594  -0.6258  -0.6258  -0.6120  -0.6120
    -0.5520  -0.5519  -0.5457  -0.5457  -0.5431  -0.5431  -0.5392  -0.5392
    -0.5368  -0.5368  -0.5317  -0.5317  -0.5190  -0.5190  -0.5106  -0.5106
    -0.4852  -0.4851  -0.4790  -0.4790  -0.4603  -0.4603  -0.4466  -0.4466
    -0.4132  -0.4132  -0.3853  -0.3853  -0.3773  -0.3773  -0.3700  -0.3700
    -0.3604  -0.3604  -0.3419  -0.3419  -0.3302  -0.3302  -0.2802  -0.2802
    -0.2586  -0.2586  -0.2220  -0.2220  -0.2024  -0.2024  -0.1531  -0.1531
    -0.1527  -0.1527  -0.1507  -0.1507  -0.1307  -0.1307  -0.0715  -0.0714
    -0.0125  -0.0124  -0.0107  -0.0106   0.0026   0.0026   0.0166   0.0166
     0.0420   0.0420   0.0694   0.0695   0.0902   0.0902   0.0999   0.0999
     0.1079   0.1079   0.1188   0.1189   0.1402   0.1403   0.1569   0.1570
     0.1684   0.1684   0.1768   0.1768   0.1972   0.1973   0.2008   0.2008
     0.3033   0.3033   0.3077   0.3077   0.3171   0.3171   0.3413   0.3413
     0.3440   0.3441   0.3655   0.3656   0.4580   0.4580   0.5107   0.5108
     0.5114   0.5114   0.5205   0.5205   0.5362   0.5363   0.5435   0.5436
     0.5785   0.5785   0.6074   0.6074   0.6241   0.6242   0.6354   0.6354
     0.6839   0.6840   0.6848   0.6849   0.7494   0.7494   0.7845   0.7845
     0.8017   0.8017   0.8222   0.8222   0.9590   0.9590   1.0045   1.0045
     1.0204   1.0204   1.0884   1.0885   1.2767   1.2767   1.5269   1.5269
     2.9107   2.9108   3.0780   3.0780   3.2608   3.2609   3.3975   3.3975
     3.5221   3.5222   3.6576   3.6577   3.7211   3.7211   3.8305   3.8306
     3.9225   3.9226   4.0342   4.0343   4.1543   4.1543   4.1633   4.1633
     4.2577   4.2577   4.2947   4.2947   4.3085   4.3085   4.3347   4.3348
     4.4230   4.4232   4.4591   4.4593   4.4764   4.4764   4.6178   4.6178
     4.6968   4.6969   4.7176   4.7177   4.7382   4.7383   4.7699   4.7700
     4.8098   4.8098   4.8290   4.8290   4.8625   4.8626   4.9388   4.9389
     4.9682   4.9682   5.0221   5.0221   5.0840   5.0840   5.1078   5.1078
     5.1663   5.1663   5.1722   5.1723   5.2188   5.2188   5.2753   5.2753
     5.2845   5.2845   5.3216   5.3217   5.4013   5.4013   5.4112   5.4112
     5.4589   5.4589   5.4709   5.4709   5.4768   5.4769   5.5206   5.5207
     5.6191   5.6192   5.6393   5.6394   5.6491   5.6491   5.7179   5.7179
     5.8034   5.8041   5.8064   5.8065   5.8383   5.8384   5.8470   5.8474
     5.8619   5.8619   5.9034   5.9036   5.9169   5.9170   5.9184   5.9185
     5.9686   5.9686   5.9797

          k =-0.5000-0.5000 0.0000 (165708 PWs)   bands (ev):

   -46.5542 -46.5542 -46.5542 -46.5542 -46.5282 -46.5282 -46.5282 -46.5282
   -46.5282 -46.5282 -46.5282 -46.5282 -46.5273 -46.5273 -46.5039 -46.5039
   -46.5039 -46.5039 -46.3577 -46.3576 -46.3575 -46.3574 -46.3293 -46.3292
   -46.3292 -46.3291 -46.3291 -46.3290 -46.3290 -46.3289 -46.3274 -46.3273
   -46.3041 -46.3039 -46.3038 -46.3038 -46.2345 -46.2345 -46.2345 -46.2345
   -46.2051 -46.2051 -46.2050 -46.2050 -46.2050 -46.2050 -46.2050 -46.2050
   -46.2029 -46.2028 -46.1784 -46.1784 -46.1784 -46.1784 -46.1438 -46.1438
   -46.1437 -46.1437 -46.1318 -46.1318 -46.1284 -46.1284 -46.1284 -46.1283
   -46.1283 -46.1283 -46.1282 -46.1282 -46.1073 -46.1072 -46.1071 -46.1071
   -25.4511 -25.4511 -25.4265 -25.4265 -25.4265 -25.4265 -25.4128 -25.4127
   -25.4103 -25.4103 -25.4103 -25.4103 -25.4103 -25.4103 -25.4103 -25.4103
   -25.3614 -25.3613 -25.3613 -25.3613 -25.3210 -25.3210 -25.3114 -25.3114
   -25.3114 -25.3114 -25.2912 -25.2912 -25.2912 -25.2912 -25.2912 -25.2912
   -25.2912 -25.2912 -25.2631 -25.2630 -25.2629 -25.2629 -25.2553 -25.2553
   -25.2553 -25.2552 -25.2552 -25.2552 -25.2552 -25.2551 -25.2494 -25.2494
   -25.2135 -25.2135 -25.2135 -25.2135 -25.2128 -25.2127 -25.2126 -25.2126
   -25.1480 -25.1480 -25.1480 -25.1479 -25.1436 -25.1436 -25.1436 -25.1436
   -25.1436 -25.1436 -25.1436 -25.1436 -25.1318 -25.1318 -25.1318 -25.1318
   -25.1016 -25.1016 -25.0725 -25.0725 -25.0724 -25.0724 -25.0676 -25.0676
   -25.0676 -25.0676 -25.0676 -25.0676 -25.0675 -25.0675 -25.0631 -25.0631
   -25.0631 -25.0631 -25.0179 -25.0179 -25.0179 -25.0179 -25.0179 -25.0178
   -25.0178 -25.0178 -25.0171 -25.0171 -25.0170 -25.0170 -25.0161 -25.0160
   -24.9800 -24.9800 -24.9800 -24.9800 -24.9791 -24.9791 -24.9791 -24.9791
   -24.9791 -24.9790 -24.9790 -24.9790 -24.9740 -24.9740 -24.9740 -24.9740
   -24.9337 -24.9337 -24.9015 -24.9015 -24.9015 -24.9015 -24.8908 -24.8908
   -24.8908 -24.8908 -24.8865 -24.8865 -24.8865 -24.8865 -24.8696 -24.8696
   -24.8696 -24.8696 -24.8695 -24.8695 -24.8695 -24.8695 -24.8534 -24.8534
   -24.8534 -24.8534 -24.8281 -24.8281 -24.8281 -24.8281 -24.8208 -24.8208
   -24.8208 -24.8208 -24.8208 -24.8208 -24.8208 -24.8208 -24.8124 -24.8124
   -24.8124 -24.8124 -24.7873 -24.7873 -24.7803 -24.7803 -24.7802 -24.7802
   -24.7755 -24.7754 -24.7754 -24.7754 -24.7754 -24.7754 -24.7754 -24.7754
   -24.7551 -24.7551 -24.7551 -24.7551 -24.7446 -24.7446 -24.7343 -24.7343
   -24.7343 -24.7342 -24.7275 -24.7274 -24.7218 -24.7217 -24.7217 -24.7217
   -24.7217 -24.7217 -24.7216 -24.7216 -24.7152 -24.7152 -24.7088 -24.7088
   -24.7087 -24.7087 -24.7087 -24.7087 -24.7087 -24.7086 -24.6923 -24.6923
   -24.6922 -24.6922 -24.6537 -24.6537 -24.6506 -24.6506 -24.6506 -24.6506
   -11.6048 -11.6047 -11.6047 -11.6047 -11.0766 -11.0766 -11.0765 -11.0765
   -10.9192 -10.9192 -10.9192 -10.9192 -10.9192 -10.9191 -10.9191 -10.9191
   -10.8473 -10.8471 -10.8471 -10.8471 -10.8463 -10.8463 -10.8463 -10.8463
   -10.6708 -10.6708 -10.6708 -10.6708 -10.6087 -10.6087 -10.6087 -10.6087
   -10.6087 -10.6086 -10.6086 -10.6085 -10.5370 -10.5369 -10.5369 -10.5369
   -10.4271 -10.4271 -10.4270 -10.4269 -10.3026 -10.3026 -10.3026 -10.3025
   -10.2040 -10.2040 -10.2040 -10.2040 -10.2040 -10.2040 -10.2040 -10.2039
   -10.1903 -10.1901 -10.1901 -10.1901 -10.0653 -10.0653 -10.0652 -10.0652
   -10.0652 -10.0652 -10.0651 -10.0651  -9.8842  -9.8842  -9.7693  -9.7693
    -2.7401  -2.7401  -2.7267  -2.7267  -2.0342  -2.0342  -2.0209  -2.0208
    -2.0208  -2.0208  -2.0208  -2.0208  -2.0208  -2.0208  -1.9622  -1.9622
    -1.9622  -1.9622  -1.9622  -1.9622  -1.9622  -1.9621  -1.9432  -1.9432
    -1.4683  -1.4683  -1.4682  -1.4682  -1.4317  -1.4317  -1.4317  -1.4317
    -1.4281  -1.4281  -1.4281  -1.4281  -1.3738  -1.3738  -1.3738  -1.3738
    -1.3738  -1.3738  -1.3738  -1.3738  -1.2086  -1.2085  -1.2085  -1.2085
    -1.2085  -1.2085  -1.2085  -1.2085  -1.1391  -1.1391  -1.1391  -1.1390
    -1.0589  -1.0589  -1.0589  -1.0589  -1.0273  -1.0273  -1.0273  -1.0273
    -0.7006  -0.7006  -0.6904  -0.6904  -0.6124  -0.6124  -0.5807  -0.5807
    -0.5531  -0.5531  -0.5531  -0.5531  -0.5531  -0.5531  -0.5531  -0.5531
    -0.4850  -0.4850  -0.4849  -0.4849  -0.4849  -0.4849  -0.4849  -0.4849
    -0.4038  -0.4038  -0.4038  -0.4037  -0.4037  -0.4037  -0.4037  -0.4037
    -0.3971  -0.3970  -0.3970  -0.3970  -0.3850  -0.3850  -0.3850  -0.3850
    -0.3450  -0.3450  -0.3449  -0.3449  -0.3113  -0.3113  -0.3113  -0.3113
    -0.3113  -0.3113  -0.3113  -0.3113  -0.2941  -0.2941  -0.1829  -0.1829
    -0.1696  -0.1696  -0.1695  -0.1695  -0.1627  -0.1627  -0.0218  -0.0218
     0.0194   0.0195   0.0195   0.0195   0.0392   0.0393   0.0393   0.0393
     0.0655   0.0655   0.0655   0.0655   0.0655   0.0655   0.0655   0.0656
     0.1710   0.1710   0.1710   0.1710   0.1710   0.1710   0.1710   0.1710
     0.2871   0.2871   0.2871   0.2871   0.3248   0.3248   0.3249   0.3249
     0.3386   0.3386   0.3386   0.3386   0.3945   0.3945   0.3945   0.3945
     0.4563   0.4563   0.4564   0.4564   0.4878   0.4878   0.4878   0.4878
     0.4878   0.4878   0.4879   0.4879   0.5131   0.5131   0.5131   0.5131
     0.5131   0.5131   0.5132   0.5132   0.5976   0.5976   0.5976   0.5976
     0.7111   0.7111   0.7111   0.7111   0.7161   0.7162   0.7162   0.7162
     0.8263   0.8264   0.8264   0.8265   0.8423   0.8423   0.8423   0.8424
     1.0618   1.0618   1.0618   1.0618   1.2247   1.2247   1.2247   1.2248
     3.3032   3.3033   3.3033   3.3033   3.3090   3.3090   3.3090   3.3090
     3.4096   3.4096   3.4096   3.4096   3.8214   3.8214   3.8214   3.8214
     3.9345   3.9345   3.9345   3.9345   3.9345   3.9345   3.9346   3.9346
     4.1185   4.1186   4.1186   4.1186   4.4068   4.4069   4.4070   4.4070
     4.4277   4.4278   4.4278   4.4278   4.5207   4.5207   4.5207   4.5207
     4.5312   4.5312   4.5312   4.5312   4.8496   4.8497   4.8497   4.8497
     4.8497   4.8497   4.8497   4.8497   4.9143   4.9143   4.9144   4.9144
     4.9579   4.9579   4.9579   4.9579   5.1718   5.1719   5.1719   5.1719
     5.2126   5.2127   5.2127   5.2127   5.2127   5.2127   5.2127   5.2127
     5.2142   5.2142   5.3748   5.3748   5.4876   5.4876   5.4877   5.4878
     5.4878   5.4879   5.4879   5.4880   5.5540   5.5541   5.5541   5.5541
     5.7512   5.7512   5.7512   5.7512   5.7840   5.7840   5.7840   5.7840
     5.7998   5.8001   5.8001   5.8002   5.8003   5.8003   5.8003   5.8003
     5.9408   5.9409   5.9409   5.9410   5.9411   5.9412   5.9413   5.9413
     5.9630   5.9689   6.0627

          k = 0.2500 0.0000 0.0000 (165664 PWs)   bands (ev):

   -46.5619 -46.5528 -46.5449 -46.5449 -46.5400 -46.5400 -46.5373 -46.5320
   -46.5320 -46.5233 -46.5233 -46.5199 -46.5163 -46.5163 -46.5125 -46.5125
   -46.5054 -46.4972 -46.3662 -46.3560 -46.3474 -46.3473 -46.3418 -46.3417
   -46.3391 -46.3328 -46.3327 -46.3235 -46.3234 -46.3205 -46.3165 -46.3164
   -46.3128 -46.3127 -46.3054 -46.2971 -46.2431 -46.2329 -46.2241 -46.2241
   -46.2183 -46.2183 -46.2155 -46.2088 -46.2087 -46.1989 -46.1988 -46.1961
   -46.1915 -46.1915 -46.1878 -46.1878 -46.1801 -46.1713 -46.1477 -46.1427
   -46.1383 -46.1383 -46.1369 -46.1368 -46.1334 -46.1333 -46.1332 -46.1273
   -46.1272 -46.1207 -46.1200 -46.1200 -46.1149 -46.1149 -46.1082 -46.1000
   -25.4358 -25.4358 -25.4334 -25.4320 -25.4319 -25.4250 -25.4250 -25.4236
   -25.4173 -25.4173 -25.4081 -25.4058 -25.4058 -25.3873 -25.3855 -25.3855
   -25.3787 -25.3787 -25.3604 -25.3580 -25.3580 -25.3536 -25.3536 -25.3333
   -25.2992 -25.2991 -25.2909 -25.2909 -25.2865 -25.2858 -25.2776 -25.2776
   -25.2774 -25.2774 -25.2698 -25.2698 -25.2679 -25.2670 -25.2670 -25.2587
   -25.2586 -25.2533 -25.2533 -25.2480 -25.2435 -25.2342 -25.2250 -25.2250
   -25.2250 -25.2250 -25.2111 -25.2050 -25.2050 -25.2017 -25.1937 -25.1937
   -25.1814 -25.1805 -25.1805 -25.1692 -25.1692 -25.1680 -25.1659 -25.1469
   -25.1343 -25.1343 -25.1249 -25.1213 -25.1213 -25.1182 -25.1182 -25.1061
   -25.1047 -25.1014 -25.1011 -25.1011 -25.0869 -25.0798 -25.0651 -25.0651
   -25.0578 -25.0550 -25.0550 -25.0544 -25.0543 -25.0468 -25.0419 -25.0387
   -25.0387 -25.0384 -25.0350 -25.0338 -25.0332 -25.0332 -25.0276 -25.0251
   -25.0251 -25.0214 -25.0214 -25.0174 -25.0173 -25.0101 -25.0041 -25.0041
   -25.0029 -25.0029 -25.0003 -24.9992 -24.9909 -24.9799 -24.9771 -24.9771
   -24.9740 -24.9740 -24.9568 -24.9568 -24.9548 -24.9548 -24.9522 -24.9478
   -24.9478 -24.9389 -24.9277 -24.9277 -24.9261 -24.9144 -24.9077 -24.9075
   -24.9074 -24.9026 -24.9013 -24.9013 -24.8863 -24.8855 -24.8801 -24.8728
   -24.8728 -24.8686 -24.8677 -24.8630 -24.8560 -24.8551 -24.8551 -24.8429
   -24.8383 -24.8352 -24.8351 -24.8340 -24.8233 -24.8233 -24.8202 -24.8146
   -24.8146 -24.8093 -24.8089 -24.8089 -24.8070 -24.8034 -24.7983 -24.7983
   -24.7953 -24.7953 -24.7953 -24.7953 -24.7888 -24.7886 -24.7886 -24.7779
   -24.7779 -24.7774 -24.7739 -24.7739 -24.7711 -24.7711 -24.7627 -24.7627
   -24.7610 -24.7610 -24.7587 -24.7587 -24.7475 -24.7474 -24.7468 -24.7468
   -24.7456 -24.7454 -24.7454 -24.7445 -24.7444 -24.7422 -24.7329 -24.7329
   -24.7314 -24.7314 -24.7236 -24.7168 -24.7120 -24.7120 -24.7101 -24.6982
   -24.6982 -24.6981 -24.6980 -24.6942 -24.6942 -24.6892 -24.6888 -24.6826
   -24.6825 -24.6810 -24.6604 -24.6577 -24.6557 -24.6557 -24.6540 -24.6540
   -11.8579 -11.5844 -11.3555 -11.3555 -11.2924 -11.1982 -11.1078 -11.1078
   -11.0622 -10.9700 -10.9595 -10.9369 -10.9050 -10.8814 -10.8814 -10.8690
   -10.8690 -10.8656 -10.8098 -10.7772 -10.7699 -10.7699 -10.7403 -10.7104
   -10.7103 -10.6871 -10.6870 -10.6836 -10.6836 -10.6815 -10.6593 -10.6080
   -10.6079 -10.5749 -10.5748 -10.5242 -10.4934 -10.4934 -10.4802 -10.4801
   -10.4780 -10.4780 -10.4195 -10.3930 -10.3515 -10.3515 -10.3125 -10.3077
   -10.3037 -10.3037 -10.2565 -10.2487 -10.2437 -10.2437 -10.1969 -10.1584
   -10.1584 -10.1246 -10.1224 -10.1224 -10.1024 -10.1024 -10.0682 -10.0682
    -9.9867  -9.9867  -9.9842  -9.9842  -9.9299  -9.9299  -9.8666  -9.8665
    -2.4810  -2.4810  -2.4647  -2.4647  -2.3994  -2.3994  -2.3617  -2.3617
    -2.1261  -2.1260  -2.1082  -2.1082  -1.9463  -1.9463  -1.8503  -1.8502
    -1.8075  -1.7961  -1.7961  -1.7648  -1.7647  -1.7320  -1.7126  -1.7126
    -1.6883  -1.6883  -1.6677  -1.6677  -1.6654  -1.5849  -1.5849  -1.5235
    -1.5223  -1.5203  -1.5203  -1.4956  -1.4956  -1.4512  -1.4226  -1.4226
    -1.3897  -1.3765  -1.3697  -1.3696  -1.3122  -1.2518  -1.2518  -1.1170
    -1.1111  -1.1110  -1.0795  -1.0083  -0.9945  -0.9834  -0.9833  -0.9591
    -0.9578  -0.9578  -0.9541  -0.9447  -0.7988  -0.7944  -0.6961  -0.6960
    -0.6956  -0.6823  -0.6823  -0.6488  -0.6356  -0.6355  -0.6188  -0.6188
    -0.5931  -0.5768  -0.5596  -0.5596  -0.5390  -0.5390  -0.5303  -0.5303
    -0.5277  -0.5277  -0.5202  -0.5201  -0.5149  -0.5149  -0.4915  -0.4915
    -0.4843  -0.4842  -0.4720  -0.4720  -0.4716  -0.4597  -0.4597  -0.4436
    -0.4436  -0.4363  -0.3656  -0.3656  -0.3568  -0.3500  -0.3488  -0.3488
    -0.3360  -0.3281  -0.3076  -0.3076  -0.2932  -0.2840  -0.2424  -0.2424
    -0.2121  -0.2121  -0.2112  -0.2112  -0.1783  -0.1783  -0.1719  -0.1715
    -0.1715  -0.1336  -0.1260  -0.1253  -0.1252  -0.1140  -0.1126  -0.1125
    -0.0872  -0.0872  -0.0801  -0.0801  -0.0781  -0.0781  -0.0651  -0.0651
    -0.0589  -0.0129  -0.0129   0.0016   0.0016   0.0119   0.0174   0.0174
     0.0536   0.0536   0.0677   0.0760   0.0780   0.0830   0.0831   0.1009
     0.1089   0.1089   0.1171   0.1184   0.1408   0.1408   0.1493   0.1493
     0.1608   0.1608   0.1834   0.1834   0.2316   0.2384   0.2384   0.2496
     0.2573   0.2951   0.2951   0.3024   0.3439   0.3439   0.3744   0.3744
     0.4150   0.4298   0.4298   0.4390   0.4391   0.5413   0.5506   0.5731
     0.6444   0.6533   0.6533   0.6660   0.6930   0.6930   0.7066   0.7191
     0.7280   0.7280   0.7502   0.7502   0.7805   0.7843   0.8036   0.8405
     0.8440   0.8704   0.9514   1.0345   1.0474   1.0504   1.0552   1.0556
     1.0811   1.0811   1.2029   1.4380   1.5727   1.6118   1.7743   1.9100
     2.4013   2.6770   2.8231   2.8884   2.9134   3.1962   3.1963   3.2975
     3.6271   3.6623   3.8028   3.8397   3.9128   4.0150   4.0150   4.0429
     4.1537   4.1537   4.1702   4.1760   4.2314   4.2810   4.3365   4.3610
     4.3610   4.3901   4.4030   4.4030   4.4324   4.4324   4.4359   4.4378
     4.4378   4.5138   4.5138   4.5757   4.5757   4.5912   4.6458   4.6539
     4.6539   4.6684   4.6758   4.6974   4.6974   4.7184   4.7185   4.7837
     4.8165   4.8165   4.8169   4.8548   4.8548   4.8591   4.8592   4.8805
     4.9327   4.9608   4.9608   5.0157   5.0461   5.0507   5.0507   5.0766
     5.0766   5.0948   5.1118   5.1409   5.1409   5.1992   5.2220   5.2221
     5.2290   5.2290   5.2346   5.2346   5.3073   5.3074   5.3396   5.3396
     5.4070   5.4787   5.4836   5.5431   5.5641   5.5641   5.5687   5.5688
     5.5966   5.6207   5.6207   5.6319   5.6319   5.7168   5.7219   5.7219
     5.7264   5.7265   5.7295   5.7383   5.7738   5.7743   5.7774   5.7995
     5.8388   5.8388   5.8417   5.8417   5.8470   5.8482   5.8967   5.8967
     5.9217   5.9219   5.9509

          k =-0.5000 0.0000 0.0000 (165810 PWs)   bands (ev):

   -46.5584 -46.5584 -46.5430 -46.5430 -46.5430 -46.5430 -46.5285 -46.5285
   -46.5276 -46.5276 -46.5276 -46.5276 -46.5140 -46.5140 -46.5140 -46.5140
   -46.5003 -46.5003 -46.3623 -46.3622 -46.3452 -46.3451 -46.3451 -46.3451
   -46.3297 -46.3296 -46.3281 -46.3280 -46.3279 -46.3278 -46.3143 -46.3141
   -46.3141 -46.3141 -46.3003 -46.3002 -46.2392 -46.2391 -46.2219 -46.2218
   -46.2218 -46.2218 -46.2057 -46.2057 -46.2037 -46.2036 -46.2036 -46.2036
   -46.1892 -46.1892 -46.1892 -46.1891 -46.1747 -46.1746 -46.1458 -46.1458
   -46.1378 -46.1378 -46.1378 -46.1377 -46.1307 -46.1306 -46.1306 -46.1305
   -46.1272 -46.1272 -46.1170 -46.1170 -46.1170 -46.1169 -46.1033 -46.1032
   -25.4368 -25.4368 -25.4368 -25.4368 -25.4295 -25.4295 -25.4202 -25.4201
   -25.4201 -25.4201 -25.3985 -25.3985 -25.3902 -25.3902 -25.3902 -25.3902
   -25.3793 -25.3793 -25.3793 -25.3793 -25.3460 -25.3460 -25.3194 -25.3194
   -25.3194 -25.3194 -25.2991 -25.2990 -25.2990 -25.2990 -25.2735 -25.2735
   -25.2716 -25.2716 -25.2644 -25.2644 -25.2594 -25.2593 -25.2593 -25.2593
   -25.2460 -25.2459 -25.2459 -25.2459 -25.2373 -25.2372 -25.2227 -25.2227
   -25.2227 -25.2227 -25.2216 -25.2216 -25.2215 -25.2215 -25.1929 -25.1929
   -25.1848 -25.1847 -25.1623 -25.1623 -25.1623 -25.1623 -25.1430 -25.1430
   -25.1408 -25.1408 -25.1408 -25.1407 -25.1312 -25.1312 -25.1061 -25.1061
   -25.0882 -25.0882 -25.0881 -25.0881 -25.0866 -25.0866 -25.0866 -25.0866
   -25.0694 -25.0694 -25.0635 -25.0635 -25.0507 -25.0507 -25.0499 -25.0499
   -25.0499 -25.0499 -25.0275 -25.0275 -25.0275 -25.0275 -25.0205 -25.0204
   -25.0150 -25.0150 -25.0126 -25.0126 -25.0125 -25.0125 -24.9998 -24.9998
   -24.9998 -24.9998 -24.9937 -24.9937 -24.9771 -24.9771 -24.9687 -24.9687
   -24.9596 -24.9596 -24.9595 -24.9595 -24.9576 -24.9576 -24.9576 -24.9576
   -24.9363 -24.9363 -24.9363 -24.9363 -24.9157 -24.9157 -24.9157 -24.9156
   -24.9112 -24.9112 -24.9039 -24.9039 -24.8989 -24.8989 -24.8747 -24.8746
   -24.8717 -24.8717 -24.8717 -24.8716 -24.8545 -24.8544 -24.8444 -24.8444
   -24.8408 -24.8407 -24.8248 -24.8247 -24.8247 -24.8247 -24.8211 -24.8211
   -24.8036 -24.8036 -24.8036 -24.8035 -24.8022 -24.8022 -24.8021 -24.8021
   -24.7932 -24.7931 -24.7869 -24.7869 -24.7869 -24.7868 -24.7850 -24.7850
   -24.7731 -24.7731 -24.7731 -24.7731 -24.7728 -24.7728 -24.7648 -24.7648
   -24.7648 -24.7648 -24.7644 -24.7644 -24.7643 -24.7642 -24.7606 -24.7605
   -24.7465 -24.7465 -24.7465 -24.7464 -24.7437 -24.7437 -24.7436 -24.7436
   -24.7200 -24.7200 -24.7200 -24.7200 -24.7037 -24.7037 -24.7011 -24.7011
   -24.6904 -24.6903 -24.6903 -24.6903 -24.6763 -24.6763 -24.6726 -24.6726
   -24.6726 -24.6725 -24.6697 -24.6697 -24.6689 -24.6689 -24.6689 -24.6688
   -11.7487 -11.7486 -11.2562 -11.2561 -11.2561 -11.2561 -11.1989 -11.1989
   -11.0394 -11.0394 -10.9380 -10.9380 -10.8960 -10.8960 -10.8011 -10.8010
   -10.8010 -10.8010 -10.7925 -10.7924 -10.7924 -10.7924 -10.7818 -10.7818
   -10.6955 -10.6955 -10.6642 -10.6642 -10.6641 -10.6641 -10.6527 -10.6526
   -10.6427 -10.6427 -10.6427 -10.6426 -10.4455 -10.4455 -10.4455 -10.4454
   -10.4161 -10.4161 -10.4161 -10.4161 -10.3721 -10.3721 -10.2996 -10.2996
   -10.2724 -10.2724 -10.2724 -10.2724 -10.2595 -10.2594 -10.1836 -10.1836
   -10.1836 -10.1836 -10.1586 -10.1586 -10.0648 -10.0648 -10.0647 -10.0647
    -9.9977  -9.9977  -9.9977  -9.9977  -9.8703  -9.8702  -9.8701  -9.8701
    -2.5037  -2.5037  -2.5037  -2.5037  -2.4784  -2.4784  -2.4783  -2.4783
    -1.9106  -1.9106  -1.9106  -1.9105  -1.8687  -1.8687  -1.8687  -1.8687
    -1.7948  -1.7948  -1.7948  -1.7948  -1.7790  -1.7790  -1.7254  -1.7254
    -1.7254  -1.7253  -1.6927  -1.6927  -1.6867  -1.6866  -1.6866  -1.6865
    -1.5700  -1.5700  -1.5700  -1.5699  -1.4018  -1.4017  -1.3747  -1.3746
    -1.3746  -1.3746  -1.2819  -1.2818  -1.2511  -1.2511  -1.1910  -1.1910
    -1.1910  -1.1910  -1.0892  -1.0892  -1.0115  -1.0115  -0.9781  -0.9781
    -0.8150  -0.8150  -0.8150  -0.8149  -0.7774  -0.7774  -0.7774  -0.7774
    -0.7363  -0.7363  -0.6589  -0.6589  -0.6477  -0.6477  -0.6404  -0.6404
    -0.6404  -0.6403  -0.6299  -0.6298  -0.6121  -0.6121  -0.6121  -0.6120
    -0.5462  -0.5462  -0.5462  -0.5462  -0.5365  -0.5364  -0.5364  -0.5364
    -0.4941  -0.4940  -0.4940  -0.4940  -0.4550  -0.4550  -0.4550  -0.4549
    -0.4046  -0.4046  -0.3442  -0.3442  -0.3442  -0.3442  -0.3390  -0.3390
    -0.3113  -0.3113  -0.3113  -0.3113  -0.2996  -0.2996  -0.2526  -0.2526
    -0.2525  -0.2525  -0.2238  -0.2238  -0.2238  -0.2238  -0.1844  -0.1843
    -0.1540  -0.1540  -0.1540  -0.1540  -0.0979  -0.0979  -0.0950  -0.0950
    -0.0950  -0.0950  -0.0904  -0.0904  -0.0904  -0.0904  -0.0142  -0.0141
    -0.0141  -0.0141   0.0468   0.0468   0.0468   0.0468   0.0845   0.0845
     0.0854   0.0854   0.0854   0.0854   0.1005   0.1005   0.1006   0.1006
     0.1139   0.1139   0.1300   0.1300   0.1301   0.1301   0.1382   0.1382
     0.2427   0.2427   0.2427   0.2427   0.3117   0.3117   0.3812   0.3812
     0.4347   0.4347   0.4560   0.4561   0.4561   0.4561   0.4751   0.4751
     0.5022   0.5022   0.5022   0.5022   0.5758   0.5759   0.5759   0.5759
     0.5995   0.5995   0.5995   0.5995   0.6182   0.6182   0.6680   0.6681
     0.6738   0.6738   0.7426   0.7427   0.7549   0.7549   0.7549   0.7549
     0.7797   0.7798   0.8224   0.8225   0.9215   0.9215   1.0943   1.0944
     1.1275   1.1275   1.2082   1.2082   1.3305   1.3305   1.6808   1.6808
     2.7564   2.7564   2.9714   2.9714   3.2486   3.2487   3.4290   3.4290
     3.5378   3.5379   3.5379   3.5379   3.5593   3.5593   4.0076   4.0076
     4.0846   4.0847   4.2362   4.2363   4.3164   4.3164   4.3164   4.3164
     4.3684   4.3684   4.3684   4.3684   4.4606   4.4606   4.4663   4.4664
     4.5173   4.5174   4.5174   4.5174   4.5602   4.5602   4.5603   4.5603
     4.6364   4.6364   4.6498   4.6498   4.7715   4.7715   4.7715   4.7715
     4.7811   4.7811   4.7811   4.7811   4.8389   4.8389   4.8603   4.8603
     4.8604   4.8604   4.9171   4.9171   5.0069   5.0069   5.0070   5.0070
     5.1238   5.1238   5.1239   5.1239   5.1911   5.1911   5.2446   5.2447
     5.2447   5.2447   5.3268   5.3268   5.3269   5.3269   5.3492   5.3493
     5.3857   5.3857   5.4780   5.4780   5.4780   5.4780   5.6317   5.6317
     5.6987   5.6990   5.7000   5.7000   5.7000   5.7000   5.7173   5.7174
     5.7174   5.7174   5.8354   5.8362   5.8362   5.8362   5.8362   5.8363
     5.8767   5.8767   5.8767   5.8767   5.8862   5.8863   5.8950   5.8951
     5.9129   5.9238   5.9728

          k =-0.5000 0.2500 0.0000 (165780 PWs)   bands (ev):

   -46.5573 -46.5573 -46.5493 -46.5493 -46.5358 -46.5358 -46.5284 -46.5284
   -46.5279 -46.5279 -46.5273 -46.5273 -46.5208 -46.5208 -46.5083 -46.5082
   -46.5012 -46.5012 -46.3611 -46.3610 -46.3521 -46.3520 -46.3373 -46.3372
   -46.3296 -46.3295 -46.3286 -46.3285 -46.3276 -46.3275 -46.3213 -46.3212
   -46.3083 -46.3082 -46.3012 -46.3011 -46.2380 -46.2380 -46.2290 -46.2290
   -46.2137 -46.2136 -46.2055 -46.2055 -46.2043 -46.2043 -46.2031 -46.2031
   -46.1967 -46.1967 -46.1830 -46.1830 -46.1756 -46.1756 -46.1453 -46.1452
   -46.1413 -46.1412 -46.1335 -46.1334 -46.1315 -46.1314 -46.1295 -46.1294
   -46.1275 -46.1275 -46.1227 -46.1227 -46.1116 -46.1115 -46.1043 -46.1042
   -25.4472 -25.4472 -25.4287 -25.4287 -25.4235 -25.4235 -25.4231 -25.4231
   -25.4160 -25.4160 -25.4042 -25.4042 -25.4018 -25.4018 -25.4015 -25.4015
   -25.3760 -25.3760 -25.3501 -25.3501 -25.3403 -25.3403 -25.3195 -25.3195
   -25.3151 -25.3151 -25.3102 -25.3102 -25.2955 -25.2955 -25.2773 -25.2772
   -25.2646 -25.2646 -25.2641 -25.2640 -25.2612 -25.2611 -25.2538 -25.2537
   -25.2531 -25.2530 -25.2463 -25.2463 -25.2446 -25.2446 -25.2424 -25.2424
   -25.2320 -25.2320 -25.2293 -25.2293 -25.1935 -25.1934 -25.1878 -25.1878
   -25.1810 -25.1810 -25.1787 -25.1787 -25.1568 -25.1568 -25.1546 -25.1546
   -25.1385 -25.1385 -25.1204 -25.1204 -25.1075 -25.1075 -25.1051 -25.1051
   -25.0978 -25.0978 -25.0951 -25.0951 -25.0934 -25.0934 -25.0880 -25.0880
   -25.0699 -25.0699 -25.0590 -25.0590 -25.0586 -25.0586 -25.0513 -25.0513
   -25.0507 -25.0506 -25.0369 -25.0369 -25.0312 -25.0312 -25.0152 -25.0151
   -25.0119 -25.0119 -25.0036 -25.0036 -25.0031 -25.0031 -25.0030 -25.0030
   -25.0022 -25.0021 -24.9915 -24.9915 -24.9838 -24.9838 -24.9807 -24.9807
   -24.9790 -24.9790 -24.9678 -24.9678 -24.9569 -24.9569 -24.9433 -24.9433
   -24.9399 -24.9399 -24.9255 -24.9255 -24.9136 -24.9136 -24.9086 -24.9086
   -24.9060 -24.9060 -24.8918 -24.8918 -24.8897 -24.8897 -24.8695 -24.8694
   -24.8687 -24.8687 -24.8644 -24.8644 -24.8489 -24.8489 -24.8476 -24.8476
   -24.8470 -24.8470 -24.8400 -24.8400 -24.8294 -24.8294 -24.8285 -24.8285
   -24.8251 -24.8251 -24.8110 -24.8110 -24.8100 -24.8100 -24.7950 -24.7950
   -24.7904 -24.7904 -24.7899 -24.7899 -24.7867 -24.7867 -24.7827 -24.7827
   -24.7756 -24.7756 -24.7688 -24.7688 -24.7686 -24.7686 -24.7682 -24.7682
   -24.7652 -24.7652 -24.7592 -24.7592 -24.7550 -24.7550 -24.7545 -24.7544
   -24.7504 -24.7504 -24.7472 -24.7472 -24.7270 -24.7270 -24.7267 -24.7266
   -24.7211 -24.7211 -24.7143 -24.7143 -24.7096 -24.7096 -24.7050 -24.7050
   -24.6976 -24.6976 -24.6946 -24.6946 -24.6907 -24.6907 -24.6901 -24.6901
   -24.6893 -24.6892 -24.6585 -24.6585 -24.6569 -24.6569 -24.6548 -24.6548
   -11.7113 -11.7113 -11.4447 -11.4446 -11.1669 -11.1668 -11.0705 -11.0704
   -11.0080 -11.0080 -10.9453 -10.9453 -10.9137 -10.9137 -10.8821 -10.8820
   -10.8248 -10.8248 -10.8082 -10.8082 -10.7889 -10.7889 -10.7546 -10.7545
   -10.7528 -10.7528 -10.6783 -10.6783 -10.6722 -10.6722 -10.6224 -10.6224
   -10.6069 -10.6068 -10.5510 -10.5510 -10.5236 -10.5235 -10.5120 -10.5120
   -10.4120 -10.4120 -10.4058 -10.4058 -10.3532 -10.3532 -10.2923 -10.2923
   -10.2744 -10.2744 -10.2408 -10.2407 -10.2375 -10.2375 -10.1672 -10.1672
   -10.1478 -10.1478 -10.1338 -10.1338 -10.1237 -10.1236 -10.1037 -10.1037
   -10.0389 -10.0388  -9.9690  -9.9690  -9.9155  -9.9155  -9.7965  -9.7965
    -2.6774  -2.6774  -2.6605  -2.6604  -2.2633  -2.2633  -2.2242  -2.2242
    -2.0282  -2.0282  -1.9836  -1.9835  -1.9731  -1.9731  -1.9014  -1.9014
    -1.8670  -1.8670  -1.8434  -1.8434  -1.8095  -1.8095  -1.7655  -1.7655
    -1.6928  -1.6927  -1.6546  -1.6546  -1.5684  -1.5683  -1.5509  -1.5509
    -1.4738  -1.4738  -1.4543  -1.4542  -1.4173  -1.4172  -1.3214  -1.3214
    -1.3097  -1.3096  -1.2812  -1.2811  -1.2374  -1.2373  -1.2052  -1.2051
    -1.1979  -1.1979  -1.1298  -1.1298  -1.1296  -1.1295  -1.0459  -1.0458
    -1.0413  -1.0413  -0.9779  -0.9779  -0.9334  -0.9334  -0.8541  -0.8541
    -0.6767  -0.6767  -0.6594  -0.6594  -0.6258  -0.6258  -0.6120  -0.6120
    -0.5520  -0.5519  -0.5457  -0.5457  -0.5431  -0.5431  -0.5392  -0.5392
    -0.5368  -0.5368  -0.5317  -0.5316  -0.5190  -0.5190  -0.5106  -0.5106
    -0.4852  -0.4851  -0.4790  -0.4790  -0.4603  -0.4603  -0.4466  -0.4466
    -0.4132  -0.4132  -0.3853  -0.3853  -0.3773  -0.3773  -0.3700  -0.3700
    -0.3604  -0.3604  -0.3419  -0.3419  -0.3302  -0.3302  -0.2802  -0.2802
    -0.2586  -0.2586  -0.2220  -0.2220  -0.2024  -0.2024  -0.1531  -0.1531
    -0.1527  -0.1527  -0.1507  -0.1507  -0.1307  -0.1307  -0.0715  -0.0714
    -0.0125  -0.0124  -0.0107  -0.0106   0.0026   0.0026   0.0166   0.0166
     0.0420   0.0420   0.0694   0.0694   0.0902   0.0902   0.0999   0.0999
     0.1079   0.1079   0.1188   0.1189   0.1402   0.1403   0.1569   0.1569
     0.1684   0.1684   0.1768   0.1768   0.1972   0.1973   0.2008   0.2008
     0.3033   0.3033   0.3077   0.3077   0.3171   0.3171   0.3413   0.3413
     0.3441   0.3441   0.3655   0.3656   0.4580   0.4580   0.5107   0.5107
     0.5114   0.5114   0.5205   0.5205   0.5362   0.5363   0.5435   0.5436
     0.5785   0.5785   0.6074   0.6074   0.6241   0.6241   0.6354   0.6354
     0.6839   0.6840   0.6848   0.6849   0.7494   0.7494   0.7845   0.7845
     0.8017   0.8017   0.8222   0.8222   0.9590   0.9591   1.0045   1.0045
     1.0204   1.0204   1.0884   1.0885   1.2767   1.2767   1.5269   1.5269
     2.9107   2.9108   3.0780   3.0780   3.2608   3.2609   3.3975   3.3975
     3.5221   3.5222   3.6576   3.6577   3.7211   3.7211   3.8305   3.8305
     3.9225   3.9226   4.0343   4.0343   4.1543   4.1543   4.1633   4.1633
     4.2577   4.2577   4.2947   4.2947   4.3085   4.3085   4.3347   4.3348
     4.4230   4.4232   4.4591   4.4593   4.4764   4.4764   4.6178   4.6178
     4.6969   4.6969   4.7177   4.7177   4.7383   4.7383   4.7699   4.7700
     4.8098   4.8098   4.8290   4.8290   4.8625   4.8625   4.9388   4.9388
     4.9682   4.9682   5.0221   5.0221   5.0840   5.0840   5.1078   5.1078
     5.1663   5.1663   5.1722   5.1723   5.2188   5.2188   5.2753   5.2753
     5.2845   5.2845   5.3217   5.3217   5.4013   5.4013   5.4112   5.4112
     5.4589   5.4589   5.4709   5.4709   5.4768   5.4768   5.5206   5.5207
     5.6191   5.6192   5.6394   5.6394   5.6491   5.6491   5.7180   5.7180
     5.8035   5.8036   5.8064   5.8064   5.8384   5.8386   5.8470   5.8470
     5.8619   5.8619   5.9035   5.9035   5.9169   5.9170   5.9185   5.9185
     5.9686   5.9788   5.9794

     the Fermi energy is     2.0383 ev

!    total energy              =   -8262.71214715 Ry
     estimated scf accuracy    <       0.00000004 Ry
     smearing contrib. (-TS)   =       0.00525685 Ry
     internal energy E=F+TS    =   -8262.71740400 Ry

     The total energy is F=E-TS. E is the sum of the following terms:
     one-electron contribution = -100032.21758356 Ry
     hartree contribution      =   50139.64576901 Ry
     xc contribution           =   -1355.82870591 Ry
     ewald contribution        =   42988.50969566 Ry
     DFT-D3 Dispersion         =      -2.82657920 Ry

     convergence has been achieved in   9 iterations

     negative rho (up, down):  7.753E-03 0.000E+00

     Forces acting on atoms (cartesian axes, Ry/au):

     atom    1 type  1   force =     0.00000004    0.00000056    0.01814527
     atom    2 type  1   force =     0.00000303   -0.00000267   -0.00147872
     atom    3 type  1   force =     0.00000277    0.00000709   -0.00146900
     atom    4 type  1   force =    -0.00000030   -0.00000060    0.01814609
     atom    5 type  1   force =     0.00000296    0.00002270   -0.00106132
     atom    6 type  1   force =     0.00000849   -0.00000866    0.00278888
     atom    7 type  1   force =     0.00000186   -0.00000477    0.00266101
     atom    8 type  1   force =    -0.00001528   -0.00000506   -0.00106012
     atom    9 type  1   force =     0.00000016   -0.00000095    0.01814785
     atom   10 type  1   force =    -0.00000248    0.00000500   -0.00147546
     atom   11 type  1   force =    -0.00000184   -0.00000284   -0.00147247
     atom   12 type  1   force =    -0.00000003    0.00000025    0.01814698
     atom   13 type  1   force =     0.00000710   -0.00001904   -0.00106972
     atom   14 type  1   force =     0.00001097    0.00000532    0.00275849
     atom   15 type  1   force =     0.00000536    0.00000450    0.00275671
     atom   16 type  1   force =    -0.00000434    0.00000271   -0.00108197
     atom   17 type  1   force =    -0.00000003    0.00000037    0.01814632
     atom   18 type  1   force =    -0.00000037   -0.00000224   -0.00147472
     atom   19 type  1   force =     0.00000058   -0.00000426   -0.00147854
     atom   20 type  1   force =    -0.00000015    0.00000033    0.01814677
     atom   21 type  1   force =     0.00000131   -0.00000350   -0.00107766
     atom   22 type  1   force =     0.00000318    0.00000356    0.00280195
     atom   23 type  1   force =     0.00000384   -0.00000046    0.00279717
     atom   24 type  1   force =    -0.00000276    0.00000224   -0.00108170
     atom   25 type  1   force =     0.00000000    0.00000039    0.01814613
     atom   26 type  1   force =    -0.00000303   -0.00000267   -0.00147872
     atom   27 type  1   force =     0.00000000    0.00000195   -0.00147570
     atom   28 type  1   force =     0.00000030   -0.00000060    0.01814609
     atom   29 type  1   force =     0.00000000    0.00000643   -0.00108033
     atom   30 type  1   force =    -0.00000849   -0.00000866    0.00278888
     atom   31 type  1   force =     0.00000000   -0.00000160    0.00278837
     atom   32 type  1   force =     0.00001528   -0.00000506   -0.00106012
     atom   33 type  1   force =     0.00000000   -0.00000062    0.01814649
     atom   34 type  1   force =     0.00000248    0.00000500   -0.00147546
     atom   35 type  1   force =     0.00000000   -0.00000037   -0.00147498
     atom   36 type  1   force =     0.00000003    0.00000025    0.01814698
     atom   37 type  1   force =     0.00000000   -0.00000734   -0.00108108
     atom   38 type  1   force =    -0.00001097    0.00000532    0.00275849
     atom   39 type  1   force =     0.00000000    0.00000406    0.00280253
     atom   40 type  1   force =     0.00000434    0.00000271   -0.00108197
     atom   41 type  1   force =     0.00000000    0.00000026    0.01814611
     atom   42 type  1   force =     0.00000037   -0.00000224   -0.00147472
     atom   43 type  1   force =     0.00000000   -0.00000164   -0.00147775
     atom   44 type  1   force =     0.00000015    0.00000033    0.01814677
     atom   45 type  1   force =     0.00000000    0.00000104   -0.00108015
     atom   46 type  1   force =    -0.00000318    0.00000356    0.00280195
     atom   47 type  1   force =     0.00000000   -0.00000197    0.00279403
     atom   48 type  1   force =     0.00000276    0.00000224   -0.00108170
     atom   49 type  1   force =    -0.00000004    0.00000056    0.01814527
     atom   50 type  1   force =     0.00000000   -0.00000531   -0.00148273
     atom   51 type  1   force =    -0.00000277    0.00000709   -0.00146900
     atom   52 type  1   force =     0.00000000   -0.00000075    0.01814444
     atom   53 type  1   force =    -0.00000296    0.00002270   -0.00106132
     atom   54 type  1   force =     0.00000000   -0.00001350    0.00279341
     atom   55 type  1   force =    -0.00000186   -0.00000477    0.00266101
     atom   56 type  1   force =     0.00000000   -0.00001210   -0.00103922
     atom   57 type  1   force =    -0.00000016   -0.00000095    0.01814785
     atom   58 type  1   force =     0.00000000    0.00001021   -0.00148094
     atom   59 type  1   force =     0.00000184   -0.00000284   -0.00147247
     atom   60 type  1   force =     0.00000000    0.00000047    0.01814763
     atom   61 type  1   force =    -0.00000710   -0.00001904   -0.00106972
     atom   62 type  1   force =     0.00000000    0.00000900    0.00272499
     atom   63 type  1   force =    -0.00000536    0.00000450    0.00275671
     atom   64 type  1   force =     0.00000000    0.00001247   -0.00108444
     atom   65 type  1   force =     0.00000003    0.00000037    0.01814632
     atom   66 type  1   force =     0.00000000   -0.00000502   -0.00147465
     atom   67 type  1   force =    -0.00000058   -0.00000426   -0.00147854
     atom   68 type  1   force =     0.00000000    0.00000025    0.01814681
     atom   69 type  1   force =    -0.00000131   -0.00000350   -0.00107766
     atom   70 type  1   force =     0.00000000    0.00000490    0.00279756
     atom   71 type  1   force =    -0.00000384   -0.00000046    0.00279717
     atom   72 type  1   force =     0.00000000   -0.00000003   -0.00108417
     atom   73 type  2   force =    -0.00000005   -0.00000065    0.00175304
     atom   74 type  2   force =    -0.00000015   -0.00000025    0.00175669
     atom   75 type  2   force =     0.00000027   -0.00000374   -0.00902752
     atom   76 type  2   force =     0.00000257    0.00000263   -0.00902896
     atom   77 type  2   force =    -0.00000483   -0.00001823   -0.00524668
     atom   78 type  2   force =     0.00000040    0.00000395   -0.00527354
     atom   79 type  2   force =    -0.00000135    0.00000971   -0.00581598
     atom   80 type  2   force =    -0.00001358    0.00000276   -0.00579879
     atom   81 type  2   force =     0.00000015    0.00000101    0.00175820
     atom   82 type  2   force =     0.00000042    0.00000018    0.00175901
     atom   83 type  2   force =    -0.00000216    0.00000552   -0.00902795
     atom   84 type  2   force =    -0.00000112   -0.00000081   -0.00901848
     atom   85 type  2   force =     0.00000123    0.00002066   -0.00528726
     atom   86 type  2   force =     0.00001782   -0.00000343   -0.00528776
     atom   87 type  2   force =    -0.00000090   -0.00000731   -0.00577192
     atom   88 type  2   force =    -0.00000548   -0.00000515   -0.00583616
     atom   89 type  2   force =     0.00000002   -0.00000037    0.00175730
     atom   90 type  2   force =     0.00000003    0.00000006    0.00175744
     atom   91 type  2   force =    -0.00000021   -0.00000184   -0.00901803
     atom   92 type  2   force =     0.00000032   -0.00000178   -0.00902140
     atom   93 type  2   force =     0.00000189   -0.00000226   -0.00527975
     atom   94 type  2   force =     0.00000068   -0.00000060   -0.00527814
     atom   95 type  2   force =    -0.00000267   -0.00000206   -0.00584852
     atom   96 type  2   force =    -0.00000020    0.00000197   -0.00584849
     atom   97 type  2   force =     0.00000000   -0.00000001    0.00175508
     atom   98 type  2   force =     0.00000015   -0.00000025    0.00175669
     atom   99 type  2   force =     0.00000000   -0.00000163   -0.00902184
     atom  100 type  2   force =    -0.00000257    0.00000263   -0.00902896
     atom  101 type  2   force =     0.00000000   -0.00000153   -0.00527356
     atom  102 type  2   force =    -0.00000040    0.00000395   -0.00527354
     atom  103 type  2   force =     0.00000000    0.00000181   -0.00584894
     atom  104 type  2   force =     0.00001358    0.00000276   -0.00579879
     atom  105 type  2   force =     0.00000000    0.00000034    0.00175749
     atom  106 type  2   force =    -0.00000042    0.00000018    0.00175901
     atom  107 type  2   force =     0.00000000    0.00000202   -0.00901645
     atom  108 type  2   force =     0.00000112   -0.00000081   -0.00901848
     atom  109 type  2   force =     0.00000000    0.00000031   -0.00527530
     atom  110 type  2   force =    -0.00001782   -0.00000343   -0.00528776
     atom  111 type  2   force =     0.00000000   -0.00000043   -0.00585063
     atom  112 type  2   force =     0.00000548   -0.00000515   -0.00583616
     atom  113 type  2   force =     0.00000000   -0.00000034    0.00175790
     atom  114 type  2   force =    -0.00000003    0.00000006    0.00175744
     atom  115 type  2   force =     0.00000000   -0.00000038   -0.00901888
     atom  116 type  2   force =    -0.00000032   -0.00000178   -0.00902140
     atom  117 type  2   force =     0.00000000    0.00000087   -0.00527969
     atom  118 type  2   force =    -0.00000068   -0.00000060   -0.00527814
     atom  119 type  2   force =     0.00000000   -0.00000113   -0.00584677
     atom  120 type  2   force =     0.00000020    0.00000197   -0.00584849
     atom  121 type  2   force =     0.00000005   -0.00000065    0.00175304
     atom  122 type  2   force =     0.00000000    0.00000011    0.00175631
     atom  123 type  2   force =    -0.00000027   -0.00000374   -0.00902752
     atom  124 type  2   force =     0.00000000    0.00000499   -0.00903107
     atom  125 type  2   force =     0.00000483   -0.00001823   -0.00524668
     atom  126 type  2   force =     0.00000000    0.00001398   -0.00527009
     atom  127 type  2   force =     0.00000135    0.00000971   -0.00581598
     atom  128 type  2   force =     0.00000000    0.00000699   -0.00576169
     atom  129 type  2   force =    -0.00000015    0.00000101    0.00175820
     atom  130 type  2   force =     0.00000000   -0.00000027    0.00176050
     atom  131 type  2   force =     0.00000216    0.00000552   -0.00902795
     atom  132 type  2   force =     0.00000000   -0.00000258   -0.00901782
     atom  133 type  2   force =    -0.00000123    0.00002066   -0.00528726
     atom  134 type  2   force =     0.00000000   -0.00001296   -0.00530102
     atom  135 type  2   force =     0.00000090   -0.00000731   -0.00577192
     atom  136 type  2   force =     0.00000000   -0.00000884   -0.00582314
     atom  137 type  2   force =    -0.00000002   -0.00000037    0.00175730
     atom  138 type  2   force =     0.00000000    0.00000018    0.00175725
     atom  139 type  2   force =     0.00000021   -0.00000184   -0.00901803
     atom  140 type  2   force =     0.00000000   -0.00000247   -0.00902348
     atom  141 type  2   force =    -0.00000189   -0.00000226   -0.00527975
     atom  142 type  2   force =     0.00000000   -0.00000109   -0.00527387
     atom  143 type  2   force =     0.00000267   -0.00000206   -0.00584852
     atom  144 type  2   force =     0.00000000    0.00000185   -0.00584954

     Total force =     0.035641     Total SCF correction =     0.000454
     Energy error            =      2.0E-03 Ry
     Gradient error          =      5.9E-03 Ry/Bohr

     number of scf cycles    =   5
     number of bfgs steps    =   4

     energy             old  =   -8262.7101057181 Ry
     energy             new  =   -8262.7121471452 Ry

     CASE: energy            _new < energy            _old

     new trust radius        =       0.0264250063 bohr
     new conv_thr            =       0.0000003760 Ry


ATOMIC_POSITIONS (angstrom)
Sc               0.0000000000        0.0000000000       10.0000000000    0   0   0
Sc               2.2382160900        0.0000000000       12.2382160900    0   0   0
Sc               0.0000000000        2.2382160900       12.2382160900    0   0   0
Sc               2.2382160900        2.2382160900       10.0000000000    0   0   0
Sc              -0.0000055691        0.0000614318       14.4973979674
Sc               2.2382014059        0.0000026683       16.6773817710
Sc               0.0000003801        2.2382008661       16.6779012968
Sc               2.2381459390        2.2382592067       14.4974141827
Sc               0.0000000000        4.4764321800       10.0000000000    0   0   0
Sc               2.2382160900        4.4764321800       12.2382160900    0   0   0
Sc               0.0000000000        6.7146482700       12.2382160900    0   0   0
Sc               2.2382160900        6.7146482700       10.0000000000    0   0   0
Sc              -0.0000250127        4.4763949894       14.4974614759
Sc               2.2382126606        4.4764262045       16.6774839436
Sc              -0.0000113702        6.7146652090       16.6775031813
Sc               2.2381969062        6.7146138952       14.4974804270
Sc               0.0000000000        8.9528643500       10.0000000000    0   0   0
Sc               2.2382160900        8.9528643500       12.2382160900    0   0   0
Sc               0.0000000000       11.1910804400       12.2382160900    0   0   0
Sc               2.2382160900       11.1910804400       10.0000000000    0   0   0
Sc              -0.0000155310        8.9528401311       14.4974533495
Sc               2.2382067258        8.9528677986       16.6774327527
Sc              -0.0000156127       11.1910852234       16.6773932823
Sc               2.2382154182       11.1910714888       14.4974485260
Sc               4.4764321800        0.0000000000       10.0000000000    0   0   0
Sc               6.7146482700        0.0000000000       12.2382160900    0   0   0
Sc               4.4764321800        2.2382160900       12.2382160900    0   0   0
Sc               6.7146482700        2.2382160900       10.0000000000    0   0   0
Sc               4.4764348900       -0.0000014084       14.4974288535
Sc               6.7146620341        0.0000029783       16.6773986710
Sc               4.4764323100        2.2382062992       16.6773939398
Sc               6.7147167810        2.2382550767       14.4974140927
Sc               4.4764321800        4.4764321800       10.0000000000    0   0   0
Sc               6.7146482700        4.4764321800       12.2382160900    0   0   0
Sc               4.4764321800        6.7146482700       12.2382160900    0   0   0
Sc               6.7146482700        6.7146482700       10.0000000000    0   0   0
Sc               4.4764301000        4.4764435146       14.4974758024
Sc               6.7146538894        4.4764251845       16.6774601836
Sc               4.4764311400        6.7146447908       16.6774643188
Sc               6.7146682238        6.7146167152       14.4974773870
Sc               4.4764321800        8.9528643500       10.0000000000    0   0   0
Sc               6.7146482700        8.9528643500       12.2382160900    0   0   0
Sc               4.4764321800       11.1910804400       12.2382160900    0   0   0
Sc               6.7146482700       11.1910804400       10.0000000000    0   0   0
Sc               4.4764324400        8.9528540366       14.4974619178
Sc               6.7146561142        8.9528668386       16.6774332527
Sc               4.4764327100       11.1910922361       16.6774675858
Sc               6.7146499918       11.1910736788       14.4974509360
Sc               8.9528643500        0.0000000000       10.0000000000    0   0   0
Sc              11.1910804400        0.0000000000       12.2382160900    0   0   0
Sc               8.9528643500        2.2382160900       12.2382160900    0   0   0
Sc              11.1910804400        2.2382160900       10.0000000000    0   0   0
Sc               8.9528666691        0.0000592118       14.4973990274
Sc              11.1910813800        0.0000020467       16.6772996556
Sc               8.9528645599        2.2381997961       16.6778968568
Sc              11.1910805600        2.2382835757       14.4973966763
Sc               8.9528643500        4.4764321800       10.0000000000    0   0   0
Sc              11.1910804400        4.4764321800       12.2382160900    0   0   0
Sc               8.9528643500        6.7146482700       12.2382160900    0   0   0
Sc              11.1910804400        6.7146482700       10.0000000000    0   0   0
Sc               8.9528926827        4.4763960094       14.4974595259
Sc              11.1910818400        4.4764225823       16.6774641531
Sc               8.9528752702        6.7146635290       16.6775172313
Sc              11.1910808600        6.7145971835       14.4974894665
Sc               8.9528643500        8.9528643500       10.0000000000    0   0   0
Sc              11.1910804400        8.9528643500       12.2382160900    0   0   0
Sc               8.9528643500       11.1910804400       12.2382160900    0   0   0
Sc              11.1910804400       11.1910804400       10.0000000000    0   0   0
Sc               8.9528796510        8.9528411511       14.4974533995
Sc              11.1910806400        8.9528727316       16.6774615350
Sc               8.9528809327       11.1910841634       16.6774251223
Sc              11.1910796900       11.1910629818       14.4974244719
N                0.0000000000        2.2382160900       10.0000000000    0   0   0
N                2.2382160900        0.0000000000       10.0000000000    0   0   0
N                0.0000000000        0.0000000000       12.2382160900    0   0   0
N                2.2382160900        2.2382160900       12.2382160900    0   0   0
N                0.0000083689        2.2382268850       14.5101360692
N                2.2382149861       -0.0000224325       14.5101305535
N               -0.0000095023        0.0000329315       16.7032370540
N                2.2381983916        2.2382194941       16.7031997099
N                0.0000000000        6.7146482700       10.0000000000    0   0   0
N                2.2382160900        4.4764321800       10.0000000000    0   0   0
N                0.0000000000        4.4764321800       12.2382160900    0   0   0
N                2.2382160900        6.7146482700       12.2382160900    0   0   0
N               -0.0000065805        6.7146493355       14.5102193964
N                2.2382197988        4.4764631220       14.5102099154
N               -0.0000172171        4.4763976249       16.7028347866
N                2.2382104361        6.7146371651       16.7033299266
N                0.0000000000       11.1910804400       10.0000000000    0   0   0
N                2.2382160900        8.9528643500       10.0000000000    0   0   0
N                0.0000000000        8.9528643500       12.2382160900    0   0   0
N                2.2382160900       11.1910804400       12.2382160900    0   0   0
N               -0.0000047855       11.1910675405       14.5101571430
N                2.2382087910        8.9528573699       14.5101748020
N               -0.0000043080        8.9528618848       16.7033512933
N                2.2382068735       11.1910898930       16.7032706910
N                4.4764321800        2.2382160900       10.0000000000    0   0   0
N                6.7146482700        0.0000000000       10.0000000000    0   0   0
N                4.4764321800        0.0000000000       12.2382160900    0   0   0
N                6.7146482700        2.2382160900       12.2382160900    0   0   0
N                4.4764324400        2.2382338852       14.5101299977
N                6.7146510539       -0.0000243325       14.5101340735
N                4.4764319700        0.0000156699       16.7032704435
N                6.7146651584        2.2382183741       16.7031983499
N                4.4764321800        6.7146482700       10.0000000000    0   0   0
N                6.7146482700        4.4764321800       10.0000000000    0   0   0
N                4.4764321800        4.4764321800       12.2382160900    0   0   0
N                6.7146482700        6.7146482700       12.2382160900    0   0   0
N                4.4764310300        6.7146397156       14.5101841874
N                6.7146438012        4.4764611620       14.5102083354
N                4.4764316100        4.4764147027       16.7033711313
N                6.7146549139        6.7146377051       16.7033101066
N                4.4764321800       11.1910804400       10.0000000000    0   0   0
N                6.7146482700        8.9528643500       10.0000000000    0   0   0
N                4.4764321800        8.9528643500       12.2382160900    0   0   0
N                6.7146482700       11.1910804400       12.2382160900    0   0   0
N                4.4764330700       11.1910717851       14.5101751452
N                6.7146552290        8.9528597599       14.5101747320
N                4.4764329900        8.9528654137       16.7032613979
N                6.7146573865       11.1910912830       16.7032961110
N                8.9528643500        2.2382160900       10.0000000000    0   0   0
N               11.1910804400        0.0000000000       10.0000000000    0   0   0
N                8.9528643500        0.0000000000       12.2382160900    0   0   0
N               11.1910804400        2.2382160900       12.2382160900    0   0   0
N                8.9528566711        2.2382259350       14.5101367192
N               11.1910809200       -0.0000380761       14.5100970898
N                8.9528727823        0.0000323215       16.7032234540
N               11.1910794100        2.2382182334       16.7031999813
N                8.9528643500        6.7146482700       10.0000000000    0   0   0
N               11.1910804400        4.4764321800       10.0000000000    0   0   0
N                8.9528643500        4.4764321800       12.2382160900    0   0   0
N               11.1910804400        6.7146482700       12.2382160900    0   0   0
N                8.9528715605        6.7146491055       14.5102197364
N               11.1910789200        4.4764779035       14.5102346854
N                8.9528814771        4.4763986949       16.7028343266
N               11.1910803400        6.7146353996       16.7033225503
N                8.9528643500       11.1910804400       10.0000000000    0   0   0
N               11.1910804400        8.9528643500       10.0000000000    0   0   0
N                8.9528643500        8.9528643500       12.2382160900    0   0   0
N               11.1910804400       11.1910804400       12.2382160900    0   0   0
N                8.9528683355       11.1910685005       14.5101584830
N               11.1910809700        8.9528564697       14.5101746591
N                8.9528690380        8.9528610448       16.7033229133
N               11.1910796900       11.1910905956       16.7032581688



     Writing config-only to output data dir ./tmp/ScN_slab.save/ :
     XML data file
     NEW-OLD atomic charge density approx. for the potential

     negative rho (up, down):  8.161E-03 0.000E+00

     total cpu time spent up to now is     7378.0 secs

     per-process dynamical memory:  1046.7 Mb

     Self-consistent Calculation

     iteration #  1     ecut=    45.00 Ry     beta= 0.25
     Davidson diagonalization with overlap
     ethr =  1.00E-06,  avg # of iterations =  6.0

     negative rho (up, down):  8.012E-03 0.000E+00

     total cpu time spent up to now is     7646.1 secs

     total energy              =   -8262.71358315 Ry
     estimated scf accuracy    <       0.00387923 Ry

     iteration #  2     ecut=    45.00 Ry     beta= 0.25
     Davidson diagonalization with overlap
     ethr =  3.37E-07,  avg # of iterations =  2.6

     negative rho (up, down):  7.914E-03 0.000E+00

     total cpu time spent up to now is     7780.9 secs

     total energy              =   -8262.71397096 Ry
     estimated scf accuracy    <       0.00094968 Ry

     iteration #  3     ecut=    45.00 Ry     beta= 0.25
     Davidson diagonalization with overlap
     ethr =  8.24E-08,  avg # of iterations =  2.0

     negative rho (up, down):  7.849E-03 0.000E+00

     total cpu time spent up to now is     7903.9 secs

     total energy              =   -8262.71398789 Ry
     estimated scf accuracy    <       0.00033164 Ry

     iteration #  4     ecut=    45.00 Ry     beta= 0.25
     Davidson diagonalization with overlap
     ethr =  2.88E-08,  avg # of iterations =  2.9

     negative rho (up, down):  7.813E-03 0.000E+00

     total cpu time spent up to now is     8028.4 secs

     total energy              =   -8262.71400818 Ry
     estimated scf accuracy    <       0.00008093 Ry

     iteration #  5     ecut=    45.00 Ry     beta= 0.25
     Davidson diagonalization with overlap
     ethr =  7.03E-09,  avg # of iterations =  4.0

     negative rho (up, down):  7.790E-03 0.000E+00

     total cpu time spent up to now is     8150.1 secs

     total energy              =   -8262.71402027 Ry
     estimated scf accuracy    <       0.00002685 Ry

     iteration #  6     ecut=    45.00 Ry     beta= 0.25
     Davidson diagonalization with overlap
     ethr =  2.33E-09,  avg # of iterations =  2.0

     negative rho (up, down):  7.776E-03 0.000E+00

     total cpu time spent up to now is     8265.1 secs

     total energy              =   -8262.71402402 Ry
     estimated scf accuracy    <       0.00000674 Ry

     iteration #  7     ecut=    45.00 Ry     beta= 0.25
     Davidson diagonalization with overlap
     ethr =  5.85E-10,  avg # of iterations =  2.9

     negative rho (up, down):  7.766E-03 0.000E+00

     total cpu time spent up to now is     8396.6 secs

     total energy              =   -8262.71402509 Ry
     estimated scf accuracy    <       0.00000120 Ry

     iteration #  8     ecut=    45.00 Ry     beta= 0.25
     Davidson diagonalization with overlap
     ethr =  1.04E-10,  avg # of iterations =  4.0

     negative rho (up, down):  7.745E-03 0.000E+00

     total cpu time spent up to now is     8522.3 secs

     End of self-consistent calculation

          k = 0.0000 0.0000 0.0000 (165739 PWs)   bands (ev):

   -46.5663 -46.5488 -46.5488 -46.5488 -46.5488 -46.5395 -46.5395 -46.5395
   -46.5395 -46.5227 -46.5227 -46.5227 -46.5227 -46.5153 -46.5153 -46.5153
   -46.5152 -46.4993 -46.3596 -46.3401 -46.3400 -46.3398 -46.3398 -46.3294
   -46.3292 -46.3291 -46.3290 -46.3114 -46.3111 -46.3110 -46.3110 -46.3040
   -46.3040 -46.3038 -46.3037 -46.2876 -46.2436 -46.2242 -46.2242 -46.2242
   -46.2242 -46.2133 -46.2133 -46.2133 -46.2133 -46.1944 -46.1944 -46.1944
   -46.1944 -46.1870 -46.1869 -46.1869 -46.1869 -46.1698 -46.1409 -46.1311
   -46.1311 -46.1310 -46.1309 -46.1280 -46.1280 -46.1279 -46.1278 -46.1161
   -46.1161 -46.1160 -46.1158 -46.1067 -46.1067 -46.1066 -46.1065 -46.0913
   -25.4378 -25.4339 -25.4339 -25.4339 -25.4339 -25.4238 -25.4238 -25.4238
   -25.4238 -25.4194 -25.4194 -25.4194 -25.4194 -25.3794 -25.3794 -25.3794
   -25.3794 -25.3775 -25.3775 -25.3775 -25.3775 -25.3304 -25.3254 -25.3254
   -25.3254 -25.3254 -25.2945 -25.2945 -25.2872 -25.2871 -25.2871 -25.2871
   -25.2766 -25.2765 -25.2765 -25.2765 -25.2639 -25.2465 -25.2464 -25.2463
   -25.2463 -25.2454 -25.2454 -25.2454 -25.2454 -25.2202 -25.2202 -25.2202
   -25.2202 -25.2125 -25.2125 -25.2124 -25.2124 -25.2097 -25.2096 -25.2095
   -25.2095 -25.1732 -25.1732 -25.1732 -25.1732 -25.1501 -25.1501 -25.1393
   -25.1393 -25.1393 -25.1393 -25.1311 -25.1118 -25.1118 -25.1118 -25.1117
   -25.0776 -25.0776 -25.0776 -25.0775 -25.0721 -25.0721 -25.0721 -25.0721
   -25.0709 -25.0708 -25.0708 -25.0708 -25.0414 -25.0414 -25.0414 -25.0414
   -25.0370 -25.0370 -25.0356 -25.0356 -25.0356 -25.0356 -25.0168 -25.0167
   -25.0167 -25.0167 -25.0154 -25.0153 -25.0153 -25.0153 -25.0060 -25.0060
   -25.0060 -25.0060 -24.9998 -24.9984 -24.9984 -24.9862 -24.9862 -24.9861
   -24.9861 -24.9702 -24.9702 -24.9701 -24.9701 -24.9524 -24.9524 -24.9524
   -24.9524 -24.9117 -24.9117 -24.9117 -24.9117 -24.9102 -24.9101 -24.9101
   -24.9101 -24.8880 -24.8880 -24.8879 -24.8879 -24.8853 -24.8843 -24.8843
   -24.8640 -24.8640 -24.8640 -24.8640 -24.8344 -24.8343 -24.8343 -24.8343
   -24.8332 -24.8332 -24.8332 -24.8331 -24.8290 -24.8290 -24.8259 -24.8258
   -24.8258 -24.8258 -24.8090 -24.8010 -24.8010 -24.8010 -24.8010 -24.7926
   -24.7926 -24.7926 -24.7926 -24.7862 -24.7862 -24.7862 -24.7862 -24.7711
   -24.7711 -24.7710 -24.7710 -24.7652 -24.7652 -24.7627 -24.7626 -24.7626
   -24.7625 -24.7396 -24.7396 -24.7395 -24.7394 -24.7333 -24.7333 -24.7333
   -24.7332 -24.7309 -24.7309 -24.7309 -24.7309 -24.7268 -24.7239 -24.7238
   -24.7238 -24.7238 -24.7233 -24.7233 -24.7233 -24.7232 -24.7078 -24.7078
   -24.7077 -24.7077 -24.6986 -24.6986 -24.6986 -24.6985 -24.6746 -24.6746
   -24.6746 -24.6745 -24.6479 -24.6479 -24.6442 -24.6442 -24.6441 -24.6441
   -11.9070 -11.4013 -11.4012 -11.4012 -11.4011 -11.3320 -10.9965 -10.9909
   -10.9461 -10.9461 -10.9461 -10.9460 -10.9179 -10.9179 -10.9179 -10.9178
   -10.9075 -10.9074 -10.9074 -10.9074 -10.9007 -10.7752 -10.7383 -10.7383
   -10.7382 -10.7382 -10.5819 -10.5818 -10.5817 -10.5817 -10.5775 -10.5775
   -10.5774 -10.5774 -10.5771 -10.5770 -10.5770 -10.5769 -10.5258 -10.5258
   -10.5258 -10.5258 -10.4406 -10.3835 -10.3835 -10.3834 -10.3834 -10.3299
   -10.2690 -10.2690 -10.2690 -10.2690 -10.1830 -10.1830 -10.1830 -10.1830
   -10.1476 -10.1476 -10.1475 -10.1475 -10.0383 -10.0382 -10.0382 -10.0382
   -10.0293 -10.0293 -10.0293 -10.0293  -9.9161  -9.9161  -9.9160  -9.9160
    -2.3533  -2.3532  -2.3532  -2.3532  -2.3389  -2.3388  -2.3388  -2.3388
    -2.2051  -2.2051  -2.2051  -2.2051  -2.1481  -2.1481  -2.1481  -2.1481
    -1.7297  -1.7297  -1.7296  -1.7296  -1.6899  -1.6899  -1.6899  -1.6899
    -1.6329  -1.6328  -1.6328  -1.6328  -1.6139  -1.6138  -1.6138  -1.6138
    -1.5460  -1.5460  -1.5459  -1.5459  -1.4285  -1.4285  -1.4284  -1.4284
    -1.3716  -1.3081  -1.3081  -1.3081  -1.3081  -1.2125  -1.2125  -1.2125
    -1.2124  -1.2037  -1.2037  -1.2036  -1.2036  -1.0128  -1.0128  -0.9496
    -0.9000  -0.9000  -0.8999  -0.8999  -0.6654  -0.6654  -0.6619  -0.6619
    -0.6619  -0.6618  -0.6586  -0.6585  -0.6585  -0.6585  -0.6163  -0.6163
    -0.6163  -0.6163  -0.6075  -0.6075  -0.6075  -0.6075  -0.5421  -0.5420
    -0.5420  -0.5420  -0.4780  -0.4780  -0.4779  -0.4779  -0.4504  -0.4504
    -0.4504  -0.4504  -0.4309  -0.4309  -0.4309  -0.4309  -0.4129  -0.4128
    -0.4128  -0.4128  -0.3864  -0.3864  -0.3864  -0.3864  -0.3209  -0.3209
    -0.3209  -0.3209  -0.2729  -0.2729  -0.2729  -0.2729  -0.2402  -0.2402
    -0.2402  -0.2402  -0.2064  -0.2047  -0.2047  -0.2047  -0.2046  -0.1880
    -0.1712  -0.1712  -0.1712  -0.1712  -0.1698  -0.1698  -0.1698  -0.1698
    -0.1256  -0.1256  -0.1256  -0.1256  -0.1108  -0.0442  -0.0441  -0.0441
    -0.0441  -0.0340  -0.0340  -0.0339  -0.0338  -0.0321  -0.0321  -0.0321
    -0.0320   0.0543   0.0543   0.0842   0.0842   0.0842   0.0842   0.0844
     0.0844   0.0844   0.0844   0.1140   0.1140   0.1140   0.1140   0.1503
     0.1503   0.1504   0.1504   0.1642   0.1642   0.1642   0.1642   0.1979
     0.1979   0.1980   0.1980   0.2236   0.2237   0.2237   0.2238   0.2881
     0.2881   0.2881   0.2882   0.3723   0.3724   0.3724   0.3724   0.7119
     0.7119   0.7120   0.7120   0.7431   0.7621   0.7621   0.7621   0.7621
     0.7818   0.7818   0.7923   0.7923   0.7924   0.7924   0.8160   0.8160
     0.8161   0.8161   0.9920   0.9920   1.1359   1.1934   1.1934   1.2163
     1.2163   1.2163   1.2163   1.2569   1.7580   1.7580   2.0249   2.0249
     2.0901   2.6474   2.6474   2.6639   3.0671   3.0671   3.0672   3.0673
     3.4840   3.8853   4.0861   4.0861   4.0862   4.0862   4.1497   4.1623
     4.1623   4.3737   4.3737   4.3737   4.3738   4.3916   4.3916   4.3917
     4.3917   4.3994   4.3994   4.3994   4.3995   4.4532   4.4806   4.4807
     4.4807   4.4807   4.5079   4.5079   4.5079   4.5079   4.5521   4.5521
     4.5522   4.5523   4.6758   4.6758   4.6758   4.6758   4.7031   4.7031
     4.7031   4.7031   4.8163   4.8164   4.8166   4.8168   4.8289   4.8289
     4.9016   4.9017   4.9018   4.9018   5.1497   5.2207   5.2208   5.2208
     5.2208   5.2314   5.2314   5.2315   5.2315   5.2829   5.2829   5.2830
     5.2830   5.3099   5.3099   5.3100   5.3100   5.4217   5.4217   5.4217
     5.4217   5.4271   5.4271   5.4272   5.4272   5.4383   5.4383   5.4383
     5.4384   5.5351   5.5352   5.5352   5.5352   5.6391   5.6392   5.6393
     5.6393   5.7270   5.7625   5.7680   5.7680   5.8080   5.8081   5.8081
     5.8081   5.8458   5.8458   5.8703   5.8705   5.8705   5.8705   5.9257
     5.9354   5.9603   5.9612

          k = 0.0000 0.2500 0.0000 (165664 PWs)   bands (ev):

   -46.5651 -46.5560 -46.5481 -46.5481 -46.5433 -46.5432 -46.5405 -46.5352
   -46.5352 -46.5265 -46.5265 -46.5231 -46.5196 -46.5195 -46.5157 -46.5157
   -46.5086 -46.5004 -46.3582 -46.3479 -46.3392 -46.3391 -46.3335 -46.3334
   -46.3308 -46.3244 -46.3243 -46.3151 -46.3150 -46.3122 -46.3081 -46.3079
   -46.3044 -46.3043 -46.2970 -46.2886 -46.2423 -46.2322 -46.2235 -46.2234
   -46.2177 -46.2177 -46.2150 -46.2083 -46.2083 -46.1985 -46.1985 -46.1956
   -46.1911 -46.1911 -46.1874 -46.1874 -46.1797 -46.1710 -46.1403 -46.1353
   -46.1309 -46.1308 -46.1294 -46.1294 -46.1259 -46.1258 -46.1258 -46.1197
   -46.1196 -46.1132 -46.1124 -46.1124 -46.1074 -46.1073 -46.1006 -46.0924
   -25.4387 -25.4387 -25.4364 -25.4348 -25.4348 -25.4280 -25.4280 -25.4266
   -25.4203 -25.4203 -25.4111 -25.4087 -25.4087 -25.3903 -25.3883 -25.3883
   -25.3817 -25.3817 -25.3634 -25.3606 -25.3606 -25.3566 -25.3566 -25.3364
   -25.2974 -25.2974 -25.2895 -25.2888 -25.2888 -25.2888 -25.2806 -25.2806
   -25.2793 -25.2793 -25.2675 -25.2675 -25.2642 -25.2642 -25.2627 -25.2616
   -25.2537 -25.2510 -25.2486 -25.2486 -25.2389 -25.2332 -25.2221 -25.2221
   -25.2216 -25.2216 -25.2108 -25.2027 -25.2027 -25.1977 -25.1906 -25.1906
   -25.1844 -25.1831 -25.1831 -25.1717 -25.1717 -25.1705 -25.1625 -25.1447
   -25.1325 -25.1325 -25.1224 -25.1224 -25.1192 -25.1146 -25.1145 -25.1077
   -25.1037 -25.1031 -25.1015 -25.1015 -25.0814 -25.0781 -25.0648 -25.0648
   -25.0576 -25.0558 -25.0558 -25.0549 -25.0549 -25.0459 -25.0415 -25.0408
   -25.0344 -25.0344 -25.0341 -25.0341 -25.0325 -25.0323 -25.0286 -25.0261
   -25.0261 -25.0177 -25.0177 -25.0120 -25.0120 -25.0067 -25.0034 -25.0025
   -25.0025 -24.9996 -24.9996 -24.9979 -24.9908 -24.9808 -24.9800 -24.9800
   -24.9729 -24.9729 -24.9575 -24.9575 -24.9520 -24.9520 -24.9509 -24.9509
   -24.9491 -24.9376 -24.9257 -24.9257 -24.9226 -24.9126 -24.9069 -24.9057
   -24.9056 -24.9006 -24.9006 -24.8998 -24.8852 -24.8803 -24.8766 -24.8680
   -24.8680 -24.8674 -24.8645 -24.8599 -24.8513 -24.8513 -24.8501 -24.8414
   -24.8357 -24.8357 -24.8345 -24.8299 -24.8175 -24.8175 -24.8160 -24.8108
   -24.8108 -24.8081 -24.8081 -24.8058 -24.8028 -24.7975 -24.7933 -24.7933
   -24.7908 -24.7908 -24.7905 -24.7905 -24.7872 -24.7836 -24.7836 -24.7740
   -24.7740 -24.7722 -24.7700 -24.7684 -24.7684 -24.7639 -24.7576 -24.7576
   -24.7567 -24.7567 -24.7549 -24.7549 -24.7448 -24.7448 -24.7416 -24.7416
   -24.7398 -24.7395 -24.7394 -24.7365 -24.7364 -24.7364 -24.7326 -24.7326
   -24.7234 -24.7233 -24.7162 -24.7112 -24.7046 -24.7046 -24.7045 -24.6930
   -24.6930 -24.6908 -24.6907 -24.6885 -24.6885 -24.6830 -24.6820 -24.6757
   -24.6756 -24.6743 -24.6546 -24.6520 -24.6506 -24.6506 -24.6487 -24.6487
   -11.8687 -11.5952 -11.3663 -11.3663 -11.2990 -11.2090 -11.1186 -11.1185
   -11.0694 -10.9816 -10.9698 -10.9478 -10.9160 -10.8892 -10.8892 -10.8800
   -10.8799 -10.8710 -10.8204 -10.7856 -10.7807 -10.7807 -10.7442 -10.7207
   -10.7207 -10.6956 -10.6955 -10.6945 -10.6944 -10.6913 -10.6645 -10.6185
   -10.6184 -10.5857 -10.5856 -10.5281 -10.4983 -10.4983 -10.4906 -10.4905
   -10.4876 -10.4875 -10.4228 -10.3975 -10.3553 -10.3553 -10.3158 -10.3120
   -10.3083 -10.3082 -10.2601 -10.2525 -10.2471 -10.2471 -10.2011 -10.1622
   -10.1622 -10.1285 -10.1265 -10.1264 -10.1057 -10.1057 -10.0720 -10.0720
    -9.9907  -9.9907  -9.9875  -9.9875  -9.9337  -9.9337  -9.8705  -9.8704
    -2.4936  -2.4936  -2.4750  -2.4750  -2.4106  -2.4106  -2.3729  -2.3729
    -2.1390  -2.1389  -2.1188  -2.1188  -1.9560  -1.9560  -1.8616  -1.8616
    -1.8201  -1.8014  -1.8014  -1.7777  -1.7776  -1.7423  -1.7189  -1.7189
    -1.6989  -1.6989  -1.6748  -1.6730  -1.6730  -1.5925  -1.5924  -1.5354
    -1.5338  -1.5261  -1.5261  -1.5013  -1.5013  -1.4563  -1.4307  -1.4307
    -1.4003  -1.3798  -1.3796  -1.3796  -1.3184  -1.2583  -1.2583  -1.1252
    -1.1173  -1.1173  -1.0929  -1.0157  -1.0080  -0.9949  -0.9949  -0.9658
    -0.9628  -0.9628  -0.9614  -0.9581  -0.8097  -0.8078  -0.7029  -0.7029
    -0.7002  -0.6862  -0.6861  -0.6596  -0.6481  -0.6481  -0.6281  -0.6281
    -0.6038  -0.5813  -0.5698  -0.5698  -0.5494  -0.5494  -0.5406  -0.5406
    -0.5327  -0.5327  -0.5316  -0.5316  -0.5220  -0.5220  -0.4995  -0.4995
    -0.4917  -0.4917  -0.4851  -0.4796  -0.4796  -0.4707  -0.4707  -0.4501
    -0.4501  -0.4469  -0.3724  -0.3723  -0.3628  -0.3606  -0.3563  -0.3563
    -0.3396  -0.3331  -0.3159  -0.3159  -0.2983  -0.2928  -0.2519  -0.2519
    -0.2239  -0.2238  -0.2177  -0.2177  -0.1854  -0.1854  -0.1793  -0.1755
    -0.1755  -0.1459  -0.1354  -0.1354  -0.1273  -0.1246  -0.1235  -0.1235
    -0.0947  -0.0947  -0.0851  -0.0851  -0.0809  -0.0809  -0.0690  -0.0690
    -0.0675  -0.0182  -0.0182  -0.0017  -0.0017   0.0038   0.0131   0.0131
     0.0478   0.0479   0.0595   0.0644   0.0655   0.0787   0.0787   0.0963
     0.1028   0.1028   0.1088   0.1091   0.1419   0.1419   0.1424   0.1424
     0.1513   0.1514   0.1830   0.1831   0.2284   0.2350   0.2351   0.2424
     0.2497   0.2909   0.2909   0.2952   0.3413   0.3414   0.3754   0.3754
     0.4042   0.4253   0.4254   0.4349   0.4350   0.5363   0.5433   0.5712
     0.6397   0.6488   0.6489   0.6631   0.6883   0.6883   0.7012   0.7177
     0.7220   0.7220   0.7495   0.7495   0.7758   0.7795   0.7892   0.8360
     0.8388   0.8565   0.9508   1.0274   1.0378   1.0428   1.0435   1.0533
     1.0761   1.0762   1.2027   1.4329   1.5665   1.6045   1.7678   1.9038
     2.3904   2.6738   2.8198   2.8851   2.9082   3.1926   3.1927   3.2940
     3.6170   3.6606   3.7986   3.8360   3.9160   4.0107   4.0108   4.0376
     4.1493   4.1494   4.1726   4.1823   4.2373   4.2879   4.3426   4.3586
     4.3586   4.3859   4.3966   4.3966   4.4287   4.4287   4.4385   4.4385
     4.4418   4.5110   4.5110   4.5797   4.5797   4.5979   4.6503   4.6503
     4.6515   4.6704   4.6738   4.7032   4.7032   4.7138   4.7138   4.7799
     4.8138   4.8138   4.8206   4.8475   4.8476   4.8653   4.8655   4.8789
     4.9294   4.9592   4.9592   5.0197   5.0376   5.0554   5.0554   5.0803
     5.0803   5.1026   5.1168   5.1367   5.1368   5.2003   5.2251   5.2251
     5.2287   5.2288   5.2326   5.2327   5.3111   5.3111   5.3442   5.3443
     5.4041   5.4808   5.4884   5.5402   5.5639   5.5639   5.5676   5.5676
     5.5976   5.6249   5.6250   5.6350   5.6350   5.7193   5.7259   5.7259
     5.7290   5.7290   5.7340   5.7395   5.7683   5.7684   5.7787   5.7976
     5.8411   5.8412   5.8414   5.8414   5.8589   5.8591   5.9008   5.9008
     5.9191   5.9192   5.9624

          k = 0.0000-0.5000 0.0000 (165810 PWs)   bands (ev):

   -46.5616 -46.5616 -46.5462 -46.5462 -46.5462 -46.5462 -46.5317 -46.5317
   -46.5308 -46.5308 -46.5308 -46.5308 -46.5172 -46.5172 -46.5172 -46.5172
   -46.5036 -46.5035 -46.3543 -46.3541 -46.3372 -46.3369 -46.3368 -46.3368
   -46.3215 -46.3212 -46.3198 -46.3195 -46.3195 -46.3194 -46.3060 -46.3057
   -46.3056 -46.3056 -46.2920 -46.2917 -46.2384 -46.2384 -46.2213 -46.2212
   -46.2212 -46.2212 -46.2052 -46.2052 -46.2033 -46.2032 -46.2032 -46.2032
   -46.1888 -46.1888 -46.1888 -46.1888 -46.1743 -46.1743 -46.1384 -46.1383
   -46.1304 -46.1304 -46.1304 -46.1302 -46.1231 -46.1231 -46.1231 -46.1229
   -46.1198 -46.1197 -46.1095 -46.1094 -46.1094 -46.1092 -46.0957 -46.0956
   -25.4397 -25.4397 -25.4397 -25.4397 -25.4324 -25.4324 -25.4232 -25.4231
   -25.4231 -25.4231 -25.4015 -25.4015 -25.3932 -25.3932 -25.3932 -25.3932
   -25.3820 -25.3820 -25.3820 -25.3820 -25.3491 -25.3491 -25.3224 -25.3224
   -25.3224 -25.3224 -25.2973 -25.2972 -25.2972 -25.2972 -25.2766 -25.2766
   -25.2746 -25.2746 -25.2594 -25.2592 -25.2552 -25.2551 -25.2550 -25.2550
   -25.2431 -25.2430 -25.2430 -25.2429 -25.2333 -25.2332 -25.2253 -25.2253
   -25.2253 -25.2253 -25.2190 -25.2190 -25.2189 -25.2189 -25.1951 -25.1951
   -25.1810 -25.1808 -25.1605 -25.1605 -25.1605 -25.1605 -25.1460 -25.1460
   -25.1412 -25.1412 -25.1412 -25.1412 -25.1290 -25.1289 -25.1006 -25.1006
   -25.0867 -25.0867 -25.0867 -25.0867 -25.0866 -25.0866 -25.0866 -25.0866
   -25.0682 -25.0682 -25.0648 -25.0648 -25.0510 -25.0510 -25.0510 -25.0510
   -25.0499 -25.0499 -25.0234 -25.0233 -25.0233 -25.0232 -25.0192 -25.0191
   -25.0181 -25.0181 -25.0076 -25.0075 -25.0075 -25.0075 -25.0023 -25.0023
   -25.0023 -25.0023 -24.9908 -24.9907 -24.9776 -24.9776 -24.9652 -24.9651
   -24.9606 -24.9606 -24.9605 -24.9605 -24.9586 -24.9586 -24.9586 -24.9586
   -24.9341 -24.9341 -24.9341 -24.9341 -24.9114 -24.9113 -24.9113 -24.9113
   -24.9090 -24.9090 -24.9026 -24.9026 -24.8985 -24.8985 -24.8720 -24.8720
   -24.8720 -24.8720 -24.8687 -24.8686 -24.8508 -24.8507 -24.8408 -24.8407
   -24.8362 -24.8361 -24.8204 -24.8204 -24.8203 -24.8202 -24.8202 -24.8202
   -24.7983 -24.7983 -24.7983 -24.7982 -24.7982 -24.7982 -24.7982 -24.7982
   -24.7864 -24.7863 -24.7839 -24.7838 -24.7819 -24.7818 -24.7818 -24.7818
   -24.7725 -24.7725 -24.7725 -24.7724 -24.7670 -24.7669 -24.7589 -24.7589
   -24.7589 -24.7589 -24.7583 -24.7582 -24.7582 -24.7582 -24.7550 -24.7549
   -24.7431 -24.7431 -24.7431 -24.7431 -24.7389 -24.7389 -24.7388 -24.7387
   -24.7126 -24.7126 -24.7126 -24.7125 -24.6963 -24.6963 -24.6956 -24.6956
   -24.6834 -24.6834 -24.6833 -24.6833 -24.6702 -24.6701 -24.6676 -24.6676
   -24.6675 -24.6675 -24.6641 -24.6640 -24.6634 -24.6634 -24.6634 -24.6634
   -11.7595 -11.7595 -11.2670 -11.2669 -11.2669 -11.2669 -11.2057 -11.2057
   -11.0503 -11.0502 -10.9492 -10.9491 -10.9067 -10.9066 -10.8092 -10.8091
   -10.8091 -10.8090 -10.8034 -10.8034 -10.8034 -10.8033 -10.7872 -10.7872
   -10.7048 -10.7047 -10.6746 -10.6746 -10.6746 -10.6745 -10.6566 -10.6565
   -10.6535 -10.6535 -10.6535 -10.6534 -10.4556 -10.4556 -10.4556 -10.4555
   -10.4209 -10.4209 -10.4209 -10.4209 -10.3754 -10.3754 -10.3036 -10.3036
   -10.2763 -10.2763 -10.2762 -10.2761 -10.2638 -10.2636 -10.1870 -10.1870
   -10.1870 -10.1870 -10.1625 -10.1624 -10.0689 -10.0688 -10.0687 -10.0687
   -10.0012 -10.0012 -10.0012 -10.0012  -9.8741  -9.8740  -9.8740  -9.8740
    -2.5156  -2.5156  -2.5156  -2.5156  -2.4892  -2.4892  -2.4891  -2.4891
    -1.9233  -1.9233  -1.9233  -1.9233  -1.8796  -1.8796  -1.8796  -1.8796
    -1.8001  -1.8000  -1.8000  -1.8000  -1.7905  -1.7904  -1.7340  -1.7340
    -1.7340  -1.7340  -1.7031  -1.7031  -1.6926  -1.6925  -1.6924  -1.6924
    -1.5808  -1.5808  -1.5808  -1.5808  -1.4057  -1.4056  -1.3811  -1.3811
    -1.3810  -1.3810  -1.2951  -1.2951  -1.2576  -1.2576  -1.2003  -1.2003
    -1.2003  -1.2002  -1.0999  -1.0999  -1.0187  -1.0186  -0.9915  -0.9915
    -0.8227  -0.8227  -0.8227  -0.8226  -0.7823  -0.7822  -0.7822  -0.7822
    -0.7409  -0.7409  -0.6724  -0.6723  -0.6564  -0.6564  -0.6460  -0.6460
    -0.6460  -0.6460  -0.6407  -0.6406  -0.6244  -0.6244  -0.6244  -0.6243
    -0.5565  -0.5565  -0.5565  -0.5565  -0.5462  -0.5462  -0.5462  -0.5462
    -0.5015  -0.5015  -0.5015  -0.5014  -0.4646  -0.4646  -0.4646  -0.4645
    -0.4088  -0.4088  -0.3494  -0.3493  -0.3493  -0.3493  -0.3468  -0.3468
    -0.3193  -0.3193  -0.3193  -0.3193  -0.3102  -0.3102  -0.2595  -0.2594
    -0.2594  -0.2594  -0.2315  -0.2314  -0.2314  -0.2314  -0.1859  -0.1858
    -0.1577  -0.1577  -0.1577  -0.1577  -0.1094  -0.1093  -0.1069  -0.1068
    -0.1068  -0.1068  -0.0943  -0.0943  -0.0943  -0.0943  -0.0189  -0.0188
    -0.0188  -0.0188   0.0402   0.0402   0.0402   0.0402   0.0763   0.0764
     0.0789   0.0789   0.0789   0.0790   0.0920   0.0920   0.0920   0.0920
     0.1041   0.1042   0.1308   0.1308   0.1309   0.1309   0.1345   0.1345
     0.2400   0.2400   0.2401   0.2401   0.3067   0.3068   0.3737   0.3738
     0.4208   0.4208   0.4515   0.4515   0.4515   0.4516   0.4633   0.4634
     0.4974   0.4974   0.4974   0.4975   0.5757   0.5758   0.5759   0.5759
     0.5951   0.5952   0.5952   0.5953   0.6124   0.6124   0.6616   0.6616
     0.6658   0.6659   0.7314   0.7315   0.7495   0.7495   0.7495   0.7495
     0.7750   0.7751   0.8208   0.8209   0.9169   0.9170   1.0939   1.0939
     1.1235   1.1235   1.2006   1.2007   1.3233   1.3233   1.6751   1.6752
     2.7532   2.7533   2.9607   2.9608   3.2448   3.2449   3.4235   3.4236
     3.5338   3.5338   3.5338   3.5340   3.5557   3.5557   4.0103   4.0105
     4.0823   4.0824   4.2425   4.2425   4.3128   4.3128   4.3129   4.3129
     4.3653   4.3653   4.3654   4.3654   4.4654   4.4655   4.4721   4.4726
     4.5170   4.5171   4.5171   4.5171   4.5565   4.5566   4.5567   4.5567
     4.6399   4.6401   4.6484   4.6485   4.7683   4.7683   4.7683   4.7683
     4.7850   4.7850   4.7850   4.7850   4.8441   4.8442   4.8558   4.8559
     4.8559   4.8559   4.9188   4.9188   5.0102   5.0104   5.0105   5.0106
     5.1256   5.1256   5.1256   5.1257   5.1880   5.1881   5.2481   5.2481
     5.2481   5.2481   5.3251   5.3252   5.3252   5.3252   5.3504   5.3504
     5.3926   5.3926   5.4826   5.4826   5.4827   5.4827   5.6363   5.6363
     5.6918   5.6919   5.7008   5.7008   5.7008   5.7008   5.7217   5.7217
     5.7218   5.7218   5.8367   5.8368   5.8430   5.8430   5.8430   5.8432
     5.8745   5.8745   5.8745   5.8745   5.8978   5.8981   5.9030   5.9032
     5.9143   5.9254   5.9256

          k = 0.2500 0.2500 0.0000 (165752 PWs)   bands (ev):

   -46.5640 -46.5551 -46.5551 -46.5485 -46.5401 -46.5401 -46.5373 -46.5373
   -46.5329 -46.5284 -46.5251 -46.5250 -46.5234 -46.5233 -46.5149 -46.5093
   -46.5093 -46.5014 -46.3569 -46.3470 -46.3468 -46.3393 -46.3304 -46.3303
   -46.3270 -46.3268 -46.3217 -46.3169 -46.3138 -46.3136 -46.3124 -46.3122
   -46.3033 -46.2978 -46.2976 -46.2897 -46.2410 -46.2312 -46.2312 -46.2237
   -46.2145 -46.2145 -46.2110 -46.2109 -46.2055 -46.2003 -46.1971 -46.1971
   -46.1958 -46.1958 -46.1862 -46.1804 -46.1804 -46.1720 -46.1397 -46.1350
   -46.1349 -46.1320 -46.1261 -46.1260 -46.1259 -46.1258 -46.1251 -46.1220
   -46.1173 -46.1172 -46.1138 -46.1137 -46.1078 -46.1015 -46.1014 -46.0935
   -25.4471 -25.4458 -25.4351 -25.4282 -25.4282 -25.4271 -25.4265 -25.4265
   -25.4197 -25.4197 -25.4131 -25.4131 -25.4058 -25.3941 -25.3941 -25.3941
   -25.3915 -25.3677 -25.3676 -25.3563 -25.3563 -25.3448 -25.3412 -25.3169
   -25.3169 -25.3112 -25.3051 -25.2983 -25.2923 -25.2923 -25.2752 -25.2752
   -25.2715 -25.2700 -25.2700 -25.2637 -25.2637 -25.2618 -25.2600 -25.2545
   -25.2544 -25.2511 -25.2432 -25.2431 -25.2377 -25.2323 -25.2290 -25.2289
   -25.2280 -25.2195 -25.2195 -25.2067 -25.2067 -25.2062 -25.2061 -25.1937
   -25.1936 -25.1780 -25.1715 -25.1649 -25.1648 -25.1479 -25.1462 -25.1462
   -25.1434 -25.1315 -25.1315 -25.1238 -25.1237 -25.1084 -25.1075 -25.1074
   -25.1029 -25.0974 -25.0974 -25.0919 -25.0855 -25.0828 -25.0828 -25.0659
   -25.0659 -25.0619 -25.0619 -25.0607 -25.0607 -25.0514 -25.0499 -25.0497
   -25.0383 -25.0383 -25.0329 -25.0329 -25.0315 -25.0282 -25.0282 -25.0214
   -25.0214 -25.0204 -25.0110 -25.0061 -25.0005 -25.0004 -24.9991 -24.9991
   -24.9980 -24.9980 -24.9943 -24.9937 -24.9937 -24.9842 -24.9782 -24.9782
   -24.9678 -24.9649 -24.9649 -24.9643 -24.9635 -24.9634 -24.9569 -24.9411
   -24.9396 -24.9319 -24.9319 -24.9261 -24.9260 -24.9065 -24.9065 -24.9028
   -24.9001 -24.8911 -24.8910 -24.8871 -24.8871 -24.8806 -24.8806 -24.8788
   -24.8787 -24.8765 -24.8646 -24.8555 -24.8460 -24.8441 -24.8440 -24.8430
   -24.8430 -24.8360 -24.8360 -24.8296 -24.8296 -24.8235 -24.8135 -24.8135
   -24.8113 -24.8089 -24.8089 -24.8067 -24.8066 -24.7975 -24.7961 -24.7933
   -24.7928 -24.7912 -24.7912 -24.7861 -24.7859 -24.7843 -24.7843 -24.7721
   -24.7720 -24.7713 -24.7674 -24.7674 -24.7644 -24.7643 -24.7625 -24.7624
   -24.7623 -24.7576 -24.7576 -24.7550 -24.7549 -24.7541 -24.7491 -24.7445
   -24.7429 -24.7358 -24.7240 -24.7239 -24.7229 -24.7229 -24.7221 -24.7206
   -24.7201 -24.7200 -24.7170 -24.7169 -24.7138 -24.7137 -24.7122 -24.7061
   -24.6962 -24.6961 -24.6876 -24.6836 -24.6835 -24.6793 -24.6793 -24.6696
   -24.6691 -24.6645 -24.6644 -24.6643 -24.6643 -24.6471 -24.6468 -24.6436
   -11.8307 -11.5590 -11.5589 -11.3004 -11.2662 -11.1758 -11.1757 -11.0388
   -11.0387 -10.9601 -10.9546 -10.9412 -10.9412 -10.9184 -10.9184 -10.8904
   -10.8903 -10.8415 -10.8290 -10.8050 -10.8049 -10.7595 -10.7594 -10.7219
   -10.7172 -10.7161 -10.7161 -10.7134 -10.6711 -10.6711 -10.6361 -10.6361
   -10.6309 -10.5869 -10.5869 -10.5474 -10.5474 -10.4987 -10.4986 -10.4778
   -10.4739 -10.4393 -10.4222 -10.4047 -10.3710 -10.3710 -10.2955 -10.2955
   -10.2954 -10.2938 -10.2364 -10.2364 -10.2259 -10.2259 -10.1893 -10.1893
   -10.1814 -10.1813 -10.1687 -10.1057 -10.1056 -10.0793 -10.0793 -10.0564
   -10.0459 -10.0458  -9.9728  -9.9563  -9.9562  -9.9257  -9.8440  -9.8117
    -2.6484  -2.6325  -2.6042  -2.5780  -2.2689  -2.2689  -2.2405  -2.2405
    -2.1577  -2.1577  -2.0992  -2.0992  -1.9447  -1.9213  -1.9095  -1.8860
    -1.8774  -1.8774  -1.8571  -1.8100  -1.8100  -1.7395  -1.7370  -1.7369
    -1.7346  -1.6115  -1.6114  -1.6111  -1.6111  -1.5801  -1.5743  -1.5743
    -1.5089  -1.5089  -1.4843  -1.4842  -1.4721  -1.4721  -1.3896  -1.3858
    -1.3857  -1.3608  -1.3577  -1.3577  -1.3079  -1.2699  -1.2699  -1.1755
    -1.1755  -1.1050  -1.1013  -1.0531  -1.0531  -1.0434  -1.0434  -1.0084
    -1.0083  -0.9852  -0.9845  -0.9844  -0.8108  -0.8059  -0.8056  -0.7734
    -0.7734  -0.7349  -0.6888  -0.6813  -0.6751  -0.6397  -0.6397  -0.6338
    -0.5991  -0.5964  -0.5963  -0.5865  -0.5864  -0.5761  -0.5760  -0.5700
    -0.5652  -0.5652  -0.5436  -0.5314  -0.5167  -0.5092  -0.4758  -0.4758
    -0.4479  -0.4479  -0.4425  -0.4425  -0.4356  -0.4356  -0.4159  -0.4159
    -0.4119  -0.4119  -0.4005  -0.4005  -0.3641  -0.3641  -0.3389  -0.3389
    -0.3366  -0.3366  -0.3118  -0.3118  -0.3021  -0.3020  -0.2922  -0.2778
    -0.2542  -0.2495  -0.2177  -0.2022  -0.2022  -0.1999  -0.1997  -0.1955
    -0.1955  -0.1770  -0.1520  -0.1520  -0.1493  -0.1486  -0.1260  -0.1095
    -0.1095  -0.1011  -0.0903  -0.0452  -0.0451  -0.0187  -0.0187  -0.0180
    -0.0179  -0.0044   0.0224   0.0224   0.0432   0.0677   0.0748   0.0758
     0.0779   0.0779   0.0974   0.1013   0.1036   0.1112   0.1113   0.1500
     0.1500   0.1539   0.1667   0.1667   0.1790   0.1790   0.1895   0.1895
     0.2119   0.2119   0.2161   0.2162   0.2374   0.2375   0.2768   0.2769
     0.3106   0.3106   0.3259   0.3259   0.3463   0.3464   0.3697   0.4667
     0.4667   0.4996   0.5173   0.5174   0.5189   0.5189   0.5193   0.5250
     0.5507   0.6321   0.6334   0.6334   0.6501   0.6522   0.6603   0.6603
     0.6924   0.6924   0.6927   0.7258   0.7258   0.7930   0.7930   0.8225
     0.8310   0.8711   0.8711   0.9131   0.9132   0.9642   0.9642   1.0087
     1.0138   1.1241   1.2825   1.2825   1.3560   1.5444   1.5780   1.7685
     2.5850   2.8408   2.8408   3.0246   3.0246   3.0785   3.4060   3.4061
     3.6840   3.6840   3.7966   3.8008   3.8009   3.8877   3.9045   3.9185
     3.9185   3.9459   4.0912   4.0913   4.1616   4.1616   4.1907   4.1908
     4.2546   4.2581   4.3163   4.3842   4.3966   4.4023   4.4024   4.4142
     4.4142   4.4221   4.4800   4.4801   4.5785   4.6545   4.6588   4.6588
     4.6607   4.6608   4.6817   4.6818   4.7247   4.7247   4.8307   4.8308
     4.8309   4.8309   4.8498   4.8688   4.8689   4.9237   4.9322   4.9377
     4.9378   4.9516   5.0174   5.0400   5.0584   5.0584   5.0825   5.0825
     5.1242   5.1376   5.1377   5.1432   5.1528   5.1563   5.1565   5.2392
     5.2514   5.3207   5.3207   5.3698   5.3699   5.4032   5.4033   5.4303
     5.4303   5.4895   5.4896   5.5125   5.5125   5.5161   5.5218   5.5218
     5.5821   5.5969   5.5969   5.5999   5.6000   5.6535   5.6535   5.6685
     5.6686   5.7099   5.7246   5.7431   5.7432   5.7625   5.7863   5.7864
     5.8267   5.8627   5.8708   5.8767   5.8844   5.8844   5.8853   5.8981
     5.9247   5.9434   5.9828

          k = 0.2500-0.5000 0.0000 (165780 PWs)   bands (ev):

   -46.5605 -46.5605 -46.5525 -46.5525 -46.5390 -46.5390 -46.5317 -46.5316
   -46.5311 -46.5311 -46.5306 -46.5306 -46.5240 -46.5240 -46.5115 -46.5115
   -46.5045 -46.5044 -46.3531 -46.3529 -46.3441 -46.3438 -46.3291 -46.3289
   -46.3213 -46.3211 -46.3203 -46.3200 -46.3192 -46.3190 -46.3129 -46.3127
   -46.3000 -46.2997 -46.2929 -46.2926 -46.2372 -46.2372 -46.2283 -46.2283
   -46.2131 -46.2131 -46.2050 -46.2050 -46.2039 -46.2039 -46.2027 -46.2027
   -46.1963 -46.1962 -46.1826 -46.1826 -46.1753 -46.1752 -46.1379 -46.1378
   -46.1339 -46.1338 -46.1260 -46.1259 -46.1240 -46.1238 -46.1220 -46.1219
   -46.1201 -46.1200 -46.1152 -46.1151 -46.1040 -46.1039 -46.0967 -46.0966
   -25.4500 -25.4500 -25.4316 -25.4316 -25.4266 -25.4265 -25.4261 -25.4260
   -25.4190 -25.4190 -25.4069 -25.4069 -25.4048 -25.4048 -25.4045 -25.4045
   -25.3790 -25.3790 -25.3532 -25.3532 -25.3431 -25.3430 -25.3226 -25.3226
   -25.3137 -25.3137 -25.3130 -25.3130 -25.2986 -25.2986 -25.2749 -25.2748
   -25.2653 -25.2653 -25.2591 -25.2589 -25.2566 -25.2565 -25.2520 -25.2519
   -25.2502 -25.2501 -25.2476 -25.2476 -25.2449 -25.2449 -25.2397 -25.2397
   -25.2295 -25.2294 -25.2291 -25.2289 -25.1899 -25.1898 -25.1853 -25.1853
   -25.1836 -25.1836 -25.1811 -25.1811 -25.1541 -25.1541 -25.1504 -25.1504
   -25.1351 -25.1351 -25.1185 -25.1185 -25.1098 -25.1098 -25.1068 -25.1067
   -25.0980 -25.0980 -25.0937 -25.0937 -25.0898 -25.0898 -25.0885 -25.0884
   -25.0700 -25.0700 -25.0606 -25.0606 -25.0589 -25.0589 -25.0502 -25.0502
   -25.0460 -25.0459 -25.0371 -25.0371 -25.0333 -25.0333 -25.0096 -25.0095
   -25.0095 -25.0095 -25.0049 -25.0048 -25.0015 -25.0014 -25.0008 -25.0008
   -24.9997 -24.9996 -24.9905 -24.9905 -24.9850 -24.9850 -24.9837 -24.9837
   -24.9795 -24.9795 -24.9646 -24.9645 -24.9548 -24.9548 -24.9432 -24.9432
   -24.9395 -24.9395 -24.9249 -24.9249 -24.9106 -24.9106 -24.9066 -24.9066
   -24.9030 -24.9029 -24.8893 -24.8893 -24.8875 -24.8875 -24.8649 -24.8649
   -24.8643 -24.8642 -24.8636 -24.8635 -24.8478 -24.8478 -24.8478 -24.8478
   -24.8427 -24.8426 -24.8362 -24.8362 -24.8252 -24.8252 -24.8229 -24.8229
   -24.8213 -24.8212 -24.8065 -24.8065 -24.8056 -24.8056 -24.7944 -24.7944
   -24.7867 -24.7867 -24.7830 -24.7829 -24.7814 -24.7814 -24.7810 -24.7809
   -24.7700 -24.7699 -24.7675 -24.7675 -24.7640 -24.7639 -24.7631 -24.7631
   -24.7579 -24.7579 -24.7578 -24.7577 -24.7498 -24.7498 -24.7491 -24.7491
   -24.7438 -24.7437 -24.7416 -24.7416 -24.7232 -24.7232 -24.7191 -24.7191
   -24.7170 -24.7169 -24.7069 -24.7068 -24.7042 -24.7042 -24.6977 -24.6976
   -24.6908 -24.6908 -24.6894 -24.6894 -24.6849 -24.6848 -24.6832 -24.6832
   -24.6827 -24.6826 -24.6535 -24.6535 -24.6513 -24.6513 -24.6493 -24.6493
   -11.7222 -11.7221 -11.4555 -11.4554 -11.1737 -11.1737 -11.0813 -11.0812
   -11.0189 -11.0188 -10.9528 -10.9528 -10.9249 -10.9248 -10.8927 -10.8927
   -10.8357 -10.8357 -10.8192 -10.8192 -10.7998 -10.7997 -10.7652 -10.7651
   -10.7581 -10.7581 -10.6871 -10.6871 -10.6815 -10.6815 -10.6263 -10.6262
   -10.6169 -10.6169 -10.5561 -10.5561 -10.5334 -10.5333 -10.5227 -10.5227
   -10.4162 -10.4161 -10.4159 -10.4158 -10.3565 -10.3565 -10.2967 -10.2966
   -10.2784 -10.2783 -10.2450 -10.2448 -10.2407 -10.2407 -10.1707 -10.1707
   -10.1517 -10.1515 -10.1377 -10.1377 -10.1279 -10.1277 -10.1074 -10.1074
   -10.0429 -10.0427  -9.9729  -9.9728  -9.9188  -9.9188  -9.8004  -9.8003
    -2.6898  -2.6898  -2.6707  -2.6707  -2.2749  -2.2749  -2.2353  -2.2353
    -2.0405  -2.0405  -1.9944  -1.9944  -1.9782  -1.9782  -1.9116  -1.9116
    -1.8724  -1.8724  -1.8549  -1.8549  -1.8206  -1.8206  -1.7761  -1.7761
    -1.7058  -1.7057  -1.6660  -1.6659  -1.5751  -1.5751  -1.5566  -1.5565
    -1.4802  -1.4802  -1.4605  -1.4604  -1.4215  -1.4214  -1.3312  -1.3311
    -1.3230  -1.3229  -1.2877  -1.2876  -1.2450  -1.2449  -1.2117  -1.2117
    -1.2100  -1.2100  -1.1407  -1.1407  -1.1366  -1.1366  -1.0520  -1.0520
    -1.0488  -1.0487  -0.9891  -0.9890  -0.9406  -0.9405  -0.8641  -0.8640
    -0.6905  -0.6905  -0.6689  -0.6688  -0.6319  -0.6319  -0.6170  -0.6169
    -0.5576  -0.5576  -0.5539  -0.5539  -0.5529  -0.5528  -0.5481  -0.5481
    -0.5435  -0.5435  -0.5435  -0.5434  -0.5263  -0.5263  -0.5203  -0.5203
    -0.4922  -0.4922  -0.4887  -0.4887  -0.4647  -0.4647  -0.4539  -0.4539
    -0.4235  -0.4234  -0.3924  -0.3923  -0.3851  -0.3850  -0.3797  -0.3797
    -0.3688  -0.3688  -0.3498  -0.3498  -0.3418  -0.3417  -0.2897  -0.2897
    -0.2621  -0.2621  -0.2238  -0.2237  -0.2128  -0.2128  -0.1607  -0.1607
    -0.1603  -0.1602  -0.1583  -0.1583  -0.1339  -0.1339  -0.0805  -0.0805
    -0.0183  -0.0182  -0.0143  -0.0142  -0.0018  -0.0018   0.0186   0.0186
     0.0379   0.0380   0.0612   0.0613   0.0839   0.0839   0.0897   0.0897
     0.1013   0.1014   0.1151   0.1152   0.1376   0.1376   0.1506   0.1507
     0.1563   0.1563   0.1647   0.1647   0.1893   0.1893   0.1957   0.1957
     0.3025   0.3025   0.3026   0.3027   0.3104   0.3104   0.3375   0.3375
     0.3388   0.3389   0.3556   0.3556   0.4531   0.4531   0.5008   0.5009
     0.5099   0.5100   0.5175   0.5176   0.5331   0.5331   0.5381   0.5382
     0.5648   0.5648   0.6023   0.6023   0.6218   0.6219   0.6311   0.6312
     0.6803   0.6804   0.6842   0.6843   0.7375   0.7376   0.7792   0.7792
     0.7970   0.7971   0.8199   0.8199   0.9532   0.9532   1.0042   1.0043
     1.0157   1.0157   1.0812   1.0813   1.2703   1.2703   1.5211   1.5211
     2.9073   2.9074   3.0675   3.0676   3.2570   3.2571   3.3935   3.3936
     3.5168   3.5168   3.6539   3.6540   3.7170   3.7171   3.8263   3.8264
     3.9134   3.9134   4.0366   4.0367   4.1505   4.1506   4.1613   4.1613
     4.2574   4.2574   4.2899   4.2899   4.3143   4.3143   4.3308   4.3309
     4.4278   4.4281   4.4640   4.4643   4.4813   4.4813   4.6226   4.6226
     4.7025   4.7026   4.7187   4.7187   4.7408   4.7409   4.7674   4.7674
     4.8130   4.8131   4.8272   4.8272   4.8666   4.8667   4.9377   4.9378
     4.9697   4.9698   5.0254   5.0255   5.0857   5.0858   5.1055   5.1055
     5.1636   5.1637   5.1687   5.1688   5.2186   5.2187   5.2802   5.2803
     5.2881   5.2881   5.3277   5.3279   5.4024   5.4025   5.4181   5.4181
     5.4614   5.4614   5.4684   5.4685   5.4750   5.4750   5.5236   5.5237
     5.6262   5.6262   5.6433   5.6433   5.6529   5.6529   5.7113   5.7113
     5.8054   5.8058   5.8077   5.8077   5.8413   5.8414   5.8456   5.8459
     5.8607   5.8607   5.9136   5.9138   5.9158   5.9158   5.9255   5.9256
     5.9700   5.9701   5.9829

          k =-0.5000-0.5000 0.0000 (165708 PWs)   bands (ev):

   -46.5574 -46.5574 -46.5574 -46.5574 -46.5314 -46.5314 -46.5314 -46.5314
   -46.5314 -46.5314 -46.5314 -46.5314 -46.5305 -46.5305 -46.5072 -46.5071
   -46.5071 -46.5071 -46.3497 -46.3495 -46.3493 -46.3493 -46.3213 -46.3210
   -46.3208 -46.3207 -46.3207 -46.3206 -46.3206 -46.3205 -46.3190 -46.3188
   -46.2957 -46.2954 -46.2953 -46.2953 -46.2338 -46.2338 -46.2338 -46.2337
   -46.2046 -46.2046 -46.2046 -46.2046 -46.2046 -46.2046 -46.2045 -46.2045
   -46.2025 -46.2025 -46.1781 -46.1781 -46.1780 -46.1780 -46.1365 -46.1364
   -46.1364 -46.1363 -46.1243 -46.1242 -46.1210 -46.1209 -46.1209 -46.1209
   -46.1209 -46.1208 -46.1207 -46.1205 -46.0997 -46.0996 -46.0996 -46.0994
   -25.4539 -25.4539 -25.4295 -25.4295 -25.4295 -25.4295 -25.4155 -25.4155
   -25.4132 -25.4132 -25.4132 -25.4132 -25.4132 -25.4132 -25.4132 -25.4132
   -25.3644 -25.3644 -25.3644 -25.3644 -25.3197 -25.3197 -25.3145 -25.3145
   -25.3145 -25.3145 -25.2938 -25.2938 -25.2938 -25.2938 -25.2938 -25.2938
   -25.2937 -25.2937 -25.2583 -25.2581 -25.2580 -25.2580 -25.2524 -25.2523
   -25.2522 -25.2522 -25.2522 -25.2521 -25.2521 -25.2521 -25.2467 -25.2467
   -25.2164 -25.2164 -25.2164 -25.2164 -25.2096 -25.2094 -25.2093 -25.2093
   -25.1438 -25.1438 -25.1438 -25.1437 -25.1414 -25.1413 -25.1413 -25.1413
   -25.1413 -25.1413 -25.1412 -25.1412 -25.1340 -25.1340 -25.1339 -25.1339
   -25.1018 -25.1018 -25.0694 -25.0693 -25.0693 -25.0693 -25.0693 -25.0693
   -25.0693 -25.0693 -25.0677 -25.0676 -25.0676 -25.0675 -25.0645 -25.0645
   -25.0645 -25.0645 -25.0175 -25.0175 -25.0174 -25.0174 -25.0174 -25.0174
   -25.0174 -25.0174 -25.0164 -25.0164 -25.0164 -25.0164 -25.0104 -25.0103
   -24.9832 -24.9832 -24.9831 -24.9831 -24.9765 -24.9764 -24.9764 -24.9764
   -24.9764 -24.9764 -24.9763 -24.9763 -24.9710 -24.9710 -24.9709 -24.9709
   -24.9370 -24.9370 -24.9002 -24.9001 -24.9001 -24.9001 -24.8887 -24.8887
   -24.8887 -24.8887 -24.8846 -24.8846 -24.8846 -24.8845 -24.8655 -24.8654
   -24.8654 -24.8654 -24.8653 -24.8653 -24.8653 -24.8653 -24.8477 -24.8477
   -24.8477 -24.8477 -24.8240 -24.8240 -24.8239 -24.8239 -24.8206 -24.8206
   -24.8206 -24.8206 -24.8206 -24.8206 -24.8206 -24.8206 -24.8082 -24.8082
   -24.8081 -24.8081 -24.7837 -24.7836 -24.7732 -24.7731 -24.7731 -24.7730
   -24.7699 -24.7699 -24.7699 -24.7699 -24.7699 -24.7699 -24.7698 -24.7698
   -24.7542 -24.7542 -24.7542 -24.7542 -24.7379 -24.7379 -24.7287 -24.7287
   -24.7287 -24.7286 -24.7189 -24.7188 -24.7163 -24.7163 -24.7163 -24.7163
   -24.7163 -24.7163 -24.7162 -24.7161 -24.7159 -24.7159 -24.7014 -24.7014
   -24.7014 -24.7013 -24.7013 -24.7013 -24.7013 -24.7012 -24.6854 -24.6854
   -24.6853 -24.6853 -24.6488 -24.6487 -24.6451 -24.6451 -24.6451 -24.6451
   -11.6156 -11.6155 -11.6155 -11.6155 -11.0837 -11.0836 -11.0836 -11.0836
   -10.9301 -10.9301 -10.9301 -10.9300 -10.9300 -10.9300 -10.9299 -10.9299
   -10.8603 -10.8602 -10.8601 -10.8601 -10.8550 -10.8550 -10.8550 -10.8550
   -10.6761 -10.6761 -10.6761 -10.6761 -10.6182 -10.6182 -10.6182 -10.6182
   -10.6181 -10.6181 -10.6181 -10.6180 -10.5409 -10.5408 -10.5407 -10.5407
   -10.4396 -10.4395 -10.4357 -10.4357 -10.3058 -10.3058 -10.3058 -10.3058
   -10.2079 -10.2078 -10.2078 -10.2078 -10.2078 -10.2078 -10.2078 -10.2078
   -10.1945 -10.1943 -10.1942 -10.1942 -10.0692 -10.0691 -10.0691 -10.0690
   -10.0690 -10.0690 -10.0689 -10.0689  -9.8874  -9.8874  -9.7732  -9.7732
    -2.7529  -2.7529  -2.7366  -2.7365  -2.0393  -2.0393  -2.0323  -2.0323
    -2.0323  -2.0323  -2.0323  -2.0323  -2.0323  -2.0322  -1.9733  -1.9732
    -1.9732  -1.9732  -1.9732  -1.9732  -1.9731  -1.9731  -1.9485  -1.9484
    -1.4734  -1.4734  -1.4733  -1.4733  -1.4468  -1.4468  -1.4468  -1.4468
    -1.4384  -1.4383  -1.4383  -1.4383  -1.3802  -1.3802  -1.3802  -1.3802
    -1.3801  -1.3801  -1.3801  -1.3801  -1.2152  -1.2152  -1.2152  -1.2151
    -1.2151  -1.2151  -1.2151  -1.2151  -1.1475  -1.1475  -1.1474  -1.1474
    -1.0647  -1.0647  -1.0647  -1.0647  -1.0408  -1.0408  -1.0408  -1.0407
    -0.7158  -0.7158  -0.6992  -0.6992  -0.6186  -0.6186  -0.5874  -0.5873
    -0.5586  -0.5586  -0.5586  -0.5586  -0.5585  -0.5585  -0.5585  -0.5585
    -0.4954  -0.4954  -0.4954  -0.4954  -0.4953  -0.4953  -0.4953  -0.4953
    -0.4116  -0.4116  -0.4116  -0.4116  -0.4116  -0.4116  -0.4115  -0.4115
    -0.4057  -0.4057  -0.4057  -0.4057  -0.3955  -0.3955  -0.3955  -0.3954
    -0.3482  -0.3481  -0.3480  -0.3480  -0.3210  -0.3210  -0.3210  -0.3210
    -0.3210  -0.3209  -0.3209  -0.3209  -0.2975  -0.2975  -0.1888  -0.1887
    -0.1797  -0.1797  -0.1797  -0.1796  -0.1652  -0.1652  -0.0194  -0.0194
     0.0114   0.0114   0.0115   0.0115   0.0288   0.0288   0.0288   0.0289
     0.0618   0.0618   0.0618   0.0618   0.0619   0.0619   0.0619   0.0619
     0.1656   0.1656   0.1656   0.1656   0.1657   0.1657   0.1657   0.1657
     0.2782   0.2782   0.2782   0.2783   0.3195   0.3196   0.3196   0.3197
     0.3337   0.3337   0.3337   0.3337   0.3896   0.3896   0.3896   0.3896
     0.4425   0.4425   0.4426   0.4426   0.4851   0.4851   0.4851   0.4852
     0.4852   0.4853   0.4853   0.4854   0.5088   0.5089   0.5089   0.5089
     0.5089   0.5089   0.5090   0.5090   0.5856   0.5856   0.5856   0.5856
     0.7085   0.7086   0.7086   0.7086   0.7108   0.7108   0.7108   0.7108
     0.8266   0.8267   0.8268   0.8269   0.8361   0.8362   0.8363   0.8364
     1.0566   1.0566   1.0566   1.0566   1.2185   1.2185   1.2186   1.2186
     3.2998   3.2998   3.2999   3.2999   3.3046   3.3046   3.3046   3.3047
     3.3997   3.3998   3.3998   3.3998   3.8163   3.8163   3.8163   3.8163
     3.9305   3.9305   3.9306   3.9306   3.9306   3.9306   3.9306   3.9308
     4.1199   4.1200   4.1200   4.1201   4.4083   4.4084   4.4084   4.4085
     4.4295   4.4297   4.4298   4.4299   4.5246   4.5246   4.5246   4.5246
     4.5371   4.5371   4.5371   4.5372   4.8517   4.8518   4.8518   4.8518
     4.8518   4.8518   4.8518   4.8518   4.9197   4.9198   4.9198   4.9199
     4.9541   4.9541   4.9541   4.9541   5.1707   5.1708   5.1708   5.1709
     5.2121   5.2121   5.2161   5.2161   5.2162   5.2162   5.2162   5.2162
     5.2162   5.2162   5.3801   5.3801   5.4942   5.4945   5.4945   5.4946
     5.4947   5.4948   5.4949   5.4949   5.5552   5.5552   5.5552   5.5552
     5.7540   5.7540   5.7541   5.7541   5.7883   5.7883   5.7883   5.7883
     5.7944   5.7945   5.7946   5.7946   5.7947   5.7947   5.7947   5.7947
     5.9382   5.9382   5.9383   5.9383   5.9383   5.9384   5.9385   5.9385
     5.9709   5.9769   6.0601

          k = 0.2500 0.0000 0.0000 (165664 PWs)   bands (ev):

   -46.5651 -46.5560 -46.5481 -46.5481 -46.5433 -46.5432 -46.5405 -46.5352
   -46.5352 -46.5265 -46.5265 -46.5231 -46.5196 -46.5195 -46.5157 -46.5157
   -46.5086 -46.5004 -46.3582 -46.3479 -46.3392 -46.3390 -46.3336 -46.3334
   -46.3308 -46.3245 -46.3243 -46.3152 -46.3150 -46.3122 -46.3081 -46.3079
   -46.3044 -46.3043 -46.2970 -46.2886 -46.2423 -46.2322 -46.2235 -46.2234
   -46.2178 -46.2177 -46.2150 -46.2083 -46.2083 -46.1985 -46.1985 -46.1956
   -46.1911 -46.1911 -46.1874 -46.1874 -46.1797 -46.1710 -46.1403 -46.1353
   -46.1309 -46.1308 -46.1295 -46.1293 -46.1259 -46.1258 -46.1257 -46.1198
   -46.1196 -46.1132 -46.1125 -46.1123 -46.1074 -46.1073 -46.1006 -46.0924
   -25.4387 -25.4387 -25.4364 -25.4348 -25.4348 -25.4280 -25.4280 -25.4266
   -25.4203 -25.4203 -25.4111 -25.4087 -25.4087 -25.3903 -25.3883 -25.3883
   -25.3817 -25.3817 -25.3634 -25.3606 -25.3606 -25.3566 -25.3566 -25.3364
   -25.2974 -25.2974 -25.2895 -25.2888 -25.2888 -25.2888 -25.2806 -25.2806
   -25.2793 -25.2793 -25.2675 -25.2675 -25.2643 -25.2642 -25.2627 -25.2616
   -25.2537 -25.2510 -25.2486 -25.2485 -25.2389 -25.2332 -25.2221 -25.2221
   -25.2216 -25.2216 -25.2108 -25.2027 -25.2027 -25.1977 -25.1906 -25.1906
   -25.1844 -25.1831 -25.1831 -25.1717 -25.1717 -25.1705 -25.1625 -25.1447
   -25.1325 -25.1325 -25.1224 -25.1224 -25.1192 -25.1146 -25.1145 -25.1077
   -25.1037 -25.1031 -25.1015 -25.1015 -25.0814 -25.0781 -25.0648 -25.0648
   -25.0576 -25.0558 -25.0558 -25.0549 -25.0549 -25.0459 -25.0415 -25.0408
   -25.0344 -25.0344 -25.0341 -25.0341 -25.0325 -25.0323 -25.0286 -25.0261
   -25.0261 -25.0177 -25.0177 -25.0121 -25.0120 -25.0067 -25.0034 -25.0025
   -25.0025 -24.9996 -24.9995 -24.9979 -24.9908 -24.9808 -24.9800 -24.9800
   -24.9729 -24.9729 -24.9575 -24.9575 -24.9520 -24.9520 -24.9509 -24.9509
   -24.9491 -24.9376 -24.9257 -24.9256 -24.9226 -24.9126 -24.9069 -24.9057
   -24.9056 -24.9006 -24.9006 -24.8998 -24.8852 -24.8803 -24.8766 -24.8680
   -24.8680 -24.8674 -24.8645 -24.8599 -24.8513 -24.8513 -24.8501 -24.8414
   -24.8357 -24.8357 -24.8345 -24.8299 -24.8175 -24.8174 -24.8160 -24.8108
   -24.8108 -24.8081 -24.8081 -24.8058 -24.8028 -24.7975 -24.7933 -24.7933
   -24.7908 -24.7908 -24.7905 -24.7905 -24.7872 -24.7836 -24.7836 -24.7740
   -24.7740 -24.7722 -24.7700 -24.7684 -24.7684 -24.7639 -24.7576 -24.7576
   -24.7567 -24.7567 -24.7549 -24.7549 -24.7448 -24.7448 -24.7416 -24.7416
   -24.7398 -24.7395 -24.7394 -24.7365 -24.7364 -24.7364 -24.7326 -24.7326
   -24.7234 -24.7233 -24.7162 -24.7112 -24.7046 -24.7046 -24.7045 -24.6930
   -24.6930 -24.6908 -24.6907 -24.6885 -24.6885 -24.6830 -24.6820 -24.6757
   -24.6756 -24.6743 -24.6546 -24.6520 -24.6506 -24.6506 -24.6487 -24.6487
   -11.8687 -11.5952 -11.3663 -11.3663 -11.2990 -11.2090 -11.1186 -11.1185
   -11.0694 -10.9816 -10.9698 -10.9478 -10.9160 -10.8892 -10.8892 -10.8800
   -10.8800 -10.8710 -10.8204 -10.7856 -10.7807 -10.7807 -10.7442 -10.7207
   -10.7207 -10.6955 -10.6955 -10.6945 -10.6944 -10.6913 -10.6645 -10.6185
   -10.6184 -10.5857 -10.5856 -10.5281 -10.4983 -10.4983 -10.4906 -10.4905
   -10.4876 -10.4875 -10.4228 -10.3975 -10.3553 -10.3553 -10.3158 -10.3120
   -10.3083 -10.3082 -10.2601 -10.2525 -10.2471 -10.2471 -10.2011 -10.1622
   -10.1622 -10.1285 -10.1265 -10.1264 -10.1057 -10.1057 -10.0720 -10.0720
    -9.9907  -9.9907  -9.9875  -9.9875  -9.9337  -9.9337  -9.8705  -9.8704
    -2.4936  -2.4936  -2.4750  -2.4750  -2.4106  -2.4106  -2.3729  -2.3729
    -2.1390  -2.1389  -2.1188  -2.1188  -1.9560  -1.9560  -1.8617  -1.8616
    -1.8201  -1.8014  -1.8014  -1.7777  -1.7776  -1.7423  -1.7189  -1.7188
    -1.6989  -1.6988  -1.6748  -1.6730  -1.6730  -1.5925  -1.5924  -1.5354
    -1.5338  -1.5261  -1.5261  -1.5013  -1.5013  -1.4563  -1.4307  -1.4307
    -1.4003  -1.3797  -1.3796  -1.3796  -1.3184  -1.2583  -1.2582  -1.1252
    -1.1173  -1.1173  -1.0929  -1.0157  -1.0080  -0.9949  -0.9949  -0.9658
    -0.9628  -0.9628  -0.9614  -0.9581  -0.8097  -0.8078  -0.7029  -0.7028
    -0.7002  -0.6862  -0.6861  -0.6596  -0.6481  -0.6481  -0.6281  -0.6281
    -0.6038  -0.5813  -0.5698  -0.5698  -0.5494  -0.5494  -0.5406  -0.5406
    -0.5327  -0.5327  -0.5317  -0.5316  -0.5220  -0.5220  -0.4995  -0.4995
    -0.4917  -0.4917  -0.4851  -0.4796  -0.4796  -0.4707  -0.4707  -0.4501
    -0.4501  -0.4469  -0.3724  -0.3723  -0.3628  -0.3606  -0.3563  -0.3563
    -0.3396  -0.3331  -0.3159  -0.3159  -0.2983  -0.2928  -0.2519  -0.2519
    -0.2239  -0.2238  -0.2177  -0.2177  -0.1854  -0.1854  -0.1793  -0.1755
    -0.1755  -0.1459  -0.1354  -0.1354  -0.1273  -0.1246  -0.1235  -0.1235
    -0.0947  -0.0946  -0.0851  -0.0851  -0.0809  -0.0809  -0.0690  -0.0690
    -0.0675  -0.0182  -0.0182  -0.0017  -0.0017   0.0038   0.0131   0.0131
     0.0478   0.0479   0.0595   0.0644   0.0655   0.0787   0.0787   0.0963
     0.1028   0.1028   0.1088   0.1091   0.1419   0.1419   0.1424   0.1424
     0.1513   0.1513   0.1830   0.1830   0.2284   0.2351   0.2351   0.2424
     0.2497   0.2909   0.2909   0.2952   0.3413   0.3414   0.3754   0.3754
     0.4042   0.4253   0.4254   0.4349   0.4350   0.5363   0.5433   0.5712
     0.6397   0.6488   0.6489   0.6631   0.6883   0.6883   0.7012   0.7177
     0.7220   0.7220   0.7495   0.7495   0.7758   0.7795   0.7892   0.8360
     0.8388   0.8565   0.9508   1.0274   1.0378   1.0428   1.0435   1.0533
     1.0761   1.0762   1.2027   1.4329   1.5665   1.6045   1.7678   1.9038
     2.3904   2.6738   2.8198   2.8851   2.9082   3.1926   3.1927   3.2940
     3.6170   3.6606   3.7986   3.8360   3.9160   4.0107   4.0108   4.0376
     4.1493   4.1494   4.1726   4.1823   4.2373   4.2879   4.3426   4.3586
     4.3586   4.3859   4.3966   4.3966   4.4287   4.4288   4.4385   4.4385
     4.4418   4.5110   4.5110   4.5797   4.5797   4.5979   4.6503   4.6503
     4.6515   4.6704   4.6738   4.7032   4.7032   4.7137   4.7138   4.7799
     4.8138   4.8138   4.8206   4.8475   4.8476   4.8653   4.8655   4.8789
     4.9294   4.9592   4.9593   5.0197   5.0376   5.0554   5.0554   5.0803
     5.0803   5.1026   5.1168   5.1367   5.1368   5.2003   5.2250   5.2251
     5.2287   5.2288   5.2326   5.2327   5.3110   5.3111   5.3442   5.3443
     5.4041   5.4808   5.4884   5.5402   5.5639   5.5639   5.5674   5.5675
     5.5976   5.6249   5.6250   5.6350   5.6350   5.7193   5.7258   5.7259
     5.7290   5.7291   5.7340   5.7395   5.7685   5.7688   5.7787   5.7976
     5.8407   5.8408   5.8411   5.8411   5.8589   5.8591   5.9007   5.9007
     5.9191   5.9192   5.9624

          k =-0.5000 0.0000 0.0000 (165810 PWs)   bands (ev):

   -46.5616 -46.5616 -46.5462 -46.5462 -46.5462 -46.5462 -46.5317 -46.5317
   -46.5308 -46.5308 -46.5308 -46.5308 -46.5172 -46.5172 -46.5172 -46.5172
   -46.5035 -46.5035 -46.3543 -46.3541 -46.3371 -46.3369 -46.3368 -46.3368
   -46.3215 -46.3212 -46.3199 -46.3195 -46.3195 -46.3194 -46.3060 -46.3057
   -46.3056 -46.3056 -46.2919 -46.2918 -46.2384 -46.2384 -46.2213 -46.2212
   -46.2212 -46.2212 -46.2052 -46.2052 -46.2033 -46.2032 -46.2032 -46.2032
   -46.1888 -46.1888 -46.1888 -46.1888 -46.1743 -46.1743 -46.1384 -46.1384
   -46.1304 -46.1304 -46.1304 -46.1302 -46.1231 -46.1231 -46.1231 -46.1229
   -46.1198 -46.1197 -46.1095 -46.1094 -46.1094 -46.1092 -46.0957 -46.0956
   -25.4397 -25.4397 -25.4397 -25.4397 -25.4324 -25.4324 -25.4231 -25.4231
   -25.4231 -25.4231 -25.4015 -25.4015 -25.3932 -25.3932 -25.3932 -25.3932
   -25.3820 -25.3820 -25.3820 -25.3820 -25.3491 -25.3491 -25.3224 -25.3224
   -25.3224 -25.3224 -25.2973 -25.2972 -25.2972 -25.2972 -25.2766 -25.2766
   -25.2746 -25.2746 -25.2594 -25.2593 -25.2552 -25.2550 -25.2550 -25.2550
   -25.2431 -25.2430 -25.2430 -25.2430 -25.2334 -25.2332 -25.2253 -25.2253
   -25.2253 -25.2253 -25.2191 -25.2190 -25.2189 -25.2189 -25.1951 -25.1951
   -25.1810 -25.1809 -25.1605 -25.1605 -25.1605 -25.1605 -25.1460 -25.1460
   -25.1412 -25.1412 -25.1412 -25.1412 -25.1290 -25.1289 -25.1006 -25.1006
   -25.0867 -25.0867 -25.0867 -25.0867 -25.0866 -25.0866 -25.0866 -25.0866
   -25.0682 -25.0681 -25.0648 -25.0648 -25.0510 -25.0510 -25.0510 -25.0510
   -25.0499 -25.0499 -25.0234 -25.0233 -25.0233 -25.0232 -25.0192 -25.0191
   -25.0181 -25.0181 -25.0077 -25.0075 -25.0075 -25.0075 -25.0023 -25.0023
   -25.0023 -25.0023 -24.9908 -24.9908 -24.9776 -24.9776 -24.9652 -24.9651
   -24.9606 -24.9606 -24.9605 -24.9605 -24.9587 -24.9586 -24.9586 -24.9586
   -24.9342 -24.9341 -24.9341 -24.9341 -24.9114 -24.9113 -24.9113 -24.9113
   -24.9090 -24.9090 -24.9026 -24.9026 -24.8985 -24.8985 -24.8720 -24.8720
   -24.8720 -24.8719 -24.8687 -24.8686 -24.8508 -24.8507 -24.8408 -24.8408
   -24.8362 -24.8361 -24.8204 -24.8204 -24.8203 -24.8202 -24.8202 -24.8202
   -24.7983 -24.7983 -24.7983 -24.7982 -24.7982 -24.7982 -24.7982 -24.7982
   -24.7864 -24.7863 -24.7839 -24.7838 -24.7819 -24.7818 -24.7818 -24.7818
   -24.7725 -24.7725 -24.7725 -24.7724 -24.7670 -24.7670 -24.7589 -24.7589
   -24.7589 -24.7589 -24.7583 -24.7583 -24.7581 -24.7581 -24.7550 -24.7549
   -24.7432 -24.7432 -24.7431 -24.7431 -24.7389 -24.7389 -24.7388 -24.7388
   -24.7126 -24.7126 -24.7126 -24.7124 -24.6964 -24.6963 -24.6956 -24.6956
   -24.6834 -24.6834 -24.6833 -24.6833 -24.6701 -24.6701 -24.6676 -24.6676
   -24.6675 -24.6675 -24.6640 -24.6640 -24.6634 -24.6634 -24.6634 -24.6634
   -11.7595 -11.7595 -11.2670 -11.2669 -11.2669 -11.2669 -11.2057 -11.2056
   -11.0503 -11.0502 -10.9492 -10.9491 -10.9067 -10.9066 -10.8092 -10.8091
   -10.8091 -10.8091 -10.8034 -10.8034 -10.8033 -10.8033 -10.7872 -10.7872
   -10.7048 -10.7047 -10.6746 -10.6746 -10.6746 -10.6745 -10.6566 -10.6565
   -10.6535 -10.6535 -10.6535 -10.6534 -10.4556 -10.4556 -10.4555 -10.4555
   -10.4209 -10.4209 -10.4209 -10.4209 -10.3754 -10.3754 -10.3036 -10.3036
   -10.2763 -10.2762 -10.2762 -10.2762 -10.2638 -10.2636 -10.1870 -10.1870
   -10.1870 -10.1870 -10.1625 -10.1624 -10.0689 -10.0688 -10.0687 -10.0687
   -10.0012 -10.0012 -10.0012 -10.0012  -9.8741  -9.8741  -9.8740  -9.8739
    -2.5157  -2.5156  -2.5156  -2.5156  -2.4892  -2.4892  -2.4891  -2.4891
    -1.9233  -1.9233  -1.9233  -1.9233  -1.8796  -1.8796  -1.8796  -1.8796
    -1.8001  -1.8001  -1.8000  -1.8000  -1.7905  -1.7904  -1.7340  -1.7340
    -1.7340  -1.7340  -1.7031  -1.7031  -1.6926  -1.6925  -1.6924  -1.6924
    -1.5808  -1.5808  -1.5808  -1.5807  -1.4057  -1.4056  -1.3811  -1.3810
    -1.3810  -1.3810  -1.2951  -1.2951  -1.2576  -1.2576  -1.2003  -1.2003
    -1.2003  -1.2002  -1.0999  -1.0999  -1.0187  -1.0186  -0.9915  -0.9915
    -0.8227  -0.8227  -0.8226  -0.8226  -0.7823  -0.7822  -0.7822  -0.7822
    -0.7409  -0.7409  -0.6724  -0.6723  -0.6564  -0.6564  -0.6461  -0.6460
    -0.6460  -0.6459  -0.6407  -0.6406  -0.6244  -0.6244  -0.6244  -0.6243
    -0.5565  -0.5565  -0.5565  -0.5565  -0.5462  -0.5462  -0.5462  -0.5462
    -0.5015  -0.5015  -0.5015  -0.5014  -0.4646  -0.4646  -0.4646  -0.4645
    -0.4088  -0.4088  -0.3493  -0.3493  -0.3493  -0.3493  -0.3468  -0.3468
    -0.3193  -0.3193  -0.3193  -0.3193  -0.3102  -0.3102  -0.2595  -0.2594
    -0.2594  -0.2594  -0.2315  -0.2314  -0.2314  -0.2314  -0.1859  -0.1858
    -0.1577  -0.1577  -0.1577  -0.1577  -0.1094  -0.1093  -0.1069  -0.1068
    -0.1068  -0.1068  -0.0943  -0.0943  -0.0943  -0.0943  -0.0189  -0.0188
    -0.0188  -0.0187   0.0402   0.0402   0.0402   0.0402   0.0763   0.0764
     0.0789   0.0789   0.0789   0.0790   0.0920   0.0920   0.0920   0.0920
     0.1041   0.1041   0.1307   0.1308   0.1309   0.1310   0.1345   0.1345
     0.2400   0.2400   0.2401   0.2401   0.3068   0.3068   0.3737   0.3738
     0.4208   0.4208   0.4515   0.4515   0.4515   0.4515   0.4633   0.4634
     0.4974   0.4974   0.4974   0.4974   0.5757   0.5758   0.5758   0.5759
     0.5951   0.5952   0.5952   0.5953   0.6124   0.6124   0.6616   0.6616
     0.6658   0.6660   0.7314   0.7315   0.7494   0.7495   0.7495   0.7495
     0.7750   0.7750   0.8209   0.8209   0.9169   0.9170   1.0939   1.0939
     1.1235   1.1235   1.2006   1.2007   1.3233   1.3233   1.6752   1.6752
     2.7532   2.7533   2.9607   2.9608   3.2448   3.2448   3.4236   3.4236
     3.5338   3.5338   3.5339   3.5339   3.5556   3.5558   4.0104   4.0105
     4.0823   4.0824   4.2425   4.2425   4.3128   4.3128   4.3129   4.3129
     4.3653   4.3653   4.3653   4.3654   4.4654   4.4655   4.4722   4.4725
     4.5170   4.5171   4.5171   4.5171   4.5566   4.5566   4.5567   4.5567
     4.6400   4.6400   4.6484   4.6485   4.7682   4.7683   4.7683   4.7684
     4.7849   4.7850   4.7850   4.7850   4.8442   4.8442   4.8558   4.8559
     4.8559   4.8559   4.9188   4.9188   5.0102   5.0104   5.0105   5.0105
     5.1256   5.1256   5.1257   5.1257   5.1881   5.1881   5.2480   5.2481
     5.2481   5.2482   5.3251   5.3252   5.3252   5.3252   5.3504   5.3504
     5.3925   5.3927   5.4826   5.4827   5.4827   5.4827   5.6363   5.6363
     5.6917   5.6918   5.7008   5.7008   5.7008   5.7009   5.7216   5.7217
     5.7218   5.7218   5.8368   5.8375   5.8429   5.8430   5.8431   5.8432
     5.8745   5.8745   5.8746   5.8746   5.8979   5.8980   5.9030   5.9031
     5.9148   5.9254   5.9689

          k =-0.5000 0.2500 0.0000 (165780 PWs)   bands (ev):

   -46.5605 -46.5605 -46.5525 -46.5525 -46.5390 -46.5390 -46.5317 -46.5316
   -46.5311 -46.5311 -46.5306 -46.5306 -46.5240 -46.5240 -46.5115 -46.5115
   -46.5045 -46.5045 -46.3531 -46.3529 -46.3440 -46.3439 -46.3291 -46.3289
   -46.3214 -46.3211 -46.3203 -46.3200 -46.3192 -46.3190 -46.3129 -46.3128
   -46.2999 -46.2998 -46.2928 -46.2927 -46.2372 -46.2372 -46.2283 -46.2283
   -46.2131 -46.2131 -46.2050 -46.2050 -46.2039 -46.2039 -46.2027 -46.2027
   -46.1963 -46.1962 -46.1826 -46.1826 -46.1753 -46.1752 -46.1379 -46.1379
   -46.1339 -46.1338 -46.1260 -46.1259 -46.1240 -46.1238 -46.1220 -46.1219
   -46.1201 -46.1200 -46.1152 -46.1151 -46.1040 -46.1039 -46.0967 -46.0966
   -25.4500 -25.4500 -25.4316 -25.4316 -25.4265 -25.4265 -25.4261 -25.4260
   -25.4190 -25.4190 -25.4069 -25.4069 -25.4048 -25.4048 -25.4045 -25.4045
   -25.3790 -25.3790 -25.3532 -25.3532 -25.3430 -25.3430 -25.3226 -25.3226
   -25.3137 -25.3137 -25.3130 -25.3130 -25.2986 -25.2986 -25.2749 -25.2748
   -25.2653 -25.2653 -25.2591 -25.2590 -25.2566 -25.2565 -25.2520 -25.2519
   -25.2502 -25.2501 -25.2476 -25.2476 -25.2450 -25.2449 -25.2397 -25.2397
   -25.2295 -25.2294 -25.2290 -25.2290 -25.1899 -25.1898 -25.1853 -25.1853
   -25.1836 -25.1836 -25.1811 -25.1811 -25.1541 -25.1541 -25.1504 -25.1504
   -25.1351 -25.1351 -25.1185 -25.1185 -25.1098 -25.1098 -25.1068 -25.1067
   -25.0980 -25.0980 -25.0937 -25.0936 -25.0898 -25.0898 -25.0885 -25.0884
   -25.0700 -25.0700 -25.0606 -25.0606 -25.0589 -25.0589 -25.0502 -25.0502
   -25.0460 -25.0459 -25.0371 -25.0371 -25.0333 -25.0333 -25.0096 -25.0095
   -25.0095 -25.0095 -25.0049 -25.0048 -25.0015 -25.0014 -25.0008 -25.0008
   -24.9997 -24.9996 -24.9905 -24.9905 -24.9850 -24.9850 -24.9837 -24.9837
   -24.9795 -24.9795 -24.9646 -24.9645 -24.9548 -24.9548 -24.9432 -24.9432
   -24.9395 -24.9395 -24.9249 -24.9249 -24.9106 -24.9106 -24.9066 -24.9066
   -24.9030 -24.9029 -24.8893 -24.8893 -24.8875 -24.8875 -24.8649 -24.8649
   -24.8643 -24.8642 -24.8636 -24.8635 -24.8478 -24.8478 -24.8478 -24.8478
   -24.8427 -24.8427 -24.8362 -24.8362 -24.8252 -24.8252 -24.8229 -24.8229
   -24.8213 -24.8212 -24.8065 -24.8065 -24.8056 -24.8056 -24.7944 -24.7944
   -24.7867 -24.7867 -24.7830 -24.7830 -24.7814 -24.7814 -24.7810 -24.7810
   -24.7699 -24.7699 -24.7675 -24.7675 -24.7640 -24.7640 -24.7631 -24.7631
   -24.7579 -24.7579 -24.7578 -24.7577 -24.7498 -24.7498 -24.7491 -24.7491
   -24.7438 -24.7437 -24.7416 -24.7416 -24.7232 -24.7232 -24.7191 -24.7191
   -24.7170 -24.7169 -24.7069 -24.7068 -24.7042 -24.7042 -24.6977 -24.6976
   -24.6908 -24.6908 -24.6894 -24.6894 -24.6849 -24.6848 -24.6832 -24.6832
   -24.6827 -24.6826 -24.6535 -24.6535 -24.6513 -24.6513 -24.6493 -24.6493
   -11.7222 -11.7221 -11.4555 -11.4554 -11.1737 -11.1737 -11.0813 -11.0812
   -11.0189 -11.0188 -10.9528 -10.9528 -10.9249 -10.9248 -10.8927 -10.8927
   -10.8357 -10.8357 -10.8192 -10.8192 -10.7998 -10.7997 -10.7652 -10.7651
   -10.7581 -10.7581 -10.6871 -10.6871 -10.6815 -10.6815 -10.6263 -10.6262
   -10.6169 -10.6169 -10.5561 -10.5561 -10.5334 -10.5333 -10.5228 -10.5227
   -10.4162 -10.4161 -10.4159 -10.4158 -10.3565 -10.3565 -10.2967 -10.2966
   -10.2784 -10.2784 -10.2450 -10.2449 -10.2407 -10.2407 -10.1707 -10.1707
   -10.1517 -10.1516 -10.1377 -10.1377 -10.1278 -10.1277 -10.1074 -10.1074
   -10.0428 -10.0427  -9.9729  -9.9728  -9.9188  -9.9188  -9.8004  -9.8003
    -2.6898  -2.6898  -2.6707  -2.6707  -2.2749  -2.2749  -2.2353  -2.2353
    -2.0405  -2.0405  -1.9944  -1.9944  -1.9782  -1.9782  -1.9117  -1.9116
    -1.8724  -1.8724  -1.8549  -1.8549  -1.8206  -1.8206  -1.7761  -1.7761
    -1.7058  -1.7058  -1.6660  -1.6659  -1.5751  -1.5750  -1.5565  -1.5565
    -1.4802  -1.4802  -1.4605  -1.4604  -1.4215  -1.4214  -1.3312  -1.3311
    -1.3230  -1.3229  -1.2877  -1.2877  -1.2450  -1.2449  -1.2117  -1.2117
    -1.2100  -1.2100  -1.1407  -1.1407  -1.1366  -1.1366  -1.0520  -1.0520
    -1.0488  -1.0487  -0.9891  -0.9890  -0.9405  -0.9405  -0.8641  -0.8640
    -0.6905  -0.6905  -0.6689  -0.6688  -0.6319  -0.6319  -0.6170  -0.6169
    -0.5576  -0.5576  -0.5539  -0.5539  -0.5529  -0.5528  -0.5481  -0.5481
    -0.5435  -0.5435  -0.5434  -0.5434  -0.5263  -0.5263  -0.5203  -0.5203
    -0.4922  -0.4922  -0.4887  -0.4886  -0.4647  -0.4647  -0.4539  -0.4539
    -0.4235  -0.4234  -0.3924  -0.3923  -0.3851  -0.3850  -0.3797  -0.3797
    -0.3688  -0.3688  -0.3498  -0.3498  -0.3418  -0.3418  -0.2897  -0.2897
    -0.2621  -0.2621  -0.2238  -0.2237  -0.2128  -0.2127  -0.1607  -0.1607
    -0.1603  -0.1603  -0.1583  -0.1583  -0.1339  -0.1339  -0.0805  -0.0805
    -0.0182  -0.0182  -0.0142  -0.0142  -0.0018  -0.0018   0.0186   0.0186
     0.0379   0.0380   0.0612   0.0612   0.0839   0.0839   0.0897   0.0897
     0.1014   0.1014   0.1151   0.1152   0.1376   0.1376   0.1506   0.1506
     0.1563   0.1563   0.1647   0.1647   0.1893   0.1893   0.1957   0.1957
     0.3025   0.3025   0.3026   0.3027   0.3104   0.3104   0.3375   0.3375
     0.3388   0.3389   0.3556   0.3556   0.4531   0.4531   0.5008   0.5008
     0.5099   0.5100   0.5175   0.5175   0.5331   0.5331   0.5381   0.5382
     0.5648   0.5648   0.6023   0.6023   0.6218   0.6219   0.6311   0.6312
     0.6803   0.6804   0.6842   0.6843   0.7375   0.7376   0.7792   0.7792
     0.7970   0.7971   0.8199   0.8199   0.9532   0.9532   1.0042   1.0043
     1.0157   1.0157   1.0812   1.0813   1.2703   1.2703   1.5211   1.5211
     2.9073   2.9074   3.0675   3.0676   3.2570   3.2570   3.3935   3.3936
     3.5168   3.5168   3.6539   3.6540   3.7171   3.7171   3.8263   3.8264
     3.9134   3.9134   4.0366   4.0367   4.1505   4.1506   4.1613   4.1613
     4.2574   4.2574   4.2899   4.2899   4.3143   4.3143   4.3308   4.3309
     4.4278   4.4280   4.4641   4.4643   4.4813   4.4813   4.6226   4.6226
     4.7025   4.7026   4.7187   4.7187   4.7408   4.7409   4.7674   4.7674
     4.8131   4.8131   4.8272   4.8272   4.8666   4.8667   4.9377   4.9378
     4.9697   4.9698   5.0254   5.0255   5.0857   5.0858   5.1055   5.1055
     5.1636   5.1636   5.1687   5.1688   5.2186   5.2186   5.2802   5.2803
     5.2880   5.2881   5.3277   5.3278   5.4024   5.4025   5.4180   5.4182
     5.4614   5.4614   5.4684   5.4685   5.4750   5.4750   5.5236   5.5237
     5.6261   5.6263   5.6433   5.6433   5.6529   5.6529   5.7113   5.7114
     5.8055   5.8056   5.8077   5.8077   5.8414   5.8416   5.8456   5.8456
     5.8607   5.8607   5.9137   5.9138   5.9158   5.9158   5.9255   5.9256
     5.9700   5.9819   5.9827

     the Fermi energy is     2.0312 ev

!    total energy              =   -8262.71402586 Ry
     estimated scf accuracy    <       0.00000028 Ry
     smearing contrib. (-TS)   =       0.00525937 Ry
     internal energy E=F+TS    =   -8262.71928523 Ry

     The total energy is F=E-TS. E is the sum of the following terms:
     one-electron contribution = -100222.51630200 Ry
     hartree contribution      =   50234.78047559 Ry
     xc contribution           =   -1356.00096036 Ry
     ewald contribution        =   43083.84812289 Ry
     DFT-D3 Dispersion         =      -2.83062135 Ry

     convergence has been achieved in   8 iterations

     negative rho (up, down):  7.745E-03 0.000E+00

     Forces acting on atoms (cartesian axes, Ry/au):

     atom    1 type  1   force =     0.00000080    0.00000154    0.01807484
     atom    2 type  1   force =     0.00000318   -0.00000173   -0.00249795
     atom    3 type  1   force =     0.00000082    0.00000878   -0.00248622
     atom    4 type  1   force =     0.00000022    0.00000038    0.01807593
     atom    5 type  1   force =     0.00000595    0.00000518   -0.00156983
     atom    6 type  1   force =     0.00001084   -0.00000798    0.00542132
     atom    7 type  1   force =     0.00000104   -0.00000220    0.00517174
     atom    8 type  1   force =     0.00000487   -0.00001161   -0.00157001
     atom    9 type  1   force =     0.00000040   -0.00000096    0.01807893
     atom   10 type  1   force =    -0.00000161    0.00000531   -0.00249389
     atom   11 type  1   force =    -0.00000023   -0.00000699   -0.00248684
     atom   12 type  1   force =    -0.00000006   -0.00000080    0.01807656
     atom   13 type  1   force =     0.00001496   -0.00000487   -0.00158988
     atom   14 type  1   force =     0.00001206    0.00000592    0.00538528
     atom   15 type  1   force =     0.00000751    0.00000070    0.00537883
     atom   16 type  1   force =     0.00000195    0.00001117   -0.00159847
     atom   17 type  1   force =     0.00000064   -0.00000059    0.01807621
     atom   18 type  1   force =     0.00000103   -0.00000354   -0.00249099
     atom   19 type  1   force =     0.00000325   -0.00000178   -0.00249281
     atom   20 type  1   force =     0.00000033    0.00000043    0.01807595
     atom   21 type  1   force =     0.00000659   -0.00000017   -0.00158986
     atom   22 type  1   force =     0.00000484    0.00000252    0.00543163
     atom   23 type  1   force =     0.00000674   -0.00000015    0.00542888
     atom   24 type  1   force =    -0.00000105    0.00000036   -0.00159525
     atom   25 type  1   force =     0.00000000    0.00000130    0.01807539
     atom   26 type  1   force =    -0.00000318   -0.00000173   -0.00249795
     atom   27 type  1   force =     0.00000000    0.00000434   -0.00248746
     atom   28 type  1   force =    -0.00000022    0.00000038    0.01807593
     atom   29 type  1   force =     0.00000000    0.00000594   -0.00159252
     atom   30 type  1   force =    -0.00001084   -0.00000798    0.00542132
     atom   31 type  1   force =     0.00000000    0.00000037    0.00541993
     atom   32 type  1   force =    -0.00000487   -0.00001161   -0.00157001
     atom   33 type  1   force =     0.00000000   -0.00000112    0.01807801
     atom   34 type  1   force =     0.00000161    0.00000531   -0.00249389
     atom   35 type  1   force =     0.00000000   -0.00000132   -0.00249010
     atom   36 type  1   force =     0.00000006   -0.00000080    0.01807656
     atom   37 type  1   force =     0.00000000   -0.00000660   -0.00159921
     atom   38 type  1   force =    -0.00001206    0.00000592    0.00538528
     atom   39 type  1   force =     0.00000000    0.00000393    0.00542640
     atom   40 type  1   force =    -0.00000195    0.00001117   -0.00159847
     atom   41 type  1   force =     0.00000000   -0.00000016    0.01807657
     atom   42 type  1   force =    -0.00000103   -0.00000354   -0.00249099
     atom   43 type  1   force =     0.00000000   -0.00000295   -0.00249273
     atom   44 type  1   force =    -0.00000033    0.00000043    0.01807595
     atom   45 type  1   force =     0.00000000    0.00000079   -0.00159385
     atom   46 type  1   force =    -0.00000484    0.00000252    0.00543163
     atom   47 type  1   force =     0.00000000   -0.00000363    0.00541318
     atom   48 type  1   force =     0.00000105    0.00000036   -0.00159525
     atom   49 type  1   force =    -0.00000080    0.00000154    0.01807484
     atom   50 type  1   force =     0.00000000   -0.00000231   -0.00250480
     atom   51 type  1   force =    -0.00000082    0.00000878   -0.00248622
     atom   52 type  1   force =     0.00000000    0.00000068    0.01807340
     atom   53 type  1   force =    -0.00000595    0.00000518   -0.00156983
     atom   54 type  1   force =     0.00000000   -0.00001251    0.00544410
     atom   55 type  1   force =    -0.00000104   -0.00000220    0.00517174
     atom   56 type  1   force =     0.00000000   -0.00002438   -0.00154732
     atom   57 type  1   force =    -0.00000040   -0.00000096    0.01807893
     atom   58 type  1   force =     0.00000000    0.00000965   -0.00250289
     atom   59 type  1   force =     0.00000023   -0.00000699   -0.00248684
     atom   60 type  1   force =     0.00000000   -0.00000088    0.01807566
     atom   61 type  1   force =    -0.00001496   -0.00000487   -0.00158988
     atom   62 type  1   force =     0.00000000    0.00000953    0.00536062
     atom   63 type  1   force =    -0.00000751    0.00000070    0.00537883
     atom   64 type  1   force =     0.00000000    0.00002501   -0.00160408
     atom   65 type  1   force =    -0.00000064   -0.00000059    0.01807621
     atom   66 type  1   force =     0.00000000   -0.00000738   -0.00249548
     atom   67 type  1   force =    -0.00000325   -0.00000178   -0.00249281
     atom   68 type  1   force =     0.00000000    0.00000026    0.01807423
     atom   69 type  1   force =    -0.00000659   -0.00000017   -0.00158986
     atom   70 type  1   force =     0.00000000    0.00000320    0.00542325
     atom   71 type  1   force =    -0.00000674   -0.00000015    0.00542888
     atom   72 type  1   force =     0.00000000   -0.00000034   -0.00159571
     atom   73 type  2   force =    -0.00000000   -0.00000140    0.00162074
     atom   74 type  2   force =     0.00000007   -0.00000044    0.00162478
     atom   75 type  2   force =    -0.00000013   -0.00000242   -0.00992789
     atom   76 type  2   force =    -0.00000039    0.00000335   -0.00992690
     atom   77 type  2   force =    -0.00000881   -0.00001670   -0.00597919
     atom   78 type  2   force =    -0.00000114    0.00001070   -0.00601208
     atom   79 type  2   force =    -0.00000112    0.00000407   -0.00506720
     atom   80 type  2   force =    -0.00001151    0.00000205   -0.00504079
     atom   81 type  2   force =     0.00000001    0.00000199    0.00162510
     atom   82 type  2   force =     0.00000089    0.00000033    0.00162604
     atom   83 type  2   force =    -0.00000146    0.00000338   -0.00994186
     atom   84 type  2   force =    -0.00000146   -0.00000153   -0.00991622
     atom   85 type  2   force =     0.00000002    0.00001718   -0.00603546
     atom   86 type  2   force =     0.00001346   -0.00000940   -0.00603696
     atom   87 type  2   force =     0.00000108   -0.00000134   -0.00491238
     atom   88 type  2   force =    -0.00000610   -0.00000385   -0.00509115
     atom   89 type  2   force =    -0.00000017   -0.00000057    0.00162396
     atom   90 type  2   force =     0.00000001    0.00000009    0.00162537
     atom   91 type  2   force =    -0.00000108   -0.00000107   -0.00991920
     atom   92 type  2   force =     0.00000035   -0.00000176   -0.00992154
     atom   93 type  2   force =     0.00000113   -0.00000002   -0.00602102
     atom   94 type  2   force =     0.00000002   -0.00000148   -0.00601928
     atom   95 type  2   force =    -0.00000339   -0.00000158   -0.00511015
     atom   96 type  2   force =     0.00000003    0.00000092   -0.00510049
     atom   97 type  2   force =     0.00000000   -0.00000050    0.00162197
     atom   98 type  2   force =    -0.00000007   -0.00000044    0.00162478
     atom   99 type  2   force =     0.00000000   -0.00000137   -0.00992192
     atom  100 type  2   force =     0.00000039    0.00000335   -0.00992690
     atom  101 type  2   force =     0.00000000   -0.00000292   -0.00601001
     atom  102 type  2   force =     0.00000114    0.00001070   -0.00601208
     atom  103 type  2   force =     0.00000000   -0.00000009   -0.00510197
     atom  104 type  2   force =     0.00001151    0.00000205   -0.00504079
     atom  105 type  2   force =     0.00000000    0.00000074    0.00162550
     atom  106 type  2   force =    -0.00000089    0.00000033    0.00162604
     atom  107 type  2   force =     0.00000000    0.00000226   -0.00991825
     atom  108 type  2   force =     0.00000146   -0.00000153   -0.00991622
     atom  109 type  2   force =     0.00000000    0.00000008   -0.00601637
     atom  110 type  2   force =    -0.00001346   -0.00000940   -0.00603696
     atom  111 type  2   force =     0.00000000    0.00000163   -0.00511825
     atom  112 type  2   force =     0.00000610   -0.00000385   -0.00509115
     atom  113 type  2   force =     0.00000000   -0.00000020    0.00162521
     atom  114 type  2   force =    -0.00000001    0.00000009    0.00162537
     atom  115 type  2   force =     0.00000000   -0.00000095   -0.00991994
     atom  116 type  2   force =    -0.00000035   -0.00000176   -0.00992154
     atom  117 type  2   force =     0.00000000    0.00000264   -0.00602169
     atom  118 type  2   force =    -0.00000002   -0.00000148   -0.00601928
     atom  119 type  2   force =     0.00000000   -0.00000126   -0.00509061
     atom  120 type  2   force =    -0.00000003    0.00000092   -0.00510049
     atom  121 type  2   force =     0.00000000   -0.00000140    0.00162074
     atom  122 type  2   force =     0.00000000   -0.00000025    0.00162475
     atom  123 type  2   force =     0.00000013   -0.00000242   -0.00992789
     atom  124 type  2   force =     0.00000000    0.00000631   -0.00992450
     atom  125 type  2   force =     0.00000881   -0.00001670   -0.00597919
     atom  126 type  2   force =     0.00000000    0.00002453   -0.00600582
     atom  127 type  2   force =     0.00000112    0.00000407   -0.00506720
     atom  128 type  2   force =     0.00000000    0.00000630   -0.00501026
     atom  129 type  2   force =    -0.00000001    0.00000199    0.00162510
     atom  130 type  2   force =     0.00000000   -0.00000002    0.00162763
     atom  131 type  2   force =     0.00000146    0.00000338   -0.00994186
     atom  132 type  2   force =     0.00000000   -0.00000362   -0.00991448
     atom  133 type  2   force =    -0.00000002    0.00001718   -0.00603546
     atom  134 type  2   force =     0.00000000   -0.00002197   -0.00605762
     atom  135 type  2   force =    -0.00000108   -0.00000134   -0.00491238
     atom  136 type  2   force =     0.00000000   -0.00000734   -0.00507675
     atom  137 type  2   force =     0.00000017   -0.00000057    0.00162396
     atom  138 type  2   force =     0.00000000    0.00000025    0.00162622
     atom  139 type  2   force =     0.00000108   -0.00000107   -0.00991920
     atom  140 type  2   force =     0.00000000   -0.00000268   -0.00992338
     atom  141 type  2   force =    -0.00000113   -0.00000002   -0.00602102
     atom  142 type  2   force =     0.00000000   -0.00000257   -0.00601506
     atom  143 type  2   force =     0.00000339   -0.00000158   -0.00511015
     atom  144 type  2   force =     0.00000000    0.00000086   -0.00509963

     Total force =     0.040999     Total SCF correction =     0.000963
     Energy error            =      1.9E-03 Ry
     Gradient error          =      6.1E-03 Ry/Bohr

     number of scf cycles    =   6
     number of bfgs steps    =   5

     energy             old  =   -8262.7121471452 Ry
     energy             new  =   -8262.7140258567 Ry

     CASE: energy            _new < energy            _old

     new trust radius        =       0.0328946863 bohr
     new conv_thr            =       0.0000003893 Ry


ATOMIC_POSITIONS (angstrom)
Sc               0.0000000000        0.0000000000       10.0000000000    0   0   0
Sc               2.2382160900        0.0000000000       12.2382160900    0   0   0
Sc               0.0000000000        2.2382160900       12.2382160900    0   0   0
Sc               2.2382160900        2.2382160900       10.0000000000    0   0   0
Sc              -0.0000055314        0.0001315420       14.4888950157
Sc               2.2382086944       -0.0000107455       16.6640622033
Sc              -0.0000000861        2.2381916099       16.6647452968
Sc               2.2380897355        2.2382643876       14.4889112438
Sc               0.0000000000        4.4764321800       10.0000000000    0   0   0
Sc               2.2382160900        4.4764321800       12.2382160900    0   0   0
Sc               0.0000000000        6.7146482700       12.2382160900    0   0   0
Sc               2.2382160900        6.7146482700       10.0000000000    0   0   0
Sc              -0.0000256898        4.4763341160       14.4889317515
Sc               2.2382294839        4.4764371356       16.6641146386
Sc              -0.0000110401        6.7146776573       16.6641315726
Sc               2.2381892586        6.7146072484       14.4889472466
Sc               0.0000000000        8.9528643500       10.0000000000    0   0   0
Sc               2.2382160900        8.9528643500       12.2382160900    0   0   0
Sc               0.0000000000       11.1910804400       12.2382160900    0   0   0
Sc               2.2382160900       11.1910804400       10.0000000000    0   0   0
Sc              -0.0000221040        8.9528312113       14.4889213766
Sc               2.2382038223        8.9528702809       16.6641214909
Sc              -0.0000172155       11.1910844034       16.6640654861
Sc               2.2382070352       11.1910728398       14.4889166582
Sc               4.4764321800        0.0000000000       10.0000000000    0   0   0
Sc               6.7146482700        0.0000000000       12.2382160900    0   0   0
Sc               4.4764321800        2.2382160900       12.2382160900    0   0   0
Sc               6.7146482700        2.2382160900       10.0000000000    0   0   0
Sc               4.4764348900        0.0000154375       14.4888927345
Sc               6.7146547456       -0.0000104355       16.6640791033
Sc               4.4764323100        2.2382038698       16.6640659885
Sc               6.7147729845        2.2382602576       14.4889111538
Sc               4.4764321800        4.4764321800       10.0000000000    0   0   0
Sc               6.7146482700        4.4764321800       12.2382160900    0   0   0
Sc               4.4764321800        6.7146482700       12.2382160900    0   0   0
Sc               6.7146482700        6.7146482700       10.0000000000    0   0   0
Sc               4.4764301000        4.4764317751       14.4889458943
Sc               6.7146370661        4.4764361156       16.6640908786
Sc               4.4764311400        6.7146475692       16.6641697566
Sc               6.7146758714        6.7146100684       14.4889442066
Sc               4.4764321800        8.9528643500       10.0000000000    0   0   0
Sc               6.7146482700        8.9528643500       12.2382160900    0   0   0
Sc               4.4764321800       11.1910804400       12.2382160900    0   0   0
Sc               6.7146482700       11.1910804400       10.0000000000    0   0   0
Sc               4.4764324400        8.9528486124       14.4889382292
Sc               6.7146590177        8.9528693209       16.6641219909
Sc               4.4764327100       11.1910913747       16.6641588744
Sc               6.7146583748       11.1910750298       14.4889190682
Sc               8.9528643500        0.0000000000       10.0000000000    0   0   0
Sc              11.1910804400        0.0000000000       12.2382160900    0   0   0
Sc               8.9528643500        2.2382160900       12.2382160900    0   0   0
Sc              11.1910804400        2.2382160900       10.0000000000    0   0   0
Sc               8.9528666314        0.0001293220       14.4888960757
Sc              11.1910813800       -0.0000214393       16.6639634060
Sc               8.9528650261        2.2381905399       16.6647408568
Sc              11.1910805600        2.2382845627       14.4889282313
Sc               8.9528643500        4.4764321800       10.0000000000    0   0   0
Sc              11.1910804400        4.4764321800       12.2382160900    0   0   0
Sc               8.9528643500        6.7146482700       12.2382160900    0   0   0
Sc              11.1910804400        6.7146482700       10.0000000000    0   0   0
Sc               8.9528933598        4.4763351360       14.4889298015
Sc              11.1910818400        4.4764431807       16.6640181498
Sc               8.9528749401        6.7146759773       16.6641456226
Sc              11.1910808600        6.7146020855       14.4889422458
Sc               8.9528643500        8.9528643500       10.0000000000    0   0   0
Sc              11.1910804400        8.9528643500       12.2382160900    0   0   0
Sc               8.9528643500       11.1910804400       12.2382160900    0   0   0
Sc              11.1910804400       11.1910804400       10.0000000000    0   0   0
Sc               8.9528862240        8.9528322313       14.4889214266
Sc              11.1910806400        8.9528774259       16.6641676104
Sc               8.9528825355       11.1910833434       16.6640973261
Sc              11.1910796900       11.1910571625       14.4888783635
N                0.0000000000        2.2382160900       10.0000000000    0   0   0
N                2.2382160900        0.0000000000       10.0000000000    0   0   0
N                0.0000000000        0.0000000000       12.2382160900    0   0   0
N                2.2382160900        2.2382160900       12.2382160900    0   0   0
N                0.0000005520        2.2381860989       14.5003122812
N                2.2382093240       -0.0000197301       14.5002457052
N               -0.0000137291        0.0000588052       16.6861656650
N                2.2381681157        2.2382294642       16.6861374369
N                0.0000000000        6.7146482700       10.0000000000    0   0   0
N                2.2382160900        4.4764321800       10.0000000000    0   0   0
N                0.0000000000        4.4764321800       12.2382160900    0   0   0
N                2.2382160900        6.7146482700       12.2382160900    0   0   0
N               -0.0000077517        6.7146912742       14.5003180249
N                2.2382551715        4.4764638302       14.5003109357
N               -0.0000231226        4.4763726200       16.6854276872
N                2.2381981163        6.7146220290       16.6862289965
N                0.0000000000       11.1910804400       10.0000000000    0   0   0
N                2.2382160900        8.9528643500       10.0000000000    0   0   0
N                0.0000000000        8.9528643500       12.2382160900    0   0   0
N                2.2382160900       11.1910804400       12.2382160900    0   0   0
N               -0.0000040212       11.1910659331       14.5002657603
N                2.2382066359        8.9528543018       14.5002890399
N               -0.0000098996        8.9528582511       16.6862487968
N                2.2382050707       11.1910954510       16.6861408420
N                4.4764321800        2.2382160900       10.0000000000    0   0   0
N                6.7146482700        0.0000000000       10.0000000000    0   0   0
N                4.4764321800        0.0000000000       12.2382160900    0   0   0
N                6.7146482700        2.2382160900       12.2382160900    0   0   0
N                4.4764324400        2.2382339749       14.5002433358
N                6.7146567160       -0.0000216301       14.5002492252
N                4.4764319700        0.0000236112       16.6861343274
N                6.7146954343        2.2382283442       16.6861360769
N                4.4764321800        6.7146482700       10.0000000000    0   0   0
N                6.7146482700        4.4764321800       10.0000000000    0   0   0
N                4.4764321800        4.4764321800       12.2382160900    0   0   0
N                6.7146482700        6.7146482700       12.2382160900    0   0   0
N                4.4764310300        6.7146392055       14.5003065578
N                6.7146084285        4.4764618702       14.5003093557
N                4.4764316100        4.4764080345       16.6862687954
N                6.7146672337        6.7146225690       16.6862091765
N                4.4764321800       11.1910804400       10.0000000000    0   0   0
N                6.7146482700        8.9528643500       10.0000000000    0   0   0
N                4.4764321800        8.9528643500       12.2382160900    0   0   0
N                6.7146482700       11.1910804400       12.2382160900    0   0   0
N                4.4764330700       11.1910719807       14.5002867450
N                6.7146573841        8.9528566918       14.5002889699
N                4.4764329900        8.9528636055       16.6861159801
N                6.7146591893       11.1910968410       16.6861662620
N                8.9528643500        2.2382160900       10.0000000000    0   0   0
N               11.1910804400        0.0000000000       10.0000000000    0   0   0
N                8.9528643500        0.0000000000       12.2382160900    0   0   0
N               11.1910804400        2.2382160900       12.2382160900    0   0   0
N                8.9528644880        2.2381851489       14.5003129312
N               11.1910809200       -0.0000217729       14.5002130287
N                8.9528770091        0.0000581952       16.6861520650
N               11.1910794100        2.2382381655       16.6862369031
N                8.9528643500        6.7146482700       10.0000000000    0   0   0
N               11.1910804400        4.4764321800       10.0000000000    0   0   0
N                8.9528643500        4.4764321800       12.2382160900    0   0   0
N               11.1910804400        6.7146482700       12.2382160900    0   0   0
N                8.9528727317        6.7146910442       14.5003183649
N               11.1910789200        4.4764664897       14.5003134677
N                8.9528873826        4.4763736900       16.6854272272
N               11.1910803400        6.7146105611       16.6862208347
N                8.9528643500       11.1910804400       10.0000000000    0   0   0
N               11.1910804400        8.9528643500       10.0000000000    0   0   0
N                8.9528643500        8.9528643500       12.2382160900    0   0   0
N               11.1910804400       11.1910804400       12.2382160900    0   0   0
N                8.9528675712       11.1910668931       14.5002671003
N               11.1910809700        8.9528517115       14.5002952131
N                8.9528746296        8.9528574111       16.6862204168
N               11.1910796900       11.1910949864       16.6861062682



     Writing config-only to output data dir ./tmp/ScN_slab.save/ :
     XML data file
     NEW-OLD atomic charge density approx. for the potential

     negative rho (up, down):  8.092E-03 0.000E+00

     total cpu time spent up to now is     8561.2 secs

     per-process dynamical memory:  1041.6 Mb

     Self-consistent Calculation

     iteration #  1     ecut=    45.00 Ry     beta= 0.25
     Davidson diagonalization with overlap
     ethr =  1.00E-06,  avg # of iterations =  6.0

     negative rho (up, down):  7.948E-03 0.000E+00

     total cpu time spent up to now is     8836.7 secs

     total energy              =   -8262.71477279 Ry
     estimated scf accuracy    <       0.00848953 Ry

     iteration #  2     ecut=    45.00 Ry     beta= 0.25
     Davidson diagonalization with overlap
     ethr =  7.37E-07,  avg # of iterations =  4.0

     negative rho (up, down):  7.856E-03 0.000E+00

     total cpu time spent up to now is     8970.7 secs

     total energy              =   -8262.71592652 Ry
     estimated scf accuracy    <       0.00242538 Ry

     iteration #  3     ecut=    45.00 Ry     beta= 0.25
     Davidson diagonalization with overlap
     ethr =  2.11E-07,  avg # of iterations =  2.9

     negative rho (up, down):  7.797E-03 0.000E+00

     total cpu time spent up to now is     9104.0 secs

     total energy              =   -8262.71603600 Ry
     estimated scf accuracy    <       0.00060734 Ry

     iteration #  4     ecut=    45.00 Ry     beta= 0.25
     Davidson diagonalization with overlap
     ethr =  5.27E-08,  avg # of iterations =  2.6

     negative rho (up, down):  7.764E-03 0.000E+00

     total cpu time spent up to now is     9224.3 secs

     total energy              =   -8262.71605386 Ry
     estimated scf accuracy    <       0.00022591 Ry

     iteration #  5     ecut=    45.00 Ry     beta= 0.25
     Davidson diagonalization with overlap
     ethr =  1.96E-08,  avg # of iterations =  4.0

     negative rho (up, down):  7.746E-03 0.000E+00

     total cpu time spent up to now is     9353.5 secs

     total energy              =   -8262.71608330 Ry
     estimated scf accuracy    <       0.00005122 Ry

     iteration #  6     ecut=    45.00 Ry     beta= 0.25
     Davidson diagonalization with overlap
     ethr =  4.45E-09,  avg # of iterations =  3.6

     negative rho (up, down):  7.734E-03 0.000E+00

     total cpu time spent up to now is     9483.1 secs

     total energy              =   -8262.71609154 Ry
     estimated scf accuracy    <       0.00001192 Ry

     iteration #  7     ecut=    45.00 Ry     beta= 0.25
     Davidson diagonalization with overlap
     ethr =  1.03E-09,  avg # of iterations =  2.9

     negative rho (up, down):  7.727E-03 0.000E+00

     total cpu time spent up to now is     9598.3 secs

     total energy              =   -8262.71609344 Ry
     estimated scf accuracy    <       0.00000320 Ry

     iteration #  8     ecut=    45.00 Ry     beta= 0.25
     Davidson diagonalization with overlap
     ethr =  2.78E-10,  avg # of iterations =  4.0

     negative rho (up, down):  7.719E-03 0.000E+00

     total cpu time spent up to now is     9727.6 secs

     total energy              =   -8262.71609416 Ry
     estimated scf accuracy    <       0.00000066 Ry

     iteration #  9     ecut=    45.00 Ry     beta= 0.25
     Davidson diagonalization with overlap
     ethr =  5.70E-11,  avg # of iterations =  3.8

     negative rho (up, down):  7.705E-03 0.000E+00

     total cpu time spent up to now is     9855.3 secs

     End of self-consistent calculation

          k = 0.0000 0.0000 0.0000 (165739 PWs)   bands (ev):

   -46.5546 -46.5371 -46.5371 -46.5371 -46.5371 -46.5278 -46.5278 -46.5278
   -46.5278 -46.5111 -46.5111 -46.5111 -46.5111 -46.5036 -46.5036 -46.5036
   -46.5036 -46.4877 -46.3626 -46.3434 -46.3433 -46.3431 -46.3430 -46.3329
   -46.3326 -46.3325 -46.3325 -46.3150 -46.3148 -46.3146 -46.3146 -46.3076
   -46.3075 -46.3073 -46.3073 -46.2911 -46.2269 -46.2073 -46.2073 -46.2073
   -46.2073 -46.1962 -46.1962 -46.1962 -46.1962 -46.1772 -46.1772 -46.1772
   -46.1772 -46.1698 -46.1698 -46.1698 -46.1697 -46.1526 -46.1217 -46.1118
   -46.1117 -46.1117 -46.1115 -46.1086 -46.1086 -46.1085 -46.1083 -46.0966
   -46.0965 -46.0964 -46.0962 -46.0872 -46.0872 -46.0871 -46.0869 -46.0717
   -25.4258 -25.4221 -25.4221 -25.4221 -25.4221 -25.4118 -25.4118 -25.4118
   -25.4118 -25.4075 -25.4075 -25.4075 -25.4075 -25.3679 -25.3679 -25.3679
   -25.3679 -25.3656 -25.3656 -25.3656 -25.3656 -25.3188 -25.3145 -25.3145
   -25.3145 -25.3145 -25.2840 -25.2839 -25.2839 -25.2839 -25.2826 -25.2826
   -25.2752 -25.2750 -25.2750 -25.2750 -25.2650 -25.2481 -25.2480 -25.2479
   -25.2479 -25.2345 -25.2345 -25.2345 -25.2344 -25.2141 -25.2140 -25.2140
   -25.2139 -25.2093 -25.2093 -25.2091 -25.2091 -25.2083 -25.2083 -25.2083
   -25.2083 -25.1719 -25.1719 -25.1718 -25.1718 -25.1471 -25.1471 -25.1346
   -25.1275 -25.1275 -25.1275 -25.1274 -25.1009 -25.1008 -25.1008 -25.1008
   -25.0761 -25.0761 -25.0760 -25.0760 -25.0681 -25.0680 -25.0680 -25.0679
   -25.0602 -25.0602 -25.0602 -25.0602 -25.0336 -25.0336 -25.0336 -25.0335
   -25.0283 -25.0283 -25.0257 -25.0257 -25.0257 -25.0257 -25.0087 -25.0087
   -25.0087 -25.0086 -25.0084 -25.0082 -25.0082 -25.0082 -24.9944 -24.9944
   -24.9944 -24.9944 -24.9873 -24.9866 -24.9866 -24.9771 -24.9771 -24.9771
   -24.9770 -24.9612 -24.9611 -24.9611 -24.9611 -24.9408 -24.9408 -24.9408
   -24.9408 -24.9082 -24.9081 -24.9081 -24.9080 -24.8980 -24.8980 -24.8980
   -24.8980 -24.8830 -24.8830 -24.8830 -24.8829 -24.8697 -24.8697 -24.8692
   -24.8527 -24.8527 -24.8527 -24.8527 -24.8318 -24.8317 -24.8317 -24.8316
   -24.8277 -24.8277 -24.8243 -24.8243 -24.8243 -24.8243 -24.8113 -24.8112
   -24.8112 -24.8111 -24.7921 -24.7873 -24.7873 -24.7873 -24.7873 -24.7760
   -24.7760 -24.7760 -24.7759 -24.7689 -24.7689 -24.7689 -24.7689 -24.7650
   -24.7649 -24.7649 -24.7648 -24.7569 -24.7569 -24.7569 -24.7569 -24.7544
   -24.7544 -24.7229 -24.7229 -24.7228 -24.7227 -24.7170 -24.7170 -24.7170
   -24.7169 -24.7157 -24.7156 -24.7155 -24.7154 -24.7092 -24.7070 -24.7070
   -24.7070 -24.7069 -24.7069 -24.7069 -24.7068 -24.7067 -24.6929 -24.6928
   -24.6927 -24.6927 -24.6812 -24.6812 -24.6811 -24.6810 -24.6583 -24.6583
   -24.6583 -24.6582 -24.6327 -24.6327 -24.6282 -24.6282 -24.6281 -24.6281
   -11.9087 -11.4027 -11.4026 -11.4026 -11.4025 -11.3270 -10.9999 -10.9878
   -10.9472 -10.9472 -10.9472 -10.9471 -10.9137 -10.9137 -10.9137 -10.9136
   -10.9083 -10.9083 -10.9082 -10.9082 -10.8945 -10.7812 -10.7371 -10.7371
   -10.7371 -10.7370 -10.5849 -10.5848 -10.5847 -10.5847 -10.5742 -10.5742
   -10.5742 -10.5742 -10.5741 -10.5740 -10.5740 -10.5739 -10.5199 -10.5199
   -10.5199 -10.5199 -10.4290 -10.3894 -10.3894 -10.3893 -10.3893 -10.3406
   -10.2589 -10.2589 -10.2589 -10.2589 -10.1761 -10.1760 -10.1760 -10.1760
   -10.1569 -10.1568 -10.1568 -10.1567 -10.0449 -10.0448 -10.0448 -10.0448
   -10.0177 -10.0177 -10.0177 -10.0177  -9.9267  -9.9265  -9.9265  -9.9265
    -2.3566  -2.3566  -2.3565  -2.3565  -2.3395  -2.3395  -2.3394  -2.3394
    -2.2058  -2.2058  -2.2058  -2.2057  -2.1504  -2.1504  -2.1504  -2.1504
    -1.7329  -1.7329  -1.7328  -1.7328  -1.6810  -1.6810  -1.6810  -1.6810
    -1.6346  -1.6345  -1.6345  -1.6345  -1.6228  -1.6227  -1.6226  -1.6226
    -1.5411  -1.5411  -1.5411  -1.5410  -1.4264  -1.4263  -1.4263  -1.4263
    -1.3613  -1.3112  -1.3111  -1.3111  -1.3111  -1.2104  -1.2104  -1.2104
    -1.2103  -1.2031  -1.2031  -1.2031  -1.2030  -1.0177  -1.0177  -0.9519
    -0.9046  -0.9046  -0.9046  -0.9045  -0.6676  -0.6676  -0.6554  -0.6554
    -0.6553  -0.6553  -0.6549  -0.6548  -0.6548  -0.6548  -0.6186  -0.6185
    -0.6185  -0.6185  -0.6056  -0.6056  -0.6056  -0.6056  -0.5439  -0.5439
    -0.5438  -0.5438  -0.4751  -0.4751  -0.4751  -0.4751  -0.4519  -0.4518
    -0.4518  -0.4518  -0.4265  -0.4265  -0.4265  -0.4265  -0.4131  -0.4130
    -0.4130  -0.4130  -0.3887  -0.3887  -0.3887  -0.3886  -0.3203  -0.3203
    -0.3203  -0.3203  -0.2692  -0.2692  -0.2692  -0.2691  -0.2446  -0.2446
    -0.2446  -0.2445  -0.2124  -0.2044  -0.2044  -0.2044  -0.2044  -0.1895
    -0.1701  -0.1701  -0.1701  -0.1700  -0.1640  -0.1639  -0.1639  -0.1639
    -0.1156  -0.1156  -0.1156  -0.1156  -0.1091  -0.0436  -0.0436  -0.0435
    -0.0434  -0.0428  -0.0428  -0.0428  -0.0428  -0.0416  -0.0416  -0.0415
    -0.0415   0.0495   0.0495   0.0939   0.0939   0.0939   0.0939   0.0964
     0.0965   0.0965   0.0965   0.1127   0.1128   0.1128   0.1128   0.1497
     0.1498   0.1498   0.1498   0.1602   0.1602   0.1602   0.1602   0.1858
     0.1859   0.1859   0.1860   0.2187   0.2187   0.2188   0.2188   0.2931
     0.2931   0.2932   0.2933   0.3751   0.3752   0.3752   0.3752   0.7164
     0.7165   0.7166   0.7166   0.7473   0.7594   0.7594   0.7594   0.7594
     0.7865   0.7865   0.7964   0.7964   0.7965   0.7965   0.8189   0.8190
     0.8190   0.8191   0.9862   0.9862   1.1496   1.1910   1.1910   1.2188
     1.2188   1.2189   1.2189   1.2525   1.7568   1.7568   2.0229   2.0229
     2.0889   2.6578   2.6578   2.6682   3.0767   3.0767   3.0768   3.0769
     3.4873   3.8915   4.0935   4.0935   4.0937   4.0937   4.1650   4.1742
     4.1742   4.3748   4.3748   4.3749   4.3749   4.3989   4.3989   4.3990
     4.3990   4.4077   4.4078   4.4078   4.4079   4.4461   4.4921   4.4922
     4.4922   4.4923   4.5179   4.5179   4.5179   4.5179   4.5540   4.5540
     4.5541   4.5542   4.6793   4.6793   4.6793   4.6794   4.7137   4.7137
     4.7137   4.7137   4.8098   4.8099   4.8102   4.8104   4.8371   4.8371
     4.8988   4.8990   4.8991   4.8991   5.1493   5.2283   5.2284   5.2284
     5.2285   5.2352   5.2352   5.2352   5.2353   5.2882   5.2882   5.2882
     5.2883   5.3216   5.3217   5.3218   5.3218   5.4291   5.4291   5.4292
     5.4292   5.4363   5.4364   5.4365   5.4365   5.4498   5.4498   5.4498
     5.4499   5.5396   5.5396   5.5396   5.5397   5.6499   5.6500   5.6501
     5.6501   5.7250   5.7675   5.7782   5.7782   5.8146   5.8146   5.8147
     5.8147   5.8603   5.8603   5.8742   5.8744   5.8745   5.8745   5.9268
     5.9407   5.9615   5.9690

          k = 0.0000 0.2500 0.0000 (165664 PWs)   bands (ev):

   -46.5534 -46.5443 -46.5364 -46.5364 -46.5316 -46.5316 -46.5288 -46.5236
   -46.5235 -46.5149 -46.5149 -46.5115 -46.5079 -46.5079 -46.5041 -46.5041
   -46.4969 -46.4888 -46.3612 -46.3511 -46.3425 -46.3424 -46.3369 -46.3368
   -46.3342 -46.3280 -46.3278 -46.3187 -46.3186 -46.3157 -46.3117 -46.3115
   -46.3080 -46.3078 -46.3006 -46.2922 -46.2256 -46.2154 -46.2065 -46.2065
   -46.2007 -46.2007 -46.1980 -46.1912 -46.1912 -46.1813 -46.1813 -46.1785
   -46.1740 -46.1739 -46.1702 -46.1702 -46.1625 -46.1538 -46.1210 -46.1160
   -46.1116 -46.1115 -46.1100 -46.1099 -46.1064 -46.1063 -46.1063 -46.1002
   -46.1001 -46.0937 -46.0929 -46.0928 -46.0879 -46.0877 -46.0810 -46.0728
   -25.4269 -25.4269 -25.4244 -25.4228 -25.4228 -25.4162 -25.4161 -25.4146
   -25.4084 -25.4084 -25.3992 -25.3967 -25.3967 -25.3784 -25.3770 -25.3770
   -25.3698 -25.3698 -25.3516 -25.3496 -25.3496 -25.3449 -25.3449 -25.3247
   -25.2941 -25.2941 -25.2864 -25.2864 -25.2776 -25.2770 -25.2708 -25.2708
   -25.2688 -25.2688 -25.2649 -25.2648 -25.2639 -25.2613 -25.2613 -25.2551
   -25.2501 -25.2500 -25.2498 -25.2405 -25.2391 -25.2295 -25.2235 -25.2235
   -25.2210 -25.2209 -25.2037 -25.2026 -25.2025 -25.1978 -25.1919 -25.1919
   -25.1725 -25.1715 -25.1715 -25.1614 -25.1599 -25.1599 -25.1585 -25.1417
   -25.1298 -25.1298 -25.1210 -25.1155 -25.1155 -25.1116 -25.1116 -25.1008
   -25.0958 -25.0914 -25.0907 -25.0907 -25.0846 -25.0733 -25.0547 -25.0547
   -25.0466 -25.0466 -25.0457 -25.0438 -25.0438 -25.0389 -25.0318 -25.0304
   -25.0304 -25.0297 -25.0296 -25.0238 -25.0232 -25.0232 -25.0171 -25.0171
   -25.0166 -25.0101 -25.0101 -25.0045 -25.0045 -25.0016 -24.9920 -24.9920
   -24.9916 -24.9909 -24.9909 -24.9890 -24.9813 -24.9689 -24.9685 -24.9685
   -24.9636 -24.9636 -24.9468 -24.9467 -24.9467 -24.9463 -24.9463 -24.9393
   -24.9393 -24.9284 -24.9196 -24.9196 -24.9186 -24.8988 -24.8961 -24.8960
   -24.8933 -24.8865 -24.8865 -24.8851 -24.8748 -24.8721 -24.8681 -24.8681
   -24.8658 -24.8576 -24.8557 -24.8489 -24.8489 -24.8486 -24.8355 -24.8332
   -24.8303 -24.8290 -24.8204 -24.8204 -24.8050 -24.8050 -24.8028 -24.8028
   -24.7994 -24.7958 -24.7958 -24.7955 -24.7880 -24.7879 -24.7860 -24.7828
   -24.7769 -24.7768 -24.7746 -24.7739 -24.7738 -24.7689 -24.7689 -24.7651
   -24.7651 -24.7592 -24.7580 -24.7580 -24.7556 -24.7548 -24.7548 -24.7474
   -24.7423 -24.7423 -24.7406 -24.7406 -24.7313 -24.7313 -24.7258 -24.7257
   -24.7231 -24.7228 -24.7227 -24.7215 -24.7197 -24.7196 -24.7175 -24.7175
   -24.7061 -24.7060 -24.6994 -24.6947 -24.6876 -24.6873 -24.6872 -24.6763
   -24.6763 -24.6737 -24.6736 -24.6727 -24.6726 -24.6680 -24.6653 -24.6595
   -24.6594 -24.6585 -24.6394 -24.6368 -24.6343 -24.6343 -24.6330 -24.6330
   -11.8704 -11.5967 -11.3677 -11.3677 -11.2940 -11.2103 -11.1198 -11.1198
   -11.0648 -10.9839 -10.9678 -10.9488 -10.9168 -10.8851 -10.8850 -10.8808
   -10.8807 -10.8648 -10.8196 -10.7821 -10.7816 -10.7816 -10.7502 -10.7196
   -10.7196 -10.6951 -10.6950 -10.6920 -10.6919 -10.6895 -10.6586 -10.6177
   -10.6177 -10.5862 -10.5861 -10.5339 -10.4923 -10.4923 -10.4897 -10.4896
   -10.4854 -10.4853 -10.4112 -10.3911 -10.3612 -10.3612 -10.3226 -10.3047
   -10.3019 -10.3019 -10.2587 -10.2514 -10.2368 -10.2368 -10.2112 -10.1684
   -10.1684 -10.1366 -10.1358 -10.1358 -10.0944 -10.0944 -10.0639 -10.0639
   -10.0009 -10.0009  -9.9764  -9.9764  -9.9412  -9.9411  -9.8805  -9.8804
    -2.4962  -2.4962  -2.4759  -2.4759  -2.4120  -2.4120  -2.3747  -2.3746
    -2.1423  -2.1423  -2.1199  -2.1199  -1.9554  -1.9554  -1.8646  -1.8645
    -1.8224  -1.7923  -1.7923  -1.7808  -1.7808  -1.7440  -1.7272  -1.7272
    -1.7006  -1.7006  -1.6732  -1.6696  -1.6696  -1.5883  -1.5882  -1.5392
    -1.5365  -1.5208  -1.5208  -1.5024  -1.5024  -1.4487  -1.4369  -1.4368
    -1.4023  -1.3828  -1.3828  -1.3697  -1.3169  -1.2575  -1.2575  -1.1281
    -1.1155  -1.1154  -1.0976  -1.0128  -1.0124  -0.9987  -0.9987  -0.9682
    -0.9628  -0.9617  -0.9579  -0.9579  -0.8124  -0.8120  -0.6986  -0.6986
    -0.6980  -0.6788  -0.6788  -0.6618  -0.6502  -0.6502  -0.6258  -0.6257
    -0.6058  -0.5780  -0.5703  -0.5703  -0.5492  -0.5492  -0.5421  -0.5420
    -0.5345  -0.5345  -0.5270  -0.5270  -0.5174  -0.5174  -0.4986  -0.4985
    -0.4923  -0.4923  -0.4895  -0.4788  -0.4788  -0.4698  -0.4698  -0.4486
    -0.4480  -0.4480  -0.3757  -0.3756  -0.3633  -0.3572  -0.3538  -0.3537
    -0.3362  -0.3279  -0.3159  -0.3159  -0.3040  -0.2945  -0.2517  -0.2517
    -0.2260  -0.2259  -0.2106  -0.2106  -0.1846  -0.1846  -0.1794  -0.1660
    -0.1660  -0.1494  -0.1421  -0.1420  -0.1259  -0.1255  -0.1235  -0.1234
    -0.0995  -0.0995  -0.0925  -0.0925  -0.0774  -0.0774  -0.0642  -0.0599
    -0.0599  -0.0136  -0.0136   0.0017   0.0052   0.0052   0.0130   0.0131
     0.0362   0.0362   0.0547   0.0599   0.0664   0.0775   0.0776   0.0961
     0.1021   0.1021   0.1040   0.1048   0.1386   0.1386   0.1397   0.1398
     0.1501   0.1501   0.1867   0.1867   0.2296   0.2422   0.2422   0.2460
     0.2467   0.2896   0.2974   0.2974   0.3449   0.3449   0.3732   0.3732
     0.4030   0.4181   0.4181   0.4390   0.4391   0.5337   0.5404   0.5766
     0.6443   0.6508   0.6508   0.6676   0.6921   0.6922   0.7050   0.7214
     0.7229   0.7229   0.7520   0.7521   0.7802   0.7840   0.7841   0.8398
     0.8416   0.8515   0.9530   1.0249   1.0357   1.0415   1.0459   1.0648
     1.0774   1.0775   1.2005   1.4346   1.5672   1.6025   1.7643   1.9031
     2.3893   2.6842   2.8294   2.8950   2.9120   3.2016   3.2017   3.3032
     3.6172   3.6635   3.8062   3.8444   3.9225   4.0175   4.0176   4.0411
     4.1568   4.1569   4.1804   4.1942   4.2488   4.3025   4.3543   4.3659
     4.3659   4.3909   4.3997   4.3997   4.4346   4.4346   4.4355   4.4440
     4.4441   4.5210   4.5210   4.5910   4.5910   4.5915   4.6572   4.6572
     4.6628   4.6791   4.6795   4.7021   4.7022   4.7174   4.7174   4.7882
     4.8225   4.8225   4.8298   4.8512   4.8512   4.8605   4.8607   4.8867
     4.9360   4.9638   4.9638   5.0285   5.0397   5.0568   5.0569   5.0914
     5.0915   5.0968   5.1290   5.1411   5.1411   5.2000   5.2328   5.2329
     5.2330   5.2330   5.2364   5.2364   5.3206   5.3206   5.3551   5.3551
     5.4108   5.4857   5.4991   5.5455   5.5700   5.5700   5.5714   5.5714
     5.5974   5.6356   5.6357   5.6468   5.6468   5.7233   5.7349   5.7349
     5.7372   5.7373   5.7443   5.7480   5.7749   5.7750   5.7770   5.8017
     5.8446   5.8446   5.8482   5.8483   5.8726   5.8734   5.9078   5.9078
     5.9250   5.9251   5.9767

          k = 0.0000-0.5000 0.0000 (165810 PWs)   bands (ev):

   -46.5499 -46.5499 -46.5346 -46.5346 -46.5345 -46.5345 -46.5201 -46.5201
   -46.5192 -46.5191 -46.5191 -46.5191 -46.5056 -46.5055 -46.5055 -46.5055
   -46.4919 -46.4919 -46.3574 -46.3572 -46.3405 -46.3402 -46.3401 -46.3401
   -46.3250 -46.3246 -46.3234 -46.3231 -46.3230 -46.3230 -46.3096 -46.3093
   -46.3092 -46.3092 -46.2955 -46.2953 -46.2216 -46.2216 -46.2043 -46.2043
   -46.2042 -46.2042 -46.1881 -46.1881 -46.1861 -46.1861 -46.1861 -46.1860
   -46.1716 -46.1716 -46.1716 -46.1716 -46.1571 -46.1571 -46.1192 -46.1191
   -46.1111 -46.1110 -46.1110 -46.1108 -46.1037 -46.1036 -46.1035 -46.1033
   -46.1004 -46.1002 -46.0899 -46.0899 -46.0899 -46.0896 -46.0761 -46.0760
   -25.4278 -25.4278 -25.4278 -25.4278 -25.4205 -25.4205 -25.4113 -25.4113
   -25.4113 -25.4113 -25.3896 -25.3896 -25.3813 -25.3813 -25.3812 -25.3812
   -25.3709 -25.3709 -25.3709 -25.3709 -25.3373 -25.3373 -25.3106 -25.3106
   -25.3106 -25.3106 -25.2943 -25.2942 -25.2941 -25.2941 -25.2647 -25.2647
   -25.2627 -25.2627 -25.2607 -25.2605 -25.2563 -25.2562 -25.2561 -25.2561
   -25.2415 -25.2414 -25.2413 -25.2413 -25.2342 -25.2341 -25.2198 -25.2198
   -25.2198 -25.2197 -25.2135 -25.2135 -25.2135 -25.2135 -25.1838 -25.1838
   -25.1805 -25.1804 -25.1591 -25.1591 -25.1590 -25.1590 -25.1341 -25.1341
   -25.1328 -25.1328 -25.1328 -25.1328 -25.1260 -25.1259 -25.1027 -25.1026
   -25.0823 -25.0823 -25.0822 -25.0822 -25.0762 -25.0761 -25.0761 -25.0761
   -25.0621 -25.0621 -25.0531 -25.0530 -25.0399 -25.0398 -25.0394 -25.0394
   -25.0393 -25.0393 -25.0171 -25.0170 -25.0170 -25.0170 -25.0104 -25.0104
   -25.0063 -25.0063 -24.9996 -24.9995 -24.9994 -24.9994 -24.9905 -24.9905
   -24.9905 -24.9905 -24.9884 -24.9882 -24.9666 -24.9666 -24.9609 -24.9607
   -24.9498 -24.9498 -24.9497 -24.9497 -24.9490 -24.9490 -24.9490 -24.9490
   -24.9250 -24.9249 -24.9249 -24.9249 -24.9100 -24.9099 -24.9099 -24.9098
   -24.8948 -24.8947 -24.8932 -24.8931 -24.8850 -24.8850 -24.8569 -24.8569
   -24.8569 -24.8569 -24.8541 -24.8541 -24.8493 -24.8492 -24.8361 -24.8359
   -24.8244 -24.8243 -24.8183 -24.8183 -24.8182 -24.8182 -24.8061 -24.8061
   -24.7879 -24.7879 -24.7879 -24.7878 -24.7835 -24.7835 -24.7835 -24.7834
   -24.7733 -24.7732 -24.7698 -24.7697 -24.7650 -24.7650 -24.7650 -24.7649
   -24.7594 -24.7594 -24.7594 -24.7594 -24.7549 -24.7549 -24.7549 -24.7548
   -24.7523 -24.7521 -24.7446 -24.7446 -24.7445 -24.7445 -24.7384 -24.7383
   -24.7276 -24.7276 -24.7276 -24.7276 -24.7221 -24.7221 -24.7221 -24.7219
   -24.6954 -24.6954 -24.6953 -24.6952 -24.6796 -24.6795 -24.6789 -24.6788
   -24.6667 -24.6666 -24.6666 -24.6665 -24.6549 -24.6548 -24.6510 -24.6510
   -24.6510 -24.6509 -24.6489 -24.6488 -24.6478 -24.6478 -24.6477 -24.6477
   -11.7611 -11.7611 -11.2683 -11.2682 -11.2682 -11.2682 -11.2008 -11.2008
   -11.0514 -11.0513 -10.9501 -10.9501 -10.9059 -10.9059 -10.8052 -10.8052
   -10.8051 -10.8051 -10.8041 -10.8041 -10.8040 -10.8040 -10.7812 -10.7812
   -10.7021 -10.7020 -10.6737 -10.6736 -10.6736 -10.6736 -10.6625 -10.6624
   -10.6542 -10.6542 -10.6542 -10.6541 -10.4541 -10.4541 -10.4541 -10.4540
   -10.4148 -10.4148 -10.4148 -10.4148 -10.3639 -10.3639 -10.2963 -10.2962
   -10.2823 -10.2823 -10.2822 -10.2822 -10.2743 -10.2741 -10.1763 -10.1763
   -10.1763 -10.1763 -10.1695 -10.1694 -10.0786 -10.0785 -10.0784 -10.0784
    -9.9916  -9.9916  -9.9916  -9.9915  -9.8828  -9.8827  -9.8827  -9.8827
    -2.5176  -2.5176  -2.5176  -2.5175  -2.4905  -2.4904  -2.4904  -2.4904
    -1.9265  -1.9265  -1.9264  -1.9264  -1.8814  -1.8814  -1.8813  -1.8813
    -1.7935  -1.7935  -1.7934  -1.7934  -1.7913  -1.7912  -1.7316  -1.7316
    -1.7315  -1.7315  -1.7052  -1.7051  -1.6977  -1.6976  -1.6976  -1.6976
    -1.5840  -1.5840  -1.5840  -1.5840  -1.3964  -1.3964  -1.3794  -1.3793
    -1.3793  -1.3793  -1.2995  -1.2995  -1.2552  -1.2551  -1.2039  -1.2038
    -1.2038  -1.2038  -1.1022  -1.1021  -1.0213  -1.0212  -0.9963  -0.9963
    -0.8184  -0.8184  -0.8183  -0.8183  -0.7797  -0.7797  -0.7796  -0.7796
    -0.7389  -0.7388  -0.6768  -0.6768  -0.6578  -0.6577  -0.6428  -0.6427
    -0.6407  -0.6406  -0.6406  -0.6406  -0.6251  -0.6251  -0.6251  -0.6250
    -0.5553  -0.5553  -0.5553  -0.5553  -0.5469  -0.5468  -0.5468  -0.5468
    -0.5010  -0.5010  -0.5009  -0.5009  -0.4641  -0.4641  -0.4640  -0.4640
    -0.4034  -0.4033  -0.3489  -0.3488  -0.3433  -0.3432  -0.3432  -0.3432
    -0.3180  -0.3180  -0.3180  -0.3180  -0.3117  -0.3116  -0.2671  -0.2670
    -0.2669  -0.2669  -0.2312  -0.2312  -0.2312  -0.2311  -0.1834  -0.1833
    -0.1484  -0.1484  -0.1484  -0.1483  -0.1122  -0.1122  -0.1088  -0.1087
    -0.1087  -0.1087  -0.0945  -0.0945  -0.0945  -0.0944  -0.0238  -0.0238
    -0.0237  -0.0237   0.0400   0.0401   0.0401   0.0401   0.0717   0.0718
     0.0774   0.0775   0.0775   0.0775   0.0908   0.0908   0.0908   0.0908
     0.1013   0.1014   0.1319   0.1320   0.1320   0.1320   0.1348   0.1348
     0.2453   0.2453   0.2453   0.2453   0.3104   0.3105   0.3704   0.3705
     0.4161   0.4163   0.4540   0.4540   0.4540   0.4541   0.4627   0.4628
     0.4990   0.4990   0.4991   0.4991   0.5772   0.5773   0.5773   0.5774
     0.5998   0.5998   0.5998   0.6000   0.6131   0.6132   0.6595   0.6596
     0.6701   0.6702   0.7299   0.7300   0.7470   0.7470   0.7470   0.7471
     0.7795   0.7796   0.8289   0.8289   0.9204   0.9205   1.0948   1.0948
     1.1334   1.1334   1.1895   1.1895   1.3210   1.3211   1.6757   1.6759
     2.7633   2.7635   2.9600   2.9601   3.2532   3.2533   3.4271   3.4271
     3.5415   3.5415   3.5416   3.5417   3.5645   3.5645   4.0175   4.0177
     4.0844   4.0844   4.2542   4.2543   4.3211   4.3211   4.3211   4.3212
     4.3717   4.3717   4.3718   4.3718   4.4660   4.4665   4.4760   4.4760
     4.5216   4.5217   4.5217   4.5217   4.5579   4.5580   4.5580   4.5581
     4.6514   4.6516   4.6589   4.6590   4.7754   4.7755   4.7755   4.7755
     4.7965   4.7965   4.7965   4.7966   4.8550   4.8551   4.8599   4.8599
     4.8599   4.8599   4.9275   4.9275   5.0094   5.0097   5.0098   5.0099
     5.1300   5.1300   5.1300   5.1301   5.1933   5.1934   5.2567   5.2568
     5.2568   5.2568   5.3290   5.3290   5.3290   5.3290   5.3501   5.3501
     5.3891   5.3891   5.4917   5.4917   5.4917   5.4917   5.6468   5.6468
     5.6953   5.6953   5.7103   5.7104   5.7104   5.7104   5.7331   5.7332
     5.7332   5.7332   5.8455   5.8455   5.8473   5.8473   5.8474   5.8476
     5.8798   5.8798   5.8798   5.8798   5.9123   5.9126   5.9138   5.9140
     5.9223   5.9232   5.9233

          k = 0.2500 0.2500 0.0000 (165752 PWs)   bands (ev):

   -46.5523 -46.5434 -46.5434 -46.5368 -46.5284 -46.5284 -46.5257 -46.5257
   -46.5212 -46.5167 -46.5134 -46.5134 -46.5117 -46.5117 -46.5033 -46.4977
   -46.4977 -46.4898 -46.3599 -46.3502 -46.3500 -46.3426 -46.3338 -46.3336
   -46.3305 -46.3303 -46.3253 -46.3205 -46.3174 -46.3172 -46.3159 -46.3158
   -46.3069 -46.3014 -46.3012 -46.2933 -46.2243 -46.2144 -46.2144 -46.2067
   -46.1975 -46.1975 -46.1939 -46.1939 -46.1883 -46.1832 -46.1800 -46.1800
   -46.1786 -46.1786 -46.1690 -46.1633 -46.1632 -46.1548 -46.1204 -46.1156
   -46.1156 -46.1126 -46.1067 -46.1066 -46.1064 -46.1064 -46.1056 -46.1025
   -46.0978 -46.0977 -46.0943 -46.0942 -46.0882 -46.0819 -46.0818 -46.0739
   -25.4352 -25.4338 -25.4232 -25.4164 -25.4164 -25.4152 -25.4146 -25.4146
   -25.4078 -25.4078 -25.4012 -25.4012 -25.3946 -25.3822 -25.3822 -25.3821
   -25.3805 -25.3558 -25.3558 -25.3449 -25.3449 -25.3330 -25.3295 -25.3075
   -25.3060 -25.3060 -25.3018 -25.2864 -25.2804 -25.2804 -25.2727 -25.2727
   -25.2687 -25.2686 -25.2630 -25.2610 -25.2596 -25.2559 -25.2557 -25.2530
   -25.2530 -25.2486 -25.2446 -25.2445 -25.2392 -25.2288 -25.2281 -25.2280
   -25.2206 -25.2101 -25.2101 -25.2029 -25.2029 -25.1948 -25.1948 -25.1945
   -25.1944 -25.1787 -25.1701 -25.1635 -25.1634 -25.1422 -25.1379 -25.1344
   -25.1344 -25.1254 -25.1253 -25.1198 -25.1198 -25.1090 -25.1060 -25.1060
   -25.0921 -25.0877 -25.0867 -25.0867 -25.0751 -25.0744 -25.0744 -25.0632
   -25.0632 -25.0534 -25.0534 -25.0489 -25.0489 -25.0397 -25.0396 -25.0375
   -25.0281 -25.0281 -25.0258 -25.0239 -25.0239 -25.0178 -25.0178 -25.0126
   -25.0120 -25.0119 -25.0037 -24.9981 -24.9953 -24.9952 -24.9893 -24.9892
   -24.9884 -24.9884 -24.9845 -24.9845 -24.9825 -24.9726 -24.9718 -24.9717
   -24.9571 -24.9571 -24.9561 -24.9537 -24.9537 -24.9530 -24.9453 -24.9324
   -24.9295 -24.9232 -24.9232 -24.9211 -24.9210 -24.9000 -24.8925 -24.8925
   -24.8885 -24.8870 -24.8869 -24.8752 -24.8751 -24.8729 -24.8728 -24.8697
   -24.8697 -24.8615 -24.8493 -24.8448 -24.8423 -24.8421 -24.8395 -24.8280
   -24.8280 -24.8278 -24.8277 -24.8232 -24.8232 -24.8224 -24.8030 -24.8029
   -24.7986 -24.7970 -24.7970 -24.7926 -24.7926 -24.7866 -24.7810 -24.7808
   -24.7804 -24.7768 -24.7767 -24.7760 -24.7725 -24.7725 -24.7682 -24.7585
   -24.7585 -24.7563 -24.7562 -24.7541 -24.7532 -24.7513 -24.7508 -24.7507
   -24.7487 -24.7459 -24.7458 -24.7423 -24.7423 -24.7398 -24.7398 -24.7324
   -24.7304 -24.7201 -24.7075 -24.7074 -24.7055 -24.7054 -24.7053 -24.7046
   -24.7038 -24.7038 -24.7002 -24.7001 -24.6979 -24.6978 -24.6946 -24.6894
   -24.6792 -24.6791 -24.6706 -24.6669 -24.6669 -24.6632 -24.6631 -24.6539
   -24.6527 -24.6490 -24.6490 -24.6485 -24.6484 -24.6318 -24.6303 -24.6280
   -11.8324 -11.5605 -11.5604 -11.3017 -11.2613 -11.1770 -11.1770 -11.0342
   -11.0342 -10.9636 -10.9515 -10.9423 -10.9423 -10.9194 -10.9193 -10.8911
   -10.8911 -10.8354 -10.8249 -10.8042 -10.8042 -10.7560 -10.7560 -10.7251
   -10.7193 -10.7168 -10.7168 -10.7140 -10.6694 -10.6693 -10.6316 -10.6302
   -10.6302 -10.5841 -10.5840 -10.5462 -10.5462 -10.5046 -10.5045 -10.4807
   -10.4706 -10.4333 -10.4206 -10.3931 -10.3646 -10.3645 -10.3045 -10.3014
   -10.2844 -10.2843 -10.2322 -10.2321 -10.2275 -10.2275 -10.1916 -10.1915
   -10.1821 -10.1821 -10.1571 -10.1139 -10.1138 -10.0692 -10.0692 -10.0669
   -10.0527 -10.0526  -9.9655  -9.9654  -9.9633  -9.9141  -9.8525  -9.8222
    -2.6510  -2.6332  -2.6060  -2.5792  -2.2713  -2.2713  -2.2420  -2.2419
    -2.1585  -2.1584  -2.1015  -2.1015  -1.9353  -1.9262  -1.9099  -1.8813
    -1.8797  -1.8796  -1.8653  -1.8118  -1.8118  -1.7374  -1.7367  -1.7358
    -1.7357  -1.6142  -1.6141  -1.6049  -1.6049  -1.5835  -1.5782  -1.5782
    -1.5149  -1.5148  -1.4772  -1.4771  -1.4742  -1.4742  -1.3817  -1.3816
    -1.3798  -1.3561  -1.3561  -1.3526  -1.3181  -1.2710  -1.2709  -1.1786
    -1.1785  -1.1122  -1.1034  -1.0520  -1.0519  -1.0397  -1.0397  -1.0140
    -1.0140  -0.9876  -0.9868  -0.9867  -0.8140  -0.8073  -0.8047  -0.7732
    -0.7732  -0.7275  -0.6927  -0.6740  -0.6718  -0.6366  -0.6332  -0.6332
    -0.5974  -0.5967  -0.5967  -0.5885  -0.5884  -0.5726  -0.5726  -0.5668
    -0.5667  -0.5639  -0.5424  -0.5306  -0.5163  -0.5105  -0.4755  -0.4754
    -0.4489  -0.4489  -0.4377  -0.4377  -0.4304  -0.4304  -0.4179  -0.4178
    -0.4138  -0.4138  -0.3969  -0.3969  -0.3672  -0.3672  -0.3394  -0.3394
    -0.3346  -0.3346  -0.3140  -0.3139  -0.3021  -0.3021  -0.2927  -0.2825
    -0.2447  -0.2432  -0.2146  -0.2035  -0.2034  -0.2028  -0.1954  -0.1954
    -0.1889  -0.1830  -0.1618  -0.1495  -0.1495  -0.1465  -0.1195  -0.1108
    -0.1108  -0.1036  -0.0890  -0.0427  -0.0426  -0.0207  -0.0207  -0.0166
    -0.0166  -0.0071   0.0254   0.0255   0.0385   0.0686   0.0741   0.0779
     0.0780   0.0838   0.0969   0.0973   0.0988   0.1158   0.1159   0.1479
     0.1479   0.1482   0.1673   0.1673   0.1785   0.1785   0.1890   0.1890
     0.2110   0.2111   0.2151   0.2151   0.2345   0.2345   0.2702   0.2703
     0.3119   0.3120   0.3230   0.3230   0.3515   0.3516   0.3818   0.4646
     0.4646   0.4949   0.5155   0.5156   0.5170   0.5249   0.5250   0.5320
     0.5565   0.6379   0.6380   0.6383   0.6426   0.6532   0.6645   0.6646
     0.6945   0.6964   0.6965   0.7285   0.7285   0.7965   0.7966   0.8208
     0.8259   0.8728   0.8728   0.9152   0.9152   0.9628   0.9628   1.0119
     1.0216   1.1203   1.2827   1.2827   1.3560   1.5445   1.5762   1.7654
     2.5841   2.8502   2.8506   3.0338   3.0338   3.0823   3.4147   3.4147
     3.6845   3.6846   3.7995   3.8082   3.8083   3.8970   3.9088   3.9265
     3.9265   3.9527   4.0949   4.0949   4.1684   4.1684   4.1996   4.1997
     4.2660   4.2698   4.3192   4.3953   4.4028   4.4030   4.4106   4.4171
     4.4258   4.4258   4.4871   4.4871   4.5731   4.6586   4.6611   4.6612
     4.6686   4.6686   4.6898   4.6899   4.7272   4.7273   4.8367   4.8367
     4.8402   4.8402   4.8573   4.8737   4.8739   4.9291   4.9419   4.9469
     4.9470   4.9629   5.0289   5.0508   5.0626   5.0626   5.0879   5.0880
     5.1237   5.1467   5.1495   5.1496   5.1534   5.1537   5.1598   5.2380
     5.2511   5.3327   5.3328   5.3736   5.3737   5.4097   5.4097   5.4353
     5.4353   5.4947   5.4948   5.5210   5.5226   5.5226   5.5271   5.5271
     5.5909   5.6032   5.6033   5.6072   5.6073   5.6535   5.6535   5.6733
     5.6734   5.7194   5.7326   5.7478   5.7479   5.7725   5.7903   5.7903
     5.8247   5.8712   5.8845   5.8901   5.8921   5.8922   5.8940   5.9085
     5.9352   5.9515   5.9963

          k = 0.2500-0.5000 0.0000 (165780 PWs)   bands (ev):

   -46.5488 -46.5488 -46.5408 -46.5408 -46.5274 -46.5273 -46.5200 -46.5200
   -46.5195 -46.5194 -46.5189 -46.5189 -46.5123 -46.5123 -46.4998 -46.4998
   -46.4928 -46.4928 -46.3562 -46.3560 -46.3473 -46.3471 -46.3325 -46.3323
   -46.3248 -46.3245 -46.3238 -46.3235 -46.3229 -46.3226 -46.3165 -46.3163
   -46.3035 -46.3033 -46.2964 -46.2962 -46.2205 -46.2204 -46.2114 -46.2114
   -46.1961 -46.1960 -46.1879 -46.1879 -46.1868 -46.1868 -46.1856 -46.1855
   -46.1791 -46.1791 -46.1655 -46.1654 -46.1581 -46.1580 -46.1187 -46.1185
   -46.1146 -46.1144 -46.1066 -46.1065 -46.1045 -46.1042 -46.1026 -46.1023
   -46.1007 -46.1004 -46.0957 -46.0956 -46.0845 -46.0843 -46.0771 -46.0770
   -25.4381 -25.4381 -25.4197 -25.4197 -25.4146 -25.4146 -25.4142 -25.4142
   -25.4072 -25.4071 -25.3959 -25.3959 -25.3929 -25.3929 -25.3927 -25.3926
   -25.3671 -25.3670 -25.3414 -25.3414 -25.3319 -25.3319 -25.3107 -25.3107
   -25.3100 -25.3099 -25.3016 -25.3016 -25.2867 -25.2867 -25.2729 -25.2728
   -25.2604 -25.2602 -25.2594 -25.2593 -25.2578 -25.2577 -25.2489 -25.2488
   -25.2468 -25.2467 -25.2422 -25.2421 -25.2411 -25.2410 -25.2356 -25.2356
   -25.2272 -25.2270 -25.2213 -25.2213 -25.1888 -25.1886 -25.1852 -25.1852
   -25.1716 -25.1716 -25.1695 -25.1695 -25.1538 -25.1538 -25.1532 -25.1532
   -25.1355 -25.1355 -25.1156 -25.1156 -25.0991 -25.0991 -25.0960 -25.0960
   -25.0890 -25.0890 -25.0880 -25.0880 -25.0873 -25.0873 -25.0781 -25.0781
   -25.0596 -25.0596 -25.0479 -25.0479 -25.0472 -25.0472 -25.0441 -25.0441
   -25.0417 -25.0416 -25.0267 -25.0267 -25.0213 -25.0213 -25.0021 -25.0020
   -25.0003 -25.0003 -24.9944 -24.9943 -24.9936 -24.9936 -24.9935 -24.9935
   -24.9916 -24.9915 -24.9823 -24.9823 -24.9743 -24.9743 -24.9721 -24.9721
   -24.9688 -24.9687 -24.9577 -24.9576 -24.9446 -24.9446 -24.9367 -24.9367
   -24.9316 -24.9316 -24.9139 -24.9139 -24.9043 -24.9043 -24.8984 -24.8984
   -24.8927 -24.8927 -24.8861 -24.8861 -24.8749 -24.8749 -24.8631 -24.8631
   -24.8507 -24.8506 -24.8484 -24.8484 -24.8402 -24.8401 -24.8358 -24.8358
   -24.8331 -24.8331 -24.8210 -24.8209 -24.8199 -24.8199 -24.8192 -24.8192
   -24.8070 -24.8070 -24.8050 -24.8049 -24.7902 -24.7902 -24.7811 -24.7811
   -24.7702 -24.7702 -24.7689 -24.7689 -24.7672 -24.7672 -24.7664 -24.7663
   -24.7562 -24.7561 -24.7554 -24.7553 -24.7509 -24.7509 -24.7494 -24.7494
   -24.7470 -24.7470 -24.7452 -24.7451 -24.7411 -24.7410 -24.7338 -24.7338
   -24.7325 -24.7325 -24.7253 -24.7253 -24.7074 -24.7074 -24.7022 -24.7022
   -24.6997 -24.6995 -24.6899 -24.6897 -24.6872 -24.6872 -24.6809 -24.6808
   -24.6742 -24.6742 -24.6731 -24.6731 -24.6687 -24.6687 -24.6674 -24.6673
   -24.6666 -24.6666 -24.6367 -24.6367 -24.6361 -24.6360 -24.6339 -24.6339
   -11.7237 -11.7237 -11.4569 -11.4569 -11.1689 -11.1689 -11.0825 -11.0824
   -11.0200 -11.0199 -10.9484 -10.9484 -10.9260 -10.9259 -10.8918 -10.8918
   -10.8366 -10.8365 -10.8200 -10.8199 -10.8007 -10.8006 -10.7644 -10.7644
   -10.7521 -10.7521 -10.6839 -10.6838 -10.6789 -10.6788 -10.6322 -10.6321
   -10.6154 -10.6153 -10.5502 -10.5502 -10.5314 -10.5313 -10.5232 -10.5231
   -10.4218 -10.4216 -10.4152 -10.4152 -10.3450 -10.3449 -10.2900 -10.2900
   -10.2709 -10.2709 -10.2556 -10.2554 -10.2293 -10.2293 -10.1614 -10.1614
   -10.1581 -10.1580 -10.1448 -10.1447 -10.1383 -10.1381 -10.0989 -10.0988
   -10.0514 -10.0512  -9.9807  -9.9806  -9.9079  -9.9078  -9.8102  -9.8101
    -2.6920  -2.6920  -2.6715  -2.6715  -2.2765  -2.2765  -2.2371  -2.2371
    -2.0428  -2.0428  -1.9962  -1.9962  -1.9707  -1.9706  -1.9115  -1.9114
    -1.8785  -1.8785  -1.8558  -1.8558  -1.8233  -1.8233  -1.7783  -1.7782
    -1.7098  -1.7098  -1.6679  -1.6679  -1.5698  -1.5697  -1.5479  -1.5479
    -1.4876  -1.4875  -1.4580  -1.4579  -1.4126  -1.4125  -1.3346  -1.3345
    -1.3275  -1.3274  -1.2851  -1.2850  -1.2477  -1.2477  -1.2131  -1.2131
    -1.2090  -1.2089  -1.1466  -1.1466  -1.1305  -1.1305  -1.0544  -1.0544
    -1.0515  -1.0515  -0.9921  -0.9921  -0.9415  -0.9415  -0.8661  -0.8660
    -0.6939  -0.6938  -0.6659  -0.6659  -0.6260  -0.6260  -0.6109  -0.6108
    -0.5552  -0.5552  -0.5543  -0.5542  -0.5512  -0.5511  -0.5497  -0.5497
    -0.5443  -0.5443  -0.5380  -0.5379  -0.5233  -0.5232  -0.5212  -0.5212
    -0.4903  -0.4902  -0.4893  -0.4892  -0.4603  -0.4603  -0.4540  -0.4539
    -0.4238  -0.4238  -0.3949  -0.3948  -0.3820  -0.3820  -0.3803  -0.3803
    -0.3698  -0.3698  -0.3513  -0.3513  -0.3433  -0.3432  -0.2910  -0.2910
    -0.2510  -0.2510  -0.2212  -0.2211  -0.2150  -0.2150  -0.1692  -0.1691
    -0.1615  -0.1615  -0.1593  -0.1593  -0.1260  -0.1260  -0.0826  -0.0825
    -0.0178  -0.0177  -0.0124  -0.0124   0.0022   0.0022   0.0159   0.0159
     0.0385   0.0385   0.0587   0.0588   0.0825   0.0825   0.0853   0.0854
     0.1011   0.1012   0.1159   0.1160   0.1406   0.1407   0.1517   0.1518
     0.1545   0.1546   0.1604   0.1605   0.1868   0.1869   0.1913   0.1913
     0.3022   0.3022   0.3065   0.3066   0.3074   0.3075   0.3413   0.3414
     0.3422   0.3423   0.3544   0.3544   0.4546   0.4547   0.4998   0.4999
     0.5128   0.5129   0.5226   0.5227   0.5385   0.5385   0.5405   0.5405
     0.5607   0.5607   0.6013   0.6014   0.6263   0.6264   0.6360   0.6361
     0.6832   0.6833   0.6853   0.6855   0.7361   0.7362   0.7820   0.7820
     0.7996   0.7997   0.8284   0.8284   0.9483   0.9484   1.0040   1.0041
     1.0232   1.0233   1.0739   1.0740   1.2696   1.2696   1.5194   1.5194
     2.9167   2.9169   3.0672   3.0673   3.2653   3.2654   3.4014   3.4015
     3.5204   3.5205   3.6623   3.6623   3.7246   3.7247   3.8333   3.8334
     3.9149   3.9150   4.0443   4.0444   4.1578   4.1578   4.1634   4.1635
     4.2677   4.2677   4.2940   4.2940   4.3258   4.3258   4.3376   4.3376
     4.4239   4.4243   4.4600   4.4604   4.4919   4.4920   4.6337   4.6338
     4.7157   4.7158   4.7261   4.7262   4.7476   4.7477   4.7734   4.7735
     4.8218   4.8219   4.8305   4.8305   4.8766   4.8766   4.9416   4.9417
     4.9758   4.9759   5.0363   5.0363   5.0968   5.0969   5.1160   5.1160
     5.1684   5.1685   5.1727   5.1728   5.2217   5.2218   5.2880   5.2881
     5.2919   5.2921   5.3311   5.3312   5.4021   5.4022   5.4149   5.4149
     5.4742   5.4742   5.4743   5.4743   5.4791   5.4791   5.5298   5.5299
     5.6255   5.6256   5.6529   5.6529   5.6630   5.6630   5.7156   5.7156
     5.8078   5.8078   5.8115   5.8117   5.8493   5.8493   5.8509   5.8509
     5.8697   5.8697   5.9222   5.9222   5.9270   5.9272   5.9368   5.9368
     5.9678   5.9678   5.9915

          k =-0.5000-0.5000 0.0000 (165708 PWs)   bands (ev):

   -46.5457 -46.5457 -46.5457 -46.5457 -46.5198 -46.5198 -46.5198 -46.5198
   -46.5198 -46.5198 -46.5197 -46.5197 -46.5188 -46.5188 -46.4955 -46.4955
   -46.4955 -46.4955 -46.3528 -46.3526 -46.3525 -46.3525 -46.3249 -46.3245
   -46.3242 -46.3242 -46.3241 -46.3241 -46.3241 -46.3240 -46.3227 -46.3224
   -46.2993 -46.2990 -46.2989 -46.2989 -46.2170 -46.2170 -46.2169 -46.2169
   -46.1875 -46.1875 -46.1875 -46.1875 -46.1875 -46.1874 -46.1874 -46.1874
   -46.1854 -46.1853 -46.1609 -46.1609 -46.1608 -46.1608 -46.1172 -46.1171
   -46.1171 -46.1169 -46.1048 -46.1046 -46.1016 -46.1015 -46.1015 -46.1014
   -46.1014 -46.1013 -46.1011 -46.1009 -46.0801 -46.0800 -46.0800 -46.0798
   -25.4420 -25.4419 -25.4176 -25.4176 -25.4175 -25.4175 -25.4045 -25.4045
   -25.4014 -25.4014 -25.4014 -25.4014 -25.4014 -25.4014 -25.4013 -25.4013
   -25.3525 -25.3525 -25.3525 -25.3525 -25.3158 -25.3158 -25.3026 -25.3026
   -25.3026 -25.3026 -25.2830 -25.2829 -25.2829 -25.2829 -25.2829 -25.2829
   -25.2829 -25.2829 -25.2595 -25.2593 -25.2593 -25.2593 -25.2514 -25.2512
   -25.2511 -25.2510 -25.2510 -25.2510 -25.2510 -25.2510 -25.2482 -25.2482
   -25.2078 -25.2076 -25.2075 -25.2075 -25.2043 -25.2043 -25.2043 -25.2043
   -25.1465 -25.1465 -25.1464 -25.1464 -25.1400 -25.1399 -25.1399 -25.1399
   -25.1398 -25.1398 -25.1398 -25.1398 -25.1224 -25.1224 -25.1224 -25.1224
   -25.0910 -25.0910 -25.0653 -25.0652 -25.0652 -25.0652 -25.0579 -25.0579
   -25.0579 -25.0579 -25.0579 -25.0579 -25.0579 -25.0579 -25.0516 -25.0516
   -25.0516 -25.0515 -25.0083 -25.0083 -25.0083 -25.0083 -25.0083 -25.0083
   -25.0083 -25.0083 -25.0082 -25.0082 -25.0082 -25.0082 -25.0030 -25.0029
   -24.9714 -24.9714 -24.9714 -24.9714 -24.9669 -24.9668 -24.9668 -24.9668
   -24.9668 -24.9668 -24.9667 -24.9667 -24.9661 -24.9660 -24.9660 -24.9660
   -24.9254 -24.9254 -24.8864 -24.8864 -24.8864 -24.8864 -24.8839 -24.8839
   -24.8839 -24.8838 -24.8733 -24.8733 -24.8733 -24.8732 -24.8634 -24.8634
   -24.8634 -24.8633 -24.8632 -24.8632 -24.8632 -24.8632 -24.8317 -24.8317
   -24.8317 -24.8316 -24.8078 -24.8078 -24.8078 -24.8078 -24.8076 -24.8075
   -24.8075 -24.8075 -24.8067 -24.8067 -24.8067 -24.8067 -24.8067 -24.8067
   -24.8067 -24.8066 -24.7656 -24.7656 -24.7566 -24.7565 -24.7565 -24.7564
   -24.7562 -24.7562 -24.7562 -24.7561 -24.7561 -24.7561 -24.7561 -24.7561
   -24.7428 -24.7428 -24.7427 -24.7427 -24.7427 -24.7427 -24.7117 -24.7117
   -24.7116 -24.7116 -24.7014 -24.7012 -24.7002 -24.7002 -24.7001 -24.7001
   -24.7001 -24.7001 -24.7000 -24.7000 -24.6999 -24.6999 -24.6846 -24.6845
   -24.6845 -24.6844 -24.6844 -24.6844 -24.6843 -24.6842 -24.6692 -24.6692
   -24.6692 -24.6691 -24.6318 -24.6318 -24.6298 -24.6298 -24.6297 -24.6297
   -11.6171 -11.6171 -11.6171 -11.6170 -11.0790 -11.0790 -11.0789 -11.0789
   -10.9311 -10.9311 -10.9311 -10.9311 -10.9310 -10.9310 -10.9310 -10.9309
   -10.8636 -10.8635 -10.8635 -10.8634 -10.8519 -10.8518 -10.8518 -10.8518
   -10.6702 -10.6702 -10.6702 -10.6702 -10.6158 -10.6158 -10.6158 -10.6158
   -10.6158 -10.6157 -10.6157 -10.6156 -10.5468 -10.5466 -10.5466 -10.5465
   -10.4425 -10.4423 -10.4325 -10.4324 -10.2942 -10.2942 -10.2942 -10.2942
   -10.2051 -10.2049 -10.2048 -10.2048 -10.2000 -10.2000 -10.2000 -10.2000
   -10.2000 -10.2000 -10.2000 -10.2000 -10.0765 -10.0764 -10.0764 -10.0763
   -10.0763 -10.0763 -10.0762 -10.0762  -9.8758  -9.8758  -9.7836  -9.7835
    -2.7553  -2.7552  -2.7372  -2.7372  -2.0336  -2.0336  -2.0335  -2.0335
    -2.0335  -2.0335  -2.0335  -2.0334  -2.0298  -2.0298  -1.9754  -1.9754
    -1.9754  -1.9754  -1.9753  -1.9753  -1.9753  -1.9753  -1.9564  -1.9564
    -1.4658  -1.4657  -1.4657  -1.4657  -1.4541  -1.4541  -1.4540  -1.4540
    -1.4383  -1.4383  -1.4383  -1.4383  -1.3762  -1.3762  -1.3762  -1.3761
    -1.3761  -1.3761  -1.3761  -1.3761  -1.2179  -1.2179  -1.2179  -1.2178
    -1.2178  -1.2178  -1.2178  -1.2177  -1.1506  -1.1505  -1.1505  -1.1505
    -1.0570  -1.0570  -1.0570  -1.0570  -1.0526  -1.0526  -1.0525  -1.0524
    -0.7202  -0.7201  -0.6957  -0.6957  -0.6117  -0.6117  -0.5859  -0.5858
    -0.5535  -0.5535  -0.5535  -0.5534  -0.5534  -0.5534  -0.5534  -0.5534
    -0.4961  -0.4961  -0.4960  -0.4960  -0.4960  -0.4960  -0.4960  -0.4960
    -0.4124  -0.4124  -0.4123  -0.4123  -0.4123  -0.4123  -0.4122  -0.4122
    -0.4037  -0.4037  -0.4037  -0.4037  -0.4002  -0.4002  -0.4001  -0.4001
    -0.3451  -0.3450  -0.3449  -0.3449  -0.3219  -0.3219  -0.3219  -0.3219
    -0.3219  -0.3218  -0.3218  -0.3218  -0.2861  -0.2861  -0.2024  -0.2023
    -0.1794  -0.1794  -0.1794  -0.1793  -0.1531  -0.1531  -0.0239  -0.0239
     0.0124   0.0125   0.0125   0.0125   0.0223   0.0224   0.0224   0.0224
     0.0635   0.0636   0.0636   0.0636   0.0636   0.0636   0.0636   0.0637
     0.1643   0.1643   0.1644   0.1644   0.1644   0.1644   0.1645   0.1645
     0.2777   0.2777   0.2777   0.2778   0.3178   0.3180   0.3180   0.3180
     0.3421   0.3421   0.3422   0.3422   0.3883   0.3883   0.3883   0.3884
     0.4387   0.4388   0.4388   0.4389   0.4896   0.4897   0.4898   0.4898
     0.4898   0.4899   0.4899   0.4900   0.5089   0.5090   0.5090   0.5090
     0.5090   0.5091   0.5091   0.5092   0.5845   0.5845   0.5846   0.5846
     0.7108   0.7108   0.7108   0.7108   0.7208   0.7208   0.7208   0.7208
     0.8228   0.8229   0.8230   0.8230   0.8387   0.8387   0.8388   0.8389
     1.0600   1.0600   1.0600   1.0601   1.2124   1.2125   1.2125   1.2125
     3.3090   3.3090   3.3091   3.3091   3.3115   3.3116   3.3116   3.3117
     3.4002   3.4003   3.4003   3.4003   3.8200   3.8201   3.8201   3.8201
     3.9378   3.9379   3.9380   3.9380   3.9380   3.9380   3.9381   3.9382
     4.1287   4.1289   4.1289   4.1289   4.4052   4.4055   4.4055   4.4056
     4.4308   4.4310   4.4311   4.4311   4.5349   4.5350   4.5350   4.5350
     4.5485   4.5485   4.5485   4.5486   4.8591   4.8591   4.8591   4.8591
     4.8591   4.8591   4.8591   4.8592   4.9324   4.9325   4.9326   4.9326
     4.9610   4.9611   4.9611   4.9611   5.1734   5.1735   5.1735   5.1736
     5.2245   5.2245   5.2284   5.2285   5.2285   5.2285   5.2286   5.2286
     5.2286   5.2286   5.3779   5.3779   5.4918   5.4923   5.4923   5.4924
     5.4925   5.4927   5.4927   5.4928   5.5549   5.5549   5.5549   5.5550
     5.7632   5.7632   5.7633   5.7633   5.7983   5.7983   5.7983   5.7983
     5.8003   5.8003   5.8003   5.8003   5.8003   5.8003   5.8004   5.8004
     5.9446   5.9446   5.9447   5.9447   5.9447   5.9447   5.9447   5.9448
     5.9828   5.9879   6.0658

          k = 0.2500 0.0000 0.0000 (165664 PWs)   bands (ev):

   -46.5534 -46.5443 -46.5364 -46.5364 -46.5316 -46.5316 -46.5288 -46.5236
   -46.5235 -46.5149 -46.5149 -46.5115 -46.5079 -46.5079 -46.5041 -46.5041
   -46.4969 -46.4888 -46.3612 -46.3511 -46.3426 -46.3423 -46.3370 -46.3367
   -46.3342 -46.3280 -46.3278 -46.3188 -46.3185 -46.3157 -46.3117 -46.3115
   -46.3080 -46.3078 -46.3006 -46.2922 -46.2256 -46.2154 -46.2065 -46.2065
   -46.2007 -46.2007 -46.1980 -46.1912 -46.1912 -46.1813 -46.1813 -46.1785
   -46.1740 -46.1739 -46.1702 -46.1702 -46.1625 -46.1538 -46.1210 -46.1160
   -46.1116 -46.1114 -46.1101 -46.1099 -46.1065 -46.1064 -46.1062 -46.1003
   -46.1000 -46.0937 -46.0930 -46.0927 -46.0879 -46.0877 -46.0810 -46.0728
   -25.4269 -25.4269 -25.4244 -25.4228 -25.4228 -25.4162 -25.4161 -25.4146
   -25.4084 -25.4084 -25.3992 -25.3967 -25.3967 -25.3784 -25.3770 -25.3770
   -25.3698 -25.3698 -25.3516 -25.3496 -25.3496 -25.3449 -25.3449 -25.3247
   -25.2941 -25.2940 -25.2865 -25.2864 -25.2776 -25.2770 -25.2708 -25.2708
   -25.2688 -25.2688 -25.2649 -25.2648 -25.2639 -25.2614 -25.2613 -25.2551
   -25.2502 -25.2500 -25.2498 -25.2405 -25.2391 -25.2295 -25.2235 -25.2235
   -25.2210 -25.2209 -25.2037 -25.2026 -25.2025 -25.1978 -25.1919 -25.1919
   -25.1725 -25.1715 -25.1715 -25.1614 -25.1599 -25.1599 -25.1585 -25.1417
   -25.1298 -25.1298 -25.1210 -25.1155 -25.1155 -25.1116 -25.1116 -25.1008
   -25.0958 -25.0914 -25.0907 -25.0907 -25.0846 -25.0733 -25.0547 -25.0547
   -25.0466 -25.0466 -25.0457 -25.0439 -25.0438 -25.0389 -25.0318 -25.0304
   -25.0304 -25.0297 -25.0296 -25.0238 -25.0232 -25.0232 -25.0171 -25.0171
   -25.0166 -25.0102 -25.0101 -25.0046 -25.0044 -25.0016 -24.9920 -24.9920
   -24.9916 -24.9910 -24.9909 -24.9890 -24.9813 -24.9689 -24.9685 -24.9685
   -24.9636 -24.9636 -24.9468 -24.9467 -24.9467 -24.9463 -24.9463 -24.9393
   -24.9393 -24.9284 -24.9196 -24.9196 -24.9186 -24.8988 -24.8961 -24.8960
   -24.8933 -24.8865 -24.8865 -24.8851 -24.8748 -24.8721 -24.8681 -24.8681
   -24.8658 -24.8576 -24.8557 -24.8489 -24.8489 -24.8486 -24.8355 -24.8332
   -24.8303 -24.8290 -24.8204 -24.8204 -24.8051 -24.8050 -24.8029 -24.8027
   -24.7994 -24.7958 -24.7958 -24.7955 -24.7880 -24.7879 -24.7860 -24.7828
   -24.7769 -24.7768 -24.7746 -24.7739 -24.7738 -24.7689 -24.7689 -24.7651
   -24.7651 -24.7592 -24.7580 -24.7580 -24.7556 -24.7548 -24.7548 -24.7474
   -24.7423 -24.7422 -24.7406 -24.7406 -24.7314 -24.7313 -24.7258 -24.7257
   -24.7231 -24.7228 -24.7227 -24.7215 -24.7198 -24.7196 -24.7175 -24.7175
   -24.7061 -24.7059 -24.6994 -24.6947 -24.6876 -24.6873 -24.6872 -24.6763
   -24.6763 -24.6737 -24.6736 -24.6727 -24.6726 -24.6680 -24.6653 -24.6595
   -24.6594 -24.6585 -24.6394 -24.6368 -24.6343 -24.6343 -24.6330 -24.6330
   -11.8704 -11.5967 -11.3677 -11.3677 -11.2940 -11.2103 -11.1198 -11.1198
   -11.0648 -10.9839 -10.9678 -10.9488 -10.9168 -10.8851 -10.8850 -10.8808
   -10.8808 -10.8648 -10.8196 -10.7821 -10.7816 -10.7816 -10.7502 -10.7196
   -10.7196 -10.6951 -10.6950 -10.6920 -10.6919 -10.6895 -10.6586 -10.6177
   -10.6177 -10.5861 -10.5861 -10.5339 -10.4924 -10.4923 -10.4897 -10.4897
   -10.4853 -10.4853 -10.4112 -10.3911 -10.3613 -10.3612 -10.3226 -10.3047
   -10.3019 -10.3019 -10.2587 -10.2514 -10.2368 -10.2368 -10.2112 -10.1684
   -10.1684 -10.1366 -10.1359 -10.1358 -10.0944 -10.0944 -10.0639 -10.0639
   -10.0010 -10.0009  -9.9764  -9.9764  -9.9412  -9.9411  -9.8805  -9.8804
    -2.4963  -2.4962  -2.4759  -2.4759  -2.4120  -2.4120  -2.3747  -2.3746
    -2.1423  -2.1423  -2.1199  -2.1199  -1.9554  -1.9554  -1.8646  -1.8645
    -1.8224  -1.7923  -1.7923  -1.7808  -1.7807  -1.7440  -1.7272  -1.7272
    -1.7007  -1.7006  -1.6732  -1.6696  -1.6695  -1.5883  -1.5882  -1.5392
    -1.5365  -1.5208  -1.5207  -1.5024  -1.5024  -1.4487  -1.4369  -1.4368
    -1.4023  -1.3828  -1.3827  -1.3697  -1.3169  -1.2576  -1.2575  -1.1281
    -1.1155  -1.1154  -1.0976  -1.0128  -1.0124  -0.9987  -0.9987  -0.9682
    -0.9628  -0.9617  -0.9579  -0.9578  -0.8124  -0.8120  -0.6987  -0.6986
    -0.6980  -0.6788  -0.6788  -0.6618  -0.6502  -0.6502  -0.6258  -0.6257
    -0.6058  -0.5780  -0.5703  -0.5703  -0.5492  -0.5492  -0.5421  -0.5420
    -0.5345  -0.5345  -0.5270  -0.5270  -0.5174  -0.5174  -0.4986  -0.4985
    -0.4923  -0.4922  -0.4895  -0.4788  -0.4788  -0.4698  -0.4698  -0.4486
    -0.4480  -0.4480  -0.3757  -0.3756  -0.3633  -0.3572  -0.3538  -0.3537
    -0.3362  -0.3279  -0.3159  -0.3159  -0.3040  -0.2945  -0.2517  -0.2517
    -0.2260  -0.2259  -0.2106  -0.2106  -0.1846  -0.1846  -0.1794  -0.1660
    -0.1660  -0.1494  -0.1421  -0.1420  -0.1259  -0.1255  -0.1235  -0.1234
    -0.0995  -0.0995  -0.0926  -0.0925  -0.0774  -0.0774  -0.0642  -0.0599
    -0.0599  -0.0136  -0.0136   0.0017   0.0052   0.0052   0.0130   0.0131
     0.0362   0.0362   0.0547   0.0599   0.0664   0.0775   0.0776   0.0961
     0.1021   0.1021   0.1040   0.1048   0.1386   0.1386   0.1397   0.1398
     0.1501   0.1501   0.1867   0.1867   0.2296   0.2422   0.2422   0.2460
     0.2467   0.2896   0.2974   0.2974   0.3448   0.3449   0.3732   0.3732
     0.4030   0.4181   0.4181   0.4390   0.4391   0.5337   0.5404   0.5766
     0.6443   0.6508   0.6508   0.6676   0.6921   0.6922   0.7050   0.7214
     0.7229   0.7230   0.7520   0.7521   0.7802   0.7840   0.7842   0.8398
     0.8416   0.8515   0.9530   1.0249   1.0357   1.0415   1.0459   1.0648
     1.0774   1.0775   1.2005   1.4346   1.5672   1.6025   1.7643   1.9031
     2.3893   2.6842   2.8294   2.8950   2.9120   3.2016   3.2017   3.3032
     3.6172   3.6635   3.8062   3.8444   3.9225   4.0175   4.0176   4.0411
     4.1568   4.1569   4.1804   4.1942   4.2488   4.3025   4.3543   4.3658
     4.3659   4.3909   4.3997   4.3997   4.4345   4.4346   4.4355   4.4440
     4.4441   4.5210   4.5210   4.5910   4.5911   4.5915   4.6572   4.6572
     4.6628   4.6791   4.6795   4.7021   4.7022   4.7174   4.7175   4.7882
     4.8224   4.8225   4.8298   4.8511   4.8512   4.8605   4.8607   4.8867
     4.9360   4.9638   4.9639   5.0285   5.0397   5.0568   5.0569   5.0914
     5.0915   5.0968   5.1290   5.1411   5.1412   5.2000   5.2329   5.2329
     5.2330   5.2331   5.2364   5.2364   5.3206   5.3207   5.3550   5.3552
     5.4108   5.4857   5.4991   5.5455   5.5700   5.5700   5.5714   5.5714
     5.5974   5.6356   5.6358   5.6467   5.6468   5.7233   5.7349   5.7349
     5.7372   5.7373   5.7443   5.7481   5.7751   5.7751   5.7770   5.8017
     5.8444   5.8445   5.8482   5.8483   5.8726   5.8734   5.9076   5.9078
     5.9250   5.9251   5.9767

          k =-0.5000 0.0000 0.0000 (165810 PWs)   bands (ev):

   -46.5499 -46.5499 -46.5346 -46.5346 -46.5345 -46.5345 -46.5201 -46.5201
   -46.5192 -46.5191 -46.5191 -46.5191 -46.5056 -46.5055 -46.5055 -46.5055
   -46.4919 -46.4919 -46.3573 -46.3572 -46.3405 -46.3402 -46.3401 -46.3401
   -46.3250 -46.3246 -46.3235 -46.3230 -46.3230 -46.3229 -46.3096 -46.3093
   -46.3092 -46.3091 -46.2955 -46.2954 -46.2216 -46.2216 -46.2043 -46.2043
   -46.2043 -46.2042 -46.1881 -46.1881 -46.1861 -46.1861 -46.1861 -46.1860
   -46.1716 -46.1716 -46.1716 -46.1716 -46.1571 -46.1571 -46.1191 -46.1191
   -46.1111 -46.1111 -46.1110 -46.1108 -46.1037 -46.1036 -46.1036 -46.1032
   -46.1004 -46.1001 -46.0900 -46.0899 -46.0898 -46.0896 -46.0761 -46.0760
   -25.4278 -25.4278 -25.4278 -25.4278 -25.4205 -25.4205 -25.4113 -25.4113
   -25.4113 -25.4113 -25.3896 -25.3896 -25.3813 -25.3813 -25.3812 -25.3812
   -25.3709 -25.3709 -25.3709 -25.3709 -25.3373 -25.3373 -25.3106 -25.3106
   -25.3106 -25.3106 -25.2943 -25.2941 -25.2941 -25.2941 -25.2647 -25.2647
   -25.2627 -25.2627 -25.2607 -25.2606 -25.2563 -25.2562 -25.2561 -25.2561
   -25.2415 -25.2414 -25.2413 -25.2413 -25.2342 -25.2340 -25.2199 -25.2198
   -25.2197 -25.2197 -25.2135 -25.2135 -25.2135 -25.2135 -25.1838 -25.1838
   -25.1805 -25.1804 -25.1591 -25.1591 -25.1590 -25.1590 -25.1342 -25.1341
   -25.1328 -25.1328 -25.1328 -25.1328 -25.1260 -25.1259 -25.1027 -25.1026
   -25.0823 -25.0823 -25.0822 -25.0822 -25.0762 -25.0761 -25.0761 -25.0761
   -25.0621 -25.0620 -25.0531 -25.0530 -25.0399 -25.0398 -25.0394 -25.0394
   -25.0393 -25.0393 -25.0171 -25.0170 -25.0170 -25.0170 -25.0104 -25.0104
   -25.0063 -25.0063 -24.9996 -24.9994 -24.9994 -24.9994 -24.9905 -24.9905
   -24.9905 -24.9905 -24.9883 -24.9882 -24.9666 -24.9666 -24.9608 -24.9608
   -24.9498 -24.9498 -24.9497 -24.9497 -24.9490 -24.9490 -24.9490 -24.9490
   -24.9250 -24.9249 -24.9249 -24.9249 -24.9100 -24.9099 -24.9099 -24.9098
   -24.8947 -24.8947 -24.8932 -24.8931 -24.8850 -24.8850 -24.8569 -24.8569
   -24.8569 -24.8569 -24.8541 -24.8541 -24.8493 -24.8492 -24.8360 -24.8360
   -24.8243 -24.8243 -24.8183 -24.8183 -24.8182 -24.8182 -24.8061 -24.8061
   -24.7879 -24.7879 -24.7878 -24.7878 -24.7836 -24.7835 -24.7835 -24.7834
   -24.7733 -24.7732 -24.7698 -24.7697 -24.7651 -24.7650 -24.7650 -24.7649
   -24.7594 -24.7594 -24.7594 -24.7593 -24.7549 -24.7549 -24.7548 -24.7548
   -24.7523 -24.7522 -24.7446 -24.7446 -24.7445 -24.7445 -24.7384 -24.7383
   -24.7277 -24.7276 -24.7276 -24.7276 -24.7222 -24.7221 -24.7220 -24.7219
   -24.6955 -24.6954 -24.6954 -24.6951 -24.6796 -24.6794 -24.6789 -24.6789
   -24.6667 -24.6666 -24.6666 -24.6665 -24.6549 -24.6548 -24.6511 -24.6510
   -24.6509 -24.6509 -24.6489 -24.6489 -24.6478 -24.6478 -24.6477 -24.6477
   -11.7611 -11.7611 -11.2683 -11.2682 -11.2682 -11.2682 -11.2008 -11.2008
   -11.0514 -11.0513 -10.9501 -10.9501 -10.9059 -10.9059 -10.8052 -10.8052
   -10.8052 -10.8051 -10.8041 -10.8041 -10.8040 -10.8040 -10.7812 -10.7812
   -10.7021 -10.7020 -10.6737 -10.6736 -10.6736 -10.6736 -10.6625 -10.6624
   -10.6542 -10.6542 -10.6541 -10.6541 -10.4542 -10.4541 -10.4541 -10.4540
   -10.4148 -10.4148 -10.4148 -10.4148 -10.3639 -10.3639 -10.2962 -10.2962
   -10.2823 -10.2822 -10.2822 -10.2822 -10.2743 -10.2742 -10.1763 -10.1763
   -10.1763 -10.1763 -10.1694 -10.1694 -10.0786 -10.0785 -10.0784 -10.0784
    -9.9916  -9.9916  -9.9916  -9.9915  -9.8829  -9.8827  -9.8827  -9.8826
    -2.5176  -2.5176  -2.5176  -2.5175  -2.4905  -2.4904  -2.4904  -2.4904
    -1.9265  -1.9265  -1.9264  -1.9264  -1.8814  -1.8813  -1.8813  -1.8813
    -1.7935  -1.7935  -1.7934  -1.7934  -1.7913  -1.7913  -1.7316  -1.7316
    -1.7315  -1.7315  -1.7052  -1.7052  -1.6977  -1.6977  -1.6976  -1.6976
    -1.5841  -1.5840  -1.5840  -1.5840  -1.3964  -1.3964  -1.3794  -1.3793
    -1.3793  -1.3792  -1.2995  -1.2995  -1.2551  -1.2551  -1.2039  -1.2039
    -1.2038  -1.2038  -1.1022  -1.1022  -1.0213  -1.0212  -0.9963  -0.9963
    -0.8184  -0.8183  -0.8183  -0.8183  -0.7797  -0.7796  -0.7796  -0.7796
    -0.7389  -0.7389  -0.6768  -0.6768  -0.6578  -0.6577  -0.6428  -0.6427
    -0.6407  -0.6406  -0.6406  -0.6405  -0.6251  -0.6251  -0.6251  -0.6251
    -0.5554  -0.5553  -0.5553  -0.5553  -0.5469  -0.5468  -0.5468  -0.5468
    -0.5010  -0.5010  -0.5010  -0.5009  -0.4641  -0.4640  -0.4640  -0.4640
    -0.4034  -0.4034  -0.3489  -0.3489  -0.3432  -0.3432  -0.3432  -0.3432
    -0.3181  -0.3180  -0.3180  -0.3180  -0.3117  -0.3116  -0.2671  -0.2670
    -0.2669  -0.2669  -0.2312  -0.2312  -0.2312  -0.2311  -0.1834  -0.1834
    -0.1484  -0.1484  -0.1483  -0.1483  -0.1122  -0.1122  -0.1087  -0.1087
    -0.1087  -0.1087  -0.0945  -0.0945  -0.0945  -0.0944  -0.0238  -0.0238
    -0.0238  -0.0237   0.0401   0.0401   0.0401   0.0401   0.0717   0.0718
     0.0775   0.0775   0.0775   0.0775   0.0908   0.0908   0.0908   0.0908
     0.1013   0.1014   0.1318   0.1319   0.1320   0.1321   0.1348   0.1348
     0.2453   0.2453   0.2453   0.2453   0.3104   0.3105   0.3704   0.3705
     0.4162   0.4162   0.4540   0.4540   0.4540   0.4541   0.4627   0.4627
     0.4990   0.4990   0.4991   0.4991   0.5772   0.5773   0.5773   0.5773
     0.5998   0.5998   0.5999   0.5999   0.6132   0.6132   0.6595   0.6596
     0.6700   0.6702   0.7299   0.7300   0.7470   0.7470   0.7470   0.7471
     0.7795   0.7795   0.8289   0.8289   0.9203   0.9206   1.0948   1.0948
     1.1334   1.1334   1.1895   1.1895   1.3210   1.3210   1.6758   1.6758
     2.7634   2.7635   2.9600   2.9601   3.2532   3.2533   3.4271   3.4271
     3.5415   3.5415   3.5416   3.5417   3.5643   3.5647   4.0175   4.0176
     4.0844   4.0844   4.2542   4.2543   4.3211   4.3211   4.3212   4.3212
     4.3717   4.3718   4.3718   4.3719   4.4661   4.4664   4.4760   4.4760
     4.5216   4.5216   4.5217   4.5217   4.5579   4.5580   4.5580   4.5581
     4.6514   4.6515   4.6589   4.6590   4.7754   4.7754   4.7755   4.7756
     4.7964   4.7965   4.7965   4.7966   4.8550   4.8550   4.8598   4.8599
     4.8599   4.8599   4.9275   4.9276   5.0095   5.0097   5.0098   5.0098
     5.1300   5.1300   5.1300   5.1301   5.1933   5.1933   5.2567   5.2568
     5.2568   5.2569   5.3289   5.3290   5.3290   5.3290   5.3501   5.3501
     5.3889   5.3893   5.4916   5.4917   5.4917   5.4918   5.6468   5.6468
     5.6953   5.6954   5.7103   5.7104   5.7104   5.7104   5.7330   5.7332
     5.7332   5.7333   5.8455   5.8460   5.8471   5.8474   5.8475   5.8476
     5.8797   5.8798   5.8798   5.8799   5.9123   5.9125   5.9139   5.9140
     5.9223   5.9232   5.9739

          k =-0.5000 0.2500 0.0000 (165780 PWs)   bands (ev):

   -46.5488 -46.5488 -46.5408 -46.5408 -46.5274 -46.5273 -46.5200 -46.5200
   -46.5195 -46.5194 -46.5189 -46.5189 -46.5123 -46.5123 -46.4998 -46.4998
   -46.4928 -46.4928 -46.3561 -46.3560 -46.3472 -46.3471 -46.3325 -46.3323
   -46.3249 -46.3245 -46.3238 -46.3235 -46.3228 -46.3226 -46.3164 -46.3163
   -46.3035 -46.3034 -46.2964 -46.2963 -46.2205 -46.2204 -46.2114 -46.2114
   -46.1961 -46.1960 -46.1880 -46.1879 -46.1868 -46.1868 -46.1856 -46.1855
   -46.1791 -46.1791 -46.1654 -46.1654 -46.1581 -46.1580 -46.1186 -46.1186
   -46.1145 -46.1145 -46.1066 -46.1065 -46.1045 -46.1043 -46.1026 -46.1023
   -46.1007 -46.1004 -46.0957 -46.0956 -46.0844 -46.0844 -46.0771 -46.0770
   -25.4381 -25.4381 -25.4197 -25.4197 -25.4146 -25.4146 -25.4142 -25.4142
   -25.4072 -25.4072 -25.3959 -25.3959 -25.3929 -25.3929 -25.3927 -25.3926
   -25.3671 -25.3671 -25.3414 -25.3414 -25.3319 -25.3319 -25.3107 -25.3107
   -25.3100 -25.3099 -25.3016 -25.3016 -25.2867 -25.2867 -25.2729 -25.2728
   -25.2604 -25.2603 -25.2593 -25.2593 -25.2578 -25.2577 -25.2489 -25.2488
   -25.2468 -25.2468 -25.2422 -25.2420 -25.2411 -25.2410 -25.2356 -25.2356
   -25.2271 -25.2271 -25.2213 -25.2213 -25.1887 -25.1886 -25.1852 -25.1852
   -25.1716 -25.1716 -25.1695 -25.1695 -25.1538 -25.1538 -25.1532 -25.1532
   -25.1355 -25.1355 -25.1156 -25.1156 -25.0991 -25.0990 -25.0960 -25.0960
   -25.0890 -25.0889 -25.0880 -25.0880 -25.0873 -25.0873 -25.0781 -25.0781
   -25.0596 -25.0596 -25.0479 -25.0479 -25.0472 -25.0472 -25.0441 -25.0441
   -25.0417 -25.0417 -25.0267 -25.0267 -25.0213 -25.0213 -25.0021 -25.0020
   -25.0003 -25.0003 -24.9944 -24.9944 -24.9936 -24.9936 -24.9935 -24.9935
   -24.9915 -24.9915 -24.9823 -24.9823 -24.9743 -24.9743 -24.9721 -24.9721
   -24.9687 -24.9687 -24.9577 -24.9576 -24.9446 -24.9446 -24.9367 -24.9367
   -24.9316 -24.9316 -24.9139 -24.9139 -24.9043 -24.9043 -24.8984 -24.8983
   -24.8927 -24.8927 -24.8861 -24.8861 -24.8749 -24.8749 -24.8631 -24.8631
   -24.8507 -24.8506 -24.8484 -24.8484 -24.8401 -24.8401 -24.8358 -24.8358
   -24.8331 -24.8331 -24.8210 -24.8210 -24.8199 -24.8199 -24.8192 -24.8192
   -24.8070 -24.8070 -24.8050 -24.8049 -24.7902 -24.7902 -24.7811 -24.7811
   -24.7702 -24.7702 -24.7689 -24.7689 -24.7672 -24.7672 -24.7664 -24.7663
   -24.7562 -24.7561 -24.7553 -24.7553 -24.7509 -24.7509 -24.7494 -24.7494
   -24.7470 -24.7470 -24.7452 -24.7451 -24.7411 -24.7410 -24.7338 -24.7338
   -24.7325 -24.7325 -24.7253 -24.7253 -24.7074 -24.7074 -24.7022 -24.7022
   -24.6997 -24.6995 -24.6899 -24.6897 -24.6872 -24.6872 -24.6809 -24.6807
   -24.6742 -24.6742 -24.6731 -24.6731 -24.6687 -24.6687 -24.6674 -24.6674
   -24.6666 -24.6666 -24.6367 -24.6367 -24.6361 -24.6360 -24.6339 -24.6339
   -11.7238 -11.7237 -11.4569 -11.4569 -11.1689 -11.1689 -11.0825 -11.0824
   -11.0200 -11.0199 -10.9484 -10.9484 -10.9260 -10.9259 -10.8918 -10.8918
   -10.8366 -10.8365 -10.8200 -10.8199 -10.8007 -10.8006 -10.7644 -10.7644
   -10.7521 -10.7521 -10.6839 -10.6838 -10.6789 -10.6788 -10.6322 -10.6321
   -10.6154 -10.6153 -10.5502 -10.5502 -10.5314 -10.5313 -10.5232 -10.5231
   -10.4217 -10.4217 -10.4153 -10.4151 -10.3450 -10.3449 -10.2900 -10.2900
   -10.2709 -10.2709 -10.2556 -10.2555 -10.2293 -10.2293 -10.1614 -10.1614
   -10.1581 -10.1580 -10.1448 -10.1447 -10.1382 -10.1381 -10.0989 -10.0988
   -10.0514 -10.0512  -9.9807  -9.9806  -9.9079  -9.9078  -9.8102  -9.8101
    -2.6920  -2.6920  -2.6715  -2.6715  -2.2765  -2.2765  -2.2371  -2.2371
    -2.0428  -2.0428  -1.9962  -1.9962  -1.9707  -1.9707  -1.9115  -1.9114
    -1.8785  -1.8785  -1.8558  -1.8558  -1.8233  -1.8233  -1.7783  -1.7783
    -1.7098  -1.7098  -1.6679  -1.6679  -1.5698  -1.5697  -1.5479  -1.5479
    -1.4876  -1.4876  -1.4580  -1.4579  -1.4126  -1.4125  -1.3346  -1.3345
    -1.3274  -1.3274  -1.2851  -1.2850  -1.2477  -1.2477  -1.2131  -1.2131
    -1.2090  -1.2089  -1.1466  -1.1466  -1.1305  -1.1305  -1.0544  -1.0544
    -1.0515  -1.0515  -0.9922  -0.9921  -0.9415  -0.9415  -0.8661  -0.8660
    -0.6939  -0.6938  -0.6659  -0.6659  -0.6260  -0.6259  -0.6109  -0.6108
    -0.5552  -0.5552  -0.5543  -0.5542  -0.5512  -0.5511  -0.5497  -0.5497
    -0.5443  -0.5443  -0.5380  -0.5380  -0.5233  -0.5232  -0.5212  -0.5212
    -0.4903  -0.4902  -0.4893  -0.4892  -0.4603  -0.4602  -0.4540  -0.4540
    -0.4238  -0.4238  -0.3949  -0.3948  -0.3820  -0.3820  -0.3803  -0.3803
    -0.3698  -0.3698  -0.3513  -0.3513  -0.3433  -0.3433  -0.2910  -0.2910
    -0.2510  -0.2510  -0.2211  -0.2211  -0.2150  -0.2150  -0.1692  -0.1691
    -0.1615  -0.1615  -0.1593  -0.1593  -0.1260  -0.1260  -0.0826  -0.0825
    -0.0178  -0.0177  -0.0124  -0.0124   0.0022   0.0023   0.0159   0.0159
     0.0385   0.0385   0.0588   0.0588   0.0825   0.0825   0.0853   0.0853
     0.1011   0.1012   0.1160   0.1160   0.1406   0.1407   0.1517   0.1518
     0.1545   0.1546   0.1604   0.1605   0.1868   0.1869   0.1913   0.1913
     0.3022   0.3022   0.3065   0.3066   0.3074   0.3075   0.3413   0.3413
     0.3422   0.3423   0.3543   0.3544   0.4546   0.4547   0.4999   0.4999
     0.5128   0.5129   0.5226   0.5226   0.5385   0.5385   0.5405   0.5405
     0.5607   0.5607   0.6014   0.6014   0.6263   0.6265   0.6360   0.6360
     0.6832   0.6833   0.6854   0.6854   0.7361   0.7361   0.7820   0.7820
     0.7995   0.7997   0.8284   0.8284   0.9483   0.9484   1.0041   1.0041
     1.0233   1.0233   1.0739   1.0740   1.2696   1.2696   1.5194   1.5194
     2.9167   2.9168   3.0672   3.0673   3.2653   3.2654   3.4014   3.4015
     3.5204   3.5204   3.6621   3.6625   3.7247   3.7247   3.8333   3.8334
     3.9149   3.9150   4.0443   4.0444   4.1578   4.1578   4.1635   4.1635
     4.2677   4.2677   4.2940   4.2940   4.3258   4.3258   4.3375   4.3377
     4.4240   4.4242   4.4601   4.4603   4.4919   4.4920   4.6337   4.6338
     4.7157   4.7158   4.7261   4.7262   4.7476   4.7477   4.7734   4.7735
     4.8218   4.8219   4.8305   4.8305   4.8766   4.8766   4.9416   4.9417
     4.9758   4.9759   5.0363   5.0363   5.0968   5.0969   5.1160   5.1161
     5.1684   5.1685   5.1727   5.1728   5.2218   5.2218   5.2880   5.2881
     5.2920   5.2920   5.3311   5.3312   5.4022   5.4022   5.4147   5.4151
     5.4742   5.4742   5.4743   5.4743   5.4791   5.4791   5.5298   5.5298
     5.6254   5.6257   5.6529   5.6529   5.6630   5.6630   5.7156   5.7156
     5.8078   5.8078   5.8115   5.8116   5.8493   5.8493   5.8509   5.8510
     5.8697   5.8697   5.9222   5.9222   5.9271   5.9272   5.9368   5.9368
     5.9677   5.9894   5.9913

     the Fermi energy is     2.0295 ev

!    total energy              =   -8262.71609465 Ry
     estimated scf accuracy    <       0.00000006 Ry
     smearing contrib. (-TS)   =       0.00529127 Ry
     internal energy E=F+TS    =   -8262.72138591 Ry

     The total energy is F=E-TS. E is the sum of the following terms:
     one-electron contribution = -100437.14782653 Ry
     hartree contribution      =   50342.47240321 Ry
     xc contribution           =   -1356.18261787 Ry
     ewald contribution        =   43190.97182524 Ry
     DFT-D3 Dispersion         =      -2.83516997 Ry

     convergence has been achieved in   9 iterations

     negative rho (up, down):  7.705E-03 0.000E+00

     Forces acting on atoms (cartesian axes, Ry/au):

     atom    1 type  1   force =    -0.00000134    0.00000060    0.01786207
     atom    2 type  1   force =    -0.00000270   -0.00000094   -0.00416874
     atom    3 type  1   force =    -0.00000711    0.00000454   -0.00415839
     atom    4 type  1   force =    -0.00000141   -0.00000031    0.01785986
     atom    5 type  1   force =     0.00000145   -0.00002495   -0.00201825
     atom    6 type  1   force =     0.00000523   -0.00000064    0.00557959
     atom    7 type  1   force =    -0.00000443    0.00000109    0.00527450
     atom    8 type  1   force =     0.00002898   -0.00002096   -0.00201732
     atom    9 type  1   force =    -0.00000117   -0.00000157    0.01786470
     atom   10 type  1   force =    -0.00000321    0.00000244   -0.00416690
     atom   11 type  1   force =    -0.00000211   -0.00000872   -0.00415650
     atom   12 type  1   force =    -0.00000176   -0.00000094    0.01785842
     atom   13 type  1   force =     0.00001479    0.00001486   -0.00204423
     atom   14 type  1   force =     0.00000376   -0.00000063    0.00555100
     atom   15 type  1   force =     0.00000370   -0.00000738    0.00553673
     atom   16 type  1   force =     0.00000687    0.00001864   -0.00204525
     atom   17 type  1   force =    -0.00000100    0.00000097    0.01786139
     atom   18 type  1   force =    -0.00000191   -0.00000141   -0.00416230
     atom   19 type  1   force =     0.00000084    0.00000418   -0.00415768
     atom   20 type  1   force =    -0.00000185    0.00000126    0.01785980
     atom   21 type  1   force =     0.00000596    0.00001022   -0.00203586
     atom   22 type  1   force =     0.00000069    0.00000181    0.00558023
     atom   23 type  1   force =     0.00000375    0.00000373    0.00557779
     atom   24 type  1   force =    -0.00000341    0.00000224   -0.00204132
     atom   25 type  1   force =     0.00000000    0.00000093    0.01785838
     atom   26 type  1   force =     0.00000270   -0.00000094   -0.00416874
     atom   27 type  1   force =     0.00000000    0.00000429   -0.00415264
     atom   28 type  1   force =     0.00000141   -0.00000031    0.01785986
     atom   29 type  1   force =     0.00000000    0.00000173   -0.00203534
     atom   30 type  1   force =    -0.00000523   -0.00000064    0.00557959
     atom   31 type  1   force =     0.00000000    0.00000199    0.00558069
     atom   32 type  1   force =    -0.00002898   -0.00002096   -0.00201732
     atom   33 type  1   force =     0.00000000   -0.00000191    0.01786145
     atom   34 type  1   force =     0.00000321    0.00000244   -0.00416690
     atom   35 type  1   force =     0.00000000   -0.00000204   -0.00416074
     atom   36 type  1   force =     0.00000176   -0.00000094    0.01785842
     atom   37 type  1   force =     0.00000000   -0.00000589   -0.00204750
     atom   38 type  1   force =    -0.00000376   -0.00000063    0.00555100
     atom   39 type  1   force =     0.00000000    0.00000019    0.00557078
     atom   40 type  1   force =    -0.00000687    0.00001864   -0.00204525
     atom   41 type  1   force =     0.00000000    0.00000093    0.01785928
     atom   42 type  1   force =     0.00000191   -0.00000141   -0.00416230
     atom   43 type  1   force =     0.00000000   -0.00000225   -0.00416110
     atom   44 type  1   force =     0.00000185    0.00000126    0.01785980
     atom   45 type  1   force =     0.00000000    0.00000432   -0.00204059
     atom   46 type  1   force =    -0.00000069    0.00000181    0.00558023
     atom   47 type  1   force =     0.00000000   -0.00000112    0.00555296
     atom   48 type  1   force =     0.00000341    0.00000224   -0.00204132
     atom   49 type  1   force =     0.00000134    0.00000060    0.01786207
     atom   50 type  1   force =     0.00000000    0.00000154   -0.00417383
     atom   51 type  1   force =     0.00000711    0.00000454   -0.00415839
     atom   52 type  1   force =     0.00000000   -0.00000049    0.01786094
     atom   53 type  1   force =    -0.00000145   -0.00002495   -0.00201825
     atom   54 type  1   force =     0.00000000   -0.00000306    0.00561751
     atom   55 type  1   force =     0.00000443    0.00000109    0.00527450
     atom   56 type  1   force =     0.00000000   -0.00003787   -0.00200380
     atom   57 type  1   force =     0.00000117   -0.00000157    0.01786470
     atom   58 type  1   force =     0.00000000    0.00000294   -0.00417498
     atom   59 type  1   force =     0.00000211   -0.00000872   -0.00415650
     atom   60 type  1   force =     0.00000000   -0.00000110    0.01785883
     atom   61 type  1   force =    -0.00001479    0.00001486   -0.00204423
     atom   62 type  1   force =     0.00000000    0.00000131    0.00554500
     atom   63 type  1   force =    -0.00000370   -0.00000738    0.00553673
     atom   64 type  1   force =     0.00000000    0.00003310   -0.00205226
     atom   65 type  1   force =     0.00000100    0.00000097    0.01786139
     atom   66 type  1   force =     0.00000000   -0.00000459   -0.00416878
     atom   67 type  1   force =    -0.00000084    0.00000418   -0.00415768
     atom   68 type  1   force =     0.00000000    0.00000152    0.01785916
     atom   69 type  1   force =    -0.00000596    0.00001022   -0.00203586
     atom   70 type  1   force =     0.00000000    0.00000147    0.00556703
     atom   71 type  1   force =    -0.00000375    0.00000373    0.00557779
     atom   72 type  1   force =     0.00000000    0.00000520   -0.00203719
     atom   73 type  2   force =    -0.00000004   -0.00000189    0.00139725
     atom   74 type  2   force =     0.00000017   -0.00000044    0.00139930
     atom   75 type  2   force =    -0.00000051    0.00000109   -0.01124457
     atom   76 type  2   force =    -0.00000542    0.00000370   -0.01123974
     atom   77 type  2   force =    -0.00000983   -0.00000786   -0.00490415
     atom   78 type  2   force =    -0.00000243    0.00001594   -0.00492093
     atom   79 type  2   force =     0.00000053   -0.00000869   -0.00244046
     atom   80 type  2   force =    -0.00000077   -0.00000022   -0.00241285
     atom   81 type  2   force =    -0.00000025    0.00000244    0.00139862
     atom   82 type  2   force =     0.00000105    0.00000030    0.00139898
     atom   83 type  2   force =     0.00000007   -0.00000103   -0.01127020
     atom   84 type  2   force =    -0.00000190   -0.00000222   -0.01123225
     atom   85 type  2   force =    -0.00000080    0.00000521   -0.00495147
     atom   86 type  2   force =     0.00000182   -0.00001430   -0.00495304
     atom   87 type  2   force =     0.00000470    0.00001043   -0.00219614
     atom   88 type  2   force =    -0.00000317    0.00000083   -0.00246153
     atom   89 type  2   force =    -0.00000052   -0.00000054    0.00139702
     atom   90 type  2   force =    -0.00000015    0.00000014    0.00139976
     atom   91 type  2   force =    -0.00000232   -0.00000018   -0.01123934
     atom   92 type  2   force =     0.00000012   -0.00000147   -0.01123995
     atom   93 type  2   force =     0.00000004    0.00000357   -0.00493024
     atom   94 type  2   force =    -0.00000001   -0.00000194   -0.00492947
     atom   95 type  2   force =    -0.00000226    0.00000022   -0.00248035
     atom   96 type  2   force =     0.00000104   -0.00000168   -0.00246075
     atom   97 type  2   force =     0.00000000   -0.00000098    0.00139602
     atom   98 type  2   force =    -0.00000017   -0.00000044    0.00139930
     atom   99 type  2   force =     0.00000000   -0.00000043   -0.01124052
     atom  100 type  2   force =     0.00000542    0.00000370   -0.01123974
     atom  101 type  2   force =     0.00000000   -0.00000454   -0.00491669
     atom  102 type  2   force =     0.00000243    0.00001594   -0.00492093
     atom  103 type  2   force =     0.00000000   -0.00000335   -0.00246333
     atom  104 type  2   force =     0.00000077   -0.00000022   -0.00241285
     atom  105 type  2   force =     0.00000000    0.00000094    0.00139997
     atom  106 type  2   force =    -0.00000105    0.00000030    0.00139898
     atom  107 type  2   force =     0.00000000    0.00000200   -0.01123921
     atom  108 type  2   force =     0.00000190   -0.00000222   -0.01123225
     atom  109 type  2   force =     0.00000000    0.00000040   -0.00492837
     atom  110 type  2   force =    -0.00000182   -0.00001430   -0.00495304
     atom  111 type  2   force =     0.00000000    0.00000498   -0.00249552
     atom  112 type  2   force =     0.00000317    0.00000083   -0.00246153
     atom  113 type  2   force =     0.00000000    0.00000007    0.00139871
     atom  114 type  2   force =     0.00000015    0.00000014    0.00139976
     atom  115 type  2   force =     0.00000000   -0.00000164   -0.01123946
     atom  116 type  2   force =    -0.00000012   -0.00000147   -0.01123995
     atom  117 type  2   force =     0.00000000    0.00000385   -0.00493249
     atom  118 type  2   force =     0.00000001   -0.00000194   -0.00492947
     atom  119 type  2   force =     0.00000000   -0.00000121   -0.00244242
     atom  120 type  2   force =    -0.00000104   -0.00000168   -0.00246075
     atom  121 type  2   force =     0.00000004   -0.00000189    0.00139725
     atom  122 type  2   force =     0.00000000   -0.00000059    0.00139944
     atom  123 type  2   force =     0.00000051    0.00000109   -0.01124457
     atom  124 type  2   force =     0.00000000    0.00000650   -0.01123213
     atom  125 type  2   force =     0.00000983   -0.00000786   -0.00490415
     atom  126 type  2   force =     0.00000000    0.00002880   -0.00491179
     atom  127 type  2   force =    -0.00000053   -0.00000869   -0.00244046
     atom  128 type  2   force =     0.00000000    0.00000193   -0.00240508
     atom  129 type  2   force =     0.00000025    0.00000244    0.00139862
     atom  130 type  2   force =     0.00000000    0.00000018    0.00139996
     atom  131 type  2   force =    -0.00000007   -0.00000103   -0.01127020
     atom  132 type  2   force =     0.00000000   -0.00000373   -0.01122973
     atom  133 type  2   force =     0.00000080    0.00000521   -0.00495147
     atom  134 type  2   force =     0.00000000   -0.00002594   -0.00497574
     atom  135 type  2   force =    -0.00000470    0.00001043   -0.00219614
     atom  136 type  2   force =     0.00000000   -0.00000030   -0.00245326
     atom  137 type  2   force =     0.00000052   -0.00000054    0.00139702
     atom  138 type  2   force =     0.00000000    0.00000039    0.00140186
     atom  139 type  2   force =     0.00000232   -0.00000018   -0.01123934
     atom  140 type  2   force =     0.00000000   -0.00000282   -0.01124157
     atom  141 type  2   force =    -0.00000004    0.00000357   -0.00493024
     atom  142 type  2   force =     0.00000000   -0.00000289   -0.00492827
     atom  143 type  2   force =     0.00000226    0.00000022   -0.00248035
     atom  144 type  2   force =     0.00000000   -0.00000186   -0.00245730

     Total force =     0.034203     Total SCF correction =     0.000536
     Energy error            =      2.1E-03 Ry
     Gradient error          =      5.6E-03 Ry/Bohr

     number of scf cycles    =   7
     number of bfgs steps    =   6

     energy             old  =   -8262.7140258567 Ry
     energy             new  =   -8262.7160946473 Ry

     CASE: energy            _new < energy            _old

     new trust radius        =       0.0194625868 bohr
     new conv_thr            =       0.0000003610 Ry


ATOMIC_POSITIONS (angstrom)
Sc               0.0000000000        0.0000000000       10.0000000000    0   0   0
Sc               2.2382160900        0.0000000000       12.2382160900    0   0   0
Sc               0.0000000000        2.2382160900       12.2382160900    0   0   0
Sc               2.2382160900        2.2382160900       10.0000000000    0   0   0
Sc              -0.0000076018        0.0001468942       14.4826569188
Sc               2.2382133998       -0.0000155089       16.6602665899
Sc              -0.0000063698        2.2381896289       16.6608252373
Sc               2.2380826980        2.2382522924       14.4826743073
Sc               0.0000000000        4.4764321800       10.0000000000    0   0   0
Sc               2.2382160900        4.4764321800       12.2382160900    0   0   0
Sc               0.0000000000        6.7146482700       12.2382160900    0   0   0
Sc               2.2382160900        6.7146482700       10.0000000000    0   0   0
Sc              -0.0000186840        4.4763155154       14.4826611359
Sc               2.2382369573        4.4764407464       16.6602743828
Sc              -0.0000113583        6.7146757387       16.6602781229
Sc               2.2381886194        6.7146161999       14.4826759734
Sc               0.0000000000        8.9528643500       10.0000000000    0   0   0
Sc               2.2382160900        8.9528643500       12.2382160900    0   0   0
Sc               0.0000000000       11.1910804400       12.2382160900    0   0   0
Sc               2.2382160900       11.1910804400       10.0000000000    0   0   0
Sc              -0.0000243775        8.9528346935       14.4826564033
Sc               2.2382003620        8.9528717910       16.6603285029
Sc              -0.0000175825       11.1910877178       16.6602610009
Sc               2.2381972666       11.1910758598       14.4826489403
Sc               4.4764321800        0.0000000000       10.0000000000    0   0   0
Sc               6.7146482700        0.0000000000       12.2382160900    0   0   0
Sc               4.4764321800        2.2382160900       12.2382160900    0   0   0
Sc               6.7146482700        2.2382160900       10.0000000000    0   0   0
Sc               4.4764348900        0.0000267960       14.4826271208
Sc               6.7146500402       -0.0000151989       16.6602834899
Sc               4.4764323100        2.2382049041       16.6602665506
Sc               6.7147800220        2.2382481624       14.4826742173
Sc               4.4764321800        4.4764321800       10.0000000000    0   0   0
Sc               6.7146482700        4.4764321800       12.2382160900    0   0   0
Sc               4.4764321800        6.7146482700       12.2382160900    0   0   0
Sc               6.7146482700        6.7146482700       10.0000000000    0   0   0
Sc               4.4764301000        4.4764208142       14.4826743985
Sc               6.7146295927        4.4764397264       16.6602506228
Sc               4.4764311400        6.7146473886       16.6603788029
Sc               6.7146765106        6.7146190199       14.4826729334
Sc               4.4764321800        8.9528643500       10.0000000000    0   0   0
Sc               6.7146482700        8.9528643500       12.2382160900    0   0   0
Sc               4.4764321800       11.1910804400       12.2382160900    0   0   0
Sc               6.7146482700       11.1910804400       10.0000000000    0   0   0
Sc               4.4764324400        8.9528481376       14.4826760219
Sc               6.7146624780        8.9528708310       16.6603290029
Sc               4.4764327100       11.1910910254       16.6603478787
Sc               6.7146681434       11.1910780498       14.4826513503
Sc               8.9528643500        0.0000000000       10.0000000000    0   0   0
Sc              11.1910804400        0.0000000000       12.2382160900    0   0   0
Sc               8.9528643500        2.2382160900       12.2382160900    0   0   0
Sc              11.1910804400        2.2382160900       10.0000000000    0   0   0
Sc               8.9528687018        0.0001446742       14.4826579788
Sc              11.1910813800       -0.0000323372       16.6601862833
Sc               8.9528713098        2.2381885589       16.6608207973
Sc              11.1910805600        2.2382584536       14.4827164432
Sc               8.9528643500        4.4764321800       10.0000000000    0   0   0
Sc              11.1910804400        4.4764321800       12.2382160900    0   0   0
Sc               8.9528643500        6.7146482700       12.2382160900    0   0   0
Sc              11.1910804400        6.7146482700       10.0000000000    0   0   0
Sc               8.9528863540        4.4763165354       14.4826591859
Sc              11.1910818400        4.4764532309       16.6601353563
Sc               8.9528752583        6.7146740587       16.6602921729
Sc              11.1910808600        6.7146270638       14.4826574209
Sc               8.9528643500        8.9528643500       10.0000000000    0   0   0
Sc              11.1910804400        8.9528643500       12.2382160900    0   0   0
Sc               8.9528643500       11.1910804400       12.2382160900    0   0   0
Sc              11.1910804400       11.1910804400       10.0000000000    0   0   0
Sc               8.9528884975        8.9528357135       14.4826564533
Sc              11.1910806400        8.9528789348       16.6603729489
Sc               8.9528829025       11.1910866578       16.6602928409
Sc              11.1910796900       11.1910586456       14.4826054945
N                0.0000000000        2.2382160900       10.0000000000    0   0   0
N                2.2382160900        0.0000000000       10.0000000000    0   0   0
N                0.0000000000        0.0000000000       12.2382160900    0   0   0
N                2.2382160900        2.2382160900       12.2382160900    0   0   0
N               -0.0000104744        2.2381608585       14.4920788056
N                2.2382042268       -0.0000062836       14.4919699201
N               -0.0000150320        0.0000639774       16.6759202778
N                2.2381538167        2.2382340651       16.6759153597
N                0.0000000000        6.7146482700       10.0000000000    0   0   0
N                2.2382160900        4.4764321800       10.0000000000    0   0   0
N                0.0000000000        4.4764321800       12.2382160900    0   0   0
N                2.2382160900        6.7146482700       12.2382160900    0   0   0
N               -0.0000091356        6.7147144514       14.4920114680
N                2.2382725512        4.4764534483       14.4920045693
N               -0.0000220978        4.4763685905       16.6751771418
N                2.2381902118        6.7146156486       16.6759545343
N                0.0000000000       11.1910804400       10.0000000000    0   0   0
N                2.2382160900        8.9528643500       10.0000000000    0   0   0
N                0.0000000000        8.9528643500       12.2382160900    0   0   0
N                2.2382160900       11.1910804400       12.2382160900    0   0   0
N               -0.0000037379       11.1910684796       14.4919802540
N                2.2382054452        8.9528512338       14.4920067349
N               -0.0000139803        8.9528570414       16.6759614106
N                2.2382051925       11.1910967169       16.6758535550
N                4.4764321800        2.2382160900       10.0000000000    0   0   0
N                6.7146482700        0.0000000000       10.0000000000    0   0   0
N                4.4764321800        0.0000000000       12.2382160900    0   0   0
N                6.7146482700        2.2382160900       12.2382160900    0   0   0
N                4.4764324400        2.2382305456       14.4919699605
N                6.7146618132       -0.0000081836       14.4919734401
N                4.4764319700        0.0000247769       16.6758414416
N                6.7147097333        2.2382329451       16.6759139997
N                4.4764321800        6.7146482700       10.0000000000    0   0   0
N                6.7146482700        4.4764321800       10.0000000000    0   0   0
N                4.4764321800        4.4764321800       12.2382160900    0   0   0
N                6.7146482700        6.7146482700       12.2382160900    0   0   0
N                4.4764310300        6.7146392572       14.4920290532
N                6.7145910488        4.4764514883       14.4920029893
N                4.4764316100        4.4764084350       16.6759696380
N                6.7146751382        6.7146161886       16.6759347143
N                4.4764321800       11.1910804400       10.0000000000    0   0   0
N                6.7146482700        8.9528643500       10.0000000000    0   0   0
N                4.4764321800        8.9528643500       12.2382160900    0   0   0
N                6.7146482700       11.1910804400       12.2382160900    0   0   0
N                4.4764330700       11.1910750301       14.4920008690
N                6.7146585748        8.9528536238       14.4920066649
N                4.4764329900        8.9528620137       16.6758341236
N                6.7146590675       11.1910981069       16.6758789750
N                8.9528643500        2.2382160900       10.0000000000    0   0   0
N               11.1910804400        0.0000000000       10.0000000000    0   0   0
N                8.9528643500        0.0000000000       12.2382160900    0   0   0
N               11.1910804400        2.2382160900       12.2382160900    0   0   0
N                8.9528755144        2.2381599085       14.4920794556
N               11.1910809200        0.0000075597       14.4919443088
N                8.9528783120        0.0000633674       16.6759066778
N               11.1910794100        2.2382491047       16.6760687898
N                8.9528643500        6.7146482700       10.0000000000    0   0   0
N               11.1910804400        4.4764321800       10.0000000000    0   0   0
N                8.9528643500        4.4764321800       12.2382160900    0   0   0
N               11.1910804400        6.7146482700       12.2382160900    0   0   0
N                8.9528741156        6.7147142214       14.4920118080
N               11.1910789200        4.4764419607       14.4919794201
N                8.9528863578        4.4763696605       16.6751766818
N               11.1910803400        6.7145987879       16.6759494619
N                8.9528643500       11.1910804400       10.0000000000    0   0   0
N               11.1910804400        8.9528643500       10.0000000000    0   0   0
N                8.9528643500        8.9528643500       12.2382160900    0   0   0
N               11.1910804400       11.1910804400       12.2382160900    0   0   0
N                8.9528672879       11.1910694396       14.4919815940
N               11.1910809700        8.9528469764       14.4920167524
N                8.9528787103        8.9528562014       16.6759330306
N               11.1910796900       11.1910954042       16.6758095761



     Writing config-only to output data dir ./tmp/ScN_slab.save/ :
     XML data file
     NEW-OLD atomic charge density approx. for the potential

     negative rho (up, down):  7.741E-03 0.000E+00

     total cpu time spent up to now is     9894.5 secs

     per-process dynamical memory:  1041.6 Mb

     Self-consistent Calculation

     iteration #  1     ecut=    45.00 Ry     beta= 0.25
     Davidson diagonalization with overlap
     ethr =  1.00E-06,  avg # of iterations =  5.9
     Minimization algorithm failed to find Fermi energy: reverting to bisection
     Possible cause: smearing is larger than the electronic band-gap.

     negative rho (up, down):  7.716E-03 0.000E+00

     total cpu time spent up to now is    10135.2 secs

     total energy              =   -8262.71652143 Ry
     estimated scf accuracy    <       0.00458857 Ry

     iteration #  2     ecut=    45.00 Ry     beta= 0.25
     Davidson diagonalization with overlap
     ethr =  3.98E-07,  avg # of iterations =  8.2

     negative rho (up, down):  7.697E-03 0.000E+00

     total cpu time spent up to now is    10281.2 secs

     total energy              =   -8262.71724998 Ry
     estimated scf accuracy    <       0.00164736 Ry

     iteration #  3     ecut=    45.00 Ry     beta= 0.25
     Davidson diagonalization with overlap
     ethr =  1.43E-07,  avg # of iterations =  3.2

     negative rho (up, down):  7.683E-03 0.000E+00

     total cpu time spent up to now is    10414.3 secs

     total energy              =   -8262.71736458 Ry
     estimated scf accuracy    <       0.00027008 Ry

     iteration #  4     ecut=    45.00 Ry     beta= 0.25
     Davidson diagonalization with overlap
     ethr =  2.34E-08,  avg # of iterations =  4.0

     negative rho (up, down):  7.675E-03 0.000E+00

     total cpu time spent up to now is    10537.3 secs

     total energy              =   -8262.71737164 Ry
     estimated scf accuracy    <       0.00011045 Ry

     iteration #  5     ecut=    45.00 Ry     beta= 0.25
     Davidson diagonalization with overlap
     ethr =  9.59E-09,  avg # of iterations =  2.2

     negative rho (up, down):  7.671E-03 0.000E+00

     total cpu time spent up to now is    10674.3 secs

     total energy              =   -8262.71738372 Ry
     estimated scf accuracy    <       0.00001806 Ry

     iteration #  6     ecut=    45.00 Ry     beta= 0.25
     Davidson diagonalization with overlap
     ethr =  1.57E-09,  avg # of iterations =  3.8

     negative rho (up, down):  7.667E-03 0.000E+00

     total cpu time spent up to now is    10806.8 secs

     total energy              =   -8262.71738723 Ry
     estimated scf accuracy    <       0.00000397 Ry

     iteration #  7     ecut=    45.00 Ry     beta= 0.25
     Davidson diagonalization with overlap
     ethr =  3.45E-10,  avg # of iterations =  2.9

     negative rho (up, down):  7.666E-03 0.000E+00

     total cpu time spent up to now is    10925.1 secs

     total energy              =   -8262.71738794 Ry
     estimated scf accuracy    <       0.00000124 Ry

     iteration #  8     ecut=    45.00 Ry     beta= 0.25
     Davidson diagonalization with overlap
     ethr =  1.08E-10,  avg # of iterations =  3.1

     negative rho (up, down):  7.660E-03 0.000E+00

     total cpu time spent up to now is    11044.3 secs

     End of self-consistent calculation

          k = 0.0000 0.0000 0.0000 (165739 PWs)   bands (ev):

   -46.5350 -46.5175 -46.5175 -46.5175 -46.5175 -46.5082 -46.5082 -46.5082
   -46.5082 -46.4915 -46.4915 -46.4915 -46.4915 -46.4840 -46.4840 -46.4840
   -46.4840 -46.4681 -46.3766 -46.3579 -46.3578 -46.3577 -46.3576 -46.3477
   -46.3475 -46.3474 -46.3474 -46.3301 -46.3300 -46.3298 -46.3298 -46.3227
   -46.3226 -46.3225 -46.3224 -46.3063 -46.2030 -46.1829 -46.1829 -46.1829
   -46.1829 -46.1715 -46.1715 -46.1714 -46.1714 -46.1521 -46.1521 -46.1521
   -46.1521 -46.1448 -46.1447 -46.1447 -46.1447 -46.1275 -46.1010 -46.0911
   -46.0911 -46.0910 -46.0908 -46.0880 -46.0879 -46.0878 -46.0876 -46.0760
   -46.0759 -46.0758 -46.0756 -46.0665 -46.0665 -46.0664 -46.0663 -46.0510
   -25.4059 -25.4025 -25.4025 -25.4025 -25.4025 -25.3919 -25.3919 -25.3919
   -25.3919 -25.3877 -25.3877 -25.3877 -25.3877 -25.3492 -25.3492 -25.3492
   -25.3492 -25.3458 -25.3458 -25.3458 -25.3458 -25.2992 -25.2990 -25.2990
   -25.2990 -25.2990 -25.2822 -25.2821 -25.2821 -25.2821 -25.2744 -25.2744
   -25.2743 -25.2743 -25.2731 -25.2628 -25.2628 -25.2564 -25.2564 -25.2563
   -25.2562 -25.2236 -25.2236 -25.2235 -25.2235 -25.2213 -25.2213 -25.2213
   -25.2212 -25.2067 -25.2066 -25.2066 -25.2066 -25.1885 -25.1885 -25.1884
   -25.1884 -25.1740 -25.1740 -25.1740 -25.1740 -25.1480 -25.1478 -25.1478
   -25.1084 -25.1084 -25.1083 -25.1083 -25.0831 -25.0831 -25.0831 -25.0831
   -25.0827 -25.0826 -25.0826 -25.0826 -25.0698 -25.0698 -25.0697 -25.0697
   -25.0405 -25.0404 -25.0404 -25.0404 -25.0195 -25.0194 -25.0194 -25.0194
   -25.0156 -25.0156 -25.0110 -25.0110 -25.0110 -25.0110 -25.0034 -25.0033
   -25.0033 -25.0032 -24.9998 -24.9998 -24.9998 -24.9998 -24.9750 -24.9750
   -24.9750 -24.9750 -24.9700 -24.9671 -24.9671 -24.9671 -24.9670 -24.9668
   -24.9668 -24.9476 -24.9476 -24.9476 -24.9476 -24.9212 -24.9212 -24.9212
   -24.9212 -24.9127 -24.9127 -24.9126 -24.9126 -24.8806 -24.8805 -24.8805
   -24.8805 -24.8792 -24.8792 -24.8791 -24.8791 -24.8534 -24.8534 -24.8451
   -24.8401 -24.8401 -24.8401 -24.8400 -24.8344 -24.8344 -24.8344 -24.8344
   -24.8341 -24.8341 -24.8085 -24.8085 -24.8085 -24.8084 -24.7947 -24.7946
   -24.7946 -24.7945 -24.7772 -24.7771 -24.7771 -24.7771 -24.7738 -24.7656
   -24.7655 -24.7655 -24.7655 -24.7567 -24.7567 -24.7566 -24.7566 -24.7486
   -24.7486 -24.7486 -24.7485 -24.7370 -24.7370 -24.7369 -24.7369 -24.7369
   -24.7369 -24.7052 -24.7052 -24.7051 -24.7050 -24.6981 -24.6980 -24.6980
   -24.6978 -24.6948 -24.6948 -24.6948 -24.6948 -24.6897 -24.6883 -24.6882
   -24.6882 -24.6882 -24.6879 -24.6879 -24.6878 -24.6878 -24.6756 -24.6756
   -24.6755 -24.6755 -24.6633 -24.6633 -24.6632 -24.6631 -24.6407 -24.6406
   -24.6406 -24.6405 -24.6151 -24.6151 -24.6093 -24.6093 -24.6092 -24.6092
   -11.8989 -11.3926 -11.3925 -11.3925 -11.3925 -11.3122 -10.9892 -10.9742
   -10.9367 -10.9366 -10.9366 -10.9366 -10.8987 -10.8986 -10.8986 -10.8985
   -10.8971 -10.8970 -10.8970 -10.8970 -10.8816 -10.7829 -10.7238 -10.7237
   -10.7237 -10.7237 -10.5739 -10.5738 -10.5738 -10.5737 -10.5607 -10.5607
   -10.5607 -10.5607 -10.5593 -10.5593 -10.5593 -10.5592 -10.5082 -10.5081
   -10.5081 -10.5081 -10.4094 -10.3910 -10.3910 -10.3910 -10.3910 -10.3500
   -10.2422 -10.2422 -10.2422 -10.2422 -10.1638 -10.1637 -10.1637 -10.1637
   -10.1635 -10.1635 -10.1634 -10.1634 -10.0475 -10.0475 -10.0475 -10.0474
    -9.9981  -9.9981  -9.9981  -9.9981  -9.9362  -9.9361  -9.9360  -9.9360
    -2.3461  -2.3461  -2.3461  -2.3460  -2.3298  -2.3298  -2.3297  -2.3297
    -2.1946  -2.1946  -2.1946  -2.1945  -2.1413  -2.1412  -2.1412  -2.1412
    -1.7228  -1.7227  -1.7227  -1.7226  -1.6626  -1.6625  -1.6625  -1.6625
    -1.6265  -1.6264  -1.6263  -1.6263  -1.6258  -1.6257  -1.6257  -1.6256
    -1.5256  -1.5256  -1.5255  -1.5255  -1.4175  -1.4175  -1.4175  -1.4175
    -1.3422  -1.3054  -1.3054  -1.3054  -1.3053  -1.2001  -1.2001  -1.2001
    -1.2000  -1.1948  -1.1947  -1.1947  -1.1947  -1.0096  -1.0096  -0.9489
    -0.8962  -0.8962  -0.8961  -0.8961  -0.6585  -0.6585  -0.6421  -0.6421
    -0.6421  -0.6420  -0.6411  -0.6410  -0.6410  -0.6410  -0.6066  -0.6066
    -0.6066  -0.6065  -0.5935  -0.5935  -0.5935  -0.5935  -0.5344  -0.5344
    -0.5343  -0.5343  -0.4658  -0.4658  -0.4658  -0.4658  -0.4463  -0.4462
    -0.4462  -0.4461  -0.4127  -0.4127  -0.4127  -0.4127  -0.4037  -0.4036
    -0.4036  -0.4035  -0.3767  -0.3766  -0.3766  -0.3766  -0.3072  -0.3072
    -0.3072  -0.3072  -0.2563  -0.2563  -0.2563  -0.2563  -0.2357  -0.2356
    -0.2356  -0.2355  -0.2040  -0.1934  -0.1933  -0.1933  -0.1933  -0.1808
    -0.1600  -0.1600  -0.1600  -0.1600  -0.1513  -0.1513  -0.1512  -0.1512
    -0.1050  -0.0970  -0.0970  -0.0970  -0.0970  -0.0497  -0.0497  -0.0496
    -0.0495  -0.0480  -0.0479  -0.0479  -0.0479  -0.0377  -0.0376  -0.0376
    -0.0376   0.0517   0.0517   0.1101   0.1101   0.1101   0.1101   0.1164
     0.1164   0.1164   0.1164   0.1230   0.1230   0.1230   0.1231   0.1559
     0.1559   0.1559   0.1560   0.1630   0.1630   0.1630   0.1630   0.1779
     0.1779   0.1780   0.1780   0.2108   0.2109   0.2109   0.2109   0.3032
     0.3032   0.3032   0.3033   0.3814   0.3815   0.3815   0.3815   0.7279
     0.7280   0.7280   0.7281   0.7595   0.7631   0.7632   0.7632   0.7632
     0.7993   0.7993   0.8083   0.8083   0.8084   0.8084   0.8254   0.8254
     0.8255   0.8255   0.9950   0.9950   1.1714   1.2015   1.2015   1.2287
     1.2288   1.2288   1.2288   1.2472   1.7616   1.7616   2.0291   2.0291
     2.0997   2.6762   2.6762   2.6804   3.0940   3.0940   3.0942   3.0942
     3.4929   3.8950   4.1094   4.1094   4.1095   4.1095   4.1795   4.1841
     4.1841   4.3858   4.3858   4.3859   4.3859   4.4136   4.4137   4.4137
     4.4138   4.4156   4.4156   4.4157   4.4157   4.4304   4.5021   4.5022
     4.5022   4.5022   4.5357   4.5357   4.5358   4.5358   4.5612   4.5613
     4.5613   4.5614   4.6897   4.6897   4.6898   4.6898   4.7311   4.7311
     4.7311   4.7311   4.7937   4.7938   4.7940   4.7941   4.8528   4.8528
     4.8871   4.8873   4.8873   4.8874   5.1468   5.2359   5.2360   5.2361
     5.2362   5.2425   5.2425   5.2425   5.2425   5.3027   5.3027   5.3027
     5.3028   5.3331   5.3332   5.3332   5.3333   5.4426   5.4426   5.4427
     5.4427   5.4475   5.4476   5.4476   5.4476   5.4608   5.4608   5.4608
     5.4609   5.5501   5.5502   5.5502   5.5502   5.6616   5.6617   5.6618
     5.6618   5.7197   5.7815   5.7878   5.7878   5.8207   5.8207   5.8208
     5.8208   5.8675   5.8675   5.8800   5.8801   5.8803   5.8803   5.9268
     5.9512   5.9616   5.9811

          k = 0.0000 0.2500 0.0000 (165664 PWs)   bands (ev):

   -46.5338 -46.5247 -46.5168 -46.5168 -46.5120 -46.5120 -46.5092 -46.5040
   -46.5040 -46.4953 -46.4953 -46.4919 -46.4883 -46.4883 -46.4845 -46.4845
   -46.4774 -46.4692 -46.3753 -46.3655 -46.3571 -46.3570 -46.3517 -46.3516
   -46.3489 -46.3430 -46.3429 -46.3339 -46.3338 -46.3307 -46.3268 -46.3267
   -46.3231 -46.3230 -46.3157 -46.3074 -46.2016 -46.1912 -46.1821 -46.1821
   -46.1761 -46.1761 -46.1734 -46.1663 -46.1663 -46.1562 -46.1562 -46.1536
   -46.1489 -46.1489 -46.1452 -46.1452 -46.1374 -46.1286 -46.1004 -46.0953
   -46.0909 -46.0908 -46.0894 -46.0893 -46.0857 -46.0857 -46.0856 -46.0796
   -46.0795 -46.0730 -46.0722 -46.0721 -46.0672 -46.0671 -46.0603 -46.0522
   -25.4073 -25.4073 -25.4045 -25.4030 -25.4030 -25.3965 -25.3965 -25.3948
   -25.3886 -25.3886 -25.3794 -25.3768 -25.3767 -25.3587 -25.3587 -25.3586
   -25.3500 -25.3500 -25.3323 -25.3323 -25.3318 -25.3259 -25.3259 -25.3051
   -25.2917 -25.2917 -25.2854 -25.2853 -25.2724 -25.2724 -25.2720 -25.2645
   -25.2645 -25.2634 -25.2581 -25.2580 -25.2577 -25.2572 -25.2498 -25.2498
   -25.2486 -25.2457 -25.2457 -25.2329 -25.2301 -25.2301 -25.2301 -25.2248
   -25.2248 -25.2192 -25.2066 -25.2066 -25.2034 -25.1993 -25.1993 -25.1875
   -25.1667 -25.1527 -25.1521 -25.1521 -25.1425 -25.1406 -25.1406 -25.1390
   -25.1302 -25.1300 -25.1300 -25.1229 -25.1229 -25.1022 -25.0959 -25.0934
   -25.0934 -25.0760 -25.0736 -25.0736 -25.0730 -25.0728 -25.0392 -25.0392
   -25.0361 -25.0361 -25.0354 -25.0354 -25.0325 -25.0319 -25.0280 -25.0223
   -25.0223 -25.0184 -25.0111 -25.0111 -25.0110 -25.0099 -25.0025 -25.0025
   -24.9988 -24.9987 -24.9983 -24.9983 -24.9982 -24.9932 -24.9825 -24.9824
   -24.9770 -24.9770 -24.9759 -24.9719 -24.9692 -24.9510 -24.9510 -24.9510
   -24.9506 -24.9493 -24.9492 -24.9394 -24.9394 -24.9293 -24.9293 -24.9198
   -24.9198 -24.9153 -24.9152 -24.9151 -24.9144 -24.8835 -24.8835 -24.8801
   -24.8799 -24.8759 -24.8759 -24.8743 -24.8661 -24.8661 -24.8659 -24.8563
   -24.8527 -24.8494 -24.8494 -24.8494 -24.8424 -24.8394 -24.8356 -24.8275
   -24.8190 -24.8118 -24.8113 -24.8112 -24.7970 -24.7970 -24.7952 -24.7952
   -24.7859 -24.7858 -24.7792 -24.7790 -24.7780 -24.7780 -24.7769 -24.7769
   -24.7679 -24.7661 -24.7557 -24.7545 -24.7545 -24.7499 -24.7499 -24.7487
   -24.7487 -24.7458 -24.7458 -24.7420 -24.7420 -24.7419 -24.7369 -24.7298
   -24.7212 -24.7212 -24.7203 -24.7203 -24.7101 -24.7101 -24.7080 -24.7080
   -24.7051 -24.7051 -24.7046 -24.7045 -24.7028 -24.7028 -24.6949 -24.6948
   -24.6888 -24.6887 -24.6815 -24.6759 -24.6693 -24.6692 -24.6681 -24.6568
   -24.6568 -24.6557 -24.6556 -24.6545 -24.6545 -24.6506 -24.6475 -24.6417
   -24.6417 -24.6413 -24.6217 -24.6192 -24.6151 -24.6151 -24.6144 -24.6144
   -11.8607 -11.5868 -11.3576 -11.3576 -11.2791 -11.2000 -11.1095 -11.1094
   -11.0497 -10.9728 -10.9545 -10.9379 -10.9053 -10.8700 -10.8699 -10.8695
   -10.8695 -10.8521 -10.8067 -10.7708 -10.7708 -10.7671 -10.7519 -10.7063
   -10.7063 -10.6835 -10.6834 -10.6770 -10.6770 -10.6755 -10.6466 -10.6048
   -10.6048 -10.5746 -10.5745 -10.5355 -10.4806 -10.4806 -10.4767 -10.4767
   -10.4711 -10.4711 -10.3916 -10.3792 -10.3629 -10.3629 -10.3320 -10.2901
   -10.2901 -10.2862 -10.2608 -10.2368 -10.2199 -10.2199 -10.2195 -10.1704
   -10.1704 -10.1427 -10.1427 -10.1412 -10.0756 -10.0756 -10.0503 -10.0503
   -10.0097 -10.0097  -9.9580  -9.9580  -9.9450  -9.9450  -9.8889  -9.8888
    -2.4853  -2.4853  -2.4663  -2.4663  -2.4011  -2.4011  -2.3650  -2.3650
    -2.1322  -2.1322  -2.1102  -2.1102  -1.9433  -1.9432  -1.8564  -1.8564
    -1.8114  -1.7736  -1.7736  -1.7707  -1.7706  -1.7353  -1.7311  -1.7310
    -1.6917  -1.6917  -1.6598  -1.6596  -1.6596  -1.5733  -1.5732  -1.5300
    -1.5291  -1.5082  -1.5082  -1.4959  -1.4958  -1.4344  -1.4344  -1.4312
    -1.3935  -1.3767  -1.3767  -1.3507  -1.3076  -1.2491  -1.2491  -1.1239
    -1.1062  -1.1061  -1.0895  -1.0047  -0.9990  -0.9908  -0.9907  -0.9651
    -0.9545  -0.9537  -0.9444  -0.9443  -0.8038  -0.8032  -0.6895  -0.6843
    -0.6843  -0.6637  -0.6637  -0.6527  -0.6381  -0.6381  -0.6125  -0.6125
    -0.5965  -0.5688  -0.5591  -0.5591  -0.5375  -0.5375  -0.5326  -0.5325
    -0.5223  -0.5222  -0.5161  -0.5161  -0.5033  -0.5032  -0.4884  -0.4884
    -0.4848  -0.4847  -0.4807  -0.4688  -0.4688  -0.4568  -0.4568  -0.4389
    -0.4378  -0.4378  -0.3726  -0.3725  -0.3554  -0.3427  -0.3427  -0.3422
    -0.3269  -0.3148  -0.3059  -0.3058  -0.3050  -0.2863  -0.2410  -0.2410
    -0.2143  -0.2143  -0.1956  -0.1956  -0.1747  -0.1747  -0.1714  -0.1492
    -0.1492  -0.1413  -0.1413  -0.1408  -0.1212  -0.1159  -0.1114  -0.1114
    -0.0969  -0.0969  -0.0951  -0.0951  -0.0704  -0.0704  -0.0496  -0.0440
    -0.0440  -0.0029  -0.0029   0.0082   0.0178   0.0178   0.0187   0.0187
     0.0284   0.0284   0.0570   0.0690   0.0797   0.0825   0.0825   0.1006
     0.1074   0.1078   0.1081   0.1081   0.1361   0.1362   0.1419   0.1420
     0.1589   0.1589   0.1939   0.1940   0.2343   0.2491   0.2555   0.2556
     0.2603   0.2896   0.3091   0.3091   0.3521   0.3521   0.3711   0.3712
     0.4134   0.4155   0.4155   0.4506   0.4507   0.5367   0.5439   0.5857
     0.6570   0.6584   0.6585   0.6782   0.7035   0.7036   0.7172   0.7293
     0.7312   0.7312   0.7580   0.7580   0.7924   0.7931   0.7968   0.8512
     0.8523   0.8604   0.9580   1.0289   1.0465   1.0521   1.0564   1.0824
     1.0862   1.0862   1.1995   1.4439   1.5737   1.6070   1.7688   1.9105
     2.3998   2.7025   2.8469   2.9128   2.9238   3.2183   3.2184   3.3201
     3.6288   3.6689   3.8217   3.8605   3.9265   4.0319   4.0320   4.0523
     4.1723   4.1724   4.1872   4.2041   4.2587   4.3166   4.3643   4.3789
     4.3789   4.4022   4.4117   4.4117   4.4213   4.4470   4.4470   4.4489
     4.4489   4.5378   4.5378   4.5761   4.6028   4.6028   4.6706   4.6707
     4.6727   4.6877   4.6896   4.6934   4.6935   4.7281   4.7281   4.8040
     4.8371   4.8371   4.8389   4.8479   4.8481   4.8645   4.8645   4.8992
     4.9490   4.9721   4.9721   5.0357   5.0532   5.0535   5.0536   5.0812
     5.1035   5.1035   5.1420   5.1520   5.1521   5.1974   5.2393   5.2393
     5.2409   5.2409   5.2433   5.2434   5.3302   5.3302   5.3654   5.3654
     5.4237   5.4897   5.5089   5.5563   5.5782   5.5782   5.5787   5.5787
     5.5950   5.6475   5.6476   5.6603   5.6603   5.7262   5.7430   5.7430
     5.7462   5.7462   5.7539   5.7577   5.7733   5.7903   5.7903   5.8093
     5.8509   5.8509   5.8549   5.8549   5.8796   5.8806   5.9130   5.9130
     5.9360   5.9361   5.9842

          k = 0.0000-0.5000 0.0000 (165810 PWs)   bands (ev):

   -46.5303 -46.5303 -46.5150 -46.5149 -46.5149 -46.5149 -46.5005 -46.5005
   -46.4996 -46.4996 -46.4995 -46.4995 -46.4860 -46.4860 -46.4860 -46.4859
   -46.4723 -46.4723 -46.3715 -46.3714 -46.3551 -46.3549 -46.3549 -46.3548
   -46.3398 -46.3396 -46.3384 -46.3383 -46.3382 -46.3381 -46.3246 -46.3244
   -46.3244 -46.3244 -46.3106 -46.3105 -46.1976 -46.1976 -46.1798 -46.1798
   -46.1797 -46.1797 -46.1633 -46.1633 -46.1611 -46.1611 -46.1611 -46.1610
   -46.1466 -46.1466 -46.1466 -46.1465 -46.1320 -46.1320 -46.0985 -46.0984
   -46.0904 -46.0903 -46.0903 -46.0902 -46.0831 -46.0830 -46.0828 -46.0827
   -46.0797 -46.0795 -46.0693 -46.0692 -46.0692 -46.0690 -46.0555 -46.0553
   -25.4081 -25.4081 -25.4081 -25.4081 -25.4006 -25.4006 -25.3915 -25.3915
   -25.3915 -25.3915 -25.3699 -25.3698 -25.3614 -25.3613 -25.3613 -25.3613
   -25.3530 -25.3530 -25.3530 -25.3530 -25.3176 -25.3175 -25.2922 -25.2921
   -25.2921 -25.2921 -25.2913 -25.2913 -25.2913 -25.2913 -25.2689 -25.2688
   -25.2633 -25.2632 -25.2632 -25.2631 -25.2449 -25.2449 -25.2434 -25.2433
   -25.2433 -25.2432 -25.2429 -25.2429 -25.2411 -25.2410 -25.2254 -25.2254
   -25.2253 -25.2253 -25.1942 -25.1942 -25.1942 -25.1942 -25.1860 -25.1859
   -25.1657 -25.1656 -25.1656 -25.1655 -25.1647 -25.1647 -25.1270 -25.1269
   -25.1149 -25.1149 -25.1149 -25.1149 -25.1143 -25.1143 -25.1128 -25.1128
   -25.0800 -25.0799 -25.0799 -25.0799 -25.0598 -25.0598 -25.0598 -25.0598
   -25.0581 -25.0580 -25.0347 -25.0347 -25.0245 -25.0245 -25.0224 -25.0224
   -25.0224 -25.0224 -25.0118 -25.0118 -25.0118 -25.0118 -24.9975 -24.9975
   -24.9926 -24.9926 -24.9925 -24.9925 -24.9914 -24.9912 -24.9865 -24.9865
   -24.9712 -24.9712 -24.9712 -24.9712 -24.9556 -24.9555 -24.9510 -24.9509
   -24.9390 -24.9390 -24.9389 -24.9389 -24.9297 -24.9297 -24.9297 -24.9297
   -24.9131 -24.9131 -24.9130 -24.9130 -24.9111 -24.9110 -24.9110 -24.9110
   -24.8786 -24.8786 -24.8758 -24.8757 -24.8656 -24.8656 -24.8552 -24.8551
   -24.8418 -24.8417 -24.8377 -24.8377 -24.8343 -24.8343 -24.8343 -24.8343
   -24.8247 -24.8247 -24.8246 -24.8246 -24.8036 -24.8036 -24.7907 -24.7907
   -24.7907 -24.7907 -24.7857 -24.7857 -24.7656 -24.7656 -24.7656 -24.7655
   -24.7563 -24.7563 -24.7521 -24.7520 -24.7457 -24.7457 -24.7456 -24.7456
   -24.7437 -24.7437 -24.7437 -24.7437 -24.7398 -24.7398 -24.7398 -24.7398
   -24.7354 -24.7352 -24.7273 -24.7273 -24.7272 -24.7272 -24.7201 -24.7200
   -24.7050 -24.7050 -24.7050 -24.7050 -24.7047 -24.7047 -24.7046 -24.7045
   -24.6775 -24.6775 -24.6774 -24.6773 -24.6617 -24.6616 -24.6598 -24.6597
   -24.6487 -24.6487 -24.6486 -24.6486 -24.6376 -24.6375 -24.6316 -24.6316
   -24.6315 -24.6315 -24.6314 -24.6313 -24.6295 -24.6295 -24.6294 -24.6294
   -11.7513 -11.7513 -11.2581 -11.2581 -11.2580 -11.2580 -11.1859 -11.1859
   -11.0408 -11.0408 -10.9386 -10.9386 -10.8931 -10.8931 -10.7927 -10.7927
   -10.7926 -10.7926 -10.7901 -10.7901 -10.7901 -10.7901 -10.7687 -10.7687
   -10.6875 -10.6874 -10.6641 -10.6640 -10.6605 -10.6605 -10.6605 -10.6605
   -10.6430 -10.6430 -10.6430 -10.6429 -10.4406 -10.4405 -10.4405 -10.4404
   -10.4031 -10.4031 -10.4031 -10.4031 -10.3446 -10.3446 -10.2840 -10.2840
   -10.2839 -10.2839 -10.2835 -10.2834 -10.2834 -10.2833 -10.1725 -10.1724
   -10.1586 -10.1586 -10.1586 -10.1586 -10.0862 -10.0861 -10.0861 -10.0861
    -9.9758  -9.9757  -9.9757  -9.9757  -9.8888  -9.8887  -9.8886  -9.8886
    -2.5067  -2.5066  -2.5066  -2.5066  -2.4807  -2.4807  -2.4807  -2.4807
    -1.9164  -1.9163  -1.9163  -1.9163  -1.8721  -1.8721  -1.8721  -1.8720
    -1.7797  -1.7797  -1.7796  -1.7796  -1.7793  -1.7792  -1.7179  -1.7179
    -1.7179  -1.7178  -1.6969  -1.6968  -1.6962  -1.6961  -1.6961  -1.6961
    -1.5770  -1.5770  -1.5770  -1.5769  -1.3779  -1.3778  -1.3702  -1.3702
    -1.3702  -1.3701  -1.2910  -1.2909  -1.2441  -1.2440  -1.1974  -1.1974
    -1.1973  -1.1973  -1.0935  -1.0935  -1.0179  -1.0178  -0.9881  -0.9881
    -0.8032  -0.8032  -0.8032  -0.8031  -0.7705  -0.7704  -0.7704  -0.7704
    -0.7309  -0.7309  -0.6681  -0.6680  -0.6499  -0.6498  -0.6336  -0.6335
    -0.6261  -0.6260  -0.6260  -0.6260  -0.6120  -0.6119  -0.6119  -0.6119
    -0.5426  -0.5426  -0.5426  -0.5426  -0.5368  -0.5367  -0.5367  -0.5367
    -0.4918  -0.4918  -0.4918  -0.4917  -0.4524  -0.4524  -0.4524  -0.4524
    -0.3908  -0.3908  -0.3423  -0.3422  -0.3295  -0.3295  -0.3295  -0.3294
    -0.3080  -0.3080  -0.3080  -0.3080  -0.3018  -0.3018  -0.2692  -0.2691
    -0.2691  -0.2690  -0.2215  -0.2214  -0.2214  -0.2214  -0.1781  -0.1780
    -0.1325  -0.1325  -0.1325  -0.1325  -0.1035  -0.1035  -0.0980  -0.0980
    -0.0980  -0.0979  -0.0922  -0.0922  -0.0922  -0.0921  -0.0230  -0.0230
    -0.0230  -0.0229   0.0470   0.0471   0.0471   0.0471   0.0741   0.0742
     0.0822   0.0823   0.0823   0.0823   0.0989   0.0990   0.0990   0.0990
     0.1077   0.1077   0.1348   0.1348   0.1348   0.1349   0.1390   0.1390
     0.2554   0.2554   0.2555   0.2555   0.3222   0.3223   0.3737   0.3738
     0.4252   0.4254   0.4631   0.4631   0.4631   0.4632   0.4754   0.4755
     0.5058   0.5058   0.5058   0.5059   0.5814   0.5815   0.5815   0.5815
     0.6115   0.6115   0.6116   0.6117   0.6207   0.6207   0.6703   0.6704
     0.6795   0.6795   0.7404   0.7405   0.7516   0.7516   0.7517   0.7517
     0.7920   0.7921   0.8413   0.8414   0.9314   0.9315   1.0983   1.0983
     1.1511   1.1511   1.1839   1.1840   1.3252   1.3253   1.6842   1.6843
     2.7814   2.7816   2.9709   2.9710   3.2695   3.2696   3.4385   3.4386
     3.5570   3.5570   3.5571   3.5572   3.5810   3.5810   4.0229   4.0230
     4.0893   4.0894   4.2642   4.2643   4.3364   4.3364   4.3364   4.3365
     4.3843   4.3843   4.3844   4.3844   4.4520   4.4523   4.4857   4.4857
     4.5274   4.5275   4.5276   4.5276   4.5637   4.5637   4.5638   4.5638
     4.6679   4.6680   4.6723   4.6724   4.7887   4.7887   4.7887   4.7887
     4.8088   4.8088   4.8089   4.8089   4.8646   4.8647   4.8707   4.8707
     4.8707   4.8707   4.9368   4.9368   5.0055   5.0057   5.0057   5.0058
     5.1341   5.1341   5.1341   5.1341   5.2042   5.2043   5.2653   5.2654
     5.2654   5.2654   5.3357   5.3357   5.3358   5.3358   5.3476   5.3476
     5.3774   5.3775   5.4995   5.4996   5.4996   5.4996   5.6565   5.6566
     5.7083   5.7083   5.7224   5.7224   5.7224   5.7224   5.7458   5.7459
     5.7459   5.7459   5.8460   5.8460   5.8460   5.8462   5.8563   5.8564
     5.8896   5.8897   5.8897   5.8897   5.9176   5.9176   5.9196   5.9198
     5.9202   5.9203   5.9307

          k = 0.2500 0.2500 0.0000 (165752 PWs)   bands (ev):

   -46.5326 -46.5238 -46.5238 -46.5172 -46.5088 -46.5088 -46.5061 -46.5061
   -46.5017 -46.4972 -46.4938 -46.4938 -46.4921 -46.4921 -46.4837 -46.4781
   -46.4781 -46.4702 -46.3740 -46.3646 -46.3644 -46.3573 -46.3486 -46.3484
   -46.3454 -46.3452 -46.3404 -46.3357 -46.3325 -46.3324 -46.3310 -46.3308
   -46.3221 -46.3165 -46.3164 -46.3085 -46.2003 -46.1901 -46.1901 -46.1823
   -46.1729 -46.1728 -46.1691 -46.1691 -46.1633 -46.1581 -46.1549 -46.1549
   -46.1537 -46.1537 -46.1439 -46.1382 -46.1381 -46.1297 -46.0998 -46.0950
   -46.0949 -46.0920 -46.0860 -46.0859 -46.0858 -46.0857 -46.0850 -46.0818
   -46.0771 -46.0770 -46.0736 -46.0735 -46.0676 -46.0613 -46.0612 -46.0533
   -25.4156 -25.4140 -25.4033 -25.3968 -25.3968 -25.3955 -25.3947 -25.3947
   -25.3880 -25.3879 -25.3815 -25.3814 -25.3765 -25.3628 -25.3624 -25.3624
   -25.3621 -25.3359 -25.3359 -25.3264 -25.3264 -25.3135 -25.3098 -25.3041
   -25.2992 -25.2909 -25.2909 -25.2722 -25.2722 -25.2712 -25.2679 -25.2678
   -25.2677 -25.2666 -25.2640 -25.2639 -25.2606 -25.2606 -25.2521 -25.2520
   -25.2491 -25.2459 -25.2429 -25.2428 -25.2398 -25.2342 -25.2240 -25.2240
   -25.2115 -25.2114 -25.2014 -25.2006 -25.2006 -25.1867 -25.1861 -25.1861
   -25.1753 -25.1753 -25.1748 -25.1658 -25.1658 -25.1461 -25.1335 -25.1334
   -25.1195 -25.1161 -25.1150 -25.1150 -25.1099 -25.1098 -25.1010 -25.1010
   -25.0857 -25.0751 -25.0693 -25.0693 -25.0674 -25.0673 -25.0666 -25.0666
   -25.0590 -25.0380 -25.0380 -25.0297 -25.0297 -25.0239 -25.0232 -25.0210
   -25.0177 -25.0127 -25.0127 -25.0111 -25.0111 -25.0039 -25.0038 -25.0018
   -25.0015 -25.0015 -24.9985 -24.9929 -24.9929 -24.9914 -24.9743 -24.9743
   -24.9738 -24.9738 -24.9730 -24.9730 -24.9638 -24.9638 -24.9628 -24.9560
   -24.9503 -24.9503 -24.9385 -24.9365 -24.9362 -24.9362 -24.9258 -24.9219
   -24.9150 -24.9150 -24.9147 -24.9147 -24.9099 -24.9060 -24.8864 -24.8864
   -24.8729 -24.8729 -24.8723 -24.8723 -24.8694 -24.8554 -24.8553 -24.8519
   -24.8519 -24.8505 -24.8491 -24.8490 -24.8448 -24.8294 -24.8293 -24.8292
   -24.8260 -24.8186 -24.8110 -24.8110 -24.8076 -24.8075 -24.8037 -24.8037
   -24.7964 -24.7833 -24.7795 -24.7769 -24.7769 -24.7708 -24.7708 -24.7629
   -24.7628 -24.7606 -24.7600 -24.7600 -24.7570 -24.7539 -24.7539 -24.7463
   -24.7431 -24.7431 -24.7424 -24.7407 -24.7407 -24.7345 -24.7336 -24.7320
   -24.7319 -24.7284 -24.7283 -24.7229 -24.7229 -24.7204 -24.7204 -24.7155
   -24.7102 -24.6963 -24.6888 -24.6887 -24.6878 -24.6873 -24.6873 -24.6852
   -24.6851 -24.6823 -24.6823 -24.6817 -24.6796 -24.6795 -24.6772 -24.6704
   -24.6611 -24.6611 -24.6527 -24.6490 -24.6490 -24.6455 -24.6454 -24.6364
   -24.6330 -24.6312 -24.6312 -24.6296 -24.6295 -24.6141 -24.6108 -24.6097
   -11.8226 -11.5505 -11.5504 -11.2916 -11.2464 -11.1667 -11.1666 -11.0192
   -11.0191 -10.9528 -10.9380 -10.9317 -10.9317 -10.9084 -10.9084 -10.8796
   -10.8796 -10.8227 -10.8098 -10.7913 -10.7913 -10.7411 -10.7410 -10.7210
   -10.7142 -10.7056 -10.7055 -10.7005 -10.6555 -10.6554 -10.6205 -10.6183
   -10.6182 -10.5694 -10.5694 -10.5328 -10.5328 -10.5061 -10.5060 -10.4698
   -10.4571 -10.4217 -10.4069 -10.3735 -10.3526 -10.3526 -10.3138 -10.3030
   -10.2657 -10.2657 -10.2343 -10.2343 -10.2128 -10.2128 -10.2001 -10.2000
   -10.1696 -10.1695 -10.1375 -10.1187 -10.1186 -10.0764 -10.0556 -10.0555
   -10.0526 -10.0526  -9.9721  -9.9720  -9.9478  -9.8944  -9.8582  -9.8317
    -2.6397  -2.6236  -2.5950  -2.5693  -2.2606  -2.2605  -2.2325  -2.2325
    -2.1472  -2.1471  -2.0925  -2.0925  -1.9171  -1.9164  -1.8999  -1.8701
    -1.8696  -1.8686  -1.8686  -1.8030  -1.8030  -1.7332  -1.7229  -1.7228
    -1.7227  -1.6065  -1.6065  -1.5909  -1.5909  -1.5767  -1.5689  -1.5689
    -1.5136  -1.5136  -1.4653  -1.4653  -1.4601  -1.4601  -1.3706  -1.3706
    -1.3609  -1.3468  -1.3467  -1.3350  -1.3204  -1.2639  -1.2638  -1.1741
    -1.1741  -1.1055  -1.0934  -1.0440  -1.0439  -1.0261  -1.0261  -1.0057
    -1.0057  -0.9844  -0.9792  -0.9792  -0.8102  -0.7945  -0.7937  -0.7654
    -0.7653  -0.7129  -0.6808  -0.6583  -0.6580  -0.6244  -0.6194  -0.6194
    -0.5872  -0.5872  -0.5838  -0.5769  -0.5768  -0.5593  -0.5593  -0.5576
    -0.5575  -0.5483  -0.5321  -0.5214  -0.5039  -0.5019  -0.4647  -0.4647
    -0.4417  -0.4416  -0.4234  -0.4234  -0.4157  -0.4157  -0.4109  -0.4109
    -0.4032  -0.4031  -0.3868  -0.3868  -0.3648  -0.3648  -0.3314  -0.3313
    -0.3207  -0.3207  -0.3073  -0.3073  -0.2905  -0.2905  -0.2815  -0.2777
    -0.2336  -0.2240  -0.2025  -0.1962  -0.1939  -0.1938  -0.1841  -0.1840
    -0.1834  -0.1720  -0.1703  -0.1420  -0.1396  -0.1395  -0.1143  -0.1088
    -0.1014  -0.1013  -0.0691  -0.0352  -0.0352  -0.0133  -0.0132  -0.0110
    -0.0110   0.0044   0.0301   0.0339   0.0340   0.0707   0.0780   0.0827
     0.0827   0.0991   0.1021   0.1041   0.1098   0.1252   0.1252   0.1470
     0.1532   0.1532   0.1753   0.1754   0.1835   0.1835   0.1947   0.1947
     0.2178   0.2179   0.2230   0.2230   0.2395   0.2395   0.2697   0.2698
     0.3158   0.3158   0.3292   0.3292   0.3619   0.3619   0.4019   0.4682
     0.4682   0.4884   0.5217   0.5218   0.5279   0.5357   0.5357   0.5444
     0.5694   0.6391   0.6489   0.6489   0.6528   0.6638   0.6732   0.6732
     0.7040   0.7076   0.7076   0.7386   0.7386   0.8080   0.8080   0.8314
     0.8353   0.8773   0.8773   0.9247   0.9247   0.9676   0.9676   1.0228
     1.0426   1.1160   1.2903   1.2904   1.3626   1.5503   1.5826   1.7701
     2.5949   2.8676   2.8681   3.0508   3.0508   3.0939   3.4311   3.4311
     3.6964   3.6965   3.8049   3.8234   3.8234   3.9141   3.9205   3.9421
     3.9421   3.9573   4.1061   4.1061   4.1826   4.1826   4.2091   4.2092
     4.2760   4.2797   4.3325   4.4026   4.4028   4.4046   4.4122   4.4248
     4.4362   4.4362   4.5004   4.5005   4.5576   4.6606   4.6606   4.6696
     4.6782   4.6783   4.6974   4.6974   4.7319   4.7319   4.8458   4.8458
     4.8494   4.8495   4.8723   4.8765   4.8766   4.9400   4.9530   4.9599
     4.9600   4.9729   5.0480   5.0680   5.0733   5.0733   5.0942   5.0942
     5.1228   5.1439   5.1441   5.1529   5.1621   5.1622   5.1735   5.2299
     5.2486   5.3467   5.3468   5.3765   5.3766   5.4221   5.4221   5.4486
     5.4486   5.4990   5.4991   5.5276   5.5332   5.5332   5.5367   5.5367
     5.5997   5.6070   5.6070   5.6139   5.6140   5.6513   5.6513   5.6838
     5.6838   5.7302   5.7462   5.7517   5.7517   5.7821   5.7979   5.7979
     5.8195   5.8797   5.8920   5.8967   5.9012   5.9012   5.9019   5.9240
     5.9472   5.9579   6.0037

          k = 0.2500-0.5000 0.0000 (165780 PWs)   bands (ev):

   -46.5292 -46.5292 -46.5212 -46.5212 -46.5078 -46.5077 -46.5004 -46.5004
   -46.4999 -46.4999 -46.4993 -46.4993 -46.4928 -46.4927 -46.4802 -46.4802
   -46.4732 -46.4732 -46.3704 -46.3703 -46.3617 -46.3616 -46.3473 -46.3472
   -46.3397 -46.3395 -46.3389 -46.3386 -46.3380 -46.3378 -46.3315 -46.3314
   -46.3186 -46.3185 -46.3116 -46.3115 -46.1964 -46.1963 -46.1871 -46.1871
   -46.1714 -46.1714 -46.1631 -46.1631 -46.1618 -46.1618 -46.1605 -46.1605
   -46.1541 -46.1541 -46.1403 -46.1403 -46.1329 -46.1329 -46.0980 -46.0979
   -46.0939 -46.0938 -46.0859 -46.0858 -46.0839 -46.0836 -46.0819 -46.0816
   -46.0800 -46.0798 -46.0750 -46.0749 -46.0638 -46.0637 -46.0565 -46.0564
   -25.4184 -25.4184 -25.3998 -25.3998 -25.3948 -25.3948 -25.3945 -25.3945
   -25.3875 -25.3874 -25.3780 -25.3780 -25.3731 -25.3730 -25.3729 -25.3729
   -25.3472 -25.3471 -25.3216 -25.3216 -25.3143 -25.3143 -25.3066 -25.3065
   -25.2910 -25.2910 -25.2834 -25.2834 -25.2727 -25.2727 -25.2685 -25.2684
   -25.2669 -25.2669 -25.2654 -25.2653 -25.2626 -25.2625 -25.2505 -25.2504
   -25.2473 -25.2473 -25.2468 -25.2467 -25.2299 -25.2299 -25.2292 -25.2291
   -25.2158 -25.2158 -25.2037 -25.2037 -25.1931 -25.1930 -25.1896 -25.1896
   -25.1641 -25.1640 -25.1590 -25.1590 -25.1505 -25.1505 -25.1505 -25.1505
   -25.1419 -25.1419 -25.1159 -25.1159 -25.0937 -25.0937 -25.0924 -25.0924
   -25.0777 -25.0777 -25.0761 -25.0761 -25.0707 -25.0707 -25.0595 -25.0595
   -25.0433 -25.0432 -25.0418 -25.0417 -25.0389 -25.0389 -25.0289 -25.0289
   -25.0275 -25.0275 -25.0111 -25.0111 -25.0022 -25.0022 -24.9966 -24.9965
   -24.9896 -24.9896 -24.9852 -24.9852 -24.9841 -24.9840 -24.9833 -24.9833
   -24.9766 -24.9766 -24.9708 -24.9708 -24.9583 -24.9583 -24.9531 -24.9531
   -24.9528 -24.9528 -24.9522 -24.9522 -24.9371 -24.9371 -24.9311 -24.9311
   -24.9120 -24.9120 -24.9054 -24.9054 -24.8932 -24.8931 -24.8902 -24.8902
   -24.8894 -24.8894 -24.8735 -24.8735 -24.8664 -24.8664 -24.8533 -24.8533
   -24.8452 -24.8452 -24.8315 -24.8315 -24.8306 -24.8306 -24.8303 -24.8302
   -24.8262 -24.8262 -24.8130 -24.8130 -24.8117 -24.8117 -24.8109 -24.8109
   -24.7992 -24.7992 -24.7889 -24.7889 -24.7701 -24.7701 -24.7668 -24.7667
   -24.7609 -24.7609 -24.7510 -24.7509 -24.7503 -24.7502 -24.7488 -24.7487
   -24.7424 -24.7424 -24.7388 -24.7387 -24.7381 -24.7381 -24.7333 -24.7333
   -24.7323 -24.7323 -24.7257 -24.7257 -24.7239 -24.7239 -24.7150 -24.7150
   -24.7137 -24.7137 -24.7069 -24.7068 -24.6855 -24.6854 -24.6844 -24.6843
   -24.6809 -24.6808 -24.6720 -24.6719 -24.6676 -24.6675 -24.6629 -24.6628
   -24.6563 -24.6562 -24.6539 -24.6539 -24.6506 -24.6506 -24.6501 -24.6501
   -24.6489 -24.6488 -24.6183 -24.6183 -24.6170 -24.6170 -24.6158 -24.6158
   -11.7139 -11.7139 -11.4469 -11.4468 -11.1539 -11.1539 -11.0720 -11.0720
   -11.0094 -11.0093 -10.9333 -10.9333 -10.9145 -10.9144 -10.8789 -10.8789
   -10.8255 -10.8255 -10.8083 -10.8083 -10.7898 -10.7897 -10.7516 -10.7516
   -10.7398 -10.7397 -10.6690 -10.6690 -10.6644 -10.6643 -10.6338 -10.6337
   -10.6016 -10.6016 -10.5384 -10.5384 -10.5173 -10.5173 -10.5117 -10.5116
   -10.4233 -10.4232 -10.4022 -10.4022 -10.3255 -10.3255 -10.2779 -10.2779
   -10.2648 -10.2647 -10.2580 -10.2579 -10.2101 -10.2101 -10.1605 -10.1604
   -10.1479 -10.1479 -10.1473 -10.1472 -10.1460 -10.1460 -10.0847 -10.0846
   -10.0568 -10.0567  -9.9851  -9.9850  -9.8897  -9.8897  -9.8184  -9.8183
    -2.6808  -2.6807  -2.6618  -2.6618  -2.2655  -2.2654  -2.2278  -2.2277
    -2.0319  -2.0319  -1.9871  -1.9871  -1.9554  -1.9554  -1.8993  -1.8993
    -1.8789  -1.8789  -1.8440  -1.8439  -1.8151  -1.8150  -1.7699  -1.7698
    -1.7007  -1.7007  -1.6584  -1.6584  -1.5540  -1.5539  -1.5294  -1.5294
    -1.4900  -1.4899  -1.4479  -1.4478  -1.3942  -1.3942  -1.3292  -1.3292
    -1.3190  -1.3189  -1.2739  -1.2738  -1.2419  -1.2419  -1.2041  -1.2041
    -1.1997  -1.1996  -1.1401  -1.1401  -1.1144  -1.1144  -1.0505  -1.0504
    -1.0480  -1.0479  -0.9845  -0.9845  -0.9344  -0.9344  -0.8571  -0.8571
    -0.6818  -0.6817  -0.6519  -0.6519  -0.6107  -0.6107  -0.5961  -0.5961
    -0.5453  -0.5452  -0.5422  -0.5421  -0.5404  -0.5403  -0.5391  -0.5390
    -0.5320  -0.5320  -0.5254  -0.5253  -0.5117  -0.5117  -0.5109  -0.5108
    -0.4818  -0.4817  -0.4779  -0.4779  -0.4486  -0.4486  -0.4462  -0.4461
    -0.4128  -0.4128  -0.3905  -0.3904  -0.3701  -0.3701  -0.3700  -0.3700
    -0.3615  -0.3615  -0.3433  -0.3433  -0.3322  -0.3321  -0.2818  -0.2818
    -0.2320  -0.2320  -0.2152  -0.2151  -0.2065  -0.2065  -0.1793  -0.1793
    -0.1515  -0.1515  -0.1502  -0.1502  -0.1106  -0.1106  -0.0748  -0.0748
    -0.0122  -0.0122  -0.0061  -0.0061   0.0109   0.0109   0.0115   0.0115
     0.0437   0.0437   0.0635   0.0636   0.0869   0.0870   0.0909   0.0909
     0.1086   0.1087   0.1208   0.1209   0.1473   0.1473   0.1601   0.1601
     0.1656   0.1657   0.1685   0.1685   0.1928   0.1928   0.1934   0.1934
     0.3069   0.3070   0.3104   0.3104   0.3144   0.3145   0.3520   0.3520
     0.3537   0.3537   0.3640   0.3640   0.4632   0.4633   0.5102   0.5103
     0.5196   0.5196   0.5340   0.5340   0.5451   0.5452   0.5538   0.5538
     0.5706   0.5706   0.6074   0.6075   0.6362   0.6363   0.6483   0.6484
     0.6836   0.6836   0.6980   0.6981   0.7473   0.7473   0.7901   0.7902
     0.8096   0.8096   0.8423   0.8423   0.9505   0.9506   1.0060   1.0060
     1.0381   1.0382   1.0738   1.0738   1.2748   1.2748   1.5254   1.5254
     2.9340   2.9341   3.0784   3.0785   3.2815   3.2815   3.4171   3.4172
     3.5318   3.5319   3.6783   3.6783   3.7399   3.7399   3.8480   3.8480
     3.9273   3.9274   4.0508   4.0510   4.1682   4.1683   4.1722   4.1722
     4.2815   4.2816   4.3053   4.3053   4.3359   4.3360   4.3514   4.3514
     4.4139   4.4141   4.4488   4.4490   4.5018   4.5018   4.6445   4.6446
     4.7292   4.7293   4.7354   4.7355   4.7533   4.7534   4.7853   4.7854
     4.8304   4.8304   4.8368   4.8368   4.8863   4.8863   4.9488   4.9489
     4.9823   4.9823   5.0472   5.0472   5.1106   5.1107   5.1329   5.1329
     5.1784   5.1785   5.1817   5.1817   5.2256   5.2257   5.2843   5.2843
     5.3043   5.3044   5.3311   5.3312   5.3997   5.3997   5.4036   5.4037
     5.4852   5.4853   5.4869   5.4870   5.4898   5.4899   5.5350   5.5350
     5.6168   5.6168   5.6624   5.6624   5.6730   5.6731   5.7290   5.7290
     5.8057   5.8057   5.8175   5.8176   5.8558   5.8559   5.8610   5.8610
     5.8835   5.8835   5.9342   5.9342   5.9347   5.9348   5.9427   5.9427
     5.9622   5.9622   6.0000

          k =-0.5000-0.5000 0.0000 (165708 PWs)   bands (ev):

   -46.5261 -46.5261 -46.5261 -46.5261 -46.5002 -46.5002 -46.5002 -46.5002
   -46.5002 -46.5002 -46.5002 -46.5001 -46.4993 -46.4992 -46.4759 -46.4759
   -46.4759 -46.4759 -46.3671 -46.3670 -46.3669 -46.3669 -46.3396 -46.3394
   -46.3392 -46.3392 -46.3392 -46.3391 -46.3391 -46.3390 -46.3378 -46.3376
   -46.3143 -46.3142 -46.3142 -46.3141 -46.1928 -46.1928 -46.1928 -46.1927
   -46.1626 -46.1626 -46.1626 -46.1626 -46.1626 -46.1626 -46.1626 -46.1626
   -46.1603 -46.1602 -46.1358 -46.1357 -46.1357 -46.1357 -46.0965 -46.0964
   -46.0964 -46.0963 -46.0842 -46.0839 -46.0809 -46.0809 -46.0808 -46.0807
   -46.0807 -46.0807 -46.0805 -46.0803 -46.0594 -46.0593 -46.0593 -46.0592
   -25.4222 -25.4222 -25.3977 -25.3977 -25.3977 -25.3977 -25.3866 -25.3866
   -25.3816 -25.3816 -25.3816 -25.3816 -25.3816 -25.3816 -25.3816 -25.3816
   -25.3326 -25.3326 -25.3326 -25.3326 -25.3120 -25.3119 -25.2828 -25.2828
   -25.2828 -25.2828 -25.2695 -25.2694 -25.2694 -25.2694 -25.2694 -25.2694
   -25.2693 -25.2693 -25.2674 -25.2673 -25.2672 -25.2672 -25.2547 -25.2547
   -25.2496 -25.2495 -25.2495 -25.2495 -25.2495 -25.2494 -25.2494 -25.2494
   -25.2105 -25.2104 -25.2103 -25.2103 -25.1844 -25.1844 -25.1844 -25.1843
   -25.1558 -25.1558 -25.1558 -25.1557 -25.1428 -25.1428 -25.1427 -25.1427
   -25.1427 -25.1427 -25.1427 -25.1426 -25.1036 -25.1036 -25.1036 -25.1036
   -25.0743 -25.0743 -25.0681 -25.0681 -25.0681 -25.0681 -25.0394 -25.0394
   -25.0394 -25.0394 -25.0394 -25.0394 -25.0394 -25.0394 -25.0311 -25.0311
   -25.0311 -25.0310 -24.9994 -24.9993 -24.9993 -24.9993 -24.9979 -24.9978
   -24.9947 -24.9947 -24.9947 -24.9947 -24.9947 -24.9947 -24.9947 -24.9947
   -24.9620 -24.9620 -24.9620 -24.9620 -24.9556 -24.9555 -24.9555 -24.9555
   -24.9555 -24.9555 -24.9555 -24.9554 -24.9517 -24.9517 -24.9517 -24.9517
   -24.9058 -24.9058 -24.8832 -24.8832 -24.8832 -24.8831 -24.8678 -24.8678
   -24.8678 -24.8678 -24.8677 -24.8677 -24.8676 -24.8676 -24.8664 -24.8663
   -24.8663 -24.8663 -24.8537 -24.8537 -24.8536 -24.8536 -24.8155 -24.8155
   -24.8155 -24.8154 -24.8140 -24.8140 -24.8139 -24.8139 -24.7873 -24.7873
   -24.7873 -24.7872 -24.7855 -24.7855 -24.7855 -24.7855 -24.7855 -24.7855
   -24.7855 -24.7855 -24.7577 -24.7577 -24.7427 -24.7427 -24.7401 -24.7401
   -24.7400 -24.7400 -24.7400 -24.7400 -24.7400 -24.7399 -24.7393 -24.7392
   -24.7392 -24.7391 -24.7241 -24.7241 -24.7241 -24.7240 -24.6922 -24.6922
   -24.6921 -24.6921 -24.6846 -24.6844 -24.6816 -24.6816 -24.6815 -24.6815
   -24.6815 -24.6815 -24.6814 -24.6814 -24.6763 -24.6763 -24.6664 -24.6664
   -24.6663 -24.6663 -24.6663 -24.6662 -24.6662 -24.6661 -24.6518 -24.6518
   -24.6518 -24.6518 -24.6120 -24.6120 -24.6119 -24.6119 -24.6118 -24.6118
   -11.6072 -11.6072 -11.6071 -11.6071 -11.0640 -11.0640 -11.0639 -11.0639
   -10.9204 -10.9204 -10.9204 -10.9203 -10.9203 -10.9203 -10.9203 -10.9202
   -10.8527 -10.8527 -10.8526 -10.8525 -10.8383 -10.8383 -10.8383 -10.8383
   -10.6581 -10.6581 -10.6580 -10.6580 -10.6015 -10.6014 -10.6014 -10.6014
   -10.6014 -10.6014 -10.6013 -10.6013 -10.5483 -10.5482 -10.5481 -10.5481
   -10.4315 -10.4313 -10.4190 -10.4189 -10.2746 -10.2746 -10.2746 -10.2746
   -10.2145 -10.2143 -10.2143 -10.2143 -10.1867 -10.1867 -10.1867 -10.1866
   -10.1866 -10.1866 -10.1866 -10.1866 -10.0801 -10.0800 -10.0799 -10.0799
   -10.0799 -10.0799 -10.0798 -10.0798  -9.8562  -9.8561  -9.7932  -9.7931
    -2.7438  -2.7437  -2.7276  -2.7276  -2.0221  -2.0221  -2.0221  -2.0221
    -2.0220  -2.0220  -2.0220  -2.0220  -2.0106  -2.0106  -1.9666  -1.9666
    -1.9665  -1.9665  -1.9665  -1.9665  -1.9665  -1.9664  -1.9609  -1.9608
    -1.4483  -1.4483  -1.4482  -1.4482  -1.4471  -1.4471  -1.4470  -1.4470
    -1.4273  -1.4273  -1.4273  -1.4273  -1.3639  -1.3639  -1.3638  -1.3638
    -1.3638  -1.3638  -1.3637  -1.3637  -1.2132  -1.2131  -1.2131  -1.2131
    -1.2130  -1.2130  -1.2130  -1.2130  -1.1465  -1.1464  -1.1464  -1.1464
    -1.0533  -1.0533  -1.0532  -1.0532  -1.0401  -1.0401  -1.0401  -1.0401
    -0.7083  -0.7082  -0.6817  -0.6817  -0.5950  -0.5950  -0.5755  -0.5754
    -0.5394  -0.5394  -0.5394  -0.5394  -0.5394  -0.5394  -0.5393  -0.5393
    -0.4857  -0.4857  -0.4856  -0.4856  -0.4856  -0.4856  -0.4856  -0.4855
    -0.4045  -0.4045  -0.4044  -0.4044  -0.4044  -0.4043  -0.4043  -0.4043
    -0.3952  -0.3952  -0.3951  -0.3951  -0.3910  -0.3909  -0.3909  -0.3909
    -0.3368  -0.3367  -0.3367  -0.3366  -0.3123  -0.3123  -0.3123  -0.3123
    -0.3122  -0.3122  -0.3122  -0.3122  -0.2668  -0.2668  -0.2140  -0.2140
    -0.1679  -0.1679  -0.1679  -0.1678  -0.1333  -0.1333  -0.0323  -0.0322
     0.0218   0.0219   0.0219   0.0219   0.0253   0.0253   0.0254   0.0254
     0.0698   0.0698   0.0698   0.0698   0.0699   0.0699   0.0699   0.0699
     0.1678   0.1678   0.1678   0.1679   0.1679   0.1679   0.1679   0.1680
     0.2869   0.2869   0.2869   0.2869   0.3212   0.3213   0.3213   0.3213
     0.3598   0.3598   0.3598   0.3598   0.3932   0.3932   0.3932   0.3932
     0.4493   0.4493   0.4493   0.4494   0.5004   0.5004   0.5005   0.5005
     0.5005   0.5005   0.5006   0.5007   0.5152   0.5152   0.5152   0.5153
     0.5153   0.5153   0.5153   0.5153   0.5962   0.5963   0.5963   0.5964
     0.7174   0.7175   0.7175   0.7175   0.7411   0.7411   0.7411   0.7411
     0.8181   0.8182   0.8182   0.8182   0.8501   0.8502   0.8502   0.8503
     1.0685   1.0685   1.0685   1.0686   1.2136   1.2136   1.2137   1.2137
     3.3259   3.3259   3.3260   3.3260   3.3264   3.3265   3.3265   3.3265
     3.4119   3.4120   3.4120   3.4121   3.8314   3.8314   3.8314   3.8315
     3.9527   3.9528   3.9529   3.9529   3.9529   3.9530   3.9530   3.9531
     4.1381   4.1382   4.1382   4.1382   4.3963   4.3966   4.3966   4.3967
     4.4341   4.4341   4.4342   4.4342   4.5454   4.5455   4.5455   4.5455
     4.5583   4.5583   4.5584   4.5584   4.8666   4.8666   4.8667   4.8667
     4.8667   4.8667   4.8667   4.8667   4.9455   4.9457   4.9457   4.9457
     4.9751   4.9752   4.9752   4.9752   5.1790   5.1790   5.1791   5.1791
     5.2415   5.2416   5.2416   5.2416   5.2417   5.2417   5.2417   5.2417
     5.2443   5.2443   5.3688   5.3688   5.4818   5.4822   5.4822   5.4823
     5.4824   5.4824   5.4825   5.4825   5.5525   5.5525   5.5526   5.5526
     5.7730   5.7730   5.7730   5.7730   5.8077   5.8077   5.8077   5.8077
     5.8146   5.8146   5.8146   5.8146   5.8146   5.8147   5.8147   5.8147
     5.9565   5.9565   5.9566   5.9566   5.9566   5.9566   5.9566   5.9566
     5.9904   5.9942   6.0772

          k = 0.2500 0.0000 0.0000 (165664 PWs)   bands (ev):

   -46.5338 -46.5247 -46.5168 -46.5168 -46.5120 -46.5120 -46.5092 -46.5040
   -46.5040 -46.4953 -46.4953 -46.4919 -46.4883 -46.4883 -46.4845 -46.4845
   -46.4774 -46.4692 -46.3753 -46.3655 -46.3571 -46.3569 -46.3517 -46.3515
   -46.3489 -46.3430 -46.3428 -46.3339 -46.3337 -46.3307 -46.3269 -46.3267
   -46.3231 -46.3229 -46.3157 -46.3074 -46.2016 -46.1912 -46.1821 -46.1821
   -46.1761 -46.1761 -46.1734 -46.1663 -46.1663 -46.1562 -46.1562 -46.1536
   -46.1489 -46.1488 -46.1452 -46.1452 -46.1374 -46.1286 -46.1004 -46.0953
   -46.0909 -46.0907 -46.0894 -46.0892 -46.0858 -46.0857 -46.0855 -46.0796
   -46.0794 -46.0730 -46.0723 -46.0721 -46.0672 -46.0670 -46.0603 -46.0522
   -25.4073 -25.4073 -25.4045 -25.4030 -25.4030 -25.3965 -25.3965 -25.3948
   -25.3886 -25.3886 -25.3794 -25.3768 -25.3767 -25.3587 -25.3587 -25.3586
   -25.3500 -25.3500 -25.3323 -25.3323 -25.3318 -25.3259 -25.3259 -25.3051
   -25.2917 -25.2917 -25.2854 -25.2853 -25.2724 -25.2723 -25.2720 -25.2645
   -25.2645 -25.2634 -25.2581 -25.2580 -25.2577 -25.2572 -25.2498 -25.2498
   -25.2486 -25.2457 -25.2457 -25.2329 -25.2301 -25.2301 -25.2301 -25.2249
   -25.2248 -25.2192 -25.2066 -25.2066 -25.2034 -25.1993 -25.1993 -25.1875
   -25.1667 -25.1527 -25.1521 -25.1521 -25.1425 -25.1406 -25.1406 -25.1390
   -25.1302 -25.1300 -25.1300 -25.1229 -25.1229 -25.1022 -25.0959 -25.0934
   -25.0934 -25.0760 -25.0736 -25.0736 -25.0730 -25.0728 -25.0392 -25.0392
   -25.0361 -25.0361 -25.0354 -25.0353 -25.0325 -25.0319 -25.0280 -25.0223
   -25.0223 -25.0184 -25.0111 -25.0111 -25.0110 -25.0099 -25.0025 -25.0025
   -24.9988 -24.9987 -24.9984 -24.9983 -24.9982 -24.9932 -24.9825 -24.9824
   -24.9770 -24.9770 -24.9759 -24.9719 -24.9692 -24.9510 -24.9510 -24.9510
   -24.9506 -24.9493 -24.9492 -24.9394 -24.9393 -24.9293 -24.9293 -24.9198
   -24.9198 -24.9153 -24.9152 -24.9151 -24.9144 -24.8835 -24.8835 -24.8801
   -24.8799 -24.8759 -24.8759 -24.8743 -24.8661 -24.8661 -24.8659 -24.8563
   -24.8527 -24.8495 -24.8494 -24.8494 -24.8424 -24.8394 -24.8356 -24.8275
   -24.8190 -24.8118 -24.8113 -24.8112 -24.7970 -24.7970 -24.7952 -24.7952
   -24.7859 -24.7858 -24.7792 -24.7790 -24.7780 -24.7780 -24.7769 -24.7769
   -24.7679 -24.7661 -24.7557 -24.7545 -24.7544 -24.7499 -24.7499 -24.7487
   -24.7487 -24.7458 -24.7458 -24.7420 -24.7420 -24.7419 -24.7369 -24.7298
   -24.7212 -24.7211 -24.7203 -24.7202 -24.7101 -24.7101 -24.7080 -24.7080
   -24.7052 -24.7050 -24.7046 -24.7045 -24.7029 -24.7027 -24.6949 -24.6948
   -24.6888 -24.6886 -24.6815 -24.6759 -24.6693 -24.6692 -24.6681 -24.6568
   -24.6568 -24.6557 -24.6556 -24.6545 -24.6545 -24.6506 -24.6475 -24.6418
   -24.6417 -24.6413 -24.6217 -24.6192 -24.6151 -24.6151 -24.6144 -24.6144
   -11.8607 -11.5868 -11.3576 -11.3576 -11.2791 -11.2000 -11.1095 -11.1094
   -11.0497 -10.9728 -10.9545 -10.9379 -10.9053 -10.8700 -10.8700 -10.8695
   -10.8695 -10.8521 -10.8067 -10.7708 -10.7708 -10.7671 -10.7519 -10.7063
   -10.7063 -10.6835 -10.6834 -10.6770 -10.6770 -10.6755 -10.6466 -10.6048
   -10.6048 -10.5746 -10.5745 -10.5355 -10.4806 -10.4806 -10.4767 -10.4767
   -10.4711 -10.4711 -10.3916 -10.3792 -10.3629 -10.3629 -10.3320 -10.2901
   -10.2901 -10.2862 -10.2608 -10.2368 -10.2199 -10.2199 -10.2195 -10.1705
   -10.1704 -10.1428 -10.1427 -10.1412 -10.0756 -10.0756 -10.0503 -10.0503
   -10.0097 -10.0096  -9.9580  -9.9580  -9.9450  -9.9450  -9.8889  -9.8888
    -2.4854  -2.4853  -2.4663  -2.4663  -2.4011  -2.4011  -2.3650  -2.3649
    -2.1323  -2.1322  -2.1103  -2.1102  -1.9433  -1.9432  -1.8564  -1.8563
    -1.8114  -1.7736  -1.7736  -1.7707  -1.7706  -1.7353  -1.7311  -1.7310
    -1.6918  -1.6917  -1.6598  -1.6596  -1.6596  -1.5733  -1.5732  -1.5300
    -1.5291  -1.5082  -1.5081  -1.4959  -1.4958  -1.4344  -1.4344  -1.4312
    -1.3935  -1.3767  -1.3766  -1.3507  -1.3076  -1.2492  -1.2491  -1.1239
    -1.1062  -1.1061  -1.0895  -1.0047  -0.9990  -0.9908  -0.9907  -0.9651
    -0.9545  -0.9537  -0.9444  -0.9443  -0.8038  -0.8032  -0.6895  -0.6843
    -0.6842  -0.6637  -0.6637  -0.6527  -0.6381  -0.6381  -0.6125  -0.6125
    -0.5965  -0.5688  -0.5591  -0.5591  -0.5375  -0.5375  -0.5326  -0.5325
    -0.5223  -0.5222  -0.5161  -0.5161  -0.5033  -0.5033  -0.4884  -0.4884
    -0.4848  -0.4847  -0.4807  -0.4688  -0.4688  -0.4568  -0.4568  -0.4389
    -0.4378  -0.4378  -0.3726  -0.3725  -0.3554  -0.3427  -0.3426  -0.3422
    -0.3269  -0.3148  -0.3059  -0.3058  -0.3050  -0.2863  -0.2410  -0.2410
    -0.2143  -0.2143  -0.1956  -0.1956  -0.1747  -0.1747  -0.1714  -0.1492
    -0.1492  -0.1414  -0.1413  -0.1408  -0.1212  -0.1159  -0.1114  -0.1114
    -0.0970  -0.0969  -0.0951  -0.0951  -0.0704  -0.0704  -0.0496  -0.0440
    -0.0440  -0.0029  -0.0029   0.0082   0.0178   0.0178   0.0187   0.0187
     0.0284   0.0284   0.0570   0.0690   0.0797   0.0825   0.0825   0.1006
     0.1074   0.1078   0.1081   0.1081   0.1361   0.1362   0.1419   0.1420
     0.1589   0.1589   0.1939   0.1940   0.2343   0.2491   0.2555   0.2556
     0.2603   0.2896   0.3091   0.3091   0.3521   0.3521   0.3711   0.3712
     0.4134   0.4155   0.4156   0.4506   0.4507   0.5367   0.5439   0.5857
     0.6570   0.6584   0.6585   0.6782   0.7035   0.7036   0.7172   0.7293
     0.7312   0.7313   0.7580   0.7580   0.7924   0.7931   0.7968   0.8512
     0.8523   0.8604   0.9580   1.0289   1.0465   1.0521   1.0564   1.0824
     1.0861   1.0862   1.1995   1.4439   1.5737   1.6070   1.7688   1.9105
     2.3998   2.7025   2.8469   2.9128   2.9238   3.2183   3.2184   3.3201
     3.6288   3.6689   3.8217   3.8605   3.9265   4.0319   4.0320   4.0523
     4.1723   4.1724   4.1872   4.2041   4.2587   4.3166   4.3643   4.3789
     4.3790   4.4022   4.4117   4.4117   4.4213   4.4469   4.4470   4.4489
     4.4490   4.5377   4.5378   4.5761   4.6028   4.6029   4.6706   4.6707
     4.6727   4.6877   4.6896   4.6934   4.6935   4.7280   4.7281   4.8040
     4.8371   4.8371   4.8389   4.8479   4.8481   4.8645   4.8645   4.8992
     4.9490   4.9721   4.9721   5.0357   5.0532   5.0535   5.0536   5.0812
     5.1034   5.1035   5.1420   5.1520   5.1521   5.1974   5.2393   5.2393
     5.2408   5.2410   5.2433   5.2434   5.3301   5.3302   5.3653   5.3655
     5.4237   5.4897   5.5089   5.5563   5.5783   5.5783   5.5787   5.5788
     5.5950   5.6474   5.6476   5.6603   5.6604   5.7262   5.7429   5.7430
     5.7462   5.7462   5.7539   5.7577   5.7733   5.7903   5.7903   5.8093
     5.8511   5.8511   5.8548   5.8549   5.8796   5.8806   5.9129   5.9130
     5.9360   5.9361   5.9842

          k =-0.5000 0.0000 0.0000 (165810 PWs)   bands (ev):

   -46.5303 -46.5303 -46.5150 -46.5149 -46.5149 -46.5149 -46.5005 -46.5005
   -46.4996 -46.4996 -46.4996 -46.4995 -46.4860 -46.4860 -46.4860 -46.4860
   -46.4723 -46.4723 -46.3715 -46.3715 -46.3551 -46.3549 -46.3548 -46.3548
   -46.3399 -46.3396 -46.3385 -46.3382 -46.3382 -46.3381 -46.3246 -46.3245
   -46.3244 -46.3243 -46.3106 -46.3106 -46.1976 -46.1976 -46.1798 -46.1798
   -46.1797 -46.1797 -46.1633 -46.1633 -46.1611 -46.1611 -46.1610 -46.1610
   -46.1466 -46.1466 -46.1466 -46.1465 -46.1320 -46.1320 -46.0985 -46.0984
   -46.0904 -46.0904 -46.0903 -46.0901 -46.0831 -46.0830 -46.0829 -46.0826
   -46.0797 -46.0795 -46.0693 -46.0693 -46.0691 -46.0690 -46.0554 -46.0554
   -25.4081 -25.4081 -25.4081 -25.4081 -25.4006 -25.4006 -25.3915 -25.3915
   -25.3915 -25.3915 -25.3699 -25.3698 -25.3614 -25.3613 -25.3613 -25.3613
   -25.3530 -25.3530 -25.3530 -25.3530 -25.3176 -25.3175 -25.2922 -25.2921
   -25.2921 -25.2920 -25.2913 -25.2913 -25.2913 -25.2913 -25.2688 -25.2688
   -25.2633 -25.2632 -25.2631 -25.2631 -25.2449 -25.2449 -25.2434 -25.2433
   -25.2432 -25.2432 -25.2429 -25.2429 -25.2412 -25.2410 -25.2254 -25.2254
   -25.2253 -25.2253 -25.1942 -25.1942 -25.1942 -25.1942 -25.1860 -25.1859
   -25.1657 -25.1656 -25.1656 -25.1656 -25.1647 -25.1647 -25.1270 -25.1269
   -25.1149 -25.1149 -25.1149 -25.1149 -25.1143 -25.1143 -25.1128 -25.1128
   -25.0800 -25.0799 -25.0799 -25.0799 -25.0598 -25.0598 -25.0598 -25.0598
   -25.0581 -25.0580 -25.0347 -25.0347 -25.0245 -25.0245 -25.0224 -25.0224
   -25.0224 -25.0224 -25.0118 -25.0118 -25.0118 -25.0118 -24.9975 -24.9975
   -24.9927 -24.9926 -24.9925 -24.9925 -24.9913 -24.9913 -24.9865 -24.9865
   -24.9712 -24.9712 -24.9712 -24.9712 -24.9556 -24.9555 -24.9510 -24.9509
   -24.9390 -24.9390 -24.9389 -24.9389 -24.9297 -24.9297 -24.9297 -24.9297
   -24.9131 -24.9131 -24.9130 -24.9130 -24.9110 -24.9110 -24.9110 -24.9110
   -24.8786 -24.8786 -24.8758 -24.8757 -24.8656 -24.8656 -24.8551 -24.8551
   -24.8418 -24.8417 -24.8377 -24.8377 -24.8343 -24.8343 -24.8343 -24.8343
   -24.8247 -24.8247 -24.8246 -24.8246 -24.8036 -24.8036 -24.7907 -24.7907
   -24.7906 -24.7906 -24.7857 -24.7856 -24.7657 -24.7656 -24.7656 -24.7655
   -24.7563 -24.7563 -24.7520 -24.7520 -24.7457 -24.7457 -24.7456 -24.7456
   -24.7437 -24.7437 -24.7437 -24.7437 -24.7398 -24.7398 -24.7398 -24.7398
   -24.7354 -24.7353 -24.7273 -24.7273 -24.7272 -24.7272 -24.7201 -24.7200
   -24.7050 -24.7050 -24.7050 -24.7050 -24.7047 -24.7047 -24.7046 -24.7045
   -24.6776 -24.6775 -24.6774 -24.6772 -24.6617 -24.6615 -24.6598 -24.6597
   -24.6487 -24.6487 -24.6486 -24.6485 -24.6376 -24.6375 -24.6316 -24.6316
   -24.6315 -24.6315 -24.6314 -24.6313 -24.6295 -24.6295 -24.6294 -24.6294
   -11.7513 -11.7512 -11.2581 -11.2580 -11.2580 -11.2580 -11.1859 -11.1859
   -11.0408 -11.0408 -10.9386 -10.9385 -10.8931 -10.8931 -10.7927 -10.7927
   -10.7926 -10.7926 -10.7901 -10.7901 -10.7901 -10.7900 -10.7687 -10.7687
   -10.6875 -10.6874 -10.6641 -10.6640 -10.6606 -10.6605 -10.6605 -10.6605
   -10.6430 -10.6430 -10.6429 -10.6429 -10.4406 -10.4405 -10.4405 -10.4404
   -10.4032 -10.4031 -10.4031 -10.4031 -10.3446 -10.3445 -10.2841 -10.2840
   -10.2840 -10.2839 -10.2835 -10.2834 -10.2834 -10.2833 -10.1725 -10.1724
   -10.1586 -10.1586 -10.1586 -10.1586 -10.0862 -10.0861 -10.0861 -10.0861
    -9.9758  -9.9757  -9.9757  -9.9757  -9.8888  -9.8886  -9.8886  -9.8886
    -2.5067  -2.5066  -2.5066  -2.5066  -2.4807  -2.4807  -2.4807  -2.4806
    -1.9164  -1.9163  -1.9163  -1.9163  -1.8722  -1.8721  -1.8720  -1.8720
    -1.7797  -1.7797  -1.7796  -1.7796  -1.7793  -1.7792  -1.7179  -1.7179
    -1.7179  -1.7179  -1.6969  -1.6969  -1.6962  -1.6962  -1.6961  -1.6961
    -1.5771  -1.5770  -1.5770  -1.5769  -1.3779  -1.3778  -1.3703  -1.3702
    -1.3701  -1.3701  -1.2910  -1.2909  -1.2441  -1.2440  -1.1974  -1.1974
    -1.1973  -1.1973  -1.0935  -1.0935  -1.0179  -1.0178  -0.9881  -0.9881
    -0.8032  -0.8032  -0.8032  -0.8031  -0.7705  -0.7704  -0.7704  -0.7703
    -0.7309  -0.7309  -0.6681  -0.6680  -0.6498  -0.6498  -0.6336  -0.6335
    -0.6261  -0.6261  -0.6260  -0.6260  -0.6119  -0.6119  -0.6119  -0.6119
    -0.5427  -0.5426  -0.5426  -0.5426  -0.5368  -0.5367  -0.5367  -0.5367
    -0.4918  -0.4918  -0.4918  -0.4918  -0.4524  -0.4524  -0.4524  -0.4524
    -0.3908  -0.3908  -0.3423  -0.3422  -0.3295  -0.3295  -0.3295  -0.3295
    -0.3081  -0.3080  -0.3080  -0.3080  -0.3019  -0.3017  -0.2692  -0.2691
    -0.2691  -0.2690  -0.2215  -0.2214  -0.2214  -0.2214  -0.1781  -0.1780
    -0.1325  -0.1325  -0.1325  -0.1325  -0.1035  -0.1035  -0.0980  -0.0980
    -0.0980  -0.0979  -0.0922  -0.0922  -0.0922  -0.0921  -0.0230  -0.0230
    -0.0230  -0.0229   0.0470   0.0471   0.0471   0.0471   0.0741   0.0742
     0.0822   0.0823   0.0823   0.0823   0.0989   0.0990   0.0990   0.0990
     0.1077   0.1077   0.1347   0.1348   0.1349   0.1349   0.1390   0.1390
     0.2554   0.2554   0.2555   0.2555   0.3222   0.3223   0.3737   0.3738
     0.4253   0.4254   0.4631   0.4631   0.4631   0.4632   0.4754   0.4755
     0.5058   0.5058   0.5058   0.5059   0.5814   0.5815   0.5815   0.5815
     0.6115   0.6116   0.6116   0.6117   0.6207   0.6207   0.6703   0.6704
     0.6794   0.6796   0.7404   0.7405   0.7516   0.7517   0.7517   0.7517
     0.7920   0.7920   0.8413   0.8414   0.9314   0.9316   1.0983   1.0983
     1.1511   1.1511   1.1839   1.1839   1.3252   1.3252   1.6843   1.6843
     2.7815   2.7815   2.9709   2.9710   3.2696   3.2696   3.4385   3.4386
     3.5570   3.5570   3.5571   3.5571   3.5809   3.5812   4.0229   4.0230
     4.0893   4.0893   4.2642   4.2643   4.3364   4.3364   4.3365   4.3365
     4.3842   4.3843   4.3843   4.3844   4.4521   4.4522   4.4857   4.4857
     4.5274   4.5275   4.5276   4.5276   4.5637   4.5637   4.5638   4.5638
     4.6679   4.6680   4.6723   4.6724   4.7886   4.7887   4.7887   4.7888
     4.8088   4.8088   4.8088   4.8089   4.8646   4.8647   4.8707   4.8707
     4.8707   4.8708   4.9368   4.9369   5.0055   5.0057   5.0057   5.0058
     5.1340   5.1341   5.1341   5.1341   5.2042   5.2042   5.2652   5.2654
     5.2654   5.2655   5.3357   5.3357   5.3358   5.3358   5.3476   5.3476
     5.3773   5.3776   5.4995   5.4996   5.4996   5.4996   5.6566   5.6566
     5.7082   5.7083   5.7224   5.7224   5.7225   5.7225   5.7457   5.7459
     5.7459   5.7460   5.8458   5.8461   5.8462   5.8462   5.8563   5.8566
     5.8896   5.8897   5.8897   5.8897   5.9176   5.9197   5.9198   5.9202
     5.9203   5.9299   5.9854

          k =-0.5000 0.2500 0.0000 (165780 PWs)   bands (ev):

   -46.5292 -46.5292 -46.5212 -46.5212 -46.5078 -46.5077 -46.5004 -46.5004
   -46.4999 -46.4999 -46.4993 -46.4993 -46.4927 -46.4927 -46.4802 -46.4802
   -46.4732 -46.4732 -46.3704 -46.3703 -46.3617 -46.3616 -46.3472 -46.3472
   -46.3397 -46.3395 -46.3388 -46.3386 -46.3380 -46.3378 -46.3315 -46.3314
   -46.3186 -46.3186 -46.3115 -46.3115 -46.1964 -46.1963 -46.1871 -46.1871
   -46.1714 -46.1714 -46.1631 -46.1631 -46.1618 -46.1618 -46.1605 -46.1605
   -46.1541 -46.1541 -46.1403 -46.1403 -46.1329 -46.1329 -46.0980 -46.0979
   -46.0938 -46.0938 -46.0859 -46.0858 -46.0839 -46.0836 -46.0819 -46.0816
   -46.0800 -46.0797 -46.0750 -46.0750 -46.0638 -46.0637 -46.0564 -46.0564
   -25.4184 -25.4184 -25.3998 -25.3998 -25.3948 -25.3948 -25.3945 -25.3945
   -25.3875 -25.3874 -25.3780 -25.3780 -25.3731 -25.3730 -25.3729 -25.3729
   -25.3471 -25.3471 -25.3216 -25.3216 -25.3143 -25.3143 -25.3066 -25.3065
   -25.2910 -25.2910 -25.2834 -25.2834 -25.2727 -25.2727 -25.2685 -25.2684
   -25.2669 -25.2669 -25.2654 -25.2653 -25.2626 -25.2625 -25.2505 -25.2505
   -25.2473 -25.2473 -25.2468 -25.2466 -25.2299 -25.2299 -25.2292 -25.2291
   -25.2158 -25.2158 -25.2037 -25.2037 -25.1930 -25.1930 -25.1896 -25.1896
   -25.1640 -25.1640 -25.1590 -25.1590 -25.1505 -25.1505 -25.1505 -25.1505
   -25.1419 -25.1419 -25.1159 -25.1159 -25.0937 -25.0937 -25.0925 -25.0924
   -25.0777 -25.0777 -25.0761 -25.0761 -25.0707 -25.0707 -25.0595 -25.0595
   -25.0433 -25.0432 -25.0418 -25.0417 -25.0389 -25.0389 -25.0289 -25.0289
   -25.0275 -25.0275 -25.0111 -25.0111 -25.0022 -25.0022 -24.9966 -24.9965
   -24.9896 -24.9896 -24.9852 -24.9852 -24.9841 -24.9841 -24.9833 -24.9833
   -24.9766 -24.9766 -24.9708 -24.9708 -24.9583 -24.9583 -24.9531 -24.9531
   -24.9528 -24.9528 -24.9522 -24.9522 -24.9371 -24.9371 -24.9311 -24.9311
   -24.9120 -24.9120 -24.9054 -24.9054 -24.8932 -24.8931 -24.8902 -24.8902
   -24.8894 -24.8894 -24.8735 -24.8735 -24.8664 -24.8664 -24.8533 -24.8533
   -24.8452 -24.8452 -24.8315 -24.8315 -24.8306 -24.8306 -24.8302 -24.8302
   -24.8262 -24.8262 -24.8130 -24.8130 -24.8117 -24.8117 -24.8109 -24.8109
   -24.7992 -24.7992 -24.7889 -24.7889 -24.7701 -24.7701 -24.7668 -24.7667
   -24.7609 -24.7609 -24.7510 -24.7509 -24.7503 -24.7502 -24.7488 -24.7487
   -24.7424 -24.7424 -24.7388 -24.7387 -24.7381 -24.7381 -24.7333 -24.7333
   -24.7323 -24.7323 -24.7257 -24.7257 -24.7239 -24.7239 -24.7150 -24.7150
   -24.7137 -24.7137 -24.7069 -24.7068 -24.6855 -24.6853 -24.6844 -24.6844
   -24.6809 -24.6808 -24.6721 -24.6719 -24.6676 -24.6676 -24.6630 -24.6628
   -24.6563 -24.6563 -24.6539 -24.6539 -24.6506 -24.6506 -24.6501 -24.6501
   -24.6488 -24.6488 -24.6183 -24.6183 -24.6170 -24.6170 -24.6158 -24.6158
   -11.7139 -11.7139 -11.4469 -11.4468 -11.1540 -11.1539 -11.0721 -11.0720
   -11.0094 -11.0093 -10.9333 -10.9333 -10.9145 -10.9144 -10.8790 -10.8789
   -10.8255 -10.8254 -10.8084 -10.8083 -10.7898 -10.7897 -10.7516 -10.7516
   -10.7398 -10.7397 -10.6690 -10.6690 -10.6644 -10.6643 -10.6338 -10.6337
   -10.6017 -10.6016 -10.5384 -10.5384 -10.5173 -10.5172 -10.5117 -10.5116
   -10.4233 -10.4232 -10.4022 -10.4021 -10.3255 -10.3255 -10.2779 -10.2779
   -10.2648 -10.2647 -10.2580 -10.2579 -10.2101 -10.2101 -10.1605 -10.1604
   -10.1479 -10.1479 -10.1473 -10.1472 -10.1460 -10.1460 -10.0847 -10.0846
   -10.0568 -10.0567  -9.9851  -9.9851  -9.8897  -9.8897  -9.8184  -9.8183
    -2.6808  -2.6808  -2.6618  -2.6618  -2.2655  -2.2654  -2.2278  -2.2277
    -2.0319  -2.0319  -1.9871  -1.9871  -1.9554  -1.9554  -1.8993  -1.8993
    -1.8789  -1.8789  -1.8440  -1.8439  -1.8151  -1.8150  -1.7698  -1.7698
    -1.7007  -1.7006  -1.6584  -1.6584  -1.5540  -1.5539  -1.5294  -1.5294
    -1.4900  -1.4900  -1.4479  -1.4478  -1.3943  -1.3942  -1.3292  -1.3292
    -1.3190  -1.3189  -1.2739  -1.2738  -1.2419  -1.2419  -1.2041  -1.2041
    -1.1997  -1.1997  -1.1401  -1.1401  -1.1144  -1.1144  -1.0505  -1.0504
    -1.0480  -1.0479  -0.9845  -0.9845  -0.9344  -0.9344  -0.8571  -0.8571
    -0.6818  -0.6817  -0.6519  -0.6519  -0.6108  -0.6107  -0.5961  -0.5961
    -0.5453  -0.5452  -0.5422  -0.5421  -0.5404  -0.5403  -0.5390  -0.5390
    -0.5320  -0.5320  -0.5253  -0.5253  -0.5117  -0.5117  -0.5108  -0.5108
    -0.4818  -0.4817  -0.4779  -0.4779  -0.4486  -0.4486  -0.4462  -0.4462
    -0.4128  -0.4128  -0.3905  -0.3904  -0.3701  -0.3701  -0.3700  -0.3700
    -0.3615  -0.3615  -0.3433  -0.3433  -0.3322  -0.3322  -0.2818  -0.2818
    -0.2320  -0.2320  -0.2152  -0.2151  -0.2065  -0.2065  -0.1793  -0.1792
    -0.1515  -0.1515  -0.1502  -0.1502  -0.1107  -0.1106  -0.0748  -0.0748
    -0.0122  -0.0122  -0.0061  -0.0061   0.0109   0.0110   0.0115   0.0115
     0.0437   0.0437   0.0635   0.0635   0.0869   0.0870   0.0909   0.0909
     0.1086   0.1087   0.1208   0.1208   0.1473   0.1473   0.1601   0.1601
     0.1656   0.1657   0.1685   0.1685   0.1928   0.1928   0.1934   0.1934
     0.3069   0.3069   0.3104   0.3104   0.3144   0.3145   0.3520   0.3520
     0.3537   0.3537   0.3640   0.3640   0.4632   0.4633   0.5102   0.5103
     0.5196   0.5196   0.5340   0.5340   0.5451   0.5452   0.5538   0.5538
     0.5706   0.5706   0.6075   0.6075   0.6362   0.6363   0.6484   0.6484
     0.6836   0.6836   0.6980   0.6981   0.7473   0.7473   0.7902   0.7902
     0.8095   0.8097   0.8423   0.8423   0.9506   0.9506   1.0060   1.0060
     1.0382   1.0382   1.0738   1.0738   1.2748   1.2748   1.5254   1.5254
     2.9340   2.9340   3.0784   3.0785   3.2815   3.2815   3.4171   3.4171
     3.5319   3.5319   3.6782   3.6785   3.7399   3.7399   3.8480   3.8480
     3.9273   3.9274   4.0509   4.0510   4.1682   4.1682   4.1722   4.1722
     4.2815   4.2815   4.3053   4.3053   4.3359   4.3359   4.3513   4.3515
     4.4139   4.4140   4.4488   4.4489   4.5018   4.5018   4.6445   4.6445
     4.7292   4.7293   4.7354   4.7355   4.7533   4.7534   4.7853   4.7854
     4.8304   4.8304   4.8368   4.8368   4.8863   4.8863   4.9489   4.9489
     4.9822   4.9823   5.0472   5.0473   5.1106   5.1107   5.1329   5.1329
     5.1785   5.1785   5.1817   5.1817   5.2257   5.2257   5.2843   5.2843
     5.3043   5.3044   5.3312   5.3312   5.3997   5.3997   5.4035   5.4038
     5.4852   5.4853   5.4869   5.4870   5.4899   5.4899   5.5350   5.5350
     5.6166   5.6169   5.6624   5.6624   5.6731   5.6731   5.7290   5.7290
     5.8057   5.8057   5.8175   5.8176   5.8559   5.8559   5.8610   5.8610
     5.8835   5.8835   5.9342   5.9342   5.9347   5.9348   5.9427   5.9427
     5.9622   5.9623   5.9999

     the Fermi energy is     2.0369 ev

!    total energy              =   -8262.71738825 Ry
     estimated scf accuracy    <       0.00000008 Ry
     smearing contrib. (-TS)   =       0.00528012 Ry
     internal energy E=F+TS    =   -8262.72266837 Ry

     The total energy is F=E-TS. E is the sum of the following terms:
     one-electron contribution = -100537.79117591 Ry
     hartree contribution      =   50393.26768966 Ry
     xc contribution           =   -1356.24938658 Ry
     ewald contribution        =   43240.88751001 Ry
     DFT-D3 Dispersion         =      -2.83730555 Ry

     convergence has been achieved in   8 iterations

     negative rho (up, down):  7.660E-03 0.000E+00

     Forces acting on atoms (cartesian axes, Ry/au):

     atom    1 type  1   force =     0.00000029   -0.00000014    0.01781020
     atom    2 type  1   force =    -0.00000252    0.00000020   -0.00526644
     atom    3 type  1   force =    -0.00000787    0.00000206   -0.00526339
     atom    4 type  1   force =     0.00000026    0.00000086    0.01780833
     atom    5 type  1   force =     0.00000286   -0.00004512   -0.00198600
     atom    6 type  1   force =     0.00000186    0.00000453    0.00255003
     atom    7 type  1   force =    -0.00000366    0.00000735    0.00232924
     atom    8 type  1   force =     0.00004665   -0.00001840   -0.00198751
     atom    9 type  1   force =     0.00000002    0.00000042    0.01781199
     atom   10 type  1   force =     0.00000086    0.00000203   -0.00526619
     atom   11 type  1   force =     0.00000091   -0.00000653   -0.00525808
     atom   12 type  1   force =    -0.00000032   -0.00000046    0.01780767
     atom   13 type  1   force =     0.00001346    0.00003241   -0.00200871
     atom   14 type  1   force =    -0.00000389   -0.00000375    0.00253618
     atom   15 type  1   force =     0.00000231   -0.00001311    0.00252307
     atom   16 type  1   force =     0.00001487    0.00001853   -0.00200436
     atom   17 type  1   force =     0.00000086   -0.00000029    0.01781001
     atom   18 type  1   force =     0.00000062   -0.00000216   -0.00526089
     atom   19 type  1   force =     0.00000360    0.00000463   -0.00525616
     atom   20 type  1   force =    -0.00000001   -0.00000038    0.01780857
     atom   21 type  1   force =     0.00001077    0.00001265   -0.00199578
     atom   22 type  1   force =     0.00000139   -0.00000052    0.00253719
     atom   23 type  1   force =     0.00000459    0.00000378    0.00254174
     atom   24 type  1   force =     0.00000411   -0.00000011   -0.00199855
     atom   25 type  1   force =     0.00000000    0.00000009    0.01780719
     atom   26 type  1   force =     0.00000252    0.00000020   -0.00526644
     atom   27 type  1   force =     0.00000000    0.00000555   -0.00525062
     atom   28 type  1   force =    -0.00000026    0.00000086    0.01780833
     atom   29 type  1   force =     0.00000000   -0.00000535   -0.00199191
     atom   30 type  1   force =    -0.00000186    0.00000453    0.00255003
     atom   31 type  1   force =     0.00000000    0.00000343    0.00255223
     atom   32 type  1   force =    -0.00004665   -0.00001840   -0.00198751
     atom   33 type  1   force =     0.00000000   -0.00000010    0.01781133
     atom   34 type  1   force =    -0.00000086    0.00000203   -0.00526619
     atom   35 type  1   force =     0.00000000   -0.00000151   -0.00525787
     atom   36 type  1   force =     0.00000032   -0.00000046    0.01780767
     atom   37 type  1   force =     0.00000000    0.00000166   -0.00200744
     atom   38 type  1   force =     0.00000389   -0.00000375    0.00253618
     atom   39 type  1   force =     0.00000000   -0.00000150    0.00252550
     atom   40 type  1   force =    -0.00001487    0.00001853   -0.00200436
     atom   41 type  1   force =     0.00000000   -0.00000002    0.01780934
     atom   42 type  1   force =    -0.00000062   -0.00000216   -0.00526089
     atom   43 type  1   force =     0.00000000   -0.00000400   -0.00525753
     atom   44 type  1   force =     0.00000001   -0.00000038    0.01780857
     atom   45 type  1   force =     0.00000000    0.00000405   -0.00200062
     atom   46 type  1   force =    -0.00000139   -0.00000052    0.00253719
     atom   47 type  1   force =     0.00000000   -0.00000110    0.00251316
     atom   48 type  1   force =    -0.00000411   -0.00000011   -0.00199855
     atom   49 type  1   force =    -0.00000029   -0.00000014    0.01781020
     atom   50 type  1   force =     0.00000000    0.00000605   -0.00527109
     atom   51 type  1   force =     0.00000787    0.00000206   -0.00526339
     atom   52 type  1   force =     0.00000000    0.00000106    0.01780967
     atom   53 type  1   force =    -0.00000286   -0.00004512   -0.00198600
     atom   54 type  1   force =     0.00000000    0.00000631    0.00259213
     atom   55 type  1   force =     0.00000366    0.00000735    0.00232924
     atom   56 type  1   force =     0.00000000   -0.00003044   -0.00198734
     atom   57 type  1   force =    -0.00000002    0.00000042    0.01781199
     atom   58 type  1   force =     0.00000000   -0.00000128   -0.00527304
     atom   59 type  1   force =    -0.00000091   -0.00000653   -0.00525808
     atom   60 type  1   force =     0.00000000   -0.00000131    0.01780666
     atom   61 type  1   force =    -0.00001346    0.00003241   -0.00200871
     atom   62 type  1   force =     0.00000000   -0.00000419    0.00255493
     atom   63 type  1   force =    -0.00000231   -0.00001311    0.00252307
     atom   64 type  1   force =     0.00000000    0.00002412   -0.00200837
     atom   65 type  1   force =    -0.00000086   -0.00000029    0.01781001
     atom   66 type  1   force =     0.00000000   -0.00000480   -0.00527105
     atom   67 type  1   force =    -0.00000360    0.00000463   -0.00525616
     atom   68 type  1   force =     0.00000000    0.00000018    0.01780579
     atom   69 type  1   force =    -0.00001077    0.00001265   -0.00199578
     atom   70 type  1   force =     0.00000000   -0.00000286    0.00252928
     atom   71 type  1   force =    -0.00000459    0.00000378    0.00254174
     atom   72 type  1   force =     0.00000000    0.00000699   -0.00198871
     atom   73 type  2   force =    -0.00000008   -0.00000154    0.00117180
     atom   74 type  2   force =     0.00000018   -0.00000035    0.00117046
     atom   75 type  2   force =    -0.00000086    0.00000433   -0.01224857
     atom   76 type  2   force =    -0.00000898    0.00000265   -0.01224167
     atom   77 type  2   force =    -0.00000634    0.00000385   -0.00238166
     atom   78 type  2   force =    -0.00000253    0.00001351   -0.00236589
     atom   79 type  2   force =     0.00000100   -0.00001930    0.00036765
     atom   80 type  2   force =     0.00001122   -0.00000331    0.00038448
     atom   81 type  2   force =    -0.00000041    0.00000174    0.00116967
     atom   82 type  2   force =     0.00000061    0.00000012    0.00116914
     atom   83 type  2   force =     0.00000136   -0.00000524   -0.01227407
     atom   84 type  2   force =    -0.00000202   -0.00000185   -0.01223975
     atom   85 type  2   force =    -0.00000089   -0.00000953   -0.00239239
     atom   86 type  2   force =    -0.00001163   -0.00001391   -0.00239160
     atom   87 type  2   force =     0.00000590    0.00001820    0.00059534
     atom   88 type  2   force =     0.00000138    0.00000529    0.00035623
     atom   89 type  2   force =    -0.00000068   -0.00000028    0.00116813
     atom   90 type  2   force =    -0.00000029    0.00000018    0.00117109
     atom   91 type  2   force =    -0.00000297    0.00000073   -0.01224812
     atom   92 type  2   force =    -0.00000053   -0.00000084   -0.01224729
     atom   93 type  2   force =    -0.00000158    0.00000632   -0.00237287
     atom   94 type  2   force =    -0.00000004    0.00000003   -0.00237335
     atom   95 type  2   force =    -0.00000069    0.00000312    0.00034618
     atom   96 type  2   force =     0.00000088   -0.00000304    0.00036744
     atom   97 type  2   force =     0.00000000   -0.00000101    0.00116822
     atom   98 type  2   force =    -0.00000018   -0.00000035    0.00117046
     atom   99 type  2   force =     0.00000000    0.00000050   -0.01224837
     atom  100 type  2   force =     0.00000898    0.00000265   -0.01224167
     atom  101 type  2   force =     0.00000000   -0.00000560   -0.00236093
     atom  102 type  2   force =     0.00000253    0.00001351   -0.00236589
     atom  103 type  2   force =     0.00000000   -0.00000538    0.00036600
     atom  104 type  2   force =    -0.00001122   -0.00000331    0.00038448
     atom  105 type  2   force =     0.00000000    0.00000080    0.00117145
     atom  106 type  2   force =    -0.00000061    0.00000012    0.00116914
     atom  107 type  2   force =     0.00000000    0.00000112   -0.01224934
     atom  108 type  2   force =     0.00000202   -0.00000185   -0.01223975
     atom  109 type  2   force =     0.00000000    0.00000178   -0.00237540
     atom  110 type  2   force =     0.00001163   -0.00001391   -0.00239160
     atom  111 type  2   force =     0.00000000    0.00000583    0.00033033
     atom  112 type  2   force =    -0.00000138    0.00000529    0.00035623
     atom  113 type  2   force =     0.00000000    0.00000028    0.00116959
     atom  114 type  2   force =     0.00000029    0.00000018    0.00117109
     atom  115 type  2   force =     0.00000000   -0.00000174   -0.01224732
     atom  116 type  2   force =     0.00000053   -0.00000084   -0.01224729
     atom  117 type  2   force =     0.00000000    0.00000389   -0.00237699
     atom  118 type  2   force =     0.00000004    0.00000003   -0.00237335
     atom  119 type  2   force =     0.00000000   -0.00000012    0.00038677
     atom  120 type  2   force =    -0.00000088   -0.00000304    0.00036744
     atom  121 type  2   force =     0.00000008   -0.00000154    0.00117180
     atom  122 type  2   force =     0.00000000   -0.00000075    0.00117035
     atom  123 type  2   force =     0.00000086    0.00000433   -0.01224857
     atom  124 type  2   force =     0.00000000    0.00000424   -0.01223181
     atom  125 type  2   force =     0.00000634    0.00000385   -0.00238166
     atom  126 type  2   force =     0.00000000    0.00001877   -0.00235535
     atom  127 type  2   force =    -0.00000100   -0.00001930    0.00036765
     atom  128 type  2   force =     0.00000000   -0.00000483    0.00036537
     atom  129 type  2   force =     0.00000041    0.00000174    0.00116967
     atom  130 type  2   force =     0.00000000    0.00000040    0.00116869
     atom  131 type  2   force =    -0.00000136   -0.00000524   -0.01227407
     atom  132 type  2   force =     0.00000000   -0.00000204   -0.01223761
     atom  133 type  2   force =     0.00000089   -0.00000953   -0.00239239
     atom  134 type  2   force =     0.00000000   -0.00001902   -0.00240473
     atom  135 type  2   force =    -0.00000590    0.00001820    0.00059534
     atom  136 type  2   force =     0.00000000    0.00000740    0.00035326
     atom  137 type  2   force =     0.00000068   -0.00000028    0.00116813
     atom  138 type  2   force =     0.00000000    0.00000035    0.00117344
     atom  139 type  2   force =     0.00000297    0.00000073   -0.01224812
     atom  140 type  2   force =     0.00000000   -0.00000230   -0.01224830
     atom  141 type  2   force =     0.00000158    0.00000632   -0.00237287
     atom  142 type  2   force =     0.00000000    0.00000042   -0.00237696
     atom  143 type  2   force =     0.00000069    0.00000312    0.00034618
     atom  144 type  2   force =     0.00000000   -0.00000275    0.00037294

     Total force =     0.017045     Total SCF correction =     0.000475
     Energy error            =      1.3E-03 Ry
     Gradient error          =      2.6E-03 Ry/Bohr

     number of scf cycles    =   8
     number of bfgs steps    =   7

     energy             old  =   -8262.7160946473 Ry
     energy             new  =   -8262.7173882520 Ry

     CASE: energy            _new < energy            _old

     new trust radius        =       0.0065183453 bohr
     new conv_thr            =       0.0000001666 Ry


ATOMIC_POSITIONS (angstrom)
Sc               0.0000000000        0.0000000000       10.0000000000    0   0   0
Sc               2.2382160900        0.0000000000       12.2382160900    0   0   0
Sc               0.0000000000        2.2382160900       12.2382160900    0   0   0
Sc               2.2382160900        2.2382160900       10.0000000000    0   0   0
Sc              -0.0000063436        0.0001128175       14.4800669780
Sc               2.2382155272       -0.0000123435       16.6622923810
Sc              -0.0000112248        2.2381959697       16.6626324910
Sc               2.2381194414        2.2382352505       14.4800835597
Sc               0.0000000000        4.4764321800       10.0000000000    0   0   0
Sc               2.2382160900        4.4764321800       12.2382160900    0   0   0
Sc               0.0000000000        6.7146482700       12.2382160900    0   0   0
Sc               2.2382160900        6.7146482700       10.0000000000    0   0   0
Sc              -0.0000069699        4.4763391628       14.4800474727
Sc               2.2382344239        4.4764383130       16.6622800186
Sc              -0.0000101278        6.7146637749       16.6622703905
Sc               2.2381994063        6.7146325856       14.4800649815
Sc               0.0000000000        8.9528643500       10.0000000000    0   0   0
Sc               2.2382160900        8.9528643500       12.2382160900    0   0   0
Sc               0.0000000000       11.1910804400       12.2382160900    0   0   0
Sc               2.2382160900       11.1910804400       10.0000000000    0   0   0
Sc              -0.0000169391        8.9528450973       14.4800534461
Sc               2.2382005803        8.9528713470       16.6623452194
Sc              -0.0000141783       11.1910915046       16.6622790432
Sc               2.2381976795       11.1910764989       14.4800433345
Sc               4.4764321800        0.0000000000       10.0000000000    0   0   0
Sc               6.7146482700        0.0000000000       12.2382160900    0   0   0
Sc               4.4764321800        2.2382160900       12.2382160900    0   0   0
Sc               6.7146482700        2.2382160900       10.0000000000    0   0   0
Sc               4.4764348900        0.0000255672       14.4800272838
Sc               6.7146479128       -0.0000120335       16.6623092810
Sc               4.4764323100        2.2382082005       16.6622932689
Sc               6.7147432786        2.2382311205       14.4800834697
Sc               4.4764321800        4.4764321800       10.0000000000    0   0   0
Sc               6.7146482700        4.4764321800       12.2382160900    0   0   0
Sc               4.4764321800        6.7146482700       12.2382160900    0   0   0
Sc               6.7146482700        6.7146482700       10.0000000000    0   0   0
Sc               4.4764301000        4.4764195982       14.4800607128
Sc               6.7146321261        4.4764372930       16.6622562586
Sc               4.4764311400        6.7146459166       16.6623859055
Sc               6.7146657237        6.7146354056       14.4800619415
Sc               4.4764321800        8.9528643500       10.0000000000    0   0   0
Sc               6.7146482700        8.9528643500       12.2382160900    0   0   0
Sc               4.4764321800       11.1910804400       12.2382160900    0   0   0
Sc               6.7146482700       11.1910804400       10.0000000000    0   0   0
Sc               4.4764324400        8.9528508651       14.4800699983
Sc               6.7146622597        8.9528703870       16.6623457194
Sc               4.4764327100       11.1910900075       16.6623414910
Sc               6.7146677305       11.1910786889       14.4800457445
Sc               8.9528643500        0.0000000000       10.0000000000    0   0   0
Sc              11.1910804400        0.0000000000       12.2382160900    0   0   0
Sc               8.9528643500        2.2382160900       12.2382160900    0   0   0
Sc              11.1910804400        2.2382160900       10.0000000000    0   0   0
Sc               8.9528674436        0.0001105975       14.4800680380
Sc              11.1910813800       -0.0000286429       16.6622499771
Sc               8.9528761648        2.2381948997       16.6626280510
Sc              11.1910805600        2.2382288624       14.4801307163
Sc               8.9528643500        4.4764321800       10.0000000000    0   0   0
Sc              11.1910804400        4.4764321800       12.2382160900    0   0   0
Sc               8.9528643500        6.7146482700       12.2382160900    0   0   0
Sc              11.1910804400        6.7146482700       10.0000000000    0   0   0
Sc               8.9528746399        4.4763401828       14.4800455227
Sc              11.1910818400        4.4764517047       16.6621480073
Sc               8.9528740278        6.7146620949       16.6622844405
Sc              11.1910808600        6.7146513651       14.4800404642
Sc               8.9528643500        8.9528643500       10.0000000000    0   0   0
Sc              11.1910804400        8.9528643500       12.2382160900    0   0   0
Sc               8.9528643500       11.1910804400       12.2382160900    0   0   0
Sc              11.1910804400       11.1910804400       10.0000000000    0   0   0
Sc               8.9528810591        8.9528461173       14.4800534961
Sc              11.1910806400        8.9528762526       16.6623813090
Sc               8.9528794983       11.1910904446       16.6623108832
Sc              11.1910796900       11.1910645436       14.4800064897
N                0.0000000000        2.2382160900       10.0000000000    0   0   0
N                2.2382160900        0.0000000000       10.0000000000    0   0   0
N                0.0000000000        0.0000000000       12.2382160900    0   0   0
N                2.2382160900        2.2382160900       12.2382160900    0   0   0
N               -0.0000178398        2.2381594788       14.4886691295
N                2.2382013791        0.0000075233       14.4885636613
N               -0.0000143033        0.0000492087       16.6745757689
N                2.2381602297        2.2382320582       16.6745897695
N                0.0000000000        6.7146482700       10.0000000000    0   0   0
N                2.2382160900        4.4764321800       10.0000000000    0   0   0
N                0.0000000000        4.4764321800       12.2382160900    0   0   0
N                2.2382160900        6.7146482700       12.2382160900    0   0   0
N               -0.0000100666        6.7147109208       14.4885778136
N                2.2382662395        4.4764398921       14.4885713512
N               -0.0000168921        4.4763827689       16.6740298671
N                2.2381899168        6.7146189476       16.6745951714
N                0.0000000000       11.1910804400       10.0000000000    0   0   0
N                2.2382160900        8.9528643500       10.0000000000    0   0   0
N                0.0000000000        8.9528643500       12.2382160900    0   0   0
N                2.2382160900       11.1910804400       12.2382160900    0   0   0
N               -0.0000048209       11.1910740421       14.4885663822
N                2.2382052541        8.9528506925       14.4885929201
N               -0.0000152502        8.9528593481       16.6745906672
N                2.2382060401       11.1910944369       16.6745009194
N                4.4764321800        2.2382160900       10.0000000000    0   0   0
N                6.7146482700        0.0000000000       10.0000000000    0   0   0
N                4.4764321800        0.0000000000       12.2382160900    0   0   0
N                6.7146482700        2.2382160900       12.2382160900    0   0   0
N                4.4764324400        2.2382252876       14.4885682636
N                6.7146646609        0.0000056233       14.4885671813
N                4.4764319700        0.0000204424       16.6744866666
N                6.7147033203        2.2382309382       16.6745884095
N                4.4764321800        6.7146482700       10.0000000000    0   0   0
N                6.7146482700        4.4764321800       10.0000000000    0   0   0
N                4.4764321800        4.4764321800       12.2382160900    0   0   0
N                6.7146482700        6.7146482700       12.2382160900    0   0   0
N                4.4764310300        6.7146406640       14.4886144868
N                6.7145973605        4.4764379321       14.4885697712
N                4.4764316100        4.4764133720       16.6745837057
N                6.7146754332        6.7146194876       16.6745753514
N                4.4764321800       11.1910804400       10.0000000000    0   0   0
N                6.7146482700        8.9528643500       10.0000000000    0   0   0
N                4.4764321800        8.9528643500       12.2382160900    0   0   0
N                6.7146482700       11.1910804400       12.2382160900    0   0   0
N                4.4764330700       11.1910788705       14.4885834722
N                6.7146587659        8.9528530825       14.4885928501
N                4.4764329900        8.9528616810       16.6744987324
N                6.7146582199       11.1910958269       16.6745263394
N                8.9528643500        2.2382160900       10.0000000000    0   0   0
N               11.1910804400        0.0000000000       10.0000000000    0   0   0
N                8.9528643500        0.0000000000       12.2382160900    0   0   0
N               11.1910804400        2.2382160900       12.2382160900    0   0   0
N                8.9528828798        2.2381585288       14.4886697795
N               11.1910809200        0.0000290217       14.4885479599
N                8.9528775833        0.0000485987       16.6745621689
N               11.1910794100        2.2382470300       16.6747370496
N                8.9528643500        6.7146482700       10.0000000000    0   0   0
N               11.1910804400        4.4764321800       10.0000000000    0   0   0
N                8.9528643500        4.4764321800       12.2382160900    0   0   0
N               11.1910804400        6.7146482700       12.2382160900    0   0   0
N                8.9528750466        6.7147106908       14.4885781536
N               11.1910789200        4.4764212900       14.4885301223
N                8.9528811521        4.4763838389       16.6740294071
N               11.1910803400        6.7146028917       16.6745891803
N                8.9528643500       11.1910804400       10.0000000000    0   0   0
N               11.1910804400        8.9528643500       10.0000000000    0   0   0
N                8.9528643500        8.9528643500       12.2382160900    0   0   0
N               11.1910804400       11.1910804400       12.2382160900    0   0   0
N                8.9528683709       11.1910750021       14.4885677222
N               11.1910809700        8.9528463319       14.4886010835
N                8.9528799802        8.9528585081       16.6745622872
N               11.1910796900       11.1910931893       16.6744601970



     Writing config-only to output data dir ./tmp/ScN_slab.save/ :
     XML data file
     NEW-OLD atomic charge density approx. for the potential

     negative rho (up, down):  7.659E-03 0.000E+00

     total cpu time spent up to now is    11083.4 secs

     per-process dynamical memory:  1041.6 Mb

     Self-consistent Calculation

     iteration #  1     ecut=    45.00 Ry     beta= 0.25
     Davidson diagonalization with overlap
     ethr =  1.00E-06,  avg # of iterations =  5.0

     Threshold (ethr) on eigenvalues was too large:
     Diagonalizing with lowered threshold

     Davidson diagonalization with overlap
     ethr =  5.14E-08,  avg # of iterations =  4.0

     negative rho (up, down):  7.657E-03 0.000E+00

     total cpu time spent up to now is    11387.7 secs

     total energy              =   -8262.71763771 Ry
     estimated scf accuracy    <       0.00070255 Ry

     iteration #  2     ecut=    45.00 Ry     beta= 0.25
     Davidson diagonalization with overlap
     ethr =  6.10E-08,  avg # of iterations =  4.0

     negative rho (up, down):  7.655E-03 0.000E+00

     total cpu time spent up to now is    11512.7 secs

     total energy              =   -8262.71774288 Ry
     estimated scf accuracy    <       0.00030024 Ry

     iteration #  3     ecut=    45.00 Ry     beta= 0.25
     Davidson diagonalization with overlap
     ethr =  2.61E-08,  avg # of iterations =  2.4

     negative rho (up, down):  7.655E-03 0.000E+00

     total cpu time spent up to now is    11637.8 secs

     total energy              =   -8262.71776498 Ry
     estimated scf accuracy    <       0.00003911 Ry

     iteration #  4     ecut=    45.00 Ry     beta= 0.25
     Davidson diagonalization with overlap
     ethr =  3.39E-09,  avg # of iterations =  4.0

     negative rho (up, down):  7.655E-03 0.000E+00

     total cpu time spent up to now is    11757.2 secs

     total energy              =   -8262.71776693 Ry
     estimated scf accuracy    <       0.00001502 Ry

     iteration #  5     ecut=    45.00 Ry     beta= 0.25
     Davidson diagonalization with overlap
     ethr =  1.30E-09,  avg # of iterations =  2.0

     negative rho (up, down):  7.655E-03 0.000E+00

     total cpu time spent up to now is    11881.6 secs

     total energy              =   -8262.71776782 Ry
     estimated scf accuracy    <       0.00000318 Ry

     iteration #  6     ecut=    45.00 Ry     beta= 0.25
     Davidson diagonalization with overlap
     ethr =  2.76E-10,  avg # of iterations =  3.7

     negative rho (up, down):  7.655E-03 0.000E+00

     total cpu time spent up to now is    12011.1 secs

     total energy              =   -8262.71776826 Ry
     estimated scf accuracy    <       0.00000084 Ry

     iteration #  7     ecut=    45.00 Ry     beta= 0.25
     Davidson diagonalization with overlap
     ethr =  7.32E-11,  avg # of iterations =  4.0

     negative rho (up, down):  7.655E-03 0.000E+00

     total cpu time spent up to now is    12149.9 secs

     total energy              =   -8262.71776845 Ry
     estimated scf accuracy    <       0.00000041 Ry

     iteration #  8     ecut=    45.00 Ry     beta= 0.25
     Davidson diagonalization with overlap
     ethr =  3.53E-11,  avg # of iterations =  2.2

     negative rho (up, down):  7.655E-03 0.000E+00

     total cpu time spent up to now is    12273.1 secs

     End of self-consistent calculation

          k = 0.0000 0.0000 0.0000 (165739 PWs)   bands (ev):

   -46.5255 -46.5080 -46.5080 -46.5079 -46.5079 -46.4987 -46.4987 -46.4987
   -46.4987 -46.4820 -46.4820 -46.4820 -46.4820 -46.4745 -46.4745 -46.4745
   -46.4745 -46.4586 -46.3862 -46.3676 -46.3675 -46.3675 -46.3674 -46.3576
   -46.3575 -46.3574 -46.3574 -46.3401 -46.3400 -46.3399 -46.3399 -46.3327
   -46.3327 -46.3326 -46.3325 -46.3164 -46.1919 -46.1715 -46.1714 -46.1714
   -46.1714 -46.1597 -46.1597 -46.1597 -46.1597 -46.1401 -46.1401 -46.1400
   -46.1400 -46.1328 -46.1328 -46.1328 -46.1327 -46.1155 -46.0936 -46.0838
   -46.0837 -46.0837 -46.0836 -46.0807 -46.0807 -46.0806 -46.0805 -46.0689
   -46.0688 -46.0688 -46.0686 -46.0594 -46.0594 -46.0594 -46.0592 -46.0440
   -25.3963 -25.3931 -25.3931 -25.3931 -25.3931 -25.3823 -25.3823 -25.3822
   -25.3822 -25.3781 -25.3781 -25.3781 -25.3780 -25.3405 -25.3405 -25.3404
   -25.3404 -25.3362 -25.3362 -25.3362 -25.3362 -25.2948 -25.2948 -25.2948
   -25.2948 -25.2897 -25.2824 -25.2824 -25.2823 -25.2823 -25.2790 -25.2722
   -25.2722 -25.2722 -25.2722 -25.2622 -25.2621 -25.2621 -25.2620 -25.2532
   -25.2532 -25.2263 -25.2263 -25.2263 -25.2262 -25.2258 -25.2258 -25.2258
   -25.2257 -25.1997 -25.1997 -25.1997 -25.1997 -25.1788 -25.1788 -25.1788
   -25.1788 -25.1766 -25.1766 -25.1765 -25.1765 -25.1567 -25.1503 -25.1503
   -25.0994 -25.0994 -25.0993 -25.0993 -25.0885 -25.0884 -25.0884 -25.0884
   -25.0744 -25.0744 -25.0744 -25.0744 -25.0730 -25.0730 -25.0729 -25.0729
   -25.0308 -25.0308 -25.0308 -25.0308 -25.0124 -25.0123 -25.0123 -25.0123
   -25.0097 -25.0097 -25.0042 -25.0041 -25.0041 -25.0041 -25.0030 -25.0030
   -25.0029 -25.0029 -24.9975 -24.9975 -24.9974 -24.9974 -24.9657 -24.9657
   -24.9657 -24.9657 -24.9637 -24.9637 -24.9637 -24.9637 -24.9625 -24.9572
   -24.9572 -24.9412 -24.9411 -24.9411 -24.9411 -24.9176 -24.9175 -24.9175
   -24.9175 -24.9116 -24.9116 -24.9116 -24.9116 -24.8802 -24.8802 -24.8802
   -24.8801 -24.8709 -24.8709 -24.8709 -24.8709 -24.8470 -24.8470 -24.8470
   -24.8470 -24.8470 -24.8469 -24.8399 -24.8399 -24.8334 -24.8259 -24.8259
   -24.8259 -24.8258 -24.8007 -24.8007 -24.8007 -24.8006 -24.7881 -24.7880
   -24.7880 -24.7880 -24.7854 -24.7854 -24.7853 -24.7853 -24.7673 -24.7549
   -24.7549 -24.7549 -24.7549 -24.7490 -24.7490 -24.7490 -24.7489 -24.7403
   -24.7403 -24.7402 -24.7402 -24.7285 -24.7285 -24.7272 -24.7272 -24.7272
   -24.7272 -24.6985 -24.6985 -24.6985 -24.6984 -24.6925 -24.6925 -24.6924
   -24.6924 -24.6842 -24.6841 -24.6841 -24.6841 -24.6822 -24.6810 -24.6810
   -24.6810 -24.6809 -24.6807 -24.6807 -24.6807 -24.6807 -24.6687 -24.6687
   -24.6687 -24.6686 -24.6567 -24.6567 -24.6567 -24.6566 -24.6337 -24.6337
   -24.6337 -24.6336 -24.6081 -24.6081 -24.6019 -24.6019 -24.6019 -24.6019
   -11.8922 -11.3857 -11.3856 -11.3856 -11.3856 -11.3037 -10.9808 -10.9668
   -10.9296 -10.9296 -10.9295 -10.9295 -10.8899 -10.8899 -10.8899 -10.8898
   -10.8895 -10.8895 -10.8895 -10.8894 -10.8750 -10.7815 -10.7155 -10.7155
   -10.7154 -10.7154 -10.5656 -10.5655 -10.5655 -10.5654 -10.5533 -10.5533
   -10.5533 -10.5533 -10.5506 -10.5505 -10.5505 -10.5505 -10.5022 -10.5022
   -10.5022 -10.5022 -10.3997 -10.3894 -10.3894 -10.3894 -10.3894 -10.3520
   -10.2343 -10.2343 -10.2343 -10.2343 -10.1640 -10.1640 -10.1639 -10.1639
   -10.1577 -10.1577 -10.1577 -10.1577 -10.0463 -10.0462 -10.0462 -10.0462
    -9.9884  -9.9884  -9.9884  -9.9884  -9.9384  -9.9384  -9.9383  -9.9383
    -2.3380  -2.3380  -2.3379  -2.3379  -2.3237  -2.3236  -2.3236  -2.3236
    -2.1866  -2.1865  -2.1865  -2.1865  -2.1352  -2.1351  -2.1351  -2.1351
    -1.7153  -1.7153  -1.7152  -1.7152  -1.6528  -1.6527  -1.6527  -1.6527
    -1.6252  -1.6252  -1.6251  -1.6251  -1.6194  -1.6194  -1.6194  -1.6194
    -1.5162  -1.5162  -1.5162  -1.5161  -1.4118  -1.4118  -1.4118  -1.4118
    -1.3319  -1.3017  -1.3016  -1.3016  -1.3016  -1.1933  -1.1933  -1.1933
    -1.1932  -1.1888  -1.1888  -1.1888  -1.1887  -1.0029  -1.0029  -0.9477
    -0.8893  -0.8893  -0.8893  -0.8893  -0.6512  -0.6512  -0.6349  -0.6349
    -0.6349  -0.6349  -0.6329  -0.6329  -0.6329  -0.6329  -0.5976  -0.5975
    -0.5975  -0.5975  -0.5864  -0.5864  -0.5864  -0.5864  -0.5270  -0.5270
    -0.5269  -0.5269  -0.4600  -0.4600  -0.4599  -0.4599  -0.4425  -0.4425
    -0.4424  -0.4424  -0.4052  -0.4051  -0.4051  -0.4051  -0.3972  -0.3971
    -0.3971  -0.3971  -0.3678  -0.3678  -0.3678  -0.3677  -0.2991  -0.2991
    -0.2991  -0.2991  -0.2487  -0.2487  -0.2487  -0.2487  -0.2285  -0.2285
    -0.2284  -0.2284  -0.1965  -0.1862  -0.1862  -0.1861  -0.1861  -0.1754
    -0.1535  -0.1534  -0.1534  -0.1534  -0.1449  -0.1449  -0.1449  -0.1449
    -0.1024  -0.0875  -0.0875  -0.0875  -0.0875  -0.0498  -0.0497  -0.0497
    -0.0497  -0.0482  -0.0482  -0.0482  -0.0482  -0.0347  -0.0346  -0.0346
    -0.0346   0.0550   0.0550   0.1177   0.1177   0.1177   0.1178   0.1262
     0.1262   0.1262   0.1262   0.1307   0.1307   0.1308   0.1308   0.1604
     0.1605   0.1605   0.1605   0.1664   0.1664   0.1664   0.1665   0.1779
     0.1779   0.1780   0.1780   0.2070   0.2071   0.2071   0.2071   0.3088
     0.3088   0.3089   0.3089   0.3848   0.3848   0.3848   0.3848   0.7347
     0.7347   0.7347   0.7347   0.7668   0.7668   0.7668   0.7668   0.7669
     0.8068   0.8068   0.8154   0.8154   0.8155   0.8155   0.8293   0.8293
     0.8293   0.8294   1.0025   1.0025   1.1823   1.2094   1.2094   1.2351
     1.2351   1.2351   1.2351   1.2457   1.7659   1.7659   2.0345   2.0345
     2.1072   2.6851   2.6851   2.6882   3.1025   3.1026   3.1026   3.1027
     3.4947   3.8946   4.1179   4.1179   4.1180   4.1180   4.1844   4.1871
     4.1871   4.3922   4.3922   4.3923   4.3923   4.4175   4.4175   4.4175
     4.4176   4.4215   4.4216   4.4216   4.4216   4.4221   4.5052   4.5053
     4.5053   4.5053   4.5445   4.5445   4.5445   4.5445   4.5656   4.5656
     4.5657   4.5657   4.6964   4.6964   4.6964   4.6965   4.7395   4.7395
     4.7395   4.7395   4.7847   4.7847   4.7849   4.7849   4.8605   4.8605
     4.8791   4.8792   4.8792   4.8793   5.1450   5.2389   5.2390   5.2390
     5.2391   5.2457   5.2457   5.2457   5.2458   5.3106   5.3107   5.3107
     5.3107   5.3370   5.3371   5.3371   5.3372   5.4489   5.4489   5.4490
     5.4490   5.4525   5.4525   5.4526   5.4526   5.4645   5.4645   5.4645
     5.4645   5.5561   5.5561   5.5561   5.5562   5.6661   5.6662   5.6663
     5.6663   5.7166   5.7890   5.7908   5.7908   5.8212   5.8212   5.8212
     5.8213   5.8661   5.8661   5.8823   5.8824   5.8825   5.8826   5.9261
     5.9562   5.9613   5.9861

          k = 0.0000 0.2500 0.0000 (165664 PWs)   bands (ev):

   -46.5243 -46.5151 -46.5073 -46.5073 -46.5025 -46.5025 -46.4997 -46.4944
   -46.4944 -46.4858 -46.4858 -46.4824 -46.4788 -46.4788 -46.4750 -46.4750
   -46.4678 -46.4596 -46.3849 -46.3751 -46.3668 -46.3668 -46.3615 -46.3615
   -46.3588 -46.3529 -46.3529 -46.3439 -46.3439 -46.3407 -46.3368 -46.3368
   -46.3331 -46.3331 -46.3258 -46.3175 -46.1905 -46.1798 -46.1706 -46.1706
   -46.1645 -46.1644 -46.1618 -46.1544 -46.1544 -46.1442 -46.1442 -46.1417
   -46.1368 -46.1368 -46.1332 -46.1332 -46.1254 -46.1166 -46.0930 -46.0880
   -46.0836 -46.0835 -46.0821 -46.0821 -46.0786 -46.0785 -46.0784 -46.0725
   -46.0724 -46.0659 -46.0652 -46.0651 -46.0601 -46.0600 -46.0533 -46.0451
   -25.3979 -25.3979 -25.3949 -25.3934 -25.3934 -25.3870 -25.3870 -25.3851
   -25.3790 -25.3790 -25.3699 -25.3671 -25.3671 -25.3502 -25.3502 -25.3490
   -25.3403 -25.3403 -25.3249 -25.3249 -25.3222 -25.3168 -25.3168 -25.2956
   -25.2915 -25.2915 -25.2853 -25.2852 -25.2779 -25.2762 -25.2762 -25.2692
   -25.2657 -25.2656 -25.2637 -25.2637 -25.2542 -25.2481 -25.2476 -25.2418
   -25.2418 -25.2373 -25.2368 -25.2368 -25.2348 -25.2348 -25.2273 -25.2273
   -25.2207 -25.2099 -25.2099 -25.2096 -25.2080 -25.2045 -25.2045 -25.1786
   -25.1720 -25.1451 -25.1430 -25.1427 -25.1427 -25.1361 -25.1318 -25.1318
   -25.1314 -25.1314 -25.1297 -25.1283 -25.1283 -25.1050 -25.1030 -25.0844
   -25.0844 -25.0760 -25.0664 -25.0653 -25.0653 -25.0641 -25.0376 -25.0376
   -25.0355 -25.0337 -25.0337 -25.0319 -25.0319 -25.0316 -25.0201 -25.0149
   -25.0149 -25.0121 -25.0096 -25.0095 -25.0051 -25.0003 -24.9981 -24.9980
   -24.9949 -24.9949 -24.9904 -24.9904 -24.9898 -24.9886 -24.9801 -24.9801
   -24.9704 -24.9704 -24.9697 -24.9650 -24.9622 -24.9550 -24.9459 -24.9459
   -24.9429 -24.9399 -24.9399 -24.9363 -24.9363 -24.9207 -24.9207 -24.9146
   -24.9146 -24.9136 -24.9104 -24.9104 -24.9077 -24.8853 -24.8819 -24.8819
   -24.8804 -24.8804 -24.8717 -24.8658 -24.8579 -24.8578 -24.8568 -24.8568
   -24.8487 -24.8487 -24.8452 -24.8440 -24.8430 -24.8411 -24.8350 -24.8181
   -24.8181 -24.8178 -24.8125 -24.8032 -24.8022 -24.8022 -24.7857 -24.7857
   -24.7853 -24.7853 -24.7791 -24.7790 -24.7709 -24.7708 -24.7680 -24.7680
   -24.7615 -24.7594 -24.7468 -24.7468 -24.7468 -24.7413 -24.7412 -24.7398
   -24.7398 -24.7382 -24.7382 -24.7348 -24.7348 -24.7334 -24.7298 -24.7233
   -24.7142 -24.7142 -24.7098 -24.7098 -24.7011 -24.7011 -24.7000 -24.7000
   -24.6985 -24.6985 -24.6978 -24.6977 -24.6968 -24.6968 -24.6843 -24.6843
   -24.6828 -24.6827 -24.6747 -24.6684 -24.6625 -24.6625 -24.6605 -24.6495
   -24.6495 -24.6488 -24.6488 -24.6474 -24.6474 -24.6437 -24.6405 -24.6348
   -24.6347 -24.6345 -24.6147 -24.6123 -24.6077 -24.6077 -24.6071 -24.6071
   -11.8539 -11.5800 -11.3507 -11.3507 -11.2707 -11.1930 -11.1025 -11.1024
   -11.0411 -10.9646 -10.9470 -10.9306 -10.8976 -10.8620 -10.8619 -10.8612
   -10.8612 -10.8456 -10.7986 -10.7636 -10.7635 -10.7583 -10.7504 -10.6981
   -10.6980 -10.6757 -10.6757 -10.6682 -10.6682 -10.6670 -10.6404 -10.5969
   -10.5968 -10.5669 -10.5668 -10.5339 -10.4747 -10.4747 -10.4687 -10.4687
   -10.4625 -10.4625 -10.3819 -10.3733 -10.3613 -10.3613 -10.3341 -10.2842
   -10.2842 -10.2773 -10.2593 -10.2299 -10.2209 -10.2118 -10.2118 -10.1690
   -10.1690 -10.1433 -10.1433 -10.1408 -10.0664 -10.0664 -10.0438 -10.0438
   -10.0114 -10.0114  -9.9490  -9.9490  -9.9443  -9.9442  -9.8904  -9.8904
    -2.4772  -2.4771  -2.4601  -2.4601  -2.3932  -2.3931  -2.3586  -2.3586
    -2.1244  -2.1244  -2.1040  -2.1040  -1.9349  -1.9349  -1.8508  -1.8508
    -1.8034  -1.7637  -1.7637  -1.7631  -1.7631  -1.7301  -1.7301  -1.7292
    -1.6854  -1.6854  -1.6537  -1.6537  -1.6511  -1.5640  -1.5640  -1.5240
    -1.5229  -1.5013  -1.5013  -1.4904  -1.4904  -1.4299  -1.4299  -1.4213
    -1.3871  -1.3726  -1.3726  -1.3404  -1.3013  -1.2432  -1.2432  -1.1215
    -1.1001  -1.1001  -1.0828  -0.9980  -0.9909  -0.9843  -0.9842  -0.9637
    -0.9478  -0.9477  -0.9364  -0.9364  -0.7969  -0.7963  -0.6840  -0.6760
    -0.6759  -0.6556  -0.6556  -0.6454  -0.6292  -0.6292  -0.6048  -0.6048
    -0.5891  -0.5632  -0.5512  -0.5512  -0.5300  -0.5299  -0.5252  -0.5252
    -0.5135  -0.5134  -0.5100  -0.5100  -0.4954  -0.4953  -0.4817  -0.4817
    -0.4800  -0.4799  -0.4736  -0.4624  -0.4624  -0.4489  -0.4488  -0.4314
    -0.4314  -0.4314  -0.3697  -0.3697  -0.3493  -0.3361  -0.3361  -0.3341
    -0.3217  -0.3076  -0.3036  -0.2992  -0.2992  -0.2804  -0.2340  -0.2340
    -0.2059  -0.2059  -0.1882  -0.1882  -0.1682  -0.1682  -0.1658  -0.1410
    -0.1410  -0.1388  -0.1387  -0.1342  -0.1185  -0.1082  -0.1036  -0.1036
    -0.0962  -0.0961  -0.0899  -0.0898  -0.0668  -0.0668  -0.0407  -0.0363
    -0.0363   0.0029   0.0029   0.0134   0.0211   0.0211   0.0253   0.0253
     0.0282   0.0282   0.0603   0.0762   0.0871   0.0872   0.0882   0.1038
     0.1107   0.1118   0.1126   0.1126   0.1350   0.1350   0.1454   0.1455
     0.1656   0.1656   0.1981   0.1981   0.2371   0.2525   0.2620   0.2620
     0.2680   0.2919   0.3150   0.3150   0.3558   0.3558   0.3709   0.3710
     0.4176   0.4176   0.4212   0.4573   0.4573   0.5405   0.5475   0.5902
     0.6634   0.6634   0.6645   0.6843   0.7104   0.7104   0.7247   0.7339
     0.7369   0.7369   0.7616   0.7617   0.7997   0.8005   0.8043   0.8581
     0.8590   0.8676   0.9613   1.0326   1.0544   1.0600   1.0629   1.0908
     1.0921   1.0921   1.2004   1.4500   1.5785   1.6112   1.7737   1.9163
     2.4072   2.7114   2.8556   2.9214   2.9314   3.2266   3.2267   3.3285
     3.6365   3.6708   3.8299   3.8685   3.9264   4.0393   4.0394   4.0596
     4.1805   4.1806   4.1885   4.2071   4.2618   4.3215   4.3673   4.3854
     4.3855   4.4076   4.4137   4.4183   4.4184   4.4494   4.4495   4.4534
     4.4535   4.5458   4.5458   4.5676   4.6074   4.6074   4.6758   4.6774
     4.6774   4.6868   4.6869   4.6900   4.6942   4.7347   4.7348   4.8118
     4.8407   4.8408   4.8423   4.8439   4.8439   4.8721   4.8722   4.9054
     4.9555   4.9762   4.9762   5.0388   5.0502   5.0503   5.0606   5.0721
     5.1083   5.1083   5.1469   5.1584   5.1584   5.1957   5.2419   5.2419
     5.2439   5.2439   5.2464   5.2464   5.3337   5.3337   5.3688   5.3688
     5.4306   5.4906   5.5121   5.5616   5.5811   5.5811   5.5821   5.5821
     5.5933   5.6521   5.6522   5.6660   5.6660   5.7255   5.7453   5.7453
     5.7492   5.7492   5.7570   5.7600   5.7724   5.7984   5.7984   5.8126
     5.8539   5.8539   5.8555   5.8556   5.8784   5.8792   5.9140   5.9140
     5.9412   5.9412   5.9831

          k = 0.0000-0.5000 0.0000 (165810 PWs)   bands (ev):

   -46.5207 -46.5207 -46.5054 -46.5054 -46.5054 -46.5054 -46.4910 -46.4909
   -46.4900 -46.4900 -46.4900 -46.4900 -46.4764 -46.4764 -46.4764 -46.4764
   -46.4628 -46.4628 -46.3811 -46.3811 -46.3648 -46.3647 -46.3647 -46.3646
   -46.3497 -46.3496 -46.3483 -46.3483 -46.3482 -46.3482 -46.3346 -46.3345
   -46.3345 -46.3344 -46.3207 -46.3207 -46.1864 -46.1864 -46.1682 -46.1682
   -46.1682 -46.1682 -46.1516 -46.1516 -46.1491 -46.1491 -46.1491 -46.1491
   -46.1346 -46.1346 -46.1345 -46.1345 -46.1199 -46.1199 -46.0911 -46.0911
   -46.0831 -46.0830 -46.0830 -46.0829 -46.0759 -46.0759 -46.0757 -46.0757
   -46.0725 -46.0723 -46.0622 -46.0621 -46.0621 -46.0620 -46.0484 -46.0483
   -25.3986 -25.3986 -25.3986 -25.3986 -25.3910 -25.3909 -25.3820 -25.3820
   -25.3820 -25.3820 -25.3603 -25.3603 -25.3517 -25.3517 -25.3517 -25.3517
   -25.3449 -25.3449 -25.3449 -25.3449 -25.3080 -25.3080 -25.2919 -25.2919
   -25.2918 -25.2918 -25.2822 -25.2822 -25.2822 -25.2822 -25.2747 -25.2747
   -25.2683 -25.2682 -25.2682 -25.2682 -25.2463 -25.2462 -25.2458 -25.2457
   -25.2457 -25.2457 -25.2353 -25.2353 -25.2333 -25.2332 -25.2295 -25.2295
   -25.2295 -25.2295 -25.1908 -25.1908 -25.1850 -25.1850 -25.1850 -25.1850
   -25.1709 -25.1709 -25.1709 -25.1709 -25.1554 -25.1554 -25.1296 -25.1296
   -25.1196 -25.1196 -25.1057 -25.1057 -25.1057 -25.1057 -25.1047 -25.1047
   -25.0807 -25.0807 -25.0807 -25.0807 -25.0587 -25.0587 -25.0520 -25.0519
   -25.0519 -25.0519 -25.0262 -25.0261 -25.0181 -25.0180 -25.0180 -25.0180
   -25.0174 -25.0174 -25.0079 -25.0079 -25.0079 -25.0079 -24.9953 -24.9952
   -24.9914 -24.9914 -24.9912 -24.9912 -24.9912 -24.9912 -24.9769 -24.9769
   -24.9620 -24.9620 -24.9620 -24.9620 -24.9528 -24.9528 -24.9445 -24.9445
   -24.9347 -24.9347 -24.9347 -24.9347 -24.9204 -24.9204 -24.9204 -24.9204
   -24.9159 -24.9159 -24.9159 -24.9159 -24.9046 -24.9046 -24.9046 -24.9046
   -24.8715 -24.8715 -24.8675 -24.8675 -24.8607 -24.8607 -24.8570 -24.8570
   -24.8459 -24.8459 -24.8312 -24.8312 -24.8304 -24.8304 -24.8304 -24.8304
   -24.8237 -24.8237 -24.8236 -24.8236 -24.7974 -24.7974 -24.7974 -24.7973
   -24.7945 -24.7945 -24.7765 -24.7765 -24.7580 -24.7580 -24.7580 -24.7579
   -24.7480 -24.7479 -24.7457 -24.7456 -24.7383 -24.7383 -24.7383 -24.7383
   -24.7361 -24.7360 -24.7360 -24.7360 -24.7306 -24.7306 -24.7306 -24.7306
   -24.7287 -24.7286 -24.7202 -24.7202 -24.7202 -24.7201 -24.7133 -24.7132
   -24.6983 -24.6983 -24.6983 -24.6982 -24.6948 -24.6948 -24.6948 -24.6948
   -24.6707 -24.6707 -24.6706 -24.6706 -24.6547 -24.6546 -24.6521 -24.6520
   -24.6417 -24.6417 -24.6417 -24.6416 -24.6308 -24.6307 -24.6244 -24.6244
   -24.6242 -24.6242 -24.6241 -24.6241 -24.6223 -24.6223 -24.6222 -24.6222
   -11.7445 -11.7445 -11.2511 -11.2511 -11.2511 -11.2511 -11.1774 -11.1773
   -11.0337 -11.0336 -10.9306 -10.9306 -10.8853 -10.8853 -10.7851 -10.7851
   -10.7850 -10.7850 -10.7814 -10.7813 -10.7813 -10.7813 -10.7624 -10.7624
   -10.6788 -10.6787 -10.6625 -10.6625 -10.6524 -10.6524 -10.6523 -10.6523
   -10.6356 -10.6356 -10.6356 -10.6355 -10.4322 -10.4322 -10.4322 -10.4321
   -10.3973 -10.3972 -10.3972 -10.3972 -10.3350 -10.3350 -10.2854 -10.2853
   -10.2825 -10.2824 -10.2824 -10.2824 -10.2773 -10.2772 -10.1714 -10.1713
   -10.1501 -10.1501 -10.1501 -10.1501 -10.0872 -10.0871 -10.0871 -10.0871
    -9.9683  -9.9682  -9.9682  -9.9682  -9.8889  -9.8889  -9.8888  -9.8888
    -2.4986  -2.4986  -2.4986  -2.4985  -2.4744  -2.4743  -2.4743  -2.4743
    -1.9088  -1.9087  -1.9087  -1.9087  -1.8657  -1.8657  -1.8657  -1.8657
    -1.7724  -1.7723  -1.7723  -1.7723  -1.7710  -1.7709  -1.7091  -1.7091
    -1.7090  -1.7090  -1.6925  -1.6925  -1.6925  -1.6925  -1.6911  -1.6911
    -1.5722  -1.5722  -1.5722  -1.5722  -1.3677  -1.3677  -1.3641  -1.3641
    -1.3641  -1.3641  -1.2842  -1.2842  -1.2370  -1.2369  -1.1916  -1.1915
    -1.1915  -1.1915  -1.0868  -1.0868  -1.0162  -1.0162  -0.9814  -0.9814
    -0.7941  -0.7941  -0.7940  -0.7940  -0.7650  -0.7650  -0.7649  -0.7649
    -0.7257  -0.7256  -0.6611  -0.6611  -0.6439  -0.6439  -0.6263  -0.6263
    -0.6173  -0.6173  -0.6173  -0.6173  -0.6034  -0.6034  -0.6034  -0.6033
    -0.5348  -0.5348  -0.5348  -0.5348  -0.5294  -0.5293  -0.5293  -0.5293
    -0.4861  -0.4861  -0.4861  -0.4860  -0.4450  -0.4450  -0.4449  -0.4449
    -0.3840  -0.3840  -0.3373  -0.3372  -0.3222  -0.3221  -0.3221  -0.3221
    -0.3016  -0.3016  -0.3016  -0.3016  -0.2942  -0.2942  -0.2681  -0.2680
    -0.2680  -0.2679  -0.2149  -0.2149  -0.2149  -0.2149  -0.1750  -0.1750
    -0.1250  -0.1250  -0.1250  -0.1250  -0.0969  -0.0969  -0.0904  -0.0904
    -0.0903  -0.0903  -0.0896  -0.0895  -0.0895  -0.0895  -0.0208  -0.0208
    -0.0207  -0.0207   0.0517   0.0517   0.0517   0.0517   0.0775   0.0775
     0.0862   0.0862   0.0862   0.0862   0.1052   0.1053   0.1053   0.1053
     0.1128   0.1128   0.1369   0.1369   0.1369   0.1369   0.1417   0.1418
     0.2608   0.2608   0.2608   0.2608   0.3295   0.3296   0.3772   0.3773
     0.4326   0.4327   0.4686   0.4686   0.4686   0.4687   0.4842   0.4843
     0.5103   0.5103   0.5103   0.5103   0.5843   0.5843   0.5844   0.5844
     0.6184   0.6184   0.6185   0.6185   0.6257   0.6257   0.6781   0.6782
     0.6849   0.6849   0.7483   0.7484   0.7562   0.7562   0.7562   0.7562
     0.7994   0.7995   0.8474   0.8474   0.9381   0.9381   1.1010   1.1011
     1.1599   1.1599   1.1851   1.1852   1.3291   1.3292   1.6902   1.6903
     2.7903   2.7904   2.9784   2.9785   3.2779   3.2779   3.4460   3.4460
     3.5649   3.5649   3.5649   3.5650   3.5891   3.5892   4.0234   4.0235
     4.0912   4.0913   4.2673   4.2673   4.3439   4.3440   4.3440   4.3440
     4.3907   4.3907   4.3907   4.3907   4.4443   4.4445   4.4891   4.4891
     4.5279   4.5279   4.5280   4.5280   4.5680   4.5680   4.5681   4.5681
     4.6744   4.6745   4.6787   4.6787   4.7952   4.7952   4.7952   4.7952
     4.8137   4.8137   4.8137   4.8138   4.8677   4.8677   4.8773   4.8773
     4.8773   4.8773   4.9399   4.9399   5.0028   5.0029   5.0029   5.0030
     5.1352   5.1352   5.1352   5.1352   5.2097   5.2098   5.2685   5.2685
     5.2686   5.2686   5.3385   5.3385   5.3386   5.3386   5.3458   5.3458
     5.3702   5.3703   5.5019   5.5019   5.5020   5.5020   5.6597   5.6597
     5.7155   5.7155   5.7270   5.7270   5.7270   5.7270   5.7508   5.7508
     5.7509   5.7509   5.8435   5.8435   5.8435   5.8436   5.8608   5.8608
     5.8944   5.8944   5.8944   5.8944   5.9142   5.9142   5.9184   5.9185
     5.9195   5.9196   5.9324

          k = 0.2500 0.2500 0.0000 (165752 PWs)   bands (ev):

   -46.5231 -46.5143 -46.5143 -46.5076 -46.4993 -46.4993 -46.4965 -46.4965
   -46.4921 -46.4876 -46.4843 -46.4843 -46.4826 -46.4826 -46.4742 -46.4686
   -46.4686 -46.4607 -46.3836 -46.3742 -46.3741 -46.3670 -46.3584 -46.3583
   -46.3553 -46.3552 -46.3504 -46.3457 -46.3425 -46.3424 -46.3410 -46.3409
   -46.3322 -46.3266 -46.3265 -46.3185 -46.1891 -46.1788 -46.1788 -46.1707
   -46.1612 -46.1612 -46.1573 -46.1573 -46.1513 -46.1460 -46.1430 -46.1430
   -46.1418 -46.1418 -46.1319 -46.1261 -46.1261 -46.1177 -46.0924 -46.0876
   -46.0876 -46.0847 -46.0788 -46.0787 -46.0785 -46.0785 -46.0779 -46.0748
   -46.0701 -46.0700 -46.0665 -46.0664 -46.0605 -46.0542 -46.0541 -46.0462
   -25.4062 -25.4045 -25.3937 -25.3873 -25.3873 -25.3859 -25.3851 -25.3851
   -25.3784 -25.3784 -25.3719 -25.3719 -25.3682 -25.3548 -25.3528 -25.3528
   -25.3524 -25.3263 -25.3263 -25.3180 -25.3180 -25.3041 -25.3034 -25.3003
   -25.2986 -25.2875 -25.2874 -25.2770 -25.2730 -25.2729 -25.2726 -25.2697
   -25.2696 -25.2651 -25.2650 -25.2573 -25.2573 -25.2570 -25.2510 -25.2510
   -25.2510 -25.2505 -25.2447 -25.2447 -25.2381 -25.2302 -25.2170 -25.2170
   -25.2155 -25.2154 -25.2052 -25.2051 -25.1924 -25.1923 -25.1798 -25.1767
   -25.1767 -25.1685 -25.1685 -25.1659 -25.1659 -25.1499 -25.1392 -25.1391
   -25.1212 -25.1140 -25.1140 -25.1101 -25.1055 -25.1055 -25.0921 -25.0921
   -25.0865 -25.0705 -25.0704 -25.0671 -25.0671 -25.0670 -25.0608 -25.0608
   -25.0514 -25.0296 -25.0296 -25.0240 -25.0209 -25.0209 -25.0164 -25.0123
   -25.0082 -25.0073 -25.0073 -25.0054 -25.0054 -24.9992 -24.9992 -24.9988
   -24.9988 -24.9982 -24.9970 -24.9923 -24.9923 -24.9902 -24.9688 -24.9688
   -24.9667 -24.9667 -24.9666 -24.9666 -24.9604 -24.9604 -24.9532 -24.9489
   -24.9483 -24.9482 -24.9332 -24.9277 -24.9277 -24.9269 -24.9164 -24.9163
   -24.9135 -24.9134 -24.9121 -24.9121 -24.9108 -24.9004 -24.8873 -24.8872
   -24.8701 -24.8700 -24.8640 -24.8640 -24.8610 -24.8552 -24.8551 -24.8551
   -24.8531 -24.8531 -24.8424 -24.8424 -24.8385 -24.8351 -24.8280 -24.8280
   -24.8147 -24.8136 -24.8135 -24.8089 -24.8044 -24.8044 -24.8038 -24.7946
   -24.7946 -24.7906 -24.7718 -24.7707 -24.7684 -24.7684 -24.7603 -24.7603
   -24.7566 -24.7532 -24.7532 -24.7516 -24.7502 -24.7451 -24.7451 -24.7368
   -24.7363 -24.7363 -24.7338 -24.7326 -24.7326 -24.7268 -24.7249 -24.7249
   -24.7249 -24.7221 -24.7220 -24.7164 -24.7163 -24.7105 -24.7105 -24.7098
   -24.7003 -24.6849 -24.6824 -24.6816 -24.6816 -24.6814 -24.6814 -24.6774
   -24.6773 -24.6755 -24.6755 -24.6726 -24.6725 -24.6713 -24.6704 -24.6629
   -24.6542 -24.6542 -24.6459 -24.6420 -24.6419 -24.6385 -24.6385 -24.6296
   -24.6256 -24.6242 -24.6242 -24.6222 -24.6222 -24.6071 -24.6034 -24.6024
   -11.8159 -11.5437 -11.5436 -11.2847 -11.2379 -11.1597 -11.1596 -11.0105
   -11.0105 -10.9444 -10.9306 -10.9246 -10.9246 -10.9011 -10.9010 -10.8718
   -10.8718 -10.8162 -10.8011 -10.7833 -10.7833 -10.7323 -10.7322 -10.7195
   -10.7059 -10.6980 -10.6980 -10.6931 -10.6470 -10.6469 -10.6131 -10.6122
   -10.6121 -10.5607 -10.5607 -10.5246 -10.5245 -10.5045 -10.5044 -10.4615
   -10.4497 -10.4158 -10.3986 -10.3638 -10.3467 -10.3467 -10.3159 -10.3014
   -10.2566 -10.2566 -10.2329 -10.2329 -10.2058 -10.2058 -10.2017 -10.2016
   -10.1635 -10.1634 -10.1278 -10.1183 -10.1183 -10.0786 -10.0544 -10.0544
   -10.0447 -10.0447  -9.9726  -9.9726  -9.9405  -9.8847  -9.8582  -9.8341
    -2.6313  -2.6175  -2.5870  -2.5628  -2.2526  -2.2526  -2.2262  -2.2262
    -2.1391  -2.1391  -2.0864  -2.0864  -1.9094  -1.9063  -1.8936  -1.8690
    -1.8637  -1.8607  -1.8607  -1.7968  -1.7968  -1.7286  -1.7142  -1.7141
    -1.7139  -1.6013  -1.6013  -1.5834  -1.5834  -1.5721  -1.5618  -1.5618
    -1.5099  -1.5099  -1.4589  -1.4588  -1.4503  -1.4502  -1.3642  -1.3641
    -1.3507  -1.3405  -1.3405  -1.3257  -1.3179  -1.2580  -1.2580  -1.1714
    -1.1714  -1.0988  -1.0867  -1.0382  -1.0382  -1.0180  -1.0180  -0.9988
    -0.9988  -0.9830  -0.9732  -0.9732  -0.8042  -0.7876  -0.7858  -0.7597
    -0.7597  -0.7053  -0.6712  -0.6505  -0.6499  -0.6152  -0.6120  -0.6119
    -0.5806  -0.5806  -0.5759  -0.5683  -0.5682  -0.5517  -0.5517  -0.5505
    -0.5504  -0.5398  -0.5255  -0.5157  -0.4958  -0.4954  -0.4572  -0.4572
    -0.4370  -0.4370  -0.4156  -0.4155  -0.4072  -0.4072  -0.4055  -0.4055
    -0.3954  -0.3954  -0.3810  -0.3810  -0.3627  -0.3627  -0.3249  -0.3249
    -0.3129  -0.3129  -0.3021  -0.3020  -0.2829  -0.2828  -0.2737  -0.2728
    -0.2284  -0.2145  -0.1958  -0.1906  -0.1870  -0.1870  -0.1807  -0.1766
    -0.1766  -0.1738  -0.1613  -0.1392  -0.1334  -0.1334  -0.1159  -0.1040
    -0.0942  -0.0942  -0.0594  -0.0308  -0.0308  -0.0076  -0.0076  -0.0076
    -0.0075   0.0128   0.0258   0.0391   0.0391   0.0723   0.0813   0.0860
     0.0860   0.1030   0.1083   0.1118   0.1179   0.1302   0.1302   0.1488
     0.1577   0.1577   0.1804   0.1805   0.1872   0.1872   0.1990   0.1990
     0.2198   0.2199   0.2310   0.2310   0.2444   0.2444   0.2724   0.2724
     0.3184   0.3185   0.3347   0.3347   0.3677   0.3677   0.4118   0.4717
     0.4717   0.4855   0.5272   0.5272   0.5359   0.5412   0.5412   0.5505
     0.5767   0.6410   0.6552   0.6552   0.6611   0.6706   0.6781   0.6782
     0.7100   0.7141   0.7141   0.7449   0.7449   0.8150   0.8151   0.8392
     0.8430   0.8803   0.8804   0.9308   0.9308   0.9717   0.9717   1.0307
     1.0532   1.1148   1.2960   1.2960   1.3676   1.5548   1.5880   1.7750
     2.6023   2.8763   2.8767   3.0592   3.0592   3.1015   3.4392   3.4392
     3.7042   3.7042   3.8069   3.8314   3.8314   3.9224   3.9271   3.9499
     3.9499   3.9574   4.1132   4.1132   4.1898   4.1898   4.2118   4.2119
     4.2794   4.2827   4.3404   4.3979   4.4016   4.4017   4.4199   4.4296
     4.4396   4.4396   4.5069   4.5070   4.5477   4.6595   4.6595   4.6763
     4.6817   4.6817   4.6992   4.6993   4.7345   4.7345   4.8500   4.8500
     4.8529   4.8529   4.8762   4.8762   4.8797   4.9456   4.9578   4.9660
     4.9660   4.9759   5.0574   5.0763   5.0777   5.0777   5.0968   5.0968
     5.1220   5.1392   5.1393   5.1555   5.1668   5.1669   5.1801   5.2241
     5.2468   5.3526   5.3527   5.3766   5.3767   5.4286   5.4287   5.4558
     5.4559   5.5000   5.5000   5.5304   5.5367   5.5367   5.5416   5.5416
     5.6029   5.6075   5.6076   5.6159   5.6159   5.6496   5.6496   5.6895
     5.6896   5.7344   5.7513   5.7514   5.7522   5.7854   5.8007   5.8007
     5.8163   5.8825   5.8912   5.8952   5.9035   5.9035   5.9046   5.9306
     5.9516   5.9581   6.0028

          k = 0.2500-0.5000 0.0000 (165780 PWs)   bands (ev):

   -46.5197 -46.5197 -46.5117 -46.5117 -46.4982 -46.4982 -46.4909 -46.4909
   -46.4903 -46.4903 -46.4898 -46.4898 -46.4832 -46.4832 -46.4707 -46.4707
   -46.4637 -46.4637 -46.3799 -46.3799 -46.3714 -46.3714 -46.3571 -46.3571
   -46.3496 -46.3495 -46.3488 -46.3487 -46.3480 -46.3479 -46.3415 -46.3415
   -46.3287 -46.3287 -46.3216 -46.3216 -46.1851 -46.1851 -46.1757 -46.1757
   -46.1597 -46.1597 -46.1514 -46.1514 -46.1500 -46.1499 -46.1485 -46.1484
   -46.1422 -46.1422 -46.1283 -46.1283 -46.1209 -46.1209 -46.0906 -46.0905
   -46.0865 -46.0865 -46.0787 -46.0786 -46.0768 -46.0766 -46.0748 -46.0745
   -46.0728 -46.0726 -46.0679 -46.0679 -46.0568 -46.0567 -46.0494 -46.0493
   -25.4089 -25.4089 -25.3902 -25.3902 -25.3852 -25.3852 -25.3850 -25.3850
   -25.3779 -25.3779 -25.3698 -25.3698 -25.3635 -25.3635 -25.3633 -25.3633
   -25.3375 -25.3375 -25.3120 -25.3120 -25.3069 -25.3069 -25.3057 -25.3056
   -25.2814 -25.2814 -25.2760 -25.2760 -25.2743 -25.2743 -25.2730 -25.2729
   -25.2708 -25.2708 -25.2666 -25.2666 -25.2572 -25.2572 -25.2517 -25.2516
   -25.2515 -25.2515 -25.2513 -25.2512 -25.2321 -25.2321 -25.2208 -25.2208
   -25.2062 -25.2062 -25.1974 -25.1974 -25.1945 -25.1945 -25.1933 -25.1933
   -25.1699 -25.1698 -25.1634 -25.1634 -25.1469 -25.1469 -25.1415 -25.1415
   -25.1411 -25.1411 -25.1179 -25.1179 -25.0983 -25.0983 -25.0943 -25.0943
   -25.0686 -25.0686 -25.0672 -25.0671 -25.0627 -25.0627 -25.0507 -25.0507
   -25.0439 -25.0439 -25.0383 -25.0383 -25.0354 -25.0353 -25.0203 -25.0203
   -25.0180 -25.0180 -25.0045 -25.0045 -24.9960 -24.9959 -24.9931 -24.9931
   -24.9862 -24.9862 -24.9813 -24.9813 -24.9808 -24.9808 -24.9806 -24.9806
   -24.9697 -24.9697 -24.9657 -24.9657 -24.9531 -24.9531 -24.9507 -24.9507
   -24.9442 -24.9442 -24.9435 -24.9435 -24.9385 -24.9385 -24.9256 -24.9256
   -24.9031 -24.9031 -24.9025 -24.9025 -24.8937 -24.8937 -24.8903 -24.8903
   -24.8815 -24.8815 -24.8691 -24.8691 -24.8649 -24.8649 -24.8500 -24.8500
   -24.8429 -24.8429 -24.8355 -24.8355 -24.8321 -24.8321 -24.8251 -24.8251
   -24.8208 -24.8208 -24.8194 -24.8194 -24.8037 -24.8037 -24.8004 -24.8004
   -24.7900 -24.7899 -24.7821 -24.7821 -24.7747 -24.7747 -24.7614 -24.7614
   -24.7514 -24.7514 -24.7430 -24.7430 -24.7426 -24.7425 -24.7424 -24.7424
   -24.7335 -24.7335 -24.7321 -24.7321 -24.7293 -24.7292 -24.7267 -24.7267
   -24.7236 -24.7236 -24.7179 -24.7178 -24.7163 -24.7163 -24.7076 -24.7076
   -24.7067 -24.7067 -24.6999 -24.6999 -24.6786 -24.6785 -24.6776 -24.6776
   -24.6707 -24.6707 -24.6653 -24.6652 -24.6597 -24.6597 -24.6559 -24.6558
   -24.6494 -24.6494 -24.6465 -24.6465 -24.6441 -24.6441 -24.6428 -24.6427
   -24.6420 -24.6419 -24.6112 -24.6112 -24.6096 -24.6096 -24.6086 -24.6086
   -11.7071 -11.7071 -11.4400 -11.4400 -11.1454 -11.1454 -11.0650 -11.0650
   -11.0022 -11.0021 -10.9246 -10.9246 -10.9065 -10.9064 -10.8712 -10.8712
   -10.8181 -10.8181 -10.8005 -10.8005 -10.7825 -10.7824 -10.7437 -10.7437
   -10.7335 -10.7335 -10.6602 -10.6602 -10.6557 -10.6556 -10.6322 -10.6322
   -10.5932 -10.5932 -10.5324 -10.5324 -10.5088 -10.5087 -10.5040 -10.5040
   -10.4216 -10.4216 -10.3941 -10.3941 -10.3159 -10.3159 -10.2719 -10.2719
   -10.2668 -10.2668 -10.2517 -10.2517 -10.2007 -10.2007 -10.1591 -10.1591
   -10.1492 -10.1491 -10.1469 -10.1468 -10.1387 -10.1387 -10.0779 -10.0779
   -10.0567 -10.0567  -9.9846  -9.9845  -9.8809  -9.8809  -9.8198  -9.8197
    -2.6725  -2.6725  -2.6556  -2.6556  -2.2575  -2.2574  -2.2215  -2.2215
    -2.0240  -2.0239  -1.9809  -1.9809  -1.9474  -1.9474  -1.8910  -1.8909
    -1.8762  -1.8762  -1.8357  -1.8357  -1.8094  -1.8094  -1.7640  -1.7640
    -1.6934  -1.6934  -1.6519  -1.6519  -1.5444  -1.5444  -1.5195  -1.5195
    -1.4885  -1.4884  -1.4414  -1.4414  -1.3841  -1.3841  -1.3257  -1.3257
    -1.3122  -1.3121  -1.2668  -1.2668  -1.2366  -1.2366  -1.1974  -1.1974
    -1.1937  -1.1937  -1.1338  -1.1338  -1.1053  -1.1053  -1.0463  -1.0463
    -1.0461  -1.0461  -0.9781  -0.9780  -0.9289  -0.9289  -0.8504  -0.8503
    -0.6723  -0.6723  -0.6441  -0.6441  -0.6024  -0.6024  -0.5878  -0.5878
    -0.5383  -0.5382  -0.5347  -0.5347  -0.5338  -0.5338  -0.5312  -0.5312
    -0.5238  -0.5237  -0.5183  -0.5183  -0.5047  -0.5047  -0.5035  -0.5034
    -0.4752  -0.4752  -0.4715  -0.4715  -0.4420  -0.4420  -0.4412  -0.4412
    -0.4054  -0.4054  -0.3870  -0.3870  -0.3632  -0.3632  -0.3630  -0.3629
    -0.3559  -0.3559  -0.3373  -0.3373  -0.3245  -0.3244  -0.2749  -0.2749
    -0.2227  -0.2227  -0.2118  -0.2117  -0.2000  -0.2000  -0.1810  -0.1810
    -0.1444  -0.1444  -0.1444  -0.1444  -0.1034  -0.1034  -0.0690  -0.0690
    -0.0088  -0.0088  -0.0020  -0.0019   0.0097   0.0097   0.0153   0.0153
     0.0471   0.0471   0.0676   0.0676   0.0907   0.0907   0.0958   0.0958
     0.1144   0.1145   0.1239   0.1239   0.1508   0.1508   0.1656   0.1656
     0.1734   0.1735   0.1750   0.1750   0.1959   0.1959   0.1988   0.1988
     0.3105   0.3106   0.3136   0.3136   0.3190   0.3190   0.3586   0.3586
     0.3608   0.3608   0.3710   0.3710   0.4689   0.4689   0.5177   0.5178
     0.5238   0.5238   0.5405   0.5405   0.5498   0.5498   0.5603   0.5603
     0.5784   0.5784   0.6124   0.6124   0.6419   0.6419   0.6556   0.6557
     0.6847   0.6847   0.7054   0.7054   0.7552   0.7553   0.7952   0.7952
     0.8159   0.8159   0.8491   0.8491   0.9544   0.9545   1.0080   1.0080
     1.0459   1.0459   1.0771   1.0772   1.2791   1.2791   1.5305   1.5306
     2.9425   2.9426   3.0859   3.0860   3.2898   3.2898   3.4251   3.4251
     3.5392   3.5393   3.6862   3.6863   3.7476   3.7476   3.8556   3.8557
     3.9351   3.9352   4.0520   4.0521   4.1700   4.1701   4.1794   4.1794
     4.2870   4.2871   4.3121   4.3121   4.3391   4.3392   4.3584   4.3584
     4.4080   4.4081   4.4418   4.4419   4.5052   4.5052   4.6484   4.6484
     4.7341   4.7342   4.7393   4.7393   4.7544   4.7544   4.7912   4.7913
     4.8332   4.8332   4.8393   4.8394   4.8899   4.8899   4.9523   4.9523
     4.9844   4.9844   5.0509   5.0509   5.1167   5.1168   5.1409   5.1409
     5.1835   5.1836   5.1850   5.1850   5.2278   5.2278   5.2813   5.2813
     5.3089   5.3090   5.3304   5.3304   5.3966   5.3966   5.3979   5.3979
     5.4908   5.4909   5.4912   5.4912   5.4964   5.4964   5.5363   5.5363
     5.6103   5.6103   5.6656   5.6657   5.6765   5.6765   5.7363   5.7363
     5.8040   5.8040   5.8182   5.8182   5.8586   5.8587   5.8647   5.8647
     5.8891   5.8892   5.9341   5.9342   5.9397   5.9397   5.9415   5.9415
     5.9589   5.9589   6.0028

          k =-0.5000-0.5000 0.0000 (165708 PWs)   bands (ev):

   -46.5166 -46.5166 -46.5166 -46.5166 -46.4907 -46.4907 -46.4907 -46.4906
   -46.4906 -46.4906 -46.4906 -46.4906 -46.4897 -46.4897 -46.4664 -46.4664
   -46.4664 -46.4664 -46.3767 -46.3766 -46.3766 -46.3766 -46.3494 -46.3493
   -46.3492 -46.3492 -46.3492 -46.3492 -46.3491 -46.3490 -46.3479 -46.3477
   -46.3244 -46.3243 -46.3243 -46.3242 -46.1815 -46.1814 -46.1814 -46.1814
   -46.1508 -46.1508 -46.1508 -46.1508 -46.1508 -46.1508 -46.1507 -46.1507
   -46.1482 -46.1482 -46.1237 -46.1237 -46.1237 -46.1237 -46.0891 -46.0890
   -46.0890 -46.0890 -46.0771 -46.0769 -46.0737 -46.0737 -46.0736 -46.0735
   -46.0735 -46.0735 -46.0734 -46.0733 -46.0524 -46.0523 -46.0523 -46.0522
   -25.4127 -25.4127 -25.3881 -25.3880 -25.3880 -25.3880 -25.3784 -25.3784
   -25.3721 -25.3721 -25.3721 -25.3721 -25.3721 -25.3721 -25.3721 -25.3721
   -25.3230 -25.3230 -25.3230 -25.3230 -25.3108 -25.3108 -25.2731 -25.2731
   -25.2731 -25.2731 -25.2730 -25.2730 -25.2730 -25.2729 -25.2684 -25.2683
   -25.2683 -25.2683 -25.2683 -25.2683 -25.2683 -25.2682 -25.2591 -25.2591
   -25.2448 -25.2448 -25.2448 -25.2448 -25.2448 -25.2448 -25.2448 -25.2448
   -25.2139 -25.2139 -25.2138 -25.2138 -25.1748 -25.1748 -25.1748 -25.1748
   -25.1616 -25.1616 -25.1616 -25.1615 -25.1460 -25.1460 -25.1460 -25.1460
   -25.1459 -25.1459 -25.1459 -25.1459 -25.0948 -25.0948 -25.0948 -25.0948
   -25.0716 -25.0716 -25.0716 -25.0716 -25.0663 -25.0663 -25.0305 -25.0305
   -25.0305 -25.0305 -25.0305 -25.0305 -25.0305 -25.0305 -25.0214 -25.0214
   -25.0214 -25.0214 -24.9977 -24.9976 -24.9970 -24.9970 -24.9970 -24.9970
   -24.9886 -24.9886 -24.9886 -24.9886 -24.9886 -24.9886 -24.9886 -24.9886
   -24.9612 -24.9612 -24.9611 -24.9611 -24.9515 -24.9515 -24.9515 -24.9515
   -24.9515 -24.9515 -24.9514 -24.9514 -24.9421 -24.9421 -24.9421 -24.9421
   -24.8963 -24.8963 -24.8833 -24.8833 -24.8833 -24.8833 -24.8719 -24.8718
   -24.8718 -24.8718 -24.8718 -24.8718 -24.8717 -24.8717 -24.8568 -24.8568
   -24.8568 -24.8568 -24.8448 -24.8448 -24.8448 -24.8448 -24.8220 -24.8220
   -24.8220 -24.8219 -24.8076 -24.8076 -24.8075 -24.8075 -24.7780 -24.7780
   -24.7780 -24.7780 -24.7755 -24.7755 -24.7755 -24.7755 -24.7755 -24.7755
   -24.7755 -24.7755 -24.7668 -24.7668 -24.7334 -24.7334 -24.7334 -24.7333
   -24.7333 -24.7333 -24.7333 -24.7333 -24.7332 -24.7332 -24.7331 -24.7331
   -24.7325 -24.7324 -24.7149 -24.7149 -24.7149 -24.7149 -24.6846 -24.6846
   -24.6845 -24.6845 -24.6793 -24.6791 -24.6746 -24.6746 -24.6746 -24.6746
   -24.6746 -24.6746 -24.6745 -24.6745 -24.6647 -24.6647 -24.6593 -24.6593
   -24.6592 -24.6592 -24.6592 -24.6592 -24.6591 -24.6591 -24.6451 -24.6451
   -24.6451 -24.6450 -24.6047 -24.6047 -24.6047 -24.6047 -24.6046 -24.6046
   -11.6004 -11.6004 -11.6003 -11.6003 -11.0554 -11.0554 -11.0553 -11.0553
   -10.9132 -10.9132 -10.9131 -10.9131 -10.9131 -10.9131 -10.9131 -10.9130
   -10.8444 -10.8443 -10.8443 -10.8442 -10.8309 -10.8309 -10.8309 -10.8309
   -10.6519 -10.6519 -10.6519 -10.6519 -10.5928 -10.5928 -10.5928 -10.5928
   -10.5927 -10.5927 -10.5927 -10.5926 -10.5466 -10.5466 -10.5466 -10.5465
   -10.4232 -10.4231 -10.4116 -10.4116 -10.2649 -10.2649 -10.2649 -10.2649
   -10.2165 -10.2165 -10.2164 -10.2164 -10.1803 -10.1803 -10.1803 -10.1802
   -10.1802 -10.1802 -10.1802 -10.1802 -10.0791 -10.0791 -10.0790 -10.0790
   -10.0790 -10.0790 -10.0790 -10.0790  -9.8464  -9.8464  -9.7956  -9.7955
    -2.7352  -2.7352  -2.7215  -2.7215  -2.0140  -2.0140  -2.0140  -2.0139
    -2.0139  -2.0139  -2.0139  -2.0139  -2.0005  -2.0004  -1.9605  -1.9605
    -1.9605  -1.9605  -1.9605  -1.9604  -1.9604  -1.9604  -1.9604  -1.9604
    -1.4400  -1.4400  -1.4400  -1.4400  -1.4383  -1.4383  -1.4383  -1.4382
    -1.4208  -1.4207  -1.4207  -1.4207  -1.3566  -1.3565  -1.3565  -1.3565
    -1.3565  -1.3565  -1.3564  -1.3564  -1.2084  -1.2084  -1.2084  -1.2084
    -1.2083  -1.2083  -1.2083  -1.2083  -1.1441  -1.1440  -1.1440  -1.1440
    -1.0491  -1.0490  -1.0490  -1.0490  -1.0315  -1.0315  -1.0315  -1.0315
    -0.6985  -0.6985  -0.6741  -0.6741  -0.5862  -0.5862  -0.5689  -0.5688
    -0.5312  -0.5312  -0.5312  -0.5312  -0.5312  -0.5311  -0.5311  -0.5311
    -0.4789  -0.4789  -0.4789  -0.4788  -0.4788  -0.4788  -0.4788  -0.4788
    -0.3992  -0.3991  -0.3991  -0.3991  -0.3991  -0.3990  -0.3990  -0.3990
    -0.3900  -0.3900  -0.3900  -0.3900  -0.3828  -0.3828  -0.3828  -0.3828
    -0.3319  -0.3319  -0.3318  -0.3318  -0.3054  -0.3054  -0.3054  -0.3054
    -0.3054  -0.3054  -0.3054  -0.3053  -0.2572  -0.2572  -0.2162  -0.2162
    -0.1605  -0.1605  -0.1605  -0.1604  -0.1237  -0.1237  -0.0367  -0.0367
     0.0274   0.0274   0.0274   0.0274   0.0296   0.0296   0.0296   0.0297
     0.0735   0.0735   0.0736   0.0736   0.0736   0.0736   0.0736   0.0736
     0.1708   0.1708   0.1709   0.1709   0.1709   0.1709   0.1709   0.1709
     0.2935   0.2935   0.2935   0.2936   0.3242   0.3243   0.3243   0.3243
     0.3693   0.3693   0.3693   0.3693   0.3976   0.3976   0.3976   0.3976
     0.4573   0.4574   0.4574   0.4575   0.5067   0.5067   0.5067   0.5068
     0.5068   0.5068   0.5068   0.5069   0.5198   0.5198   0.5198   0.5198
     0.5198   0.5198   0.5199   0.5199   0.6043   0.6043   0.6043   0.6044
     0.7225   0.7225   0.7225   0.7225   0.7512   0.7512   0.7512   0.7513
     0.8164   0.8164   0.8164   0.8164   0.8575   0.8576   0.8576   0.8576
     1.0736   1.0736   1.0736   1.0736   1.2173   1.2173   1.2173   1.2173
     3.3342   3.3342   3.3343   3.3343   3.3343   3.3344   3.3344   3.3344
     3.4195   3.4196   3.4196   3.4197   3.8386   3.8386   3.8386   3.8386
     3.9603   3.9604   3.9604   3.9604   3.9605   3.9605   3.9605   3.9606
     4.1407   4.1408   4.1408   4.1408   4.3904   4.3905   4.3906   4.3906
     4.4357   4.4357   4.4358   4.4358   4.5495   4.5496   4.5496   4.5496
     4.5613   4.5613   4.5613   4.5613   4.8692   4.8692   4.8692   4.8692
     4.8692   4.8693   4.8693   4.8693   4.9504   4.9505   4.9505   4.9505
     4.9821   4.9821   4.9821   4.9821   5.1819   5.1819   5.1819   5.1820
     5.2463   5.2464   5.2464   5.2464   5.2464   5.2465   5.2465   5.2465
     5.2540   5.2541   5.3625   5.3625   5.4753   5.4756   5.4756   5.4756
     5.4757   5.4757   5.4758   5.4758   5.5508   5.5508   5.5508   5.5508
     5.7764   5.7765   5.7765   5.7765   5.8108   5.8108   5.8109   5.8109
     5.8221   5.8221   5.8221   5.8221   5.8221   5.8222   5.8222   5.8222
     5.9619   5.9619   5.9619   5.9620   5.9620   5.9620   5.9620   5.9620
     5.9905   5.9935   6.0828

          k = 0.2500 0.0000 0.0000 (165664 PWs)   bands (ev):

   -46.5243 -46.5151 -46.5073 -46.5073 -46.5025 -46.5025 -46.4997 -46.4944
   -46.4944 -46.4858 -46.4858 -46.4824 -46.4788 -46.4788 -46.4750 -46.4750
   -46.4678 -46.4596 -46.3849 -46.3751 -46.3668 -46.3667 -46.3616 -46.3614
   -46.3588 -46.3530 -46.3528 -46.3439 -46.3438 -46.3407 -46.3369 -46.3368
   -46.3332 -46.3330 -46.3258 -46.3175 -46.1905 -46.1798 -46.1706 -46.1706
   -46.1645 -46.1644 -46.1618 -46.1544 -46.1544 -46.1442 -46.1442 -46.1417
   -46.1368 -46.1368 -46.1332 -46.1332 -46.1254 -46.1166 -46.0930 -46.0880
   -46.0836 -46.0835 -46.0822 -46.0820 -46.0786 -46.0785 -46.0784 -46.0725
   -46.0724 -46.0659 -46.0652 -46.0651 -46.0601 -46.0600 -46.0533 -46.0451
   -25.3979 -25.3979 -25.3949 -25.3934 -25.3934 -25.3870 -25.3870 -25.3851
   -25.3790 -25.3790 -25.3699 -25.3671 -25.3671 -25.3502 -25.3502 -25.3490
   -25.3403 -25.3403 -25.3249 -25.3248 -25.3222 -25.3168 -25.3168 -25.2956
   -25.2915 -25.2915 -25.2853 -25.2852 -25.2779 -25.2762 -25.2761 -25.2692
   -25.2657 -25.2656 -25.2637 -25.2636 -25.2542 -25.2481 -25.2476 -25.2418
   -25.2418 -25.2373 -25.2368 -25.2368 -25.2348 -25.2348 -25.2273 -25.2273
   -25.2207 -25.2099 -25.2099 -25.2096 -25.2080 -25.2045 -25.2045 -25.1786
   -25.1720 -25.1451 -25.1430 -25.1427 -25.1427 -25.1361 -25.1318 -25.1318
   -25.1314 -25.1314 -25.1297 -25.1283 -25.1283 -25.1050 -25.1030 -25.0844
   -25.0844 -25.0760 -25.0664 -25.0653 -25.0653 -25.0641 -25.0377 -25.0376
   -25.0355 -25.0337 -25.0337 -25.0319 -25.0319 -25.0316 -25.0201 -25.0149
   -25.0149 -25.0121 -25.0096 -25.0095 -25.0051 -25.0003 -24.9981 -24.9980
   -24.9949 -24.9949 -24.9904 -24.9904 -24.9898 -24.9886 -24.9802 -24.9801
   -24.9705 -24.9704 -24.9697 -24.9650 -24.9622 -24.9550 -24.9459 -24.9458
   -24.9429 -24.9399 -24.9399 -24.9363 -24.9363 -24.9207 -24.9207 -24.9146
   -24.9146 -24.9136 -24.9104 -24.9104 -24.9077 -24.8853 -24.8819 -24.8819
   -24.8804 -24.8803 -24.8717 -24.8658 -24.8579 -24.8578 -24.8568 -24.8568
   -24.8487 -24.8487 -24.8452 -24.8440 -24.8430 -24.8411 -24.8350 -24.8181
   -24.8181 -24.8178 -24.8125 -24.8032 -24.8022 -24.8022 -24.7857 -24.7857
   -24.7853 -24.7853 -24.7791 -24.7790 -24.7709 -24.7708 -24.7680 -24.7679
   -24.7615 -24.7594 -24.7468 -24.7468 -24.7468 -24.7413 -24.7412 -24.7398
   -24.7398 -24.7382 -24.7382 -24.7348 -24.7347 -24.7334 -24.7298 -24.7233
   -24.7142 -24.7142 -24.7098 -24.7098 -24.7011 -24.7011 -24.7000 -24.7000
   -24.6985 -24.6985 -24.6978 -24.6977 -24.6969 -24.6968 -24.6843 -24.6843
   -24.6828 -24.6827 -24.6747 -24.6684 -24.6626 -24.6625 -24.6605 -24.6495
   -24.6495 -24.6488 -24.6488 -24.6474 -24.6474 -24.6437 -24.6405 -24.6348
   -24.6347 -24.6345 -24.6147 -24.6123 -24.6077 -24.6077 -24.6071 -24.6071
   -11.8539 -11.5800 -11.3507 -11.3507 -11.2707 -11.1930 -11.1025 -11.1025
   -11.0411 -10.9646 -10.9470 -10.9306 -10.8976 -10.8620 -10.8619 -10.8612
   -10.8612 -10.8456 -10.7986 -10.7636 -10.7635 -10.7583 -10.7504 -10.6981
   -10.6980 -10.6757 -10.6757 -10.6682 -10.6682 -10.6670 -10.6404 -10.5968
   -10.5968 -10.5669 -10.5669 -10.5339 -10.4747 -10.4747 -10.4687 -10.4687
   -10.4625 -10.4625 -10.3819 -10.3733 -10.3613 -10.3613 -10.3341 -10.2842
   -10.2842 -10.2773 -10.2593 -10.2299 -10.2209 -10.2118 -10.2118 -10.1690
   -10.1689 -10.1433 -10.1433 -10.1408 -10.0664 -10.0664 -10.0438 -10.0438
   -10.0114 -10.0114  -9.9490  -9.9490  -9.9443  -9.9442  -9.8904  -9.8903
    -2.4772  -2.4771  -2.4601  -2.4601  -2.3932  -2.3931  -2.3586  -2.3586
    -2.1244  -2.1244  -2.1040  -2.1040  -1.9349  -1.9349  -1.8508  -1.8508
    -1.8034  -1.7637  -1.7637  -1.7632  -1.7631  -1.7301  -1.7301  -1.7292
    -1.6854  -1.6854  -1.6537  -1.6537  -1.6511  -1.5640  -1.5640  -1.5240
    -1.5229  -1.5013  -1.5012  -1.4904  -1.4904  -1.4299  -1.4299  -1.4213
    -1.3871  -1.3726  -1.3726  -1.3404  -1.3013  -1.2432  -1.2431  -1.1215
    -1.1001  -1.1001  -1.0828  -0.9980  -0.9909  -0.9843  -0.9843  -0.9637
    -0.9478  -0.9477  -0.9364  -0.9364  -0.7969  -0.7963  -0.6840  -0.6760
    -0.6759  -0.6556  -0.6556  -0.6454  -0.6292  -0.6291  -0.6048  -0.6048
    -0.5891  -0.5632  -0.5512  -0.5512  -0.5300  -0.5299  -0.5252  -0.5252
    -0.5135  -0.5134  -0.5100  -0.5100  -0.4954  -0.4953  -0.4818  -0.4817
    -0.4800  -0.4799  -0.4736  -0.4624  -0.4624  -0.4489  -0.4488  -0.4314
    -0.4314  -0.4314  -0.3697  -0.3697  -0.3493  -0.3361  -0.3361  -0.3341
    -0.3217  -0.3076  -0.3036  -0.2992  -0.2991  -0.2804  -0.2340  -0.2340
    -0.2059  -0.2059  -0.1882  -0.1882  -0.1682  -0.1681  -0.1658  -0.1410
    -0.1410  -0.1388  -0.1387  -0.1342  -0.1185  -0.1082  -0.1036  -0.1036
    -0.0962  -0.0961  -0.0899  -0.0898  -0.0668  -0.0668  -0.0407  -0.0363
    -0.0363   0.0029   0.0029   0.0134   0.0211   0.0212   0.0253   0.0253
     0.0282   0.0282   0.0603   0.0762   0.0871   0.0872   0.0882   0.1038
     0.1107   0.1118   0.1126   0.1126   0.1350   0.1350   0.1454   0.1455
     0.1656   0.1656   0.1981   0.1981   0.2371   0.2525   0.2620   0.2620
     0.2680   0.2919   0.3150   0.3150   0.3558   0.3558   0.3709   0.3710
     0.4176   0.4176   0.4212   0.4573   0.4573   0.5405   0.5475   0.5902
     0.6634   0.6634   0.6645   0.6843   0.7104   0.7104   0.7247   0.7339
     0.7369   0.7369   0.7616   0.7617   0.7997   0.8005   0.8043   0.8581
     0.8590   0.8676   0.9613   1.0326   1.0544   1.0600   1.0629   1.0908
     1.0921   1.0921   1.2004   1.4500   1.5785   1.6112   1.7737   1.9163
     2.4072   2.7114   2.8556   2.9214   2.9314   3.2266   3.2267   3.3285
     3.6365   3.6708   3.8299   3.8685   3.9264   4.0393   4.0394   4.0596
     4.1805   4.1806   4.1885   4.2071   4.2618   4.3215   4.3673   4.3854
     4.3855   4.4076   4.4137   4.4183   4.4184   4.4494   4.4495   4.4534
     4.4535   4.5458   4.5459   4.5676   4.6073   4.6074   4.6758   4.6774
     4.6774   4.6868   4.6869   4.6900   4.6942   4.7347   4.7348   4.8118
     4.8407   4.8408   4.8423   4.8439   4.8439   4.8721   4.8722   4.9054
     4.9555   4.9762   4.9762   5.0388   5.0502   5.0503   5.0606   5.0721
     5.1083   5.1083   5.1469   5.1584   5.1584   5.1957   5.2419   5.2419
     5.2438   5.2440   5.2464   5.2464   5.3336   5.3337   5.3688   5.3689
     5.4306   5.4906   5.5121   5.5616   5.5812   5.5812   5.5821   5.5822
     5.5933   5.6521   5.6522   5.6660   5.6660   5.7255   5.7453   5.7454
     5.7492   5.7492   5.7570   5.7600   5.7724   5.7983   5.7984   5.8126
     5.8541   5.8542   5.8555   5.8555   5.8784   5.8792   5.9139   5.9140
     5.9412   5.9412   5.9831

          k =-0.5000 0.0000 0.0000 (165810 PWs)   bands (ev):

   -46.5207 -46.5207 -46.5054 -46.5054 -46.5054 -46.5054 -46.4910 -46.4909
   -46.4900 -46.4900 -46.4900 -46.4900 -46.4764 -46.4764 -46.4764 -46.4764
   -46.4628 -46.4628 -46.3811 -46.3811 -46.3648 -46.3648 -46.3647 -46.3646
   -46.3497 -46.3496 -46.3484 -46.3483 -46.3483 -46.3481 -46.3346 -46.3345
   -46.3345 -46.3344 -46.3207 -46.3207 -46.1864 -46.1863 -46.1682 -46.1682
   -46.1682 -46.1682 -46.1516 -46.1516 -46.1491 -46.1491 -46.1491 -46.1491
   -46.1346 -46.1346 -46.1345 -46.1345 -46.1200 -46.1199 -46.0911 -46.0911
   -46.0831 -46.0831 -46.0830 -46.0829 -46.0760 -46.0759 -46.0758 -46.0756
   -46.0725 -46.0723 -46.0622 -46.0622 -46.0621 -46.0620 -46.0484 -46.0483
   -25.3986 -25.3986 -25.3986 -25.3986 -25.3910 -25.3909 -25.3820 -25.3820
   -25.3820 -25.3820 -25.3603 -25.3603 -25.3517 -25.3517 -25.3517 -25.3517
   -25.3449 -25.3449 -25.3449 -25.3449 -25.3080 -25.3080 -25.2919 -25.2919
   -25.2918 -25.2918 -25.2822 -25.2822 -25.2822 -25.2822 -25.2747 -25.2747
   -25.2683 -25.2683 -25.2682 -25.2682 -25.2463 -25.2462 -25.2458 -25.2457
   -25.2457 -25.2457 -25.2353 -25.2353 -25.2333 -25.2332 -25.2295 -25.2295
   -25.2295 -25.2294 -25.1908 -25.1908 -25.1850 -25.1850 -25.1850 -25.1850
   -25.1709 -25.1709 -25.1709 -25.1709 -25.1554 -25.1554 -25.1296 -25.1296
   -25.1196 -25.1196 -25.1057 -25.1057 -25.1057 -25.1057 -25.1047 -25.1047
   -25.0807 -25.0807 -25.0807 -25.0807 -25.0588 -25.0587 -25.0519 -25.0519
   -25.0519 -25.0519 -25.0262 -25.0261 -25.0181 -25.0180 -25.0180 -25.0180
   -25.0174 -25.0174 -25.0079 -25.0079 -25.0079 -25.0078 -24.9953 -24.9953
   -24.9914 -24.9914 -24.9913 -24.9912 -24.9912 -24.9911 -24.9769 -24.9769
   -24.9620 -24.9620 -24.9620 -24.9620 -24.9528 -24.9528 -24.9445 -24.9445
   -24.9347 -24.9347 -24.9347 -24.9347 -24.9204 -24.9204 -24.9204 -24.9204
   -24.9159 -24.9159 -24.9159 -24.9158 -24.9046 -24.9046 -24.9046 -24.9046
   -24.8715 -24.8715 -24.8675 -24.8675 -24.8607 -24.8607 -24.8570 -24.8570
   -24.8459 -24.8459 -24.8312 -24.8312 -24.8304 -24.8304 -24.8304 -24.8304
   -24.8237 -24.8237 -24.8236 -24.8236 -24.7974 -24.7974 -24.7974 -24.7973
   -24.7945 -24.7945 -24.7766 -24.7765 -24.7580 -24.7580 -24.7579 -24.7579
   -24.7480 -24.7479 -24.7457 -24.7457 -24.7384 -24.7383 -24.7383 -24.7383
   -24.7361 -24.7361 -24.7360 -24.7360 -24.7306 -24.7306 -24.7306 -24.7306
   -24.7287 -24.7286 -24.7202 -24.7202 -24.7202 -24.7202 -24.7133 -24.7132
   -24.6983 -24.6983 -24.6983 -24.6982 -24.6948 -24.6948 -24.6948 -24.6948
   -24.6707 -24.6707 -24.6706 -24.6705 -24.6547 -24.6546 -24.6521 -24.6521
   -24.6417 -24.6417 -24.6417 -24.6416 -24.6308 -24.6307 -24.6244 -24.6244
   -24.6242 -24.6242 -24.6241 -24.6241 -24.6223 -24.6223 -24.6222 -24.6222
   -11.7445 -11.7445 -11.2511 -11.2511 -11.2511 -11.2511 -11.1774 -11.1773
   -11.0337 -11.0336 -10.9307 -10.9306 -10.8853 -10.8853 -10.7851 -10.7851
   -10.7850 -10.7850 -10.7814 -10.7813 -10.7813 -10.7813 -10.7624 -10.7624
   -10.6788 -10.6787 -10.6625 -10.6625 -10.6524 -10.6524 -10.6523 -10.6523
   -10.6356 -10.6355 -10.6355 -10.6355 -10.4322 -10.4322 -10.4322 -10.4321
   -10.3973 -10.3972 -10.3972 -10.3972 -10.3350 -10.3350 -10.2854 -10.2853
   -10.2825 -10.2824 -10.2824 -10.2824 -10.2773 -10.2772 -10.1714 -10.1713
   -10.1501 -10.1501 -10.1501 -10.1501 -10.0872 -10.0871 -10.0871 -10.0871
    -9.9683  -9.9682  -9.9682  -9.9682  -9.8889  -9.8888  -9.8888  -9.8888
    -2.4986  -2.4986  -2.4986  -2.4986  -2.4743  -2.4743  -2.4743  -2.4743
    -1.9088  -1.9087  -1.9087  -1.9087  -1.8658  -1.8657  -1.8657  -1.8657
    -1.7724  -1.7723  -1.7723  -1.7723  -1.7710  -1.7710  -1.7091  -1.7090
    -1.7090  -1.7090  -1.6925  -1.6925  -1.6925  -1.6925  -1.6911  -1.6911
    -1.5723  -1.5722  -1.5722  -1.5722  -1.3677  -1.3677  -1.3642  -1.3641
    -1.3641  -1.3641  -1.2842  -1.2842  -1.2370  -1.2369  -1.1916  -1.1915
    -1.1915  -1.1915  -1.0868  -1.0868  -1.0162  -1.0161  -0.9814  -0.9814
    -0.7941  -0.7940  -0.7940  -0.7940  -0.7650  -0.7650  -0.7649  -0.7649
    -0.7257  -0.7257  -0.6611  -0.6611  -0.6439  -0.6439  -0.6263  -0.6263
    -0.6174  -0.6173  -0.6173  -0.6173  -0.6034  -0.6034  -0.6033  -0.6033
    -0.5349  -0.5348  -0.5348  -0.5348  -0.5294  -0.5293  -0.5293  -0.5293
    -0.4861  -0.4861  -0.4861  -0.4861  -0.4450  -0.4450  -0.4449  -0.4449
    -0.3840  -0.3840  -0.3373  -0.3372  -0.3221  -0.3221  -0.3221  -0.3221
    -0.3017  -0.3016  -0.3016  -0.3016  -0.2943  -0.2942  -0.2681  -0.2680
    -0.2680  -0.2679  -0.2150  -0.2149  -0.2149  -0.2149  -0.1750  -0.1750
    -0.1250  -0.1250  -0.1250  -0.1250  -0.0969  -0.0969  -0.0904  -0.0904
    -0.0903  -0.0903  -0.0896  -0.0896  -0.0895  -0.0895  -0.0208  -0.0208
    -0.0208  -0.0207   0.0517   0.0517   0.0517   0.0517   0.0775   0.0775
     0.0862   0.0862   0.0862   0.0862   0.1052   0.1053   0.1053   0.1053
     0.1128   0.1128   0.1369   0.1369   0.1369   0.1370   0.1417   0.1417
     0.2608   0.2608   0.2608   0.2608   0.3295   0.3296   0.3773   0.3773
     0.4326   0.4327   0.4686   0.4686   0.4686   0.4686   0.4842   0.4843
     0.5103   0.5103   0.5103   0.5103   0.5843   0.5844   0.5844   0.5844
     0.6184   0.6185   0.6185   0.6185   0.6257   0.6257   0.6781   0.6782
     0.6848   0.6849   0.7483   0.7484   0.7562   0.7562   0.7562   0.7562
     0.7994   0.7995   0.8474   0.8474   0.9381   0.9382   1.1010   1.1011
     1.1599   1.1599   1.1852   1.1852   1.3291   1.3292   1.6902   1.6903
     2.7903   2.7903   2.9784   2.9785   3.2779   3.2779   3.4460   3.4460
     3.5648   3.5649   3.5649   3.5650   3.5890   3.5893   4.0234   4.0234
     4.0913   4.0913   4.2673   4.2673   4.3439   4.3440   4.3440   4.3440
     4.3907   4.3907   4.3907   4.3908   4.4444   4.4444   4.4891   4.4891
     4.5279   4.5279   4.5280   4.5280   4.5680   4.5681   4.5681   4.5681
     4.6744   4.6744   4.6787   4.6787   4.7951   4.7952   4.7952   4.7953
     4.8137   4.8137   4.8137   4.8138   4.8677   4.8677   4.8773   4.8773
     4.8773   4.8773   4.9399   4.9399   5.0028   5.0029   5.0029   5.0030
     5.1351   5.1352   5.1352   5.1352   5.2097   5.2097   5.2684   5.2685
     5.2686   5.2686   5.3385   5.3386   5.3386   5.3386   5.3458   5.3458
     5.3702   5.3704   5.5019   5.5019   5.5020   5.5020   5.6597   5.6597
     5.7154   5.7155   5.7270   5.7270   5.7270   5.7270   5.7507   5.7508
     5.7509   5.7509   5.8433   5.8435   5.8435   5.8436   5.8608   5.8610
     5.8943   5.8944   5.8944   5.8944   5.9142   5.9184   5.9184   5.9195
     5.9195   5.9309   5.9919

          k =-0.5000 0.2500 0.0000 (165780 PWs)   bands (ev):

   -46.5197 -46.5197 -46.5117 -46.5117 -46.4982 -46.4982 -46.4909 -46.4909
   -46.4903 -46.4903 -46.4898 -46.4898 -46.4832 -46.4832 -46.4707 -46.4707
   -46.4637 -46.4637 -46.3799 -46.3799 -46.3714 -46.3714 -46.3571 -46.3571
   -46.3496 -46.3495 -46.3488 -46.3487 -46.3480 -46.3479 -46.3415 -46.3415
   -46.3287 -46.3287 -46.3216 -46.3216 -46.1851 -46.1851 -46.1757 -46.1757
   -46.1597 -46.1597 -46.1514 -46.1514 -46.1500 -46.1499 -46.1485 -46.1484
   -46.1422 -46.1422 -46.1283 -46.1283 -46.1209 -46.1209 -46.0906 -46.0906
   -46.0865 -46.0865 -46.0787 -46.0786 -46.0768 -46.0766 -46.0748 -46.0745
   -46.0728 -46.0726 -46.0679 -46.0679 -46.0567 -46.0567 -46.0494 -46.0494
   -25.4089 -25.4089 -25.3902 -25.3902 -25.3852 -25.3852 -25.3850 -25.3850
   -25.3779 -25.3779 -25.3698 -25.3698 -25.3635 -25.3635 -25.3633 -25.3633
   -25.3375 -25.3375 -25.3120 -25.3120 -25.3069 -25.3069 -25.3057 -25.3056
   -25.2814 -25.2814 -25.2760 -25.2760 -25.2743 -25.2743 -25.2730 -25.2729
   -25.2708 -25.2708 -25.2666 -25.2666 -25.2572 -25.2572 -25.2517 -25.2516
   -25.2515 -25.2515 -25.2513 -25.2512 -25.2321 -25.2321 -25.2208 -25.2208
   -25.2062 -25.2062 -25.1974 -25.1974 -25.1945 -25.1945 -25.1933 -25.1933
   -25.1699 -25.1698 -25.1634 -25.1634 -25.1469 -25.1469 -25.1415 -25.1415
   -25.1411 -25.1411 -25.1179 -25.1179 -25.0983 -25.0983 -25.0943 -25.0942
   -25.0686 -25.0686 -25.0672 -25.0671 -25.0627 -25.0627 -25.0507 -25.0507
   -25.0439 -25.0439 -25.0383 -25.0383 -25.0354 -25.0353 -25.0203 -25.0203
   -25.0180 -25.0180 -25.0045 -25.0045 -24.9960 -24.9959 -24.9931 -24.9931
   -24.9862 -24.9862 -24.9813 -24.9813 -24.9808 -24.9808 -24.9806 -24.9806
   -24.9697 -24.9697 -24.9657 -24.9657 -24.9531 -24.9531 -24.9507 -24.9507
   -24.9442 -24.9442 -24.9435 -24.9435 -24.9385 -24.9385 -24.9256 -24.9256
   -24.9031 -24.9031 -24.9025 -24.9025 -24.8937 -24.8937 -24.8903 -24.8903
   -24.8815 -24.8815 -24.8691 -24.8691 -24.8649 -24.8649 -24.8500 -24.8500
   -24.8429 -24.8429 -24.8355 -24.8355 -24.8321 -24.8321 -24.8251 -24.8251
   -24.8208 -24.8208 -24.8194 -24.8194 -24.8037 -24.8037 -24.8004 -24.8004
   -24.7900 -24.7900 -24.7821 -24.7821 -24.7747 -24.7747 -24.7614 -24.7614
   -24.7514 -24.7514 -24.7430 -24.7430 -24.7425 -24.7425 -24.7424 -24.7424
   -24.7335 -24.7335 -24.7321 -24.7321 -24.7293 -24.7292 -24.7267 -24.7267
   -24.7236 -24.7236 -24.7179 -24.7178 -24.7163 -24.7163 -24.7076 -24.7076
   -24.7067 -24.7067 -24.6999 -24.6999 -24.6786 -24.6785 -24.6776 -24.6776
   -24.6707 -24.6707 -24.6654 -24.6652 -24.6597 -24.6597 -24.6560 -24.6558
   -24.6494 -24.6494 -24.6465 -24.6465 -24.6441 -24.6441 -24.6428 -24.6427
   -24.6420 -24.6419 -24.6112 -24.6112 -24.6096 -24.6096 -24.6086 -24.6086
   -11.7071 -11.7071 -11.4400 -11.4400 -11.1454 -11.1454 -11.0650 -11.0649
   -11.0022 -11.0021 -10.9247 -10.9246 -10.9065 -10.9064 -10.8712 -10.8712
   -10.8181 -10.8180 -10.8005 -10.8004 -10.7825 -10.7824 -10.7437 -10.7437
   -10.7335 -10.7334 -10.6602 -10.6602 -10.6557 -10.6556 -10.6322 -10.6322
   -10.5932 -10.5932 -10.5324 -10.5324 -10.5088 -10.5087 -10.5040 -10.5040
   -10.4217 -10.4216 -10.3942 -10.3941 -10.3159 -10.3159 -10.2719 -10.2719
   -10.2668 -10.2668 -10.2517 -10.2517 -10.2007 -10.2007 -10.1591 -10.1591
   -10.1492 -10.1491 -10.1469 -10.1468 -10.1387 -10.1387 -10.0779 -10.0779
   -10.0567 -10.0567  -9.9846  -9.9845  -9.8809  -9.8809  -9.8198  -9.8197
    -2.6725  -2.6725  -2.6556  -2.6556  -2.2575  -2.2574  -2.2215  -2.2215
    -2.0240  -2.0239  -1.9809  -1.9809  -1.9474  -1.9474  -1.8910  -1.8909
    -1.8762  -1.8762  -1.8357  -1.8357  -1.8094  -1.8094  -1.7640  -1.7640
    -1.6934  -1.6934  -1.6519  -1.6519  -1.5445  -1.5444  -1.5195  -1.5195
    -1.4884  -1.4884  -1.4414  -1.4414  -1.3841  -1.3841  -1.3257  -1.3257
    -1.3122  -1.3121  -1.2668  -1.2668  -1.2366  -1.2366  -1.1974  -1.1974
    -1.1937  -1.1937  -1.1338  -1.1338  -1.1054  -1.1053  -1.0463  -1.0463
    -1.0461  -1.0461  -0.9781  -0.9780  -0.9289  -0.9289  -0.8504  -0.8503
    -0.6723  -0.6723  -0.6441  -0.6441  -0.6024  -0.6023  -0.5878  -0.5878
    -0.5383  -0.5382  -0.5347  -0.5347  -0.5338  -0.5338  -0.5312  -0.5312
    -0.5238  -0.5237  -0.5183  -0.5183  -0.5047  -0.5047  -0.5035  -0.5034
    -0.4752  -0.4752  -0.4715  -0.4715  -0.4420  -0.4420  -0.4412  -0.4412
    -0.4054  -0.4054  -0.3870  -0.3870  -0.3632  -0.3632  -0.3630  -0.3629
    -0.3559  -0.3559  -0.3373  -0.3373  -0.3244  -0.3244  -0.2749  -0.2749
    -0.2227  -0.2227  -0.2118  -0.2117  -0.2000  -0.2000  -0.1810  -0.1810
    -0.1444  -0.1444  -0.1444  -0.1444  -0.1034  -0.1034  -0.0691  -0.0690
    -0.0088  -0.0088  -0.0019  -0.0019   0.0096   0.0097   0.0153   0.0153
     0.0471   0.0472   0.0676   0.0676   0.0907   0.0907   0.0958   0.0958
     0.1144   0.1145   0.1239   0.1239   0.1508   0.1508   0.1656   0.1656
     0.1735   0.1735   0.1749   0.1750   0.1958   0.1959   0.1988   0.1988
     0.3105   0.3106   0.3136   0.3136   0.3190   0.3191   0.3586   0.3586
     0.3608   0.3608   0.3710   0.3710   0.4689   0.4689   0.5177   0.5178
     0.5238   0.5238   0.5405   0.5405   0.5498   0.5498   0.5603   0.5603
     0.5784   0.5784   0.6124   0.6124   0.6418   0.6420   0.6557   0.6557
     0.6847   0.6847   0.7054   0.7054   0.7552   0.7552   0.7952   0.7952
     0.8158   0.8159   0.8491   0.8491   0.9545   0.9545   1.0080   1.0080
     1.0459   1.0459   1.0772   1.0772   1.2791   1.2791   1.5306   1.5306
     2.9425   2.9426   3.0859   3.0860   3.2898   3.2898   3.4251   3.4251
     3.5392   3.5393   3.6862   3.6864   3.7476   3.7476   3.8556   3.8557
     3.9351   3.9352   4.0520   4.0521   4.1700   4.1700   4.1794   4.1794
     4.2870   4.2871   4.3121   4.3121   4.3392   4.3392   4.3583   4.3584
     4.4081   4.4081   4.4418   4.4419   4.5052   4.5052   4.6484   4.6484
     4.7341   4.7342   4.7393   4.7393   4.7544   4.7544   4.7912   4.7913
     4.8332   4.8332   4.8394   4.8394   4.8899   4.8899   4.9523   4.9523
     4.9844   4.9844   5.0509   5.0509   5.1167   5.1167   5.1409   5.1409
     5.1836   5.1836   5.1850   5.1850   5.2278   5.2278   5.2813   5.2813
     5.3089   5.3090   5.3304   5.3304   5.3965   5.3967   5.3979   5.3979
     5.4908   5.4908   5.4912   5.4912   5.4964   5.4964   5.5363   5.5363
     5.6102   5.6104   5.6656   5.6657   5.6765   5.6765   5.7363   5.7363
     5.8040   5.8040   5.8182   5.8182   5.8587   5.8587   5.8647   5.8647
     5.8891   5.8892   5.9341   5.9342   5.9397   5.9397   5.9415   5.9415
     5.9588   5.9589   6.0027

     the Fermi energy is     2.0431 ev

!    total energy              =   -8262.71776859 Ry
     estimated scf accuracy    <       0.00000003 Ry
     smearing contrib. (-TS)   =       0.00525941 Ry
     internal energy E=F+TS    =   -8262.72302801 Ry

     The total energy is F=E-TS. E is the sum of the following terms:
     one-electron contribution = -100538.27331412 Ry
     hartree contribution      =   50393.73328445 Ry
     xc contribution           =   -1356.22990013 Ry
     ewald contribution        =   43240.88423970 Ry
     DFT-D3 Dispersion         =      -2.83733791 Ry

     convergence has been achieved in   8 iterations

     negative rho (up, down):  7.655E-03 0.000E+00

     Forces acting on atoms (cartesian axes, Ry/au):

     atom    1 type  1   force =     0.00000006   -0.00000078    0.01776406
     atom    2 type  1   force =    -0.00000351    0.00000139   -0.00565423
     atom    3 type  1   force =    -0.00000744   -0.00000179   -0.00565587
     atom    4 type  1   force =     0.00000042    0.00000059    0.01776265
     atom    5 type  1   force =     0.00000116   -0.00004164   -0.00123656
     atom    6 type  1   force =    -0.00000085    0.00000598    0.00016794
     atom    7 type  1   force =    -0.00000114    0.00000853    0.00005338
     atom    8 type  1   force =     0.00004034   -0.00001231   -0.00123945
     atom    9 type  1   force =    -0.00000001    0.00000062    0.01776402
     atom   10 type  1   force =     0.00000271    0.00000003   -0.00565504
     atom   11 type  1   force =     0.00000136   -0.00000240   -0.00565025
     atom   12 type  1   force =    -0.00000017   -0.00000033    0.01776191
     atom   13 type  1   force =     0.00000697    0.00003129   -0.00124512
     atom   14 type  1   force =    -0.00000725   -0.00000396    0.00016663
     atom   15 type  1   force =     0.00000083   -0.00001085    0.00015732
     atom   16 type  1   force =     0.00001205    0.00001189   -0.00124209
     atom   17 type  1   force =     0.00000055    0.00000018    0.01776389
     atom   18 type  1   force =     0.00000026   -0.00000146   -0.00565107
     atom   19 type  1   force =     0.00000278    0.00000428   -0.00564736
     atom   20 type  1   force =    -0.00000010   -0.00000027    0.01776236
     atom   21 type  1   force =     0.00000653    0.00001028   -0.00123703
     atom   22 type  1   force =     0.00000058   -0.00000180    0.00015278
     atom   23 type  1   force =     0.00000315    0.00000096    0.00015882
     atom   24 type  1   force =     0.00000491    0.00000048   -0.00123697
     atom   25 type  1   force =     0.00000000   -0.00000024    0.01776158
     atom   26 type  1   force =     0.00000351    0.00000139   -0.00565423
     atom   27 type  1   force =     0.00000000    0.00000421   -0.00564331
     atom   28 type  1   force =    -0.00000042    0.00000059    0.01776265
     atom   29 type  1   force =     0.00000000   -0.00000643   -0.00123169
     atom   30 type  1   force =     0.00000085    0.00000598    0.00016794
     atom   31 type  1   force =     0.00000000    0.00000341    0.00017108
     atom   32 type  1   force =    -0.00004034   -0.00001231   -0.00123945
     atom   33 type  1   force =     0.00000000    0.00000002    0.01776464
     atom   34 type  1   force =    -0.00000271    0.00000003   -0.00565504
     atom   35 type  1   force =     0.00000000   -0.00000098   -0.00564831
     atom   36 type  1   force =     0.00000017   -0.00000033    0.01776191
     atom   37 type  1   force =     0.00000000    0.00000332   -0.00124437
     atom   38 type  1   force =     0.00000725   -0.00000396    0.00016663
     atom   39 type  1   force =     0.00000000   -0.00000180    0.00014268
     atom   40 type  1   force =    -0.00001205    0.00001189   -0.00124209
     atom   41 type  1   force =     0.00000000    0.00000016    0.01776361
     atom   42 type  1   force =    -0.00000026   -0.00000146   -0.00565107
     atom   43 type  1   force =     0.00000000   -0.00000330   -0.00564733
     atom   44 type  1   force =     0.00000010   -0.00000027    0.01776236
     atom   45 type  1   force =     0.00000000    0.00000325   -0.00123917
     atom   46 type  1   force =    -0.00000058   -0.00000180    0.00015278
     atom   47 type  1   force =     0.00000000   -0.00000117    0.00013781
     atom   48 type  1   force =    -0.00000491    0.00000048   -0.00123697
     atom   49 type  1   force =    -0.00000006   -0.00000078    0.01776406
     atom   50 type  1   force =     0.00000000    0.00000772   -0.00565692
     atom   51 type  1   force =     0.00000744   -0.00000179   -0.00565587
     atom   52 type  1   force =     0.00000000    0.00000066    0.01776413
     atom   53 type  1   force =    -0.00000116   -0.00004164   -0.00123656
     atom   54 type  1   force =     0.00000000    0.00000875    0.00019895
     atom   55 type  1   force =     0.00000114    0.00000853    0.00005338
     atom   56 type  1   force =     0.00000000   -0.00001802   -0.00125077
     atom   57 type  1   force =     0.00000001    0.00000062    0.01776402
     atom   58 type  1   force =     0.00000000   -0.00000502   -0.00565892
     atom   59 type  1   force =    -0.00000136   -0.00000240   -0.00565025
     atom   60 type  1   force =     0.00000000   -0.00000092    0.01776055
     atom   61 type  1   force =    -0.00000697    0.00003129   -0.00124512
     atom   62 type  1   force =     0.00000000   -0.00000522    0.00019317
     atom   63 type  1   force =    -0.00000083   -0.00001085    0.00015732
     atom   64 type  1   force =     0.00000000    0.00001257   -0.00124372
     atom   65 type  1   force =    -0.00000055    0.00000018    0.01776389
     atom   66 type  1   force =     0.00000000   -0.00000272   -0.00565929
     atom   67 type  1   force =    -0.00000278    0.00000428   -0.00564736
     atom   68 type  1   force =     0.00000000    0.00000023    0.01776009
     atom   69 type  1   force =    -0.00000653    0.00001028   -0.00123703
     atom   70 type  1   force =     0.00000000   -0.00000415    0.00014495
     atom   71 type  1   force =    -0.00000315    0.00000096    0.00015882
     atom   72 type  1   force =     0.00000000    0.00000564   -0.00122648
     atom   73 type  2   force =     0.00000011   -0.00000098    0.00105851
     atom   74 type  2   force =     0.00000035   -0.00000037    0.00105560
     atom   75 type  2   force =    -0.00000045    0.00000441   -0.01261485
     atom   76 type  2   force =    -0.00000790    0.00000122   -0.01260791
     atom   77 type  2   force =    -0.00000008    0.00001035   -0.00078972
     atom   78 type  2   force =     0.00000026    0.00000609   -0.00076020
     atom   79 type  2   force =     0.00000180   -0.00002019    0.00129140
     atom   80 type  2   force =     0.00001612   -0.00000453    0.00129607
     atom   81 type  2   force =    -0.00000023    0.00000111    0.00105506
     atom   82 type  2   force =     0.00000044    0.00000020    0.00105379
     atom   83 type  2   force =     0.00000246   -0.00000571   -0.01263337
     atom   84 type  2   force =    -0.00000071   -0.00000047   -0.01260919
     atom   85 type  2   force =     0.00000133   -0.00001529   -0.00077702
     atom   86 type  2   force =    -0.00001498   -0.00000836   -0.00077442
     atom   87 type  2   force =     0.00000553    0.00001765    0.00144419
     atom   88 type  2   force =     0.00000481    0.00000684    0.00128576
     atom   89 type  2   force =    -0.00000045   -0.00000016    0.00105403
     atom   90 type  2   force =    -0.00000008    0.00000018    0.00105653
     atom   91 type  2   force =    -0.00000205    0.00000125   -0.01261657
     atom   92 type  2   force =    -0.00000035   -0.00000073   -0.01261461
     atom   93 type  2   force =    -0.00000050    0.00000532   -0.00076473
     atom   94 type  2   force =     0.00000176    0.00000204   -0.00076690
     atom   95 type  2   force =     0.00000156    0.00000400    0.00128429
     atom   96 type  2   force =     0.00000153   -0.00000295    0.00130043
     atom   97 type  2   force =     0.00000000   -0.00000089    0.00105485
     atom   98 type  2   force =    -0.00000035   -0.00000037    0.00105560
     atom   99 type  2   force =     0.00000000    0.00000051   -0.01261617
     atom  100 type  2   force =     0.00000790    0.00000122   -0.01260791
     atom  101 type  2   force =     0.00000000   -0.00000509   -0.00075705
     atom  102 type  2   force =    -0.00000026    0.00000609   -0.00076020
     atom  103 type  2   force =     0.00000000   -0.00000556    0.00130192
     atom  104 type  2   force =    -0.00001612   -0.00000453    0.00129607
     atom  105 type  2   force =     0.00000000    0.00000071    0.00105703
     atom  106 type  2   force =    -0.00000044    0.00000020    0.00105379
     atom  107 type  2   force =     0.00000000    0.00000091   -0.01261817
     atom  108 type  2   force =     0.00000071   -0.00000047   -0.01260919
     atom  109 type  2   force =     0.00000000    0.00000326   -0.00077075
     atom  110 type  2   force =     0.00001498   -0.00000836   -0.00077442
     atom  111 type  2   force =     0.00000000    0.00000506    0.00127260
     atom  112 type  2   force =    -0.00000481    0.00000684    0.00128576
     atom  113 type  2   force =     0.00000000    0.00000018    0.00105524
     atom  114 type  2   force =     0.00000008    0.00000018    0.00105653
     atom  115 type  2   force =     0.00000000   -0.00000147   -0.01261456
     atom  116 type  2   force =     0.00000035   -0.00000073   -0.01261461
     atom  117 type  2   force =     0.00000000    0.00000184   -0.00076960
     atom  118 type  2   force =    -0.00000176    0.00000204   -0.00076690
     atom  119 type  2   force =     0.00000000    0.00000073    0.00131403
     atom  120 type  2   force =    -0.00000153   -0.00000295    0.00130043
     atom  121 type  2   force =    -0.00000011   -0.00000098    0.00105851
     atom  122 type  2   force =     0.00000000   -0.00000107    0.00105526
     atom  123 type  2   force =     0.00000045    0.00000441   -0.01261485
     atom  124 type  2   force =     0.00000000    0.00000129   -0.01260048
     atom  125 type  2   force =     0.00000008    0.00001035   -0.00078972
     atom  126 type  2   force =     0.00000000    0.00000405   -0.00075080
     atom  127 type  2   force =    -0.00000180   -0.00002019    0.00129140
     atom  128 type  2   force =     0.00000000   -0.00000793    0.00126691
     atom  129 type  2   force =     0.00000023    0.00000111    0.00105506
     atom  130 type  2   force =     0.00000000    0.00000063    0.00105245
     atom  131 type  2   force =    -0.00000246   -0.00000571   -0.01263337
     atom  132 type  2   force =     0.00000000    0.00000040   -0.01260909
     atom  133 type  2   force =    -0.00000133   -0.00001529   -0.00077702
     atom  134 type  2   force =     0.00000000   -0.00000754   -0.00077560
     atom  135 type  2   force =    -0.00000553    0.00001765    0.00144419
     atom  136 type  2   force =     0.00000000    0.00001020    0.00127787
     atom  137 type  2   force =     0.00000045   -0.00000016    0.00105403
     atom  138 type  2   force =     0.00000000    0.00000042    0.00105833
     atom  139 type  2   force =     0.00000205    0.00000125   -0.01261657
     atom  140 type  2   force =     0.00000000   -0.00000176   -0.01261573
     atom  141 type  2   force =     0.00000050    0.00000532   -0.00076473
     atom  142 type  2   force =     0.00000000    0.00000364   -0.00077167
     atom  143 type  2   force =    -0.00000156    0.00000400    0.00128429
     atom  144 type  2   force =     0.00000000   -0.00000217    0.00130848

     Total force =     0.008344     Total SCF correction =     0.000590
     Energy error            =      3.8E-04 Ry
     Gradient error          =      1.4E-03 Ry/Bohr

     number of scf cycles    =   9
     number of bfgs steps    =   8

     energy             old  =   -8262.7173882520 Ry
     energy             new  =   -8262.7177685911 Ry

     CASE: energy            _new < energy            _old

     new trust radius        =       0.0034548393 bohr
     new conv_thr            =       0.0000000928 Ry


ATOMIC_POSITIONS (angstrom)
Sc               0.0000000000        0.0000000000       10.0000000000    0   0   0
Sc               2.2382160900        0.0000000000       12.2382160900    0   0   0
Sc               0.0000000000        2.2382160900       12.2382160900    0   0   0
Sc               2.2382160900        2.2382160900       10.0000000000    0   0   0
Sc              -0.0000049790        0.0000740013       14.4793585069
Sc               2.2382154418       -0.0000072813       16.6640906639
Sc              -0.0000126458        2.2382033846       16.6642890099
Sc               2.2381573687        2.2382229602       14.4793729777
Sc               0.0000000000        4.4764321800       10.0000000000    0   0   0
Sc               2.2382160900        4.4764321800       12.2382160900    0   0   0
Sc               0.0000000000        6.7146482700       12.2382160900    0   0   0
Sc               2.2382160900        6.7146482700       10.0000000000    0   0   0
Sc               0.0000006860        4.4763685413       14.4793303728
Sc               2.2382285478        4.4764347799       16.6640755429
Sc              -0.0000088942        6.7146535678       16.6640571923
Sc               2.2382100410        6.7146445335       14.4793498445
Sc               0.0000000000        8.9528643500       10.0000000000    0   0   0
Sc               2.2382160900        8.9528643500       12.2382160900    0   0   0
Sc               0.0000000000       11.1910804400       12.2382160900    0   0   0
Sc               2.2382160900       11.1910804400       10.0000000000    0   0   0
Sc              -0.0000103851        8.9528544612       14.4793434890
Sc               2.2382015635        8.9528700466       16.6641317741
Sc              -0.0000109175       11.1910927936       16.6640710124
Sc               2.2382016695       11.1910768835       14.4793326495
Sc               4.4764321800        0.0000000000       10.0000000000    0   0   0
Sc               6.7146482700        0.0000000000       12.2382160900    0   0   0
Sc               4.4764321800        2.2382160900       12.2382160900    0   0   0
Sc               6.7146482700        2.2382160900       10.0000000000    0   0   0
Sc               4.4764348900        0.0000200720       14.4793216352
Sc               6.7146479982       -0.0000069713       16.6641075639
Sc               4.4764323100        2.2382112485       16.6640944220
Sc               6.7147053513        2.2382188302       14.4793728877
Sc               4.4764321800        4.4764321800       10.0000000000    0   0   0
Sc               6.7146482700        4.4764321800       12.2382160900    0   0   0
Sc               4.4764321800        6.7146482700       12.2382160900    0   0   0
Sc               6.7146482700        6.7146482700       10.0000000000    0   0   0
Sc               4.4764301000        4.4764221141       14.4793433030
Sc               6.7146380022        4.4764337599       16.6640517829
Sc               4.4764311400        6.7146445315       16.6641624148
Sc               6.7146550890        6.7146473535       14.4793468045
Sc               4.4764321800        8.9528643500       10.0000000000    0   0   0
Sc               6.7146482700        8.9528643500       12.2382160900    0   0   0
Sc               4.4764321800       11.1910804400       12.2382160900    0   0   0
Sc               6.7146482700       11.1910804400       10.0000000000    0   0   0
Sc               4.4764324400        8.9528540085       14.4793572192
Sc               6.7146612765        8.9528690866       16.6641322741
Sc               4.4764327100       11.1910888568       16.6641127816
Sc               6.7146637405       11.1910790735       14.4793350595
Sc               8.9528643500        0.0000000000       10.0000000000    0   0   0
Sc              11.1910804400        0.0000000000       12.2382160900    0   0   0
Sc               8.9528643500        2.2382160900       12.2382160900    0   0   0
Sc              11.1910804400        2.2382160900       10.0000000000    0   0   0
Sc               8.9528660790        0.0000717813       14.4793595669
Sc              11.1910813800       -0.0000211347       16.6640781839
Sc               8.9528775858        2.2382023146       16.6642845699
Sc              11.1910805600        2.2382101598       14.4794120226
Sc               8.9528643500        4.4764321800       10.0000000000    0   0   0
Sc              11.1910804400        4.4764321800       12.2382160900    0   0   0
Sc               8.9528643500        6.7146482700       12.2382160900    0   0   0
Sc              11.1910804400        6.7146482700       10.0000000000    0   0   0
Sc               8.9528669840        4.4763695613       14.4793284228
Sc              11.1910818400        4.4764469601       16.6639669087
Sc               8.9528727942        6.7146518878       16.6640712423
Sc              11.1910808600        6.7146650672       14.4793240091
Sc               8.9528643500        8.9528643500       10.0000000000    0   0   0
Sc              11.1910804400        8.9528643500       12.2382160900    0   0   0
Sc               8.9528643500       11.1910804400       12.2382160900    0   0   0
Sc              11.1910804400       11.1910804400       10.0000000000    0   0   0
Sc               8.9528745051        8.9528554812       14.4793435390
Sc              11.1910806400        8.9528728611       16.6641592299
Sc               8.9528762375       11.1910917336       16.6641028524
Sc              11.1910796900       11.1910697832       14.4793051118
N                0.0000000000        2.2382160900       10.0000000000    0   0   0
N                2.2382160900        0.0000000000       10.0000000000    0   0   0
N                0.0000000000        0.0000000000       12.2382160900    0   0   0
N                2.2382160900        2.2382160900       12.2382160900    0   0   0
N               -0.0000190063        2.2381683421       14.4879257962
N                2.2382014970        0.0000143289       14.4878436333
N               -0.0000127124        0.0000313880       16.6761874295
N                2.2381738207        2.2382280127       16.6762086289
N                0.0000000000        6.7146482700       10.0000000000    0   0   0
N                2.2382160900        4.4764321800       10.0000000000    0   0   0
N                0.0000000000        4.4764321800       12.2382160900    0   0   0
N                2.2382160900        6.7146482700       12.2382160900    0   0   0
N               -0.0000091820        6.7146978626       14.4878416530
N                2.2382532132        4.4764313795       14.4878367890
N               -0.0000117697        4.4763988825       16.6758127351
N                2.2381936979        6.7146250416       16.6762011983
N                0.0000000000       11.1910804400       10.0000000000    0   0   0
N                2.2382160900        8.9528643500       10.0000000000    0   0   0
N                0.0000000000        8.9528643500       12.2382160900    0   0   0
N                2.2382160900       11.1910804400       12.2382160900    0   0   0
N               -0.0000053009       11.1910786719       14.4878419342
N                2.2382066125        8.9528521660       14.4878666524
N               -0.0000141861        8.9528626104       16.6761927868
N                2.2382073577       11.1910917084       16.6761196461
N                4.4764321800        2.2382160900       10.0000000000    0   0   0
N                6.7146482700        0.0000000000       10.0000000000    0   0   0
N                4.4764321800        0.0000000000       12.2382160900    0   0   0
N                6.7146482700        2.2382160900       12.2382160900    0   0   0
N                4.4764324400        2.2382207642       14.4878513606
N                6.7146645430        0.0000124289       14.4878471533
N                4.4764319700        0.0000153595       16.6761065014
N                6.7146897293        2.2382268927       16.6762072689
N                4.4764321800        6.7146482700       10.0000000000    0   0   0
N                6.7146482700        4.4764321800       10.0000000000    0   0   0
N                4.4764321800        4.4764321800       12.2382160900    0   0   0
N                6.7146482700        6.7146482700       12.2382160900    0   0   0
N                4.4764310300        6.7146431823       14.4878850187
N                6.7146103868        4.4764294195       14.4878352090
N                4.4764316100        4.4764182195       16.6761748975
N                6.7146716521        6.7146255816       16.6761813783
N                4.4764321800       11.1910804400       10.0000000000    0   0   0
N                6.7146482700        8.9528643500       10.0000000000    0   0   0
N                4.4764321800        8.9528643500       12.2382160900    0   0   0
N                6.7146482700       11.1910804400       12.2382160900    0   0   0
N                4.4764330700       11.1910808821       14.4878548252
N                6.7146574075        8.9528545560       14.4878665824
N                4.4764329900        8.9528621773       16.6761313004
N                6.7146569023       11.1910930984       16.6761450661
N                8.9528643500        2.2382160900       10.0000000000    0   0   0
N               11.1910804400        0.0000000000       10.0000000000    0   0   0
N                8.9528643500        0.0000000000       12.2382160900    0   0   0
N               11.1910804400        2.2382160900       12.2382160900    0   0   0
N                8.9528840463        2.2381673921       14.4879264462
N               11.1910809200        0.0000354823       14.4878363178
N                8.9528759924        0.0000307780       16.6761738295
N               11.1910794100        2.2382401632       16.6763294824
N                8.9528643500        6.7146482700       10.0000000000    0   0   0
N               11.1910804400        4.4764321800       10.0000000000    0   0   0
N                8.9528643500        4.4764321800       12.2382160900    0   0   0
N               11.1910804400        6.7146482700       12.2382160900    0   0   0
N                8.9528741620        6.7146976326       14.4878419930
N               11.1910789200        4.4764123243       14.4877926268
N                8.9528760297        4.4763999525       16.6758122751
N               11.1910803400        6.7146119397       16.6761906671
N                8.9528643500       11.1910804400       10.0000000000    0   0   0
N               11.1910804400        8.9528643500       10.0000000000    0   0   0
N                8.9528643500        8.9528643500       12.2382160900    0   0   0
N               11.1910804400       11.1910804400       12.2382160900    0   0   0
N                8.9528688509       11.1910796319       14.4878432742
N               11.1910809700        8.9528489531       14.4878710609
N                8.9528789161        8.9528617704       16.6761644068
N               11.1910796900       11.1910910851       16.6760867279



     Writing config-only to output data dir ./tmp/ScN_slab.save/ :
     XML data file
     NEW-OLD atomic charge density approx. for the potential

     negative rho (up, down):  7.652E-03 0.000E+00

     total cpu time spent up to now is    12310.9 secs

     per-process dynamical memory:  1041.6 Mb

     Self-consistent Calculation

     iteration #  1     ecut=    45.00 Ry     beta= 0.25
     Davidson diagonalization with overlap
     ethr =  1.00E-06,  avg # of iterations =  4.0

     Threshold (ethr) on eigenvalues was too large:
     Diagonalizing with lowered threshold

     Davidson diagonalization with overlap
     ethr =  7.13E-09,  avg # of iterations =  4.0

     negative rho (up, down):  7.654E-03 0.000E+00

     total cpu time spent up to now is    12618.2 secs

     total energy              =   -8262.71785023 Ry
     estimated scf accuracy    <       0.00011378 Ry

     iteration #  2     ecut=    45.00 Ry     beta= 0.25
     Davidson diagonalization with overlap
     ethr =  9.88E-09,  avg # of iterations =  2.0

     negative rho (up, down):  7.657E-03 0.000E+00

     total cpu time spent up to now is    12735.5 secs

     total energy              =   -8262.71785427 Ry
     estimated scf accuracy    <       0.00002226 Ry

     iteration #  3     ecut=    45.00 Ry     beta= 0.25
     Davidson diagonalization with overlap
     ethr =  1.93E-09,  avg # of iterations =  2.1

     negative rho (up, down):  7.659E-03 0.000E+00

     total cpu time spent up to now is    12863.9 secs

     total energy              =   -8262.71785609 Ry
     estimated scf accuracy    <       0.00000734 Ry

     iteration #  4     ecut=    45.00 Ry     beta= 0.25
     Davidson diagonalization with overlap
     ethr =  6.37E-10,  avg # of iterations =  2.0

     negative rho (up, down):  7.661E-03 0.000E+00

     total cpu time spent up to now is    12978.6 secs

     total energy              =   -8262.71785644 Ry
     estimated scf accuracy    <       0.00000234 Ry

     iteration #  5     ecut=    45.00 Ry     beta= 0.25
     Davidson diagonalization with overlap
     ethr =  2.03E-10,  avg # of iterations =  3.7

     negative rho (up, down):  7.663E-03 0.000E+00

     total cpu time spent up to now is    13107.5 secs

     total energy              =   -8262.71785671 Ry
     estimated scf accuracy    <       0.00000061 Ry

     iteration #  6     ecut=    45.00 Ry     beta= 0.25
     Davidson diagonalization with overlap
     ethr =  5.29E-11,  avg # of iterations =  2.2

     negative rho (up, down):  7.663E-03 0.000E+00

     total cpu time spent up to now is    13223.3 secs

     total energy              =   -8262.71785682 Ry
     estimated scf accuracy    <       0.00000015 Ry

     iteration #  7     ecut=    45.00 Ry     beta= 0.25
     Davidson diagonalization with overlap
     ethr =  1.30E-11,  avg # of iterations =  3.6

     negative rho (up, down):  7.666E-03 0.000E+00

     total cpu time spent up to now is    13379.3 secs

     End of self-consistent calculation

          k = 0.0000 0.0000 0.0000 (165739 PWs)   bands (ev):

   -46.5252 -46.5077 -46.5077 -46.5077 -46.5077 -46.4985 -46.4985 -46.4985
   -46.4985 -46.4817 -46.4817 -46.4817 -46.4817 -46.4743 -46.4743 -46.4743
   -46.4743 -46.4584 -46.3889 -46.3703 -46.3703 -46.3703 -46.3702 -46.3603
   -46.3603 -46.3602 -46.3602 -46.3429 -46.3429 -46.3428 -46.3428 -46.3355
   -46.3355 -46.3354 -46.3354 -46.3193 -46.1913 -46.1708 -46.1708 -46.1708
   -46.1707 -46.1590 -46.1589 -46.1589 -46.1589 -46.1392 -46.1392 -46.1391
   -46.1391 -46.1319 -46.1319 -46.1319 -46.1319 -46.1146 -46.0948 -46.0850
   -46.0849 -46.0849 -46.0848 -46.0820 -46.0820 -46.0819 -46.0818 -46.0703
   -46.0702 -46.0702 -46.0701 -46.0608 -46.0608 -46.0607 -46.0606 -46.0454
   -25.3961 -25.3929 -25.3929 -25.3929 -25.3929 -25.3820 -25.3820 -25.3820
   -25.3820 -25.3778 -25.3778 -25.3778 -25.3778 -25.3403 -25.3403 -25.3403
   -25.3403 -25.3359 -25.3359 -25.3359 -25.3359 -25.2954 -25.2954 -25.2954
   -25.2954 -25.2895 -25.2833 -25.2833 -25.2832 -25.2832 -25.2808 -25.2727
   -25.2727 -25.2726 -25.2726 -25.2639 -25.2639 -25.2639 -25.2638 -25.2529
   -25.2529 -25.2276 -25.2276 -25.2276 -25.2276 -25.2273 -25.2273 -25.2272
   -25.2272 -25.1996 -25.1996 -25.1996 -25.1996 -25.1786 -25.1786 -25.1786
   -25.1786 -25.1776 -25.1776 -25.1776 -25.1776 -25.1591 -25.1515 -25.1515
   -25.0992 -25.0992 -25.0992 -25.0992 -25.0901 -25.0901 -25.0901 -25.0900
   -25.0743 -25.0743 -25.0743 -25.0743 -25.0743 -25.0743 -25.0743 -25.0742
   -25.0306 -25.0306 -25.0306 -25.0306 -25.0127 -25.0127 -25.0127 -25.0127
   -25.0101 -25.0101 -25.0048 -25.0048 -25.0048 -25.0048 -25.0044 -25.0044
   -25.0043 -25.0043 -24.9982 -24.9982 -24.9982 -24.9982 -24.9655 -24.9655
   -24.9655 -24.9655 -24.9651 -24.9651 -24.9650 -24.9650 -24.9628 -24.9570
   -24.9570 -24.9415 -24.9414 -24.9414 -24.9414 -24.9191 -24.9191 -24.9191
   -24.9191 -24.9114 -24.9114 -24.9114 -24.9114 -24.8813 -24.8813 -24.8812
   -24.8812 -24.8711 -24.8711 -24.8711 -24.8710 -24.8490 -24.8490 -24.8489
   -24.8489 -24.8478 -24.8478 -24.8417 -24.8417 -24.8326 -24.8259 -24.8259
   -24.8259 -24.8259 -24.8008 -24.8008 -24.8008 -24.8007 -24.7889 -24.7888
   -24.7888 -24.7888 -24.7875 -24.7875 -24.7875 -24.7875 -24.7685 -24.7544
   -24.7544 -24.7544 -24.7544 -24.7495 -24.7495 -24.7495 -24.7495 -24.7406
   -24.7406 -24.7406 -24.7406 -24.7284 -24.7284 -24.7269 -24.7269 -24.7269
   -24.7269 -24.6994 -24.6993 -24.6993 -24.6992 -24.6939 -24.6938 -24.6938
   -24.6937 -24.6837 -24.6837 -24.6837 -24.6837 -24.6828 -24.6820 -24.6820
   -24.6819 -24.6819 -24.6816 -24.6816 -24.6816 -24.6815 -24.6695 -24.6695
   -24.6695 -24.6694 -24.6576 -24.6576 -24.6576 -24.6575 -24.6343 -24.6343
   -24.6343 -24.6342 -24.6089 -24.6089 -24.6028 -24.6028 -24.6027 -24.6027
   -11.8916 -11.3850 -11.3850 -11.3849 -11.3849 -11.3029 -10.9793 -10.9668
   -10.9289 -10.9289 -10.9289 -10.9288 -10.8891 -10.8891 -10.8891 -10.8890
   -10.8888 -10.8887 -10.8887 -10.8887 -10.8745 -10.7808 -10.7148 -10.7148
   -10.7147 -10.7147 -10.5642 -10.5642 -10.5642 -10.5641 -10.5533 -10.5533
   -10.5532 -10.5532 -10.5498 -10.5498 -10.5498 -10.5498 -10.5016 -10.5016
   -10.5016 -10.5016 -10.3993 -10.3887 -10.3887 -10.3886 -10.3886 -10.3508
   -10.2338 -10.2338 -10.2337 -10.2337 -10.1629 -10.1629 -10.1629 -10.1629
   -10.1571 -10.1571 -10.1571 -10.1571 -10.0454 -10.0454 -10.0454 -10.0454
    -9.9880  -9.9880  -9.9880  -9.9880  -9.9372  -9.9372  -9.9372  -9.9371
    -2.3367  -2.3366  -2.3366  -2.3366  -2.3234  -2.3234  -2.3233  -2.3233
    -2.1851  -2.1851  -2.1851  -2.1850  -2.1350  -2.1350  -2.1350  -2.1350
    -1.7145  -1.7144  -1.7144  -1.7144  -1.6521  -1.6521  -1.6521  -1.6521
    -1.6235  -1.6235  -1.6234  -1.6234  -1.6185  -1.6185  -1.6185  -1.6184
    -1.5149  -1.5149  -1.5148  -1.5148  -1.4107  -1.4107  -1.4107  -1.4107
    -1.3308  -1.3020  -1.3020  -1.3020  -1.3020  -1.1923  -1.1923  -1.1923
    -1.1923  -1.1875  -1.1875  -1.1875  -1.1875  -1.0020  -1.0020  -0.9488
    -0.8884  -0.8884  -0.8884  -0.8883  -0.6494  -0.6494  -0.6343  -0.6343
    -0.6343  -0.6343  -0.6322  -0.6322  -0.6321  -0.6321  -0.5960  -0.5959
    -0.5959  -0.5959  -0.5860  -0.5860  -0.5859  -0.5859  -0.5251  -0.5251
    -0.5251  -0.5251  -0.4592  -0.4592  -0.4592  -0.4591  -0.4424  -0.4424
    -0.4424  -0.4424  -0.4048  -0.4048  -0.4048  -0.4048  -0.3964  -0.3964
    -0.3964  -0.3964  -0.3666  -0.3666  -0.3665  -0.3665  -0.2984  -0.2984
    -0.2984  -0.2984  -0.2478  -0.2478  -0.2478  -0.2478  -0.2275  -0.2275
    -0.2275  -0.2274  -0.1950  -0.1855  -0.1854  -0.1854  -0.1854  -0.1753
    -0.1528  -0.1528  -0.1528  -0.1527  -0.1444  -0.1444  -0.1444  -0.1444
    -0.1019  -0.0870  -0.0870  -0.0870  -0.0870  -0.0488  -0.0488  -0.0488
    -0.0488  -0.0467  -0.0467  -0.0467  -0.0467  -0.0345  -0.0345  -0.0345
    -0.0345   0.0560   0.0560   0.1184   0.1184   0.1184   0.1184   0.1266
     0.1266   0.1266   0.1266   0.1325   0.1326   0.1326   0.1326   0.1612
     0.1612   0.1612   0.1612   0.1673   0.1673   0.1674   0.1674   0.1795
     0.1795   0.1795   0.1795   0.2065   0.2065   0.2066   0.2066   0.3092
     0.3092   0.3092   0.3092   0.3850   0.3850   0.3850   0.3850   0.7354
     0.7354   0.7354   0.7354   0.7677   0.7677   0.7677   0.7677   0.7678
     0.8076   0.8076   0.8161   0.8161   0.8161   0.8161   0.8297   0.8297
     0.8297   0.8298   1.0036   1.0036   1.1832   1.2110   1.2110   1.2357
     1.2357   1.2358   1.2358   1.2465   1.7673   1.7673   2.0357   2.0357
     2.1081   2.6851   2.6851   2.6897   3.1025   3.1026   3.1026   3.1026
     3.4936   3.8938   4.1187   4.1187   4.1187   4.1187   4.1834   4.1862
     4.1862   4.3921   4.3921   4.3921   4.3922   4.4169   4.4169   4.4170
     4.4170   4.4210   4.4223   4.4223   4.4223   4.4223   4.5044   4.5044
     4.5044   4.5045   4.5446   4.5446   4.5446   4.5446   4.5662   4.5662
     4.5662   4.5663   4.6978   4.6978   4.6978   4.6978   4.7398   4.7398
     4.7398   4.7398   4.7832   4.7832   4.7833   4.7833   4.8604   4.8604
     4.8775   4.8775   4.8776   4.8776   5.1446   5.2388   5.2389   5.2389
     5.2389   5.2452   5.2452   5.2453   5.2453   5.3112   5.3112   5.3112
     5.3112   5.3361   5.3361   5.3361   5.3362   5.4487   5.4487   5.4487
     5.4488   5.4527   5.4527   5.4527   5.4527   5.4637   5.4637   5.4638
     5.4638   5.5568   5.5568   5.5568   5.5568   5.6655   5.6655   5.6655
     5.6656   5.7160   5.7894   5.7899   5.7899   5.8193   5.8193   5.8194
     5.8194   5.8629   5.8629   5.8817   5.8818   5.8819   5.8820   5.9258
     5.9562   5.9609   5.9855

          k = 0.0000 0.2500 0.0000 (165664 PWs)   bands (ev):

   -46.5240 -46.5149 -46.5071 -46.5071 -46.5022 -46.5022 -46.4995 -46.4942
   -46.4942 -46.4856 -46.4856 -46.4821 -46.4786 -46.4786 -46.4748 -46.4748
   -46.4676 -46.4594 -46.3876 -46.3779 -46.3696 -46.3695 -46.3643 -46.3643
   -46.3616 -46.3557 -46.3557 -46.3467 -46.3467 -46.3436 -46.3397 -46.3397
   -46.3359 -46.3359 -46.3286 -46.3203 -46.1899 -46.1792 -46.1699 -46.1699
   -46.1637 -46.1637 -46.1610 -46.1536 -46.1536 -46.1433 -46.1433 -46.1408
   -46.1359 -46.1359 -46.1323 -46.1323 -46.1245 -46.1157 -46.0941 -46.0891
   -46.0848 -46.0847 -46.0834 -46.0833 -46.0799 -46.0799 -46.0797 -46.0739
   -46.0738 -46.0673 -46.0666 -46.0665 -46.0615 -46.0614 -46.0547 -46.0465
   -25.3977 -25.3977 -25.3947 -25.3932 -25.3932 -25.3868 -25.3868 -25.3849
   -25.3788 -25.3788 -25.3696 -25.3669 -25.3669 -25.3501 -25.3501 -25.3488
   -25.3401 -25.3401 -25.3249 -25.3249 -25.3219 -25.3167 -25.3167 -25.2954
   -25.2923 -25.2923 -25.2861 -25.2861 -25.2798 -25.2776 -25.2776 -25.2711
   -25.2667 -25.2667 -25.2654 -25.2654 -25.2559 -25.2479 -25.2473 -25.2420
   -25.2420 -25.2389 -25.2366 -25.2366 -25.2360 -25.2360 -25.2284 -25.2284
   -25.2205 -25.2110 -25.2110 -25.2095 -25.2093 -25.2059 -25.2059 -25.1784
   -25.1739 -25.1462 -25.1428 -25.1424 -25.1424 -25.1379 -25.1328 -25.1328
   -25.1312 -25.1312 -25.1298 -25.1298 -25.1294 -25.1063 -25.1049 -25.0842
   -25.0842 -25.0773 -25.0662 -25.0652 -25.0652 -25.0640 -25.0391 -25.0391
   -25.0369 -25.0344 -25.0344 -25.0324 -25.0320 -25.0320 -25.0204 -25.0151
   -25.0151 -25.0125 -25.0112 -25.0111 -25.0054 -25.0000 -24.9999 -24.9999
   -24.9949 -24.9949 -24.9904 -24.9904 -24.9898 -24.9892 -24.9817 -24.9817
   -24.9707 -24.9707 -24.9700 -24.9655 -24.9620 -24.9565 -24.9467 -24.9467
   -24.9429 -24.9397 -24.9397 -24.9371 -24.9371 -24.9207 -24.9207 -24.9156
   -24.9156 -24.9146 -24.9101 -24.9101 -24.9079 -24.8870 -24.8838 -24.8838
   -24.8813 -24.8813 -24.8719 -24.8660 -24.8591 -24.8581 -24.8567 -24.8567
   -24.8495 -24.8495 -24.8469 -24.8440 -24.8438 -24.8428 -24.8351 -24.8201
   -24.8201 -24.8175 -24.8133 -24.8041 -24.8041 -24.8033 -24.7873 -24.7873
   -24.7850 -24.7850 -24.7798 -24.7798 -24.7711 -24.7710 -24.7679 -24.7679
   -24.7627 -24.7602 -24.7474 -24.7473 -24.7469 -24.7413 -24.7413 -24.7397
   -24.7397 -24.7385 -24.7385 -24.7353 -24.7353 -24.7334 -24.7305 -24.7243
   -24.7153 -24.7153 -24.7094 -24.7094 -24.7019 -24.7019 -24.6997 -24.6997
   -24.6994 -24.6994 -24.6987 -24.6985 -24.6980 -24.6979 -24.6840 -24.6840
   -24.6839 -24.6839 -24.6754 -24.6689 -24.6633 -24.6633 -24.6612 -24.6505
   -24.6505 -24.6496 -24.6496 -24.6482 -24.6482 -24.6445 -24.6411 -24.6354
   -24.6354 -24.6352 -24.6155 -24.6131 -24.6086 -24.6086 -24.6079 -24.6079
   -11.8533 -11.5793 -11.3500 -11.3500 -11.2698 -11.1923 -11.1018 -11.1018
   -11.0403 -10.9633 -10.9468 -10.9298 -10.8968 -10.8612 -10.8612 -10.8605
   -10.8604 -10.8450 -10.7980 -10.7629 -10.7628 -10.7576 -10.7497 -10.6974
   -10.6973 -10.6749 -10.6748 -10.6675 -10.6674 -10.6663 -10.6399 -10.5962
   -10.5962 -10.5661 -10.5661 -10.5331 -10.4741 -10.4741 -10.4681 -10.4680
   -10.4618 -10.4618 -10.3815 -10.3727 -10.3605 -10.3605 -10.3328 -10.2836
   -10.2836 -10.2768 -10.2585 -10.2294 -10.2198 -10.2113 -10.2113 -10.1682
   -10.1682 -10.1423 -10.1423 -10.1398 -10.0659 -10.0659 -10.0432 -10.0432
   -10.0103 -10.0103  -9.9486  -9.9486  -9.9434  -9.9434  -9.8893  -9.8893
    -2.4759  -2.4759  -2.4597  -2.4597  -2.3918  -2.3918  -2.3584  -2.3583
    -2.1232  -2.1232  -2.1036  -2.1036  -1.9334  -1.9334  -1.8508  -1.8508
    -1.8025  -1.7630  -1.7630  -1.7623  -1.7623  -1.7285  -1.7285  -1.7284
    -1.6846  -1.6845  -1.6526  -1.6526  -1.6498  -1.5626  -1.5626  -1.5239
    -1.5222  -1.5002  -1.5002  -1.4893  -1.4893  -1.4285  -1.4285  -1.4201
    -1.3859  -1.3730  -1.3729  -1.3393  -1.3000  -1.2419  -1.2419  -1.1223
    -1.0989  -1.0989  -1.0819  -0.9971  -0.9900  -0.9832  -0.9832  -0.9649
    -0.9468  -0.9466  -0.9357  -0.9356  -0.7959  -0.7946  -0.6832  -0.6752
    -0.6752  -0.6550  -0.6550  -0.6436  -0.6278  -0.6277  -0.6042  -0.6042
    -0.5873  -0.5621  -0.5499  -0.5499  -0.5292  -0.5291  -0.5234  -0.5234
    -0.5122  -0.5122  -0.5092  -0.5092  -0.4949  -0.4949  -0.4808  -0.4808
    -0.4797  -0.4797  -0.4727  -0.4619  -0.4618  -0.4483  -0.4483  -0.4308
    -0.4308  -0.4296  -0.3696  -0.3696  -0.3483  -0.3356  -0.3356  -0.3337
    -0.3212  -0.3070  -0.3030  -0.2985  -0.2985  -0.2798  -0.2333  -0.2332
    -0.2049  -0.2049  -0.1879  -0.1879  -0.1675  -0.1675  -0.1651  -0.1405
    -0.1405  -0.1374  -0.1373  -0.1332  -0.1181  -0.1064  -0.1028  -0.1028
    -0.0947  -0.0947  -0.0892  -0.0892  -0.0667  -0.0667  -0.0398  -0.0357
    -0.0357   0.0036   0.0036   0.0141   0.0215   0.0215   0.0256   0.0256
     0.0296   0.0296   0.0613   0.0772   0.0881   0.0881   0.0891   0.1042
     0.1117   0.1126   0.1134   0.1134   0.1346   0.1346   0.1463   0.1463
     0.1670   0.1671   0.1982   0.1983   0.2373   0.2534   0.2624   0.2624
     0.2685   0.2930   0.3158   0.3158   0.3561   0.3561   0.3708   0.3708
     0.4189   0.4189   0.4230   0.4578   0.4579   0.5417   0.5483   0.5905
     0.6642   0.6642   0.6653   0.6849   0.7111   0.7111   0.7258   0.7344
     0.7377   0.7378   0.7620   0.7620   0.8004   0.8016   0.8050   0.8588
     0.8600   0.8686   0.9618   1.0335   1.0558   1.0617   1.0635   1.0915
     1.0928   1.0928   1.2011   1.4508   1.5798   1.6124   1.7749   1.9173
     2.4081   2.7114   2.8557   2.9214   2.9330   3.2267   3.2267   3.3285
     3.6375   3.6698   3.8305   3.8686   3.9256   4.0396   4.0397   4.0611
     4.1812   4.1812   4.1878   4.2062   4.2610   4.3206   4.3665   4.3858
     4.3858   4.4071   4.4126   4.4184   4.4185   4.4487   4.4487   4.4538
     4.4538   4.5461   4.5461   4.5662   4.6070   4.6070   4.6750   4.6777
     4.6777   4.6853   4.6854   4.6895   4.6938   4.7360   4.7360   4.8117
     4.8393   4.8394   4.8420   4.8441   4.8441   4.8727   4.8727   4.9061
     4.9554   4.9764   4.9764   5.0389   5.0491   5.0492   5.0606   5.0705
     5.1081   5.1081   5.1462   5.1593   5.1593   5.1953   5.2414   5.2414
     5.2437   5.2438   5.2459   5.2459   5.3333   5.3333   5.3679   5.3679
     5.4311   5.4903   5.5111   5.5616   5.5805   5.5805   5.5815   5.5815
     5.5930   5.6515   5.6515   5.6659   5.6659   5.7235   5.7445   5.7445
     5.7486   5.7486   5.7561   5.7595   5.7717   5.7988   5.7988   5.8120
     5.8536   5.8536   5.8537   5.8537   5.8755   5.8761   5.9131   5.9131
     5.9412   5.9413   5.9800

          k = 0.0000-0.5000 0.0000 (165810 PWs)   bands (ev):

   -46.5205 -46.5205 -46.5052 -46.5052 -46.5052 -46.5052 -46.4907 -46.4907
   -46.4898 -46.4898 -46.4898 -46.4898 -46.4762 -46.4762 -46.4762 -46.4762
   -46.4626 -46.4626 -46.3838 -46.3838 -46.3675 -46.3675 -46.3675 -46.3674
   -46.3525 -46.3524 -46.3511 -46.3511 -46.3511 -46.3511 -46.3374 -46.3374
   -46.3373 -46.3373 -46.3235 -46.3235 -46.1858 -46.1858 -46.1675 -46.1675
   -46.1675 -46.1675 -46.1508 -46.1508 -46.1483 -46.1482 -46.1482 -46.1482
   -46.1337 -46.1337 -46.1337 -46.1337 -46.1190 -46.1190 -46.0923 -46.0922
   -46.0843 -46.0843 -46.0842 -46.0842 -46.0773 -46.0772 -46.0771 -46.0771
   -46.0738 -46.0736 -46.0635 -46.0635 -46.0635 -46.0634 -46.0498 -46.0497
   -25.3984 -25.3984 -25.3984 -25.3984 -25.3907 -25.3907 -25.3818 -25.3818
   -25.3817 -25.3817 -25.3601 -25.3600 -25.3515 -25.3515 -25.3515 -25.3515
   -25.3448 -25.3448 -25.3448 -25.3448 -25.3078 -25.3077 -25.2927 -25.2927
   -25.2927 -25.2926 -25.2820 -25.2820 -25.2820 -25.2820 -25.2765 -25.2765
   -25.2699 -25.2699 -25.2699 -25.2698 -25.2479 -25.2479 -25.2470 -25.2470
   -25.2470 -25.2469 -25.2351 -25.2351 -25.2330 -25.2330 -25.2307 -25.2307
   -25.2306 -25.2306 -25.1926 -25.1926 -25.1848 -25.1848 -25.1848 -25.1848
   -25.1723 -25.1723 -25.1723 -25.1723 -25.1552 -25.1552 -25.1309 -25.1308
   -25.1215 -25.1215 -25.1054 -25.1054 -25.1054 -25.1054 -25.1044 -25.1044
   -25.0817 -25.0817 -25.0817 -25.0816 -25.0598 -25.0598 -25.0520 -25.0520
   -25.0520 -25.0520 -25.0261 -25.0261 -25.0193 -25.0193 -25.0193 -25.0193
   -25.0177 -25.0177 -25.0082 -25.0082 -25.0082 -25.0081 -24.9968 -24.9967
   -24.9930 -24.9930 -24.9930 -24.9929 -24.9918 -24.9918 -24.9767 -24.9767
   -24.9619 -24.9619 -24.9619 -24.9619 -24.9537 -24.9537 -24.9448 -24.9448
   -24.9353 -24.9353 -24.9353 -24.9353 -24.9202 -24.9202 -24.9202 -24.9202
   -24.9175 -24.9175 -24.9175 -24.9175 -24.9052 -24.9051 -24.9051 -24.9051
   -24.8717 -24.8717 -24.8677 -24.8677 -24.8624 -24.8624 -24.8571 -24.8570
   -24.8475 -24.8474 -24.8322 -24.8321 -24.8321 -24.8321 -24.8321 -24.8320
   -24.8232 -24.8232 -24.8232 -24.8231 -24.7994 -24.7994 -24.7993 -24.7993
   -24.7945 -24.7945 -24.7766 -24.7766 -24.7584 -24.7584 -24.7584 -24.7584
   -24.7479 -24.7479 -24.7468 -24.7467 -24.7391 -24.7391 -24.7391 -24.7391
   -24.7362 -24.7361 -24.7361 -24.7361 -24.7305 -24.7305 -24.7305 -24.7305
   -24.7295 -24.7294 -24.7209 -24.7208 -24.7208 -24.7208 -24.7141 -24.7140
   -24.6993 -24.6993 -24.6992 -24.6992 -24.6946 -24.6945 -24.6945 -24.6945
   -24.6715 -24.6715 -24.6714 -24.6714 -24.6554 -24.6553 -24.6525 -24.6525
   -24.6424 -24.6424 -24.6424 -24.6423 -24.6317 -24.6316 -24.6252 -24.6252
   -24.6251 -24.6251 -24.6251 -24.6251 -24.6231 -24.6231 -24.6231 -24.6231
   -11.7438 -11.7438 -11.2505 -11.2504 -11.2504 -11.2504 -11.1766 -11.1765
   -11.0330 -11.0329 -10.9297 -10.9297 -10.8847 -10.8847 -10.7843 -10.7843
   -10.7843 -10.7842 -10.7806 -10.7806 -10.7806 -10.7805 -10.7618 -10.7618
   -10.6780 -10.6780 -10.6618 -10.6618 -10.6517 -10.6517 -10.6517 -10.6517
   -10.6348 -10.6348 -10.6348 -10.6348 -10.4315 -10.4315 -10.4315 -10.4314
   -10.3967 -10.3967 -10.3966 -10.3966 -10.3346 -10.3346 -10.2841 -10.2841
   -10.2817 -10.2816 -10.2816 -10.2816 -10.2767 -10.2766 -10.1705 -10.1705
   -10.1497 -10.1497 -10.1497 -10.1496 -10.0861 -10.0860 -10.0860 -10.0860
    -9.9677  -9.9677  -9.9677  -9.9677  -9.8879  -9.8879  -9.8879  -9.8878
    -2.4973  -2.4973  -2.4973  -2.4973  -2.4740  -2.4740  -2.4740  -2.4740
    -1.9077  -1.9077  -1.9077  -1.9077  -1.8651  -1.8651  -1.8651  -1.8651
    -1.7713  -1.7713  -1.7713  -1.7713  -1.7699  -1.7699  -1.7076  -1.7076
    -1.7076  -1.7075  -1.6913  -1.6913  -1.6912  -1.6912  -1.6907  -1.6906
    -1.5724  -1.5724  -1.5724  -1.5724  -1.3665  -1.3665  -1.3629  -1.3628
    -1.3628  -1.3628  -1.2834  -1.2834  -1.2358  -1.2358  -1.1903  -1.1903
    -1.1903  -1.1903  -1.0855  -1.0854  -1.0172  -1.0172  -0.9804  -0.9804
    -0.7927  -0.7927  -0.7927  -0.7927  -0.7645  -0.7645  -0.7645  -0.7645
    -0.7247  -0.7247  -0.6601  -0.6601  -0.6428  -0.6427  -0.6244  -0.6244
    -0.6163  -0.6163  -0.6163  -0.6163  -0.6025  -0.6025  -0.6025  -0.6025
    -0.5342  -0.5342  -0.5342  -0.5342  -0.5279  -0.5278  -0.5278  -0.5278
    -0.4858  -0.4858  -0.4858  -0.4857  -0.4443  -0.4443  -0.4443  -0.4443
    -0.3835  -0.3835  -0.3368  -0.3368  -0.3215  -0.3215  -0.3214  -0.3214
    -0.3009  -0.3009  -0.3009  -0.3009  -0.2924  -0.2924  -0.2674  -0.2674
    -0.2674  -0.2673  -0.2143  -0.2143  -0.2142  -0.2142  -0.1746  -0.1746
    -0.1245  -0.1245  -0.1245  -0.1245  -0.0959  -0.0959  -0.0895  -0.0895
    -0.0895  -0.0895  -0.0885  -0.0885  -0.0885  -0.0885  -0.0203  -0.0203
    -0.0202  -0.0202   0.0522   0.0523   0.0523   0.0523   0.0785   0.0785
     0.0870   0.0870   0.0870   0.0870   0.1064   0.1065   0.1065   0.1065
     0.1135   0.1135   0.1368   0.1368   0.1368   0.1368   0.1420   0.1420
     0.2611   0.2612   0.2612   0.2612   0.3304   0.3304   0.3781   0.3782
     0.4336   0.4337   0.4692   0.4693   0.4693   0.4693   0.4855   0.4856
     0.5112   0.5112   0.5112   0.5112   0.5845   0.5845   0.5845   0.5845
     0.6192   0.6192   0.6192   0.6193   0.6264   0.6264   0.6792   0.6793
     0.6854   0.6854   0.7501   0.7501   0.7571   0.7571   0.7572   0.7572
     0.8001   0.8002   0.8479   0.8479   0.9388   0.9388   1.1016   1.1016
     1.1603   1.1603   1.1871   1.1872   1.3301   1.3302   1.6911   1.6911
     2.7903   2.7903   2.9794   2.9794   3.2782   3.2783   3.4476   3.4476
     3.5651   3.5651   3.5651   3.5651   3.5892   3.5892   4.0227   4.0227
     4.0905   4.0905   4.2664   4.2664   4.3443   4.3443   4.3443   4.3443
     4.3910   4.3910   4.3911   4.3911   4.4432   4.4432   4.4885   4.4886
     4.5272   4.5273   4.5273   4.5273   4.5680   4.5680   4.5681   4.5681
     4.6737   4.6737   4.6784   4.6785   4.7954   4.7954   4.7954   4.7954
     4.8134   4.8134   4.8134   4.8134   4.8670   4.8670   4.8784   4.8784
     4.8784   4.8784   4.9397   4.9398   5.0018   5.0019   5.0019   5.0019
     5.1348   5.1348   5.1348   5.1348   5.2097   5.2097   5.2683   5.2683
     5.2683   5.2683   5.3380   5.3380   5.3380   5.3380   5.3455   5.3455
     5.3688   5.3689   5.5011   5.5011   5.5011   5.5011   5.6588   5.6588
     5.7158   5.7158   5.7264   5.7264   5.7264   5.7265   5.7502   5.7502
     5.7502   5.7502   5.8422   5.8422   5.8423   5.8423   5.8603   5.8603
     5.8943   5.8943   5.8943   5.8943   5.9135   5.9135   5.9153   5.9154
     5.9169   5.9170   5.9306

          k = 0.2500 0.2500 0.0000 (165752 PWs)   bands (ev):

   -46.5229 -46.5140 -46.5140 -46.5074 -46.4991 -46.4991 -46.4963 -46.4963
   -46.4919 -46.4874 -46.4841 -46.4841 -46.4824 -46.4824 -46.4740 -46.4683
   -46.4683 -46.4605 -46.3863 -46.3770 -46.3769 -46.3698 -46.3612 -46.3611
   -46.3581 -46.3580 -46.3532 -46.3486 -46.3453 -46.3453 -46.3438 -46.3437
   -46.3350 -46.3294 -46.3293 -46.3214 -46.1886 -46.1782 -46.1782 -46.1701
   -46.1605 -46.1605 -46.1565 -46.1565 -46.1505 -46.1451 -46.1421 -46.1421
   -46.1410 -46.1410 -46.1310 -46.1252 -46.1252 -46.1168 -46.0935 -46.0888
   -46.0887 -46.0859 -46.0801 -46.0800 -46.0798 -46.0797 -46.0793 -46.0762
   -46.0714 -46.0714 -46.0678 -46.0677 -46.0619 -46.0556 -46.0555 -46.0476
   -25.4059 -25.4042 -25.3934 -25.3871 -25.3871 -25.3857 -25.3848 -25.3848
   -25.3781 -25.3781 -25.3717 -25.3717 -25.3681 -25.3547 -25.3526 -25.3526
   -25.3522 -25.3261 -25.3261 -25.3179 -25.3179 -25.3041 -25.3039 -25.3001
   -25.2994 -25.2882 -25.2882 -25.2789 -25.2742 -25.2739 -25.2739 -25.2715
   -25.2714 -25.2654 -25.2654 -25.2590 -25.2589 -25.2567 -25.2522 -25.2517
   -25.2507 -25.2507 -25.2461 -25.2460 -25.2393 -25.2300 -25.2170 -25.2170
   -25.2170 -25.2170 -25.2065 -25.2064 -25.1938 -25.1921 -25.1816 -25.1765
   -25.1765 -25.1696 -25.1696 -25.1657 -25.1657 -25.1513 -25.1407 -25.1406
   -25.1229 -25.1153 -25.1153 -25.1099 -25.1053 -25.1053 -25.0919 -25.0919
   -25.0874 -25.0720 -25.0720 -25.0680 -25.0680 -25.0670 -25.0607 -25.0607
   -25.0514 -25.0294 -25.0294 -25.0257 -25.0210 -25.0210 -25.0165 -25.0122
   -25.0081 -25.0081 -25.0080 -25.0056 -25.0056 -25.0003 -25.0003 -25.0001
   -24.9997 -24.9996 -24.9976 -24.9934 -24.9934 -24.9920 -24.9699 -24.9699
   -24.9667 -24.9667 -24.9667 -24.9667 -24.9612 -24.9612 -24.9529 -24.9492
   -24.9491 -24.9491 -24.9337 -24.9278 -24.9278 -24.9267 -24.9171 -24.9161
   -24.9147 -24.9146 -24.9129 -24.9129 -24.9126 -24.9002 -24.8885 -24.8884
   -24.8707 -24.8707 -24.8639 -24.8639 -24.8612 -24.8570 -24.8570 -24.8567
   -24.8542 -24.8541 -24.8422 -24.8422 -24.8395 -24.8369 -24.8287 -24.8286
   -24.8155 -24.8154 -24.8139 -24.8087 -24.8058 -24.8052 -24.8052 -24.7945
   -24.7945 -24.7927 -24.7740 -24.7707 -24.7686 -24.7686 -24.7598 -24.7598
   -24.7577 -24.7539 -24.7539 -24.7515 -24.7513 -24.7450 -24.7450 -24.7368
   -24.7368 -24.7368 -24.7336 -24.7328 -24.7327 -24.7274 -24.7257 -24.7257
   -24.7248 -24.7231 -24.7230 -24.7172 -24.7171 -24.7110 -24.7103 -24.7103
   -24.7000 -24.6841 -24.6837 -24.6828 -24.6828 -24.6822 -24.6821 -24.6781
   -24.6781 -24.6763 -24.6762 -24.6735 -24.6734 -24.6725 -24.6698 -24.6634
   -24.6550 -24.6549 -24.6467 -24.6426 -24.6426 -24.6391 -24.6391 -24.6304
   -24.6266 -24.6250 -24.6250 -24.6231 -24.6230 -24.6079 -24.6043 -24.6033
   -11.8152 -11.5430 -11.5430 -11.2840 -11.2371 -11.1590 -11.1589 -11.0098
   -11.0097 -10.9430 -10.9306 -10.9239 -10.9239 -10.9003 -10.9003 -10.8710
   -10.8710 -10.8157 -10.8003 -10.7827 -10.7827 -10.7315 -10.7315 -10.7188
   -10.7045 -10.6973 -10.6972 -10.6930 -10.6462 -10.6462 -10.6124 -10.6116
   -10.6116 -10.5600 -10.5599 -10.5239 -10.5238 -10.5037 -10.5037 -10.4601
   -10.4497 -10.4152 -10.3979 -10.3634 -10.3461 -10.3461 -10.3147 -10.3007
   -10.2562 -10.2562 -10.2321 -10.2321 -10.2052 -10.2052 -10.2005 -10.2004
   -10.1629 -10.1628 -10.1274 -10.1174 -10.1173 -10.0774 -10.0535 -10.0535
   -10.0442 -10.0442  -9.9716  -9.9716  -9.9399  -9.8843  -9.8573  -9.8329
    -2.6300  -2.6172  -2.5857  -2.5625  -2.2514  -2.2514  -2.2258  -2.2258
    -2.1377  -2.1377  -2.0862  -2.0862  -1.9080  -1.9055  -1.8934  -1.8675
    -1.8626  -1.8597  -1.8597  -1.7962  -1.7962  -1.7275  -1.7129  -1.7128
    -1.7124  -1.6012  -1.6012  -1.5824  -1.5824  -1.5723  -1.5610  -1.5610
    -1.5086  -1.5085  -1.4579  -1.4579  -1.4490  -1.4489  -1.3631  -1.3630
    -1.3496  -1.3392  -1.3392  -1.3253  -1.3157  -1.2569  -1.2569  -1.1722
    -1.1721  -1.0974  -1.0863  -1.0367  -1.0367  -1.0170  -1.0170  -0.9979
    -0.9979  -0.9841  -0.9722  -0.9721  -0.8016  -0.7863  -0.7852  -0.7586
    -0.7586  -0.7050  -0.6694  -0.6505  -0.6493  -0.6136  -0.6113  -0.6113
    -0.5798  -0.5798  -0.5755  -0.5669  -0.5669  -0.5511  -0.5511  -0.5488
    -0.5488  -0.5394  -0.5249  -0.5154  -0.4947  -0.4942  -0.4557  -0.4557
    -0.4368  -0.4368  -0.4152  -0.4152  -0.4064  -0.4063  -0.4047  -0.4047
    -0.3946  -0.3945  -0.3804  -0.3803  -0.3622  -0.3622  -0.3242  -0.3242
    -0.3125  -0.3124  -0.3013  -0.3012  -0.2819  -0.2819  -0.2728  -0.2715
    -0.2284  -0.2141  -0.1956  -0.1898  -0.1860  -0.1860  -0.1795  -0.1758
    -0.1758  -0.1721  -0.1609  -0.1388  -0.1328  -0.1328  -0.1142  -0.1040
    -0.0926  -0.0926  -0.0591  -0.0300  -0.0300  -0.0073  -0.0073  -0.0068
    -0.0068   0.0140   0.0251   0.0396   0.0396   0.0721   0.0818   0.0864
     0.0864   0.1042   0.1087   0.1124   0.1188   0.1310   0.1310   0.1500
     0.1586   0.1586   0.1812   0.1812   0.1877   0.1878   0.1999   0.1999
     0.2200   0.2201   0.2320   0.2321   0.2454   0.2454   0.2735   0.2735
     0.3185   0.3185   0.3359   0.3359   0.3681   0.3681   0.4123   0.4725
     0.4725   0.4852   0.5285   0.5285   0.5371   0.5416   0.5416   0.5514
     0.5774   0.6424   0.6558   0.6558   0.6618   0.6713   0.6786   0.6786
     0.7107   0.7148   0.7148   0.7456   0.7456   0.8159   0.8160   0.8408
     0.8441   0.8807   0.8807   0.9315   0.9315   0.9727   0.9727   1.0321
     1.0539   1.1153   1.2968   1.2968   1.3687   1.5561   1.5890   1.7762
     2.6032   2.8764   2.8768   3.0593   3.0593   3.1030   3.4392   3.4393
     3.7051   3.7051   3.8061   3.8318   3.8319   3.9225   3.9277   3.9500
     3.9500   3.9567   4.1146   4.1146   4.1901   4.1901   4.2114   4.2114
     4.2787   4.2818   4.3412   4.3968   4.4006   4.4007   4.4200   4.4287
     4.4388   4.4388   4.5070   4.5071   4.5459   4.6586   4.6586   4.6774
     4.6811   4.6812   4.6987   4.6988   4.7340   4.7340   4.8501   4.8501
     4.8526   4.8526   4.8754   4.8755   4.8795   4.9455   4.9579   4.9665
     4.9665   4.9751   5.0578   5.0766   5.0775   5.0775   5.0970   5.0970
     5.1219   5.1379   5.1380   5.1549   5.1661   5.1661   5.1800   5.2228
     5.2464   5.3527   5.3527   5.3759   5.3759   5.4291   5.4291   5.4561
     5.4562   5.4996   5.4997   5.5303   5.5359   5.5359   5.5416   5.5416
     5.6021   5.6067   5.6067   5.6153   5.6154   5.6492   5.6492   5.6899
     5.6899   5.7337   5.7494   5.7494   5.7518   5.7846   5.8002   5.8002
     5.8156   5.8816   5.8883   5.8921   5.9020   5.9020   5.9041   5.9299
     5.9510   5.9559   5.9999

          k = 0.2500-0.5000 0.0000 (165780 PWs)   bands (ev):

   -46.5194 -46.5194 -46.5115 -46.5115 -46.4980 -46.4980 -46.4907 -46.4906
   -46.4901 -46.4901 -46.4896 -46.4896 -46.4830 -46.4830 -46.4705 -46.4705
   -46.4635 -46.4635 -46.3827 -46.3827 -46.3742 -46.3741 -46.3599 -46.3599
   -46.3524 -46.3523 -46.3516 -46.3515 -46.3508 -46.3508 -46.3443 -46.3443
   -46.3315 -46.3315 -46.3245 -46.3244 -46.1845 -46.1845 -46.1750 -46.1750
   -46.1589 -46.1589 -46.1506 -46.1506 -46.1491 -46.1491 -46.1476 -46.1475
   -46.1414 -46.1413 -46.1274 -46.1274 -46.1200 -46.1200 -46.0917 -46.0917
   -46.0877 -46.0877 -46.0799 -46.0799 -46.0781 -46.0780 -46.0761 -46.0759
   -46.0741 -46.0739 -46.0693 -46.0692 -46.0581 -46.0581 -46.0508 -46.0508
   -25.4087 -25.4086 -25.3899 -25.3899 -25.3850 -25.3850 -25.3848 -25.3847
   -25.3777 -25.3777 -25.3697 -25.3697 -25.3632 -25.3632 -25.3631 -25.3631
   -25.3373 -25.3372 -25.3118 -25.3118 -25.3070 -25.3070 -25.3064 -25.3064
   -25.2811 -25.2811 -25.2762 -25.2761 -25.2761 -25.2761 -25.2738 -25.2738
   -25.2725 -25.2725 -25.2681 -25.2681 -25.2570 -25.2570 -25.2528 -25.2528
   -25.2528 -25.2528 -25.2525 -25.2525 -25.2335 -25.2335 -25.2206 -25.2206
   -25.2060 -25.2060 -25.1991 -25.1991 -25.1945 -25.1945 -25.1943 -25.1943
   -25.1714 -25.1713 -25.1647 -25.1647 -25.1484 -25.1483 -25.1413 -25.1413
   -25.1408 -25.1408 -25.1190 -25.1190 -25.1000 -25.1000 -25.0954 -25.0954
   -25.0685 -25.0685 -25.0670 -25.0670 -25.0628 -25.0627 -25.0506 -25.0506
   -25.0455 -25.0455 -25.0392 -25.0392 -25.0354 -25.0354 -25.0204 -25.0203
   -25.0178 -25.0178 -25.0050 -25.0050 -24.9979 -24.9979 -24.9930 -24.9930
   -24.9875 -24.9875 -24.9821 -24.9821 -24.9818 -24.9818 -24.9813 -24.9813
   -24.9700 -24.9700 -24.9662 -24.9662 -24.9544 -24.9544 -24.9508 -24.9508
   -24.9443 -24.9443 -24.9433 -24.9433 -24.9401 -24.9400 -24.9264 -24.9264
   -24.9040 -24.9040 -24.9023 -24.9023 -24.8953 -24.8953 -24.8910 -24.8910
   -24.8817 -24.8817 -24.8705 -24.8705 -24.8649 -24.8649 -24.8516 -24.8516
   -24.8425 -24.8424 -24.8372 -24.8372 -24.8339 -24.8339 -24.8261 -24.8260
   -24.8213 -24.8213 -24.8207 -24.8206 -24.8038 -24.8038 -24.8000 -24.8000
   -24.7899 -24.7899 -24.7830 -24.7830 -24.7768 -24.7768 -24.7615 -24.7615
   -24.7512 -24.7512 -24.7437 -24.7436 -24.7434 -24.7434 -24.7424 -24.7424
   -24.7334 -24.7334 -24.7328 -24.7328 -24.7292 -24.7292 -24.7274 -24.7274
   -24.7237 -24.7237 -24.7190 -24.7190 -24.7162 -24.7162 -24.7083 -24.7083
   -24.7077 -24.7077 -24.7008 -24.7008 -24.6798 -24.6796 -24.6784 -24.6784
   -24.6701 -24.6701 -24.6662 -24.6661 -24.6603 -24.6603 -24.6566 -24.6566
   -24.6503 -24.6502 -24.6474 -24.6474 -24.6449 -24.6448 -24.6435 -24.6435
   -24.6427 -24.6426 -24.6120 -24.6120 -24.6106 -24.6106 -24.6094 -24.6094
   -11.7065 -11.7065 -11.4393 -11.4393 -11.1446 -11.1446 -11.0643 -11.0643
   -11.0015 -11.0015 -10.9239 -10.9238 -10.9055 -10.9055 -10.8707 -10.8707
   -10.8174 -10.8173 -10.7996 -10.7996 -10.7817 -10.7817 -10.7431 -10.7431
   -10.7329 -10.7329 -10.6595 -10.6595 -10.6549 -10.6549 -10.6315 -10.6315
   -10.5925 -10.5925 -10.5318 -10.5318 -10.5081 -10.5080 -10.5032 -10.5032
   -10.4209 -10.4209 -10.3935 -10.3935 -10.3155 -10.3155 -10.2713 -10.2713
   -10.2656 -10.2656 -10.2511 -10.2511 -10.2003 -10.2003 -10.1583 -10.1583
   -10.1480 -10.1480 -10.1460 -10.1460 -10.1382 -10.1382 -10.0773 -10.0773
   -10.0557 -10.0557  -9.9837  -9.9836  -9.8805  -9.8805  -9.8187  -9.8186
    -2.6712  -2.6712  -2.6552  -2.6552  -2.2562  -2.2562  -2.2211  -2.2211
    -2.0229  -2.0229  -1.9804  -1.9804  -1.9465  -1.9465  -1.8896  -1.8896
    -1.8749  -1.8749  -1.8346  -1.8346  -1.8092  -1.8092  -1.7636  -1.7635
    -1.6924  -1.6924  -1.6513  -1.6513  -1.5430  -1.5430  -1.5188  -1.5188
    -1.4869  -1.4869  -1.4402  -1.4402  -1.3829  -1.3829  -1.3262  -1.3262
    -1.3113  -1.3113  -1.2657  -1.2657  -1.2354  -1.2354  -1.1965  -1.1965
    -1.1923  -1.1923  -1.1326  -1.1326  -1.1044  -1.1044  -1.0471  -1.0471
    -1.0451  -1.0451  -0.9766  -0.9766  -0.9278  -0.9278  -0.8490  -0.8490
    -0.6706  -0.6706  -0.6440  -0.6440  -0.6018  -0.6018  -0.5870  -0.5870
    -0.5374  -0.5374  -0.5336  -0.5336  -0.5333  -0.5333  -0.5300  -0.5300
    -0.5229  -0.5229  -0.5176  -0.5176  -0.5033  -0.5033  -0.5026  -0.5026
    -0.4738  -0.4738  -0.4711  -0.4711  -0.4413  -0.4413  -0.4409  -0.4409
    -0.4046  -0.4046  -0.3867  -0.3867  -0.3627  -0.3627  -0.3619  -0.3619
    -0.3554  -0.3554  -0.3365  -0.3364  -0.3236  -0.3236  -0.2734  -0.2734
    -0.2223  -0.2223  -0.2113  -0.2113  -0.1989  -0.1989  -0.1793  -0.1792
    -0.1439  -0.1439  -0.1432  -0.1432  -0.1032  -0.1032  -0.0684  -0.0684
    -0.0083  -0.0083  -0.0013  -0.0012   0.0091   0.0091   0.0157   0.0158
     0.0476   0.0476   0.0683   0.0683   0.0916   0.0917   0.0965   0.0965
     0.1157   0.1158   0.1242   0.1242   0.1510   0.1510   0.1665   0.1665
     0.1745   0.1745   0.1762   0.1762   0.1967   0.1967   0.1992   0.1992
     0.3114   0.3114   0.3144   0.3145   0.3192   0.3192   0.3593   0.3593
     0.3616   0.3616   0.3722   0.3722   0.4697   0.4697   0.5191   0.5191
     0.5240   0.5240   0.5411   0.5411   0.5506   0.5506   0.5607   0.5607
     0.5795   0.5795   0.6132   0.6132   0.6424   0.6424   0.6564   0.6564
     0.6848   0.6849   0.7062   0.7063   0.7565   0.7566   0.7962   0.7963
     0.8166   0.8166   0.8496   0.8496   0.9555   0.9556   1.0085   1.0085
     1.0466   1.0466   1.0786   1.0786   1.2803   1.2803   1.5316   1.5316
     2.9426   2.9427   3.0868   3.0869   3.2901   3.2901   3.4253   3.4253
     3.5407   3.5408   3.6863   3.6863   3.7478   3.7478   3.8560   3.8561
     3.9359   3.9359   4.0514   4.0514   4.1693   4.1693   4.1795   4.1795
     4.2869   4.2869   4.3133   4.3133   4.3384   4.3384   4.3585   4.3586
     4.4069   4.4069   4.4403   4.4403   4.5046   4.5046   4.6479   4.6479
     4.7333   4.7333   4.7391   4.7391   4.7538   4.7538   4.7911   4.7911
     4.8327   4.8327   4.8387   4.8388   4.8895   4.8895   4.9519   4.9519
     4.9840   4.9841   5.0506   5.0506   5.1170   5.1170   5.1412   5.1412
     5.1835   5.1835   5.1848   5.1849   5.2275   5.2275   5.2805   5.2805
     5.3082   5.3082   5.3295   5.3296   5.3952   5.3952   5.3976   5.3976
     5.4908   5.4908   5.4915   5.4916   5.4962   5.4962   5.5358   5.5359
     5.6087   5.6087   5.6649   5.6650   5.6757   5.6757   5.7366   5.7366
     5.8036   5.8036   5.8164   5.8164   5.8580   5.8581   5.8641   5.8641
     5.8884   5.8884   5.9314   5.9314   5.9388   5.9388   5.9393   5.9393
     5.9582   5.9583   6.0022

          k =-0.5000-0.5000 0.0000 (165708 PWs)   bands (ev):

   -46.5164 -46.5163 -46.5163 -46.5163 -46.4904 -46.4904 -46.4904 -46.4904
   -46.4904 -46.4904 -46.4904 -46.4904 -46.4895 -46.4895 -46.4662 -46.4662
   -46.4662 -46.4662 -46.3794 -46.3794 -46.3793 -46.3793 -46.3521 -46.3521
   -46.3521 -46.3520 -46.3520 -46.3520 -46.3519 -46.3519 -46.3507 -46.3506
   -46.3272 -46.3272 -46.3271 -46.3271 -46.1809 -46.1808 -46.1808 -46.1808
   -46.1500 -46.1500 -46.1500 -46.1500 -46.1500 -46.1500 -46.1499 -46.1499
   -46.1473 -46.1473 -46.1228 -46.1228 -46.1228 -46.1228 -46.0903 -46.0902
   -46.0902 -46.0902 -46.0785 -46.0783 -46.0750 -46.0750 -46.0749 -46.0748
   -46.0748 -46.0748 -46.0747 -46.0747 -46.0538 -46.0537 -46.0537 -46.0536
   -25.4124 -25.4124 -25.3878 -25.3878 -25.3878 -25.3878 -25.3783 -25.3783
   -25.3719 -25.3719 -25.3719 -25.3719 -25.3719 -25.3719 -25.3718 -25.3718
   -25.3228 -25.3228 -25.3228 -25.3228 -25.3115 -25.3115 -25.2748 -25.2748
   -25.2747 -25.2747 -25.2728 -25.2728 -25.2728 -25.2728 -25.2694 -25.2694
   -25.2694 -25.2694 -25.2693 -25.2693 -25.2693 -25.2693 -25.2603 -25.2603
   -25.2450 -25.2450 -25.2449 -25.2449 -25.2449 -25.2449 -25.2449 -25.2449
   -25.2154 -25.2154 -25.2154 -25.2154 -25.1746 -25.1746 -25.1746 -25.1746
   -25.1631 -25.1630 -25.1630 -25.1630 -25.1472 -25.1472 -25.1472 -25.1471
   -25.1471 -25.1471 -25.1471 -25.1471 -25.0946 -25.0946 -25.0946 -25.0946
   -25.0733 -25.0733 -25.0733 -25.0733 -25.0663 -25.0663 -25.0304 -25.0304
   -25.0304 -25.0304 -25.0304 -25.0303 -25.0303 -25.0303 -25.0213 -25.0212
   -25.0212 -25.0212 -24.9996 -24.9996 -24.9977 -24.9977 -24.9977 -24.9977
   -24.9891 -24.9891 -24.9891 -24.9891 -24.9891 -24.9891 -24.9891 -24.9890
   -24.9624 -24.9624 -24.9624 -24.9624 -24.9525 -24.9525 -24.9525 -24.9524
   -24.9524 -24.9524 -24.9524 -24.9524 -24.9419 -24.9419 -24.9419 -24.9418
   -24.8961 -24.8961 -24.8845 -24.8844 -24.8844 -24.8844 -24.8734 -24.8734
   -24.8734 -24.8734 -24.8733 -24.8733 -24.8733 -24.8733 -24.8565 -24.8565
   -24.8565 -24.8565 -24.8449 -24.8449 -24.8449 -24.8449 -24.8239 -24.8239
   -24.8238 -24.8238 -24.8087 -24.8086 -24.8086 -24.8086 -24.7779 -24.7779
   -24.7779 -24.7778 -24.7752 -24.7752 -24.7752 -24.7752 -24.7752 -24.7752
   -24.7752 -24.7752 -24.7691 -24.7691 -24.7344 -24.7343 -24.7343 -24.7343
   -24.7340 -24.7339 -24.7339 -24.7339 -24.7339 -24.7339 -24.7339 -24.7339
   -24.7321 -24.7321 -24.7147 -24.7147 -24.7147 -24.7147 -24.6852 -24.6852
   -24.6852 -24.6852 -24.6806 -24.6805 -24.6755 -24.6755 -24.6755 -24.6755
   -24.6755 -24.6755 -24.6754 -24.6754 -24.6640 -24.6640 -24.6600 -24.6599
   -24.6599 -24.6599 -24.6599 -24.6599 -24.6598 -24.6598 -24.6458 -24.6458
   -24.6458 -24.6458 -24.6056 -24.6056 -24.6055 -24.6055 -24.6055 -24.6055
   -11.5997 -11.5997 -11.5997 -11.5996 -11.0546 -11.0546 -11.0545 -11.0545
   -10.9125 -10.9124 -10.9124 -10.9124 -10.9124 -10.9124 -10.9124 -10.9123
   -10.8430 -10.8429 -10.8429 -10.8428 -10.8309 -10.8309 -10.8309 -10.8308
   -10.6514 -10.6513 -10.6513 -10.6513 -10.5921 -10.5921 -10.5921 -10.5920
   -10.5920 -10.5920 -10.5920 -10.5919 -10.5459 -10.5459 -10.5458 -10.5458
   -10.4218 -10.4218 -10.4115 -10.4115 -10.2645 -10.2645 -10.2645 -10.2645
   -10.2153 -10.2153 -10.2152 -10.2152 -10.1797 -10.1797 -10.1797 -10.1797
   -10.1797 -10.1797 -10.1796 -10.1796 -10.0782 -10.0782 -10.0782 -10.0781
   -10.0781 -10.0781 -10.0781 -10.0781  -9.8460  -9.8460  -9.7944  -9.7944
    -2.7340  -2.7339  -2.7212  -2.7212  -2.0128  -2.0128  -2.0128  -2.0127
    -2.0127  -2.0127  -2.0127  -2.0127  -1.9997  -1.9997  -1.9601  -1.9601
    -1.9601  -1.9601  -1.9601  -1.9601  -1.9601  -1.9601  -1.9591  -1.9591
    -1.4384  -1.4384  -1.4383  -1.4383  -1.4370  -1.4370  -1.4370  -1.4369
    -1.4208  -1.4208  -1.4208  -1.4207  -1.3555  -1.3555  -1.3554  -1.3554
    -1.3554  -1.3554  -1.3554  -1.3554  -1.2072  -1.2071  -1.2071  -1.2071
    -1.2071  -1.2071  -1.2071  -1.2071  -1.1449  -1.1449  -1.1449  -1.1449
    -1.0462  -1.0462  -1.0462  -1.0462  -1.0315  -1.0315  -1.0315  -1.0315
    -0.6966  -0.6965  -0.6743  -0.6743  -0.5857  -0.5857  -0.5683  -0.5682
    -0.5302  -0.5302  -0.5302  -0.5302  -0.5302  -0.5301  -0.5301  -0.5301
    -0.4784  -0.4784  -0.4783  -0.4783  -0.4783  -0.4783  -0.4783  -0.4783
    -0.3987  -0.3987  -0.3987  -0.3987  -0.3986  -0.3986  -0.3986  -0.3986
    -0.3884  -0.3884  -0.3883  -0.3883  -0.3819  -0.3819  -0.3819  -0.3819
    -0.3312  -0.3312  -0.3312  -0.3312  -0.3043  -0.3043  -0.3042  -0.3042
    -0.3042  -0.3042  -0.3042  -0.3042  -0.2568  -0.2568  -0.2144  -0.2144
    -0.1597  -0.1597  -0.1597  -0.1596  -0.1234  -0.1234  -0.0375  -0.0375
     0.0276   0.0276   0.0276   0.0276   0.0307   0.0307   0.0307   0.0307
     0.0739   0.0739   0.0739   0.0739   0.0739   0.0740   0.0740   0.0740
     0.1716   0.1716   0.1716   0.1716   0.1716   0.1716   0.1717   0.1717
     0.2948   0.2948   0.2948   0.2948   0.3249   0.3249   0.3249   0.3249
     0.3700   0.3700   0.3700   0.3700   0.3985   0.3985   0.3986   0.3986
     0.4585   0.4585   0.4585   0.4585   0.5073   0.5073   0.5073   0.5074
     0.5074   0.5074   0.5074   0.5074   0.5204   0.5204   0.5204   0.5204
     0.5204   0.5204   0.5205   0.5205   0.6054   0.6055   0.6055   0.6055
     0.7234   0.7234   0.7234   0.7234   0.7518   0.7518   0.7518   0.7518
     0.8165   0.8165   0.8165   0.8166   0.8586   0.8586   0.8586   0.8586
     1.0747   1.0747   1.0747   1.0747   1.2185   1.2185   1.2186   1.2186
     3.3343   3.3343   3.3344   3.3344   3.3348   3.3348   3.3348   3.3348
     3.4204   3.4204   3.4204   3.4205   3.8400   3.8400   3.8400   3.8400
     3.9605   3.9605   3.9605   3.9606   3.9606   3.9606   3.9606   3.9607
     4.1403   4.1403   4.1403   4.1403   4.3892   4.3893   4.3893   4.3894
     4.4350   4.4350   4.4350   4.4350   4.5493   4.5493   4.5494   4.5494
     4.5604   4.5604   4.5605   4.5605   4.8688   4.8688   4.8688   4.8688
     4.8688   4.8689   4.8689   4.8689   4.9496   4.9496   4.9497   4.9497
     4.9820   4.9820   4.9820   4.9820   5.1818   5.1818   5.1818   5.1818
     5.2461   5.2461   5.2461   5.2461   5.2461   5.2461   5.2462   5.2462
     5.2546   5.2546   5.3613   5.3613   5.4740   5.4741   5.4742   5.4742
     5.4742   5.4742   5.4743   5.4743   5.5504   5.5504   5.5504   5.5504
     5.7757   5.7757   5.7757   5.7758   5.8102   5.8102   5.8102   5.8102
     5.8223   5.8223   5.8223   5.8223   5.8223   5.8224   5.8224   5.8224
     5.9615   5.9615   5.9615   5.9615   5.9615   5.9615   5.9615   5.9615
     5.9880   5.9909   6.0828

          k = 0.2500 0.0000 0.0000 (165664 PWs)   bands (ev):

   -46.5240 -46.5149 -46.5071 -46.5071 -46.5022 -46.5022 -46.4995 -46.4942
   -46.4942 -46.4856 -46.4856 -46.4821 -46.4786 -46.4786 -46.4748 -46.4748
   -46.4676 -46.4594 -46.3876 -46.3779 -46.3696 -46.3695 -46.3643 -46.3643
   -46.3616 -46.3558 -46.3557 -46.3468 -46.3467 -46.3435 -46.3397 -46.3396
   -46.3360 -46.3359 -46.3286 -46.3203 -46.1899 -46.1792 -46.1700 -46.1699
   -46.1637 -46.1637 -46.1610 -46.1536 -46.1536 -46.1433 -46.1433 -46.1408
   -46.1359 -46.1359 -46.1324 -46.1323 -46.1245 -46.1157 -46.0941 -46.0891
   -46.0848 -46.0847 -46.0834 -46.0833 -46.0799 -46.0798 -46.0797 -46.0739
   -46.0738 -46.0673 -46.0666 -46.0665 -46.0615 -46.0614 -46.0547 -46.0465
   -25.3977 -25.3977 -25.3947 -25.3932 -25.3932 -25.3868 -25.3868 -25.3849
   -25.3788 -25.3788 -25.3696 -25.3669 -25.3669 -25.3501 -25.3501 -25.3488
   -25.3401 -25.3401 -25.3249 -25.3249 -25.3219 -25.3167 -25.3167 -25.2954
   -25.2923 -25.2923 -25.2861 -25.2861 -25.2798 -25.2776 -25.2776 -25.2711
   -25.2668 -25.2667 -25.2654 -25.2654 -25.2559 -25.2479 -25.2473 -25.2420
   -25.2419 -25.2389 -25.2366 -25.2366 -25.2360 -25.2360 -25.2284 -25.2284
   -25.2205 -25.2110 -25.2110 -25.2095 -25.2093 -25.2059 -25.2059 -25.1784
   -25.1739 -25.1462 -25.1428 -25.1424 -25.1424 -25.1379 -25.1328 -25.1328
   -25.1312 -25.1312 -25.1298 -25.1298 -25.1294 -25.1063 -25.1049 -25.0842
   -25.0842 -25.0773 -25.0662 -25.0652 -25.0652 -25.0640 -25.0391 -25.0390
   -25.0369 -25.0344 -25.0344 -25.0324 -25.0320 -25.0320 -25.0204 -25.0151
   -25.0151 -25.0125 -25.0112 -25.0111 -25.0054 -25.0000 -24.9999 -24.9999
   -24.9949 -24.9949 -24.9904 -24.9904 -24.9898 -24.9892 -24.9818 -24.9817
   -24.9707 -24.9707 -24.9700 -24.9655 -24.9620 -24.9565 -24.9467 -24.9467
   -24.9429 -24.9397 -24.9397 -24.9372 -24.9371 -24.9207 -24.9207 -24.9156
   -24.9156 -24.9146 -24.9101 -24.9101 -24.9079 -24.8870 -24.8838 -24.8838
   -24.8813 -24.8813 -24.8719 -24.8660 -24.8591 -24.8581 -24.8567 -24.8567
   -24.8495 -24.8495 -24.8469 -24.8440 -24.8438 -24.8428 -24.8351 -24.8201
   -24.8201 -24.8175 -24.8133 -24.8041 -24.8041 -24.8033 -24.7873 -24.7873
   -24.7850 -24.7850 -24.7798 -24.7798 -24.7711 -24.7710 -24.7679 -24.7679
   -24.7627 -24.7602 -24.7474 -24.7473 -24.7469 -24.7413 -24.7412 -24.7397
   -24.7397 -24.7385 -24.7384 -24.7353 -24.7353 -24.7334 -24.7305 -24.7243
   -24.7153 -24.7153 -24.7094 -24.7094 -24.7019 -24.7019 -24.6997 -24.6997
   -24.6994 -24.6994 -24.6987 -24.6985 -24.6980 -24.6979 -24.6840 -24.6840
   -24.6839 -24.6839 -24.6754 -24.6689 -24.6634 -24.6633 -24.6612 -24.6505
   -24.6505 -24.6496 -24.6496 -24.6482 -24.6482 -24.6445 -24.6411 -24.6354
   -24.6354 -24.6352 -24.6155 -24.6131 -24.6086 -24.6086 -24.6079 -24.6079
   -11.8533 -11.5793 -11.3500 -11.3500 -11.2698 -11.1923 -11.1018 -11.1018
   -11.0403 -10.9633 -10.9468 -10.9298 -10.8968 -10.8612 -10.8612 -10.8605
   -10.8604 -10.8450 -10.7980 -10.7629 -10.7628 -10.7576 -10.7497 -10.6974
   -10.6974 -10.6749 -10.6749 -10.6675 -10.6674 -10.6663 -10.6399 -10.5962
   -10.5962 -10.5661 -10.5661 -10.5331 -10.4741 -10.4741 -10.4680 -10.4680
   -10.4618 -10.4618 -10.3815 -10.3727 -10.3605 -10.3605 -10.3328 -10.2836
   -10.2836 -10.2768 -10.2585 -10.2294 -10.2198 -10.2113 -10.2113 -10.1682
   -10.1682 -10.1423 -10.1422 -10.1398 -10.0659 -10.0659 -10.0432 -10.0432
   -10.0103 -10.0102  -9.9486  -9.9486  -9.9434  -9.9434  -9.8893  -9.8893
    -2.4759  -2.4759  -2.4597  -2.4597  -2.3918  -2.3918  -2.3584  -2.3583
    -2.1232  -2.1231  -2.1036  -2.1036  -1.9334  -1.9334  -1.8508  -1.8508
    -1.8025  -1.7630  -1.7630  -1.7623  -1.7622  -1.7285  -1.7285  -1.7284
    -1.6846  -1.6845  -1.6526  -1.6526  -1.6498  -1.5626  -1.5626  -1.5239
    -1.5222  -1.5002  -1.5002  -1.4893  -1.4893  -1.4285  -1.4285  -1.4201
    -1.3859  -1.3730  -1.3729  -1.3393  -1.3000  -1.2419  -1.2418  -1.1223
    -1.0989  -1.0989  -1.0819  -0.9971  -0.9900  -0.9832  -0.9832  -0.9649
    -0.9468  -0.9466  -0.9357  -0.9356  -0.7959  -0.7946  -0.6832  -0.6752
    -0.6752  -0.6550  -0.6550  -0.6436  -0.6278  -0.6277  -0.6042  -0.6042
    -0.5873  -0.5621  -0.5499  -0.5499  -0.5292  -0.5291  -0.5234  -0.5234
    -0.5123  -0.5122  -0.5092  -0.5092  -0.4949  -0.4949  -0.4808  -0.4808
    -0.4797  -0.4797  -0.4727  -0.4619  -0.4619  -0.4483  -0.4482  -0.4308
    -0.4308  -0.4296  -0.3696  -0.3695  -0.3483  -0.3356  -0.3356  -0.3337
    -0.3212  -0.3070  -0.3030  -0.2986  -0.2985  -0.2798  -0.2333  -0.2332
    -0.2049  -0.2049  -0.1879  -0.1879  -0.1675  -0.1675  -0.1651  -0.1405
    -0.1405  -0.1374  -0.1373  -0.1332  -0.1181  -0.1064  -0.1028  -0.1028
    -0.0947  -0.0947  -0.0892  -0.0892  -0.0667  -0.0667  -0.0398  -0.0357
    -0.0357   0.0036   0.0036   0.0141   0.0215   0.0216   0.0256   0.0256
     0.0296   0.0296   0.0613   0.0772   0.0881   0.0881   0.0891   0.1042
     0.1117   0.1126   0.1134   0.1134   0.1346   0.1346   0.1463   0.1463
     0.1670   0.1671   0.1982   0.1983   0.2373   0.2534   0.2624   0.2624
     0.2685   0.2930   0.3158   0.3158   0.3560   0.3561   0.3708   0.3708
     0.4189   0.4189   0.4230   0.4578   0.4579   0.5417   0.5483   0.5905
     0.6642   0.6642   0.6653   0.6849   0.7111   0.7111   0.7258   0.7344
     0.7377   0.7378   0.7620   0.7620   0.8004   0.8016   0.8050   0.8588
     0.8600   0.8686   0.9618   1.0335   1.0558   1.0617   1.0635   1.0915
     1.0928   1.0928   1.2011   1.4508   1.5798   1.6124   1.7749   1.9173
     2.4081   2.7114   2.8557   2.9214   2.9330   3.2266   3.2267   3.3285
     3.6375   3.6698   3.8305   3.8686   3.9256   4.0396   4.0397   4.0611
     4.1812   4.1812   4.1878   4.2062   4.2610   4.3206   4.3665   4.3858
     4.3858   4.4071   4.4126   4.4184   4.4185   4.4487   4.4487   4.4538
     4.4539   4.5461   4.5461   4.5662   4.6069   4.6070   4.6750   4.6777
     4.6777   4.6853   4.6854   4.6895   4.6938   4.7360   4.7360   4.8117
     4.8393   4.8394   4.8420   4.8441   4.8441   4.8727   4.8727   4.9061
     4.9554   4.9764   4.9764   5.0389   5.0491   5.0491   5.0606   5.0705
     5.1080   5.1081   5.1462   5.1593   5.1593   5.1953   5.2414   5.2414
     5.2437   5.2438   5.2459   5.2459   5.3333   5.3334   5.3679   5.3679
     5.4311   5.4903   5.5111   5.5616   5.5805   5.5805   5.5815   5.5816
     5.5930   5.6515   5.6515   5.6659   5.6660   5.7235   5.7445   5.7446
     5.7486   5.7486   5.7561   5.7595   5.7717   5.7988   5.7988   5.8120
     5.8537   5.8537   5.8538   5.8538   5.8755   5.8761   5.9130   5.9131
     5.9412   5.9413   5.9800

          k =-0.5000 0.0000 0.0000 (165810 PWs)   bands (ev):

   -46.5205 -46.5205 -46.5052 -46.5052 -46.5052 -46.5052 -46.4907 -46.4907
   -46.4898 -46.4898 -46.4898 -46.4898 -46.4762 -46.4762 -46.4762 -46.4762
   -46.4626 -46.4626 -46.3838 -46.3838 -46.3675 -46.3675 -46.3675 -46.3674
   -46.3525 -46.3524 -46.3512 -46.3511 -46.3511 -46.3510 -46.3374 -46.3374
   -46.3373 -46.3373 -46.3235 -46.3235 -46.1858 -46.1858 -46.1675 -46.1675
   -46.1675 -46.1675 -46.1508 -46.1508 -46.1483 -46.1482 -46.1482 -46.1482
   -46.1337 -46.1337 -46.1337 -46.1336 -46.1190 -46.1190 -46.0923 -46.0922
   -46.0843 -46.0843 -46.0842 -46.0842 -46.0773 -46.0772 -46.0772 -46.0770
   -46.0738 -46.0736 -46.0635 -46.0635 -46.0635 -46.0634 -46.0498 -46.0498
   -25.3984 -25.3984 -25.3984 -25.3984 -25.3907 -25.3907 -25.3818 -25.3817
   -25.3817 -25.3817 -25.3601 -25.3600 -25.3515 -25.3515 -25.3515 -25.3515
   -25.3449 -25.3448 -25.3448 -25.3448 -25.3078 -25.3078 -25.2927 -25.2927
   -25.2927 -25.2926 -25.2820 -25.2820 -25.2820 -25.2820 -25.2765 -25.2765
   -25.2699 -25.2699 -25.2699 -25.2698 -25.2479 -25.2479 -25.2470 -25.2470
   -25.2470 -25.2469 -25.2351 -25.2351 -25.2330 -25.2330 -25.2307 -25.2307
   -25.2306 -25.2306 -25.1926 -25.1926 -25.1848 -25.1848 -25.1848 -25.1847
   -25.1723 -25.1723 -25.1723 -25.1723 -25.1552 -25.1552 -25.1309 -25.1308
   -25.1215 -25.1215 -25.1054 -25.1054 -25.1054 -25.1054 -25.1044 -25.1044
   -25.0817 -25.0817 -25.0817 -25.0816 -25.0598 -25.0598 -25.0520 -25.0520
   -25.0520 -25.0520 -25.0261 -25.0261 -25.0193 -25.0193 -25.0193 -25.0193
   -25.0177 -25.0177 -25.0082 -25.0082 -25.0081 -25.0081 -24.9967 -24.9967
   -24.9930 -24.9930 -24.9930 -24.9929 -24.9918 -24.9918 -24.9767 -24.9767
   -24.9619 -24.9619 -24.9619 -24.9619 -24.9537 -24.9537 -24.9448 -24.9448
   -24.9353 -24.9353 -24.9353 -24.9353 -24.9202 -24.9202 -24.9202 -24.9202
   -24.9175 -24.9175 -24.9175 -24.9174 -24.9052 -24.9051 -24.9051 -24.9051
   -24.8717 -24.8717 -24.8677 -24.8677 -24.8624 -24.8624 -24.8571 -24.8570
   -24.8475 -24.8474 -24.8322 -24.8321 -24.8321 -24.8321 -24.8320 -24.8320
   -24.8232 -24.8232 -24.8232 -24.8231 -24.7994 -24.7994 -24.7993 -24.7993
   -24.7945 -24.7945 -24.7766 -24.7766 -24.7585 -24.7584 -24.7584 -24.7584
   -24.7480 -24.7479 -24.7468 -24.7467 -24.7391 -24.7391 -24.7391 -24.7390
   -24.7362 -24.7362 -24.7361 -24.7361 -24.7305 -24.7305 -24.7305 -24.7305
   -24.7295 -24.7294 -24.7209 -24.7208 -24.7208 -24.7208 -24.7141 -24.7140
   -24.6993 -24.6993 -24.6993 -24.6992 -24.6946 -24.6946 -24.6946 -24.6945
   -24.6715 -24.6715 -24.6714 -24.6713 -24.6554 -24.6553 -24.6525 -24.6525
   -24.6424 -24.6424 -24.6424 -24.6423 -24.6317 -24.6316 -24.6252 -24.6252
   -24.6251 -24.6251 -24.6251 -24.6251 -24.6231 -24.6231 -24.6231 -24.6231
   -11.7439 -11.7438 -11.2505 -11.2504 -11.2504 -11.2504 -11.1766 -11.1765
   -11.0330 -11.0329 -10.9297 -10.9297 -10.8848 -10.8847 -10.7843 -10.7843
   -10.7842 -10.7842 -10.7806 -10.7806 -10.7806 -10.7805 -10.7618 -10.7618
   -10.6780 -10.6780 -10.6618 -10.6618 -10.6517 -10.6517 -10.6517 -10.6517
   -10.6349 -10.6348 -10.6348 -10.6348 -10.4315 -10.4315 -10.4315 -10.4314
   -10.3967 -10.3966 -10.3966 -10.3966 -10.3346 -10.3346 -10.2841 -10.2841
   -10.2817 -10.2816 -10.2816 -10.2816 -10.2767 -10.2766 -10.1705 -10.1705
   -10.1497 -10.1497 -10.1497 -10.1496 -10.0861 -10.0860 -10.0860 -10.0860
    -9.9677  -9.9677  -9.9677  -9.9677  -9.8879  -9.8879  -9.8879  -9.8878
    -2.4973  -2.4973  -2.4973  -2.4973  -2.4740  -2.4740  -2.4740  -2.4740
    -1.9078  -1.9077  -1.9077  -1.9077  -1.8651  -1.8651  -1.8651  -1.8651
    -1.7714  -1.7713  -1.7713  -1.7713  -1.7699  -1.7699  -1.7076  -1.7076
    -1.7076  -1.7075  -1.6913  -1.6913  -1.6912  -1.6912  -1.6907  -1.6906
    -1.5724  -1.5724  -1.5724  -1.5723  -1.3665  -1.3665  -1.3629  -1.3628
    -1.3628  -1.3628  -1.2834  -1.2834  -1.2358  -1.2358  -1.1903  -1.1903
    -1.1903  -1.1903  -1.0855  -1.0855  -1.0172  -1.0172  -0.9805  -0.9804
    -0.7927  -0.7927  -0.7927  -0.7927  -0.7645  -0.7645  -0.7645  -0.7644
    -0.7247  -0.7247  -0.6601  -0.6601  -0.6428  -0.6427  -0.6245  -0.6244
    -0.6163  -0.6163  -0.6163  -0.6162  -0.6026  -0.6025  -0.6025  -0.6025
    -0.5342  -0.5342  -0.5342  -0.5342  -0.5278  -0.5278  -0.5278  -0.5278
    -0.4858  -0.4858  -0.4857  -0.4857  -0.4443  -0.4443  -0.4443  -0.4443
    -0.3835  -0.3835  -0.3368  -0.3368  -0.3215  -0.3214  -0.3214  -0.3214
    -0.3010  -0.3009  -0.3009  -0.3009  -0.2924  -0.2924  -0.2674  -0.2674
    -0.2674  -0.2673  -0.2143  -0.2142  -0.2142  -0.2142  -0.1746  -0.1746
    -0.1245  -0.1245  -0.1245  -0.1245  -0.0960  -0.0959  -0.0895  -0.0895
    -0.0895  -0.0895  -0.0885  -0.0885  -0.0885  -0.0885  -0.0203  -0.0202
    -0.0202  -0.0202   0.0522   0.0523   0.0523   0.0523   0.0785   0.0785
     0.0870   0.0870   0.0870   0.0870   0.1064   0.1065   0.1065   0.1065
     0.1135   0.1135   0.1368   0.1368   0.1368   0.1368   0.1420   0.1420
     0.2611   0.2612   0.2612   0.2612   0.3303   0.3304   0.3781   0.3782
     0.4336   0.4337   0.4692   0.4693   0.4693   0.4693   0.4855   0.4856
     0.5112   0.5112   0.5112   0.5112   0.5845   0.5845   0.5845   0.5845
     0.6192   0.6192   0.6192   0.6193   0.6264   0.6264   0.6792   0.6793
     0.6854   0.6854   0.7501   0.7501   0.7571   0.7571   0.7571   0.7572
     0.8001   0.8002   0.8479   0.8479   0.9387   0.9388   1.1016   1.1016
     1.1603   1.1603   1.1871   1.1871   1.3301   1.3302   1.6911   1.6911
     2.7903   2.7903   2.9794   2.9794   3.2783   3.2783   3.4476   3.4476
     3.5650   3.5651   3.5651   3.5651   3.5891   3.5893   4.0227   4.0227
     4.0905   4.0905   4.2664   4.2664   4.3443   4.3443   4.3443   4.3443
     4.3910   4.3910   4.3911   4.3911   4.4432   4.4432   4.4885   4.4885
     4.5272   4.5273   4.5273   4.5273   4.5680   4.5680   4.5680   4.5681
     4.6737   4.6737   4.6785   4.6785   4.7954   4.7954   4.7954   4.7955
     4.8134   4.8134   4.8134   4.8135   4.8670   4.8670   4.8783   4.8784
     4.8784   4.8784   4.9397   4.9398   5.0019   5.0019   5.0019   5.0019
     5.1348   5.1348   5.1348   5.1348   5.2097   5.2097   5.2682   5.2683
     5.2683   5.2684   5.3380   5.3380   5.3380   5.3380   5.3455   5.3455
     5.3688   5.3689   5.5011   5.5011   5.5011   5.5012   5.6588   5.6588
     5.7158   5.7158   5.7264   5.7264   5.7264   5.7265   5.7501   5.7502
     5.7502   5.7503   5.8421   5.8422   5.8423   5.8423   5.8603   5.8605
     5.8943   5.8943   5.8943   5.8943   5.9135   5.9153   5.9153   5.9170
     5.9170   5.9292   5.9924

          k =-0.5000 0.2500 0.0000 (165780 PWs)   bands (ev):

   -46.5194 -46.5194 -46.5115 -46.5115 -46.4980 -46.4980 -46.4907 -46.4906
   -46.4901 -46.4901 -46.4896 -46.4896 -46.4830 -46.4830 -46.4705 -46.4705
   -46.4635 -46.4635 -46.3827 -46.3827 -46.3742 -46.3741 -46.3599 -46.3599
   -46.3524 -46.3523 -46.3516 -46.3515 -46.3508 -46.3507 -46.3443 -46.3443
   -46.3315 -46.3315 -46.3245 -46.3244 -46.1845 -46.1845 -46.1750 -46.1750
   -46.1589 -46.1589 -46.1506 -46.1506 -46.1491 -46.1491 -46.1476 -46.1475
   -46.1414 -46.1413 -46.1274 -46.1274 -46.1200 -46.1200 -46.0917 -46.0917
   -46.0877 -46.0877 -46.0799 -46.0799 -46.0781 -46.0780 -46.0761 -46.0759
   -46.0741 -46.0739 -46.0693 -46.0692 -46.0581 -46.0581 -46.0508 -46.0508
   -25.4087 -25.4086 -25.3899 -25.3899 -25.3850 -25.3850 -25.3848 -25.3847
   -25.3777 -25.3777 -25.3697 -25.3697 -25.3632 -25.3632 -25.3631 -25.3631
   -25.3373 -25.3372 -25.3118 -25.3118 -25.3070 -25.3070 -25.3064 -25.3064
   -25.2811 -25.2811 -25.2762 -25.2762 -25.2761 -25.2761 -25.2738 -25.2738
   -25.2725 -25.2725 -25.2681 -25.2681 -25.2570 -25.2570 -25.2528 -25.2528
   -25.2528 -25.2528 -25.2525 -25.2525 -25.2335 -25.2335 -25.2206 -25.2206
   -25.2060 -25.2060 -25.1991 -25.1991 -25.1945 -25.1945 -25.1943 -25.1943
   -25.1713 -25.1713 -25.1647 -25.1647 -25.1484 -25.1483 -25.1413 -25.1413
   -25.1408 -25.1408 -25.1190 -25.1190 -25.1000 -25.1000 -25.0954 -25.0954
   -25.0685 -25.0685 -25.0670 -25.0670 -25.0628 -25.0627 -25.0506 -25.0506
   -25.0455 -25.0455 -25.0392 -25.0392 -25.0354 -25.0354 -25.0204 -25.0203
   -25.0178 -25.0178 -25.0050 -25.0050 -24.9979 -24.9979 -24.9930 -24.9930
   -24.9875 -24.9875 -24.9821 -24.9821 -24.9818 -24.9818 -24.9813 -24.9813
   -24.9700 -24.9700 -24.9662 -24.9662 -24.9544 -24.9544 -24.9508 -24.9508
   -24.9443 -24.9443 -24.9433 -24.9433 -24.9401 -24.9400 -24.9264 -24.9264
   -24.9040 -24.9040 -24.9023 -24.9023 -24.8953 -24.8953 -24.8910 -24.8910
   -24.8817 -24.8817 -24.8705 -24.8705 -24.8649 -24.8649 -24.8516 -24.8516
   -24.8425 -24.8424 -24.8372 -24.8372 -24.8339 -24.8339 -24.8261 -24.8260
   -24.8213 -24.8213 -24.8207 -24.8206 -24.8038 -24.8038 -24.8000 -24.8000
   -24.7899 -24.7899 -24.7830 -24.7830 -24.7768 -24.7768 -24.7615 -24.7615
   -24.7512 -24.7512 -24.7437 -24.7436 -24.7434 -24.7434 -24.7424 -24.7424
   -24.7334 -24.7334 -24.7328 -24.7328 -24.7292 -24.7292 -24.7274 -24.7274
   -24.7237 -24.7237 -24.7190 -24.7190 -24.7162 -24.7162 -24.7083 -24.7083
   -24.7077 -24.7077 -24.7008 -24.7008 -24.6798 -24.6796 -24.6784 -24.6784
   -24.6701 -24.6701 -24.6662 -24.6661 -24.6603 -24.6603 -24.6566 -24.6566
   -24.6503 -24.6502 -24.6474 -24.6474 -24.6449 -24.6448 -24.6435 -24.6435
   -24.6427 -24.6426 -24.6120 -24.6120 -24.6106 -24.6106 -24.6094 -24.6094
   -11.7065 -11.7064 -11.4394 -11.4393 -11.1446 -11.1446 -11.0643 -11.0643
   -11.0015 -11.0015 -10.9239 -10.9238 -10.9055 -10.9054 -10.8707 -10.8707
   -10.8174 -10.8173 -10.7996 -10.7996 -10.7817 -10.7817 -10.7432 -10.7431
   -10.7329 -10.7329 -10.6595 -10.6595 -10.6549 -10.6549 -10.6315 -10.6315
   -10.5925 -10.5925 -10.5318 -10.5318 -10.5081 -10.5080 -10.5032 -10.5032
   -10.4209 -10.4209 -10.3935 -10.3935 -10.3155 -10.3155 -10.2713 -10.2713
   -10.2656 -10.2656 -10.2511 -10.2511 -10.2003 -10.2003 -10.1583 -10.1582
   -10.1480 -10.1480 -10.1460 -10.1460 -10.1382 -10.1382 -10.0773 -10.0773
   -10.0557 -10.0557  -9.9837  -9.9836  -9.8805  -9.8805  -9.8187  -9.8186
    -2.6712  -2.6712  -2.6552  -2.6552  -2.2562  -2.2562  -2.2212  -2.2211
    -2.0229  -2.0229  -1.9804  -1.9804  -1.9465  -1.9465  -1.8896  -1.8896
    -1.8749  -1.8749  -1.8346  -1.8346  -1.8093  -1.8092  -1.7636  -1.7636
    -1.6924  -1.6924  -1.6513  -1.6513  -1.5430  -1.5430  -1.5188  -1.5188
    -1.4869  -1.4869  -1.4402  -1.4402  -1.3829  -1.3829  -1.3263  -1.3262
    -1.3113  -1.3113  -1.2657  -1.2657  -1.2354  -1.2354  -1.1965  -1.1965
    -1.1923  -1.1923  -1.1326  -1.1326  -1.1044  -1.1044  -1.0471  -1.0471
    -1.0451  -1.0451  -0.9766  -0.9766  -0.9278  -0.9278  -0.8490  -0.8490
    -0.6706  -0.6706  -0.6440  -0.6440  -0.6018  -0.6018  -0.5870  -0.5870
    -0.5374  -0.5374  -0.5336  -0.5336  -0.5333  -0.5333  -0.5300  -0.5300
    -0.5229  -0.5229  -0.5176  -0.5176  -0.5033  -0.5033  -0.5026  -0.5026
    -0.4738  -0.4738  -0.4711  -0.4711  -0.4413  -0.4413  -0.4409  -0.4409
    -0.4046  -0.4046  -0.3868  -0.3867  -0.3627  -0.3627  -0.3619  -0.3619
    -0.3554  -0.3554  -0.3365  -0.3364  -0.3236  -0.3236  -0.2734  -0.2734
    -0.2223  -0.2223  -0.2113  -0.2113  -0.1989  -0.1989  -0.1793  -0.1792
    -0.1439  -0.1439  -0.1432  -0.1432  -0.1032  -0.1032  -0.0684  -0.0684
    -0.0083  -0.0083  -0.0012  -0.0012   0.0091   0.0092   0.0157   0.0158
     0.0476   0.0476   0.0683   0.0683   0.0916   0.0917   0.0965   0.0965
     0.1157   0.1157   0.1242   0.1242   0.1510   0.1510   0.1665   0.1665
     0.1745   0.1745   0.1762   0.1762   0.1967   0.1967   0.1992   0.1992
     0.3114   0.3114   0.3144   0.3145   0.3192   0.3193   0.3593   0.3593
     0.3616   0.3616   0.3722   0.3722   0.4697   0.4697   0.5191   0.5191
     0.5240   0.5240   0.5411   0.5411   0.5506   0.5506   0.5607   0.5607
     0.5795   0.5795   0.6132   0.6132   0.6424   0.6424   0.6564   0.6564
     0.6848   0.6849   0.7062   0.7063   0.7565   0.7565   0.7963   0.7963
     0.8165   0.8166   0.8496   0.8496   0.9556   0.9556   1.0085   1.0085
     1.0466   1.0466   1.0786   1.0786   1.2803   1.2803   1.5316   1.5316
     2.9426   2.9426   3.0868   3.0869   3.2901   3.2901   3.4253   3.4253
     3.5407   3.5408   3.6863   3.6864   3.7478   3.7478   3.8560   3.8561
     3.9359   3.9359   4.0514   4.0514   4.1693   4.1693   4.1795   4.1795
     4.2869   4.2869   4.3133   4.3133   4.3384   4.3384   4.3585   4.3586
     4.4069   4.4069   4.4403   4.4403   4.5046   4.5046   4.6479   4.6479
     4.7333   4.7333   4.7391   4.7391   4.7538   4.7538   4.7911   4.7911
     4.8327   4.8327   4.8387   4.8387   4.8895   4.8895   4.9519   4.9519
     4.9840   4.9841   5.0506   5.0506   5.1170   5.1170   5.1412   5.1412
     5.1835   5.1835   5.1848   5.1849   5.2275   5.2275   5.2805   5.2805
     5.3082   5.3082   5.3295   5.3296   5.3951   5.3953   5.3976   5.3976
     5.4908   5.4908   5.4915   5.4916   5.4962   5.4962   5.5358   5.5358
     5.6087   5.6088   5.6649   5.6649   5.6757   5.6757   5.7366   5.7366
     5.8036   5.8036   5.8164   5.8164   5.8581   5.8581   5.8641   5.8641
     5.8884   5.8884   5.9314   5.9314   5.9388   5.9388   5.9393   5.9393
     5.9582   5.9582   6.0021

     the Fermi energy is     2.0442 ev

!    total energy              =   -8262.71785692 Ry
     estimated scf accuracy    <       0.00000005 Ry
     smearing contrib. (-TS)   =       0.00525913 Ry
     internal energy E=F+TS    =   -8262.72311605 Ry

     The total energy is F=E-TS. E is the sum of the following terms:
     one-electron contribution = -100519.91970982 Ry
     hartree contribution      =   50384.53677849 Ry
     xc contribution           =   -1356.20367818 Ry
     ewald contribution        =   43231.70047061 Ry
     DFT-D3 Dispersion         =      -2.83697715 Ry

     convergence has been achieved in   7 iterations

     negative rho (up, down):  7.666E-03 0.000E+00

     Forces acting on atoms (cartesian axes, Ry/au):

     atom    1 type  1   force =    -0.00000010    0.00000003    0.01778661
     atom    2 type  1   force =    -0.00000360    0.00000302   -0.00571282
     atom    3 type  1   force =    -0.00000630   -0.00000196   -0.00571406
     atom    4 type  1   force =     0.00000004    0.00000076    0.01778587
     atom    5 type  1   force =    -0.00000043   -0.00002723   -0.00064338
     atom    6 type  1   force =    -0.00000136    0.00000448   -0.00055279
     atom    7 type  1   force =     0.00000018    0.00000807   -0.00060992
     atom    8 type  1   force =     0.00002489   -0.00000531   -0.00064741
     atom    9 type  1   force =    -0.00000040    0.00000022    0.01778651
     atom   10 type  1   force =     0.00000207   -0.00000125   -0.00571282
     atom   11 type  1   force =     0.00000100   -0.00000169   -0.00571045
     atom   12 type  1   force =    -0.00000047   -0.00000095    0.01778501
     atom   13 type  1   force =     0.00000161    0.00002192   -0.00064609
     atom   14 type  1   force =    -0.00000713   -0.00000215   -0.00054974
     atom   15 type  1   force =     0.00000012   -0.00000776   -0.00055464
     atom   16 type  1   force =     0.00000624    0.00000423   -0.00064271
     atom   17 type  1   force =     0.00000017   -0.00000024    0.01778623
     atom   18 type  1   force =    -0.00000006   -0.00000174   -0.00571096
     atom   19 type  1   force =     0.00000182    0.00000371   -0.00570898
     atom   20 type  1   force =    -0.00000011    0.00000029    0.01778453
     atom   21 type  1   force =     0.00000307    0.00000526   -0.00063968
     atom   22 type  1   force =     0.00000067   -0.00000221   -0.00056447
     atom   23 type  1   force =     0.00000222   -0.00000112   -0.00055778
     atom   24 type  1   force =     0.00000421    0.00000109   -0.00063834
     atom   25 type  1   force =     0.00000000    0.00000029    0.01778428
     atom   26 type  1   force =     0.00000360    0.00000302   -0.00571282
     atom   27 type  1   force =     0.00000000    0.00000361   -0.00570638
     atom   28 type  1   force =    -0.00000004    0.00000076    0.01778587
     atom   29 type  1   force =     0.00000000   -0.00000483   -0.00063487
     atom   30 type  1   force =     0.00000136    0.00000448   -0.00055279
     atom   31 type  1   force =     0.00000000    0.00000305   -0.00054977
     atom   32 type  1   force =    -0.00002489   -0.00000531   -0.00064741
     atom   33 type  1   force =     0.00000000   -0.00000027    0.01778718
     atom   34 type  1   force =    -0.00000207   -0.00000125   -0.00571282
     atom   35 type  1   force =     0.00000000   -0.00000142   -0.00570881
     atom   36 type  1   force =     0.00000047   -0.00000095    0.01778501
     atom   37 type  1   force =     0.00000000    0.00000312   -0.00064373
     atom   38 type  1   force =     0.00000713   -0.00000215   -0.00054974
     atom   39 type  1   force =     0.00000000   -0.00000133   -0.00057311
     atom   40 type  1   force =    -0.00000624    0.00000423   -0.00064271
     atom   41 type  1   force =     0.00000000   -0.00000004    0.01778590
     atom   42 type  1   force =     0.00000006   -0.00000174   -0.00571096
     atom   43 type  1   force =     0.00000000   -0.00000219   -0.00570836
     atom   44 type  1   force =     0.00000011    0.00000029    0.01778453
     atom   45 type  1   force =     0.00000000    0.00000184   -0.00064024
     atom   46 type  1   force =    -0.00000067   -0.00000221   -0.00056447
     atom   47 type  1   force =     0.00000000   -0.00000155   -0.00057094
     atom   48 type  1   force =    -0.00000421    0.00000109   -0.00063834
     atom   49 type  1   force =     0.00000010    0.00000003    0.01778661
     atom   50 type  1   force =     0.00000000    0.00000874   -0.00571392
     atom   51 type  1   force =     0.00000630   -0.00000196   -0.00571406
     atom   52 type  1   force =     0.00000000    0.00000103    0.01778769
     atom   53 type  1   force =     0.00000043   -0.00002723   -0.00064338
     atom   54 type  1   force =     0.00000000    0.00000758   -0.00053437
     atom   55 type  1   force =    -0.00000018    0.00000807   -0.00060992
     atom   56 type  1   force =     0.00000000   -0.00000568   -0.00066032
     atom   57 type  1   force =     0.00000040    0.00000022    0.01778651
     atom   58 type  1   force =     0.00000000   -0.00000620   -0.00571402
     atom   59 type  1   force =    -0.00000100   -0.00000169   -0.00571045
     atom   60 type  1   force =     0.00000000   -0.00000160    0.01778430
     atom   61 type  1   force =    -0.00000161    0.00002192   -0.00064609
     atom   62 type  1   force =     0.00000000   -0.00000364   -0.00052611
     atom   63 type  1   force =    -0.00000012   -0.00000776   -0.00055464
     atom   64 type  1   force =     0.00000000    0.00000105   -0.00064288
     atom   65 type  1   force =    -0.00000017   -0.00000024    0.01778623
     atom   66 type  1   force =     0.00000000   -0.00000247   -0.00571676
     atom   67 type  1   force =    -0.00000182    0.00000371   -0.00570898
     atom   68 type  1   force =     0.00000000    0.00000049    0.01778290
     atom   69 type  1   force =    -0.00000307    0.00000526   -0.00063968
     atom   70 type  1   force =     0.00000000   -0.00000437   -0.00057252
     atom   71 type  1   force =    -0.00000222   -0.00000112   -0.00055778
     atom   72 type  1   force =     0.00000000    0.00000467   -0.00062984
     atom   73 type  2   force =     0.00000030   -0.00000060    0.00103723
     atom   74 type  2   force =     0.00000045   -0.00000047    0.00103457
     atom   75 type  2   force =    -0.00000011    0.00000306   -0.01266225
     atom   76 type  2   force =    -0.00000533    0.00000020   -0.01265640
     atom   77 type  2   force =     0.00000355    0.00001116   -0.00029557
     atom   78 type  2   force =     0.00000266    0.00000053   -0.00026928
     atom   79 type  2   force =     0.00000225   -0.00001559    0.00102271
     atom   80 type  2   force =     0.00001462   -0.00000389    0.00102087
     atom   81 type  2   force =    -0.00000005    0.00000074    0.00103397
     atom   82 type  2   force =     0.00000035    0.00000024    0.00103270
     atom   83 type  2   force =     0.00000276   -0.00000456   -0.01267509
     atom   84 type  2   force =     0.00000033    0.00000040   -0.01265824
     atom   85 type  2   force =     0.00000254   -0.00001395   -0.00027796
     atom   86 type  2   force =    -0.00001214   -0.00000353   -0.00027497
     atom   87 type  2   force =     0.00000428    0.00001358    0.00111879
     atom   88 type  2   force =     0.00000551    0.00000604    0.00101854
     atom   89 type  2   force =    -0.00000023   -0.00000016    0.00103345
     atom   90 type  2   force =     0.00000006    0.00000022    0.00103543
     atom   91 type  2   force =    -0.00000120    0.00000143   -0.01266387
     atom   92 type  2   force =    -0.00000012   -0.00000063   -0.01266183
     atom   93 type  2   force =     0.00000067    0.00000291   -0.00027218
     atom   94 type  2   force =     0.00000256    0.00000286   -0.00027496
     atom   95 type  2   force =     0.00000243    0.00000299    0.00102077
     atom   96 type  2   force =     0.00000180   -0.00000250    0.00103198
     atom   97 type  2   force =     0.00000000   -0.00000070    0.00103463
     atom   98 type  2   force =    -0.00000045   -0.00000047    0.00103457
     atom   99 type  2   force =     0.00000000    0.00000049   -0.01266352
     atom  100 type  2   force =     0.00000533    0.00000020   -0.01265640
     atom  101 type  2   force =     0.00000000   -0.00000366   -0.00026811
     atom  102 type  2   force =    -0.00000266    0.00000053   -0.00026928
     atom  103 type  2   force =     0.00000000   -0.00000467    0.00103574
     atom  104 type  2   force =    -0.00001462   -0.00000389    0.00102087
     atom  105 type  2   force =     0.00000000    0.00000058    0.00103599
     atom  106 type  2   force =    -0.00000035    0.00000024    0.00103270
     atom  107 type  2   force =     0.00000000    0.00000069   -0.01266558
     atom  108 type  2   force =    -0.00000033    0.00000040   -0.01265824
     atom  109 type  2   force =     0.00000000    0.00000326   -0.00027917
     atom  110 type  2   force =     0.00001214   -0.00000353   -0.00027497
     atom  111 type  2   force =     0.00000000    0.00000390    0.00101411
     atom  112 type  2   force =    -0.00000551    0.00000604    0.00101854
     atom  113 type  2   force =     0.00000000    0.00000013    0.00103436
     atom  114 type  2   force =    -0.00000006    0.00000022    0.00103543
     atom  115 type  2   force =     0.00000000   -0.00000120   -0.01266138
     atom  116 type  2   force =     0.00000012   -0.00000063   -0.01266183
     atom  117 type  2   force =     0.00000000    0.00000042   -0.00027641
     atom  118 type  2   force =    -0.00000256    0.00000286   -0.00027496
     atom  119 type  2   force =     0.00000000    0.00000087    0.00104007
     atom  120 type  2   force =    -0.00000180   -0.00000250    0.00103198
     atom  121 type  2   force =    -0.00000030   -0.00000060    0.00103723
     atom  122 type  2   force =     0.00000000   -0.00000113    0.00103412
     atom  123 type  2   force =     0.00000011    0.00000306   -0.01266225
     atom  124 type  2   force =     0.00000000   -0.00000055   -0.01265190
     atom  125 type  2   force =    -0.00000355    0.00001116   -0.00029557
     atom  126 type  2   force =     0.00000000   -0.00000474   -0.00026225
     atom  127 type  2   force =    -0.00000225   -0.00001559    0.00102271
     atom  128 type  2   force =     0.00000000   -0.00000719    0.00099316
     atom  129 type  2   force =     0.00000005    0.00000074    0.00103397
     atom  130 type  2   force =     0.00000000    0.00000071    0.00103098
     atom  131 type  2   force =    -0.00000276   -0.00000456   -0.01267509
     atom  132 type  2   force =     0.00000000    0.00000175   -0.01265961
     atom  133 type  2   force =    -0.00000254   -0.00001395   -0.00027796
     atom  134 type  2   force =     0.00000000    0.00000017   -0.00026958
     atom  135 type  2   force =    -0.00000428    0.00001358    0.00111879
     atom  136 type  2   force =     0.00000000    0.00000923    0.00101116
     atom  137 type  2   force =     0.00000023   -0.00000016    0.00103345
     atom  138 type  2   force =     0.00000000    0.00000044    0.00103657
     atom  139 type  2   force =     0.00000120    0.00000143   -0.01266387
     atom  140 type  2   force =     0.00000000   -0.00000128   -0.01266315
     atom  141 type  2   force =    -0.00000067    0.00000291   -0.00027218
     atom  142 type  2   force =     0.00000000    0.00000462   -0.00027888
     atom  143 type  2   force =    -0.00000243    0.00000299    0.00102077
     atom  144 type  2   force =     0.00000000   -0.00000198    0.00104114

     Total force =     0.005808     Total SCF correction =     0.000489
     Energy error            =      8.8E-05 Ry
     Gradient error          =      1.1E-03 Ry/Bohr

     number of scf cycles    =  10
     number of bfgs steps    =   9

     energy             old  =   -8262.7177685911 Ry
     energy             new  =   -8262.7178569213 Ry

     CASE: energy            _new < energy            _old

     new trust radius        =       0.0023495189 bohr
     new conv_thr            =       0.0000000500 Ry


ATOMIC_POSITIONS (angstrom)
Sc               0.0000000000        0.0000000000       10.0000000000    0   0   0
Sc               2.2382160900        0.0000000000       12.2382160900    0   0   0
Sc               0.0000000000        2.2382160900       12.2382160900    0   0   0
Sc               2.2382160900        2.2382160900       10.0000000000    0   0   0
Sc              -0.0000043939        0.0000394314       14.4785208909
Sc               2.2382148717       -0.0000024804       16.6643638467
Sc              -0.0000127436        2.2382119581       16.6644619240
Sc               2.2381901641        2.2382139940       14.4785314195
Sc               0.0000000000        4.4764321800       10.0000000000    0   0   0
Sc               2.2382160900        4.4764321800       12.2382160900    0   0   0
Sc               0.0000000000        6.7146482700       12.2382160900    0   0   0
Sc               2.2382160900        6.7146482700       10.0000000000    0   0   0
Sc               0.0000054135        4.4763954761       14.4784867045
Sc               2.2382216199        4.4764320992       16.6643488964
Sc              -0.0000078649        6.7146442448       16.6643235407
Sc               2.2382190607        6.7146525539       14.4785092889
Sc               0.0000000000        8.9528643500       10.0000000000    0   0   0
Sc               2.2382160900        8.9528643500       12.2382160900    0   0   0
Sc               0.0000000000       11.1910804400       12.2382160900    0   0   0
Sc               2.2382160900       11.1910804400       10.0000000000    0   0   0
Sc              -0.0000050840        8.9528620326       14.4785074954
Sc               2.2382027549        8.9528681116       16.6643919468
Sc              -0.0000076854       11.1910923594       16.6643383409
Sc               2.2382067066       11.1910778507       14.4784971620
Sc               4.4764321800        0.0000000000       10.0000000000    0   0   0
Sc               6.7146482700        0.0000000000       12.2382160900    0   0   0
Sc               4.4764321800        2.2382160900       12.2382160900    0   0   0
Sc               6.7146482700        2.2382160900       10.0000000000    0   0   0
Sc               4.4764348900        0.0000142222       14.4784907553
Sc               6.7146485683       -0.0000021704       16.6643807467
Sc               4.4764323100        2.2382145844       16.6643710067
Sc               6.7146725559        2.2382098640       14.4785313295
Sc               4.4764321800        4.4764321800       10.0000000000    0   0   0
Sc               6.7146482700        4.4764321800       12.2382160900    0   0   0
Sc               4.4764321800        6.7146482700       12.2382160900    0   0   0
Sc               6.7146482700        6.7146482700       10.0000000000    0   0   0
Sc               4.4764301000        4.4764253634       14.4785011856
Sc               6.7146449301        4.4764310792       16.6643251364
Sc               4.4764311400        6.7146432688       16.6644122125
Sc               6.7146460693        6.7146553739       14.4785062489
Sc               4.4764321800        8.9528643500       10.0000000000    0   0   0
Sc               6.7146482700        8.9528643500       12.2382160900    0   0   0
Sc               4.4764321800       11.1910804400       12.2382160900    0   0   0
Sc               6.7146482700       11.1910804400       10.0000000000    0   0   0
Sc               4.4764324400        8.9528567864       14.4785194567
Sc               6.7146600851        8.9528671516       16.6643924468
Sc               4.4764327100       11.1910871175       16.6643619447
Sc               6.7146587034       11.1910800407       14.4784995720
Sc               8.9528643500        0.0000000000       10.0000000000    0   0   0
Sc              11.1910804400        0.0000000000       12.2382160900    0   0   0
Sc               8.9528643500        2.2382160900       12.2382160900    0   0   0
Sc              11.1910804400        2.2382160900       10.0000000000    0   0   0
Sc               8.9528654939        0.0000372114       14.4785219509
Sc              11.1910813800       -0.0000132682       16.6643769899
Sc               8.9528776836        2.2382108881       16.6644574840
Sc              11.1910805600        2.2381982065       14.4785584450
Sc               8.9528643500        4.4764321800       10.0000000000    0   0   0
Sc              11.1910804400        4.4764321800       12.2382160900    0   0   0
Sc               8.9528643500        6.7146482700       12.2382160900    0   0   0
Sc              11.1910804400        6.7146482700       10.0000000000    0   0   0
Sc               8.9528622565        4.4763964961       14.4784847545
Sc              11.1910818400        4.4764427707       16.6642660299
Sc               8.9528717649        6.7146425648       16.6643375907
Sc              11.1910808600        6.7146715680       14.4784828072
Sc               8.9528643500        8.9528643500       10.0000000000    0   0   0
Sc              11.1910804400        8.9528643500       12.2382160900    0   0   0
Sc               8.9528643500       11.1910804400       12.2382160900    0   0   0
Sc              11.1910804400       11.1910804400       10.0000000000    0   0   0
Sc               8.9528692040        8.9528630526       14.4785075454
Sc              11.1910806400        8.9528686371       16.6644101951
Sc               8.9528730054       11.1910912994       16.6643701809
Sc              11.1910796900       11.1910753654       14.4784796902
N                0.0000000000        2.2382160900       10.0000000000    0   0   0
N                2.2382160900        0.0000000000       10.0000000000    0   0   0
N                0.0000000000        0.0000000000       12.2382160900    0   0   0
N                2.2382160900        2.2382160900       12.2382160900    0   0   0
N               -0.0000169331        2.2381794984       14.4871887579
N                2.2382035508        0.0000174351       14.4871344823
N               -0.0000104927        0.0000131995       16.6772924658
N                2.2381895349        2.2382237026       16.6773155196
N                0.0000000000        6.7146482700       10.0000000000    0   0   0
N                2.2382160900        4.4764321800       10.0000000000    0   0   0
N                0.0000000000        4.4764321800       12.2382160900    0   0   0
N                2.2382160900        6.7146482700       12.2382160900    0   0   0
N               -0.0000069128        6.7146830940       14.4871192480
N                2.2382397349        4.4764253868       14.4871172829
N               -0.0000066815        4.4764150397       16.6770559315
N                2.2381990523        6.7146316801       16.6773000861
N                0.0000000000       11.1910804400       10.0000000000    0   0   0
N                2.2382160900        8.9528643500       10.0000000000    0   0   0
N                0.0000000000        8.9528643500       12.2382160900    0   0   0
N                2.2382160900       11.1910804400       12.2382160900    0   0   0
N               -0.0000049515       11.1910825453       14.4871286651
N                2.2382090562        8.9528548547       14.4871506642
N               -0.0000120916        8.9528659751       16.6772915100
N                2.2382091718       11.1910888460       16.6772331433
N                4.4764321800        2.2382160900       10.0000000000    0   0   0
N                6.7146482700        0.0000000000       10.0000000000    0   0   0
N                4.4764321800        0.0000000000       12.2382160900    0   0   0
N                6.7146482700        2.2382160900       12.2382160900    0   0   0
N                4.4764324400        2.2382162581       14.4871442489
N                6.7146624892        0.0000155351       14.4871380023
N                4.4764319700        0.0000100039       16.6772232957
N                6.7146740151        2.2382225826       16.6773141596
N                4.4764321800        6.7146482700       10.0000000000    0   0   0
N                6.7146482700        4.4764321800       10.0000000000    0   0   0
N                4.4764321800        4.4764321800       12.2382160900    0   0   0
N                6.7146482700        6.7146482700       12.2382160900    0   0   0
N                4.4764310300        6.7146466034       14.4871647142
N                6.7146238651        4.4764234268       14.4871157029
N                4.4764316100        4.4764229890       16.6772643633
N                6.7146662977        6.7146322201       16.6772802661
N                4.4764321800       11.1910804400       10.0000000000    0   0   0
N                6.7146482700        8.9528643500       10.0000000000    0   0   0
N                4.4764321800        8.9528643500       12.2382160900    0   0   0
N                6.7146482700       11.1910804400       12.2382160900    0   0   0
N                4.4764330700       11.1910819870       14.4871367827
N                6.7146549638        8.9528572447       14.4871505942
N                4.4764329900        8.9528629357       16.6772562236
N                6.7146550882       11.1910902360       16.6772585633
N                8.9528643500        2.2382160900       10.0000000000    0   0   0
N               11.1910804400        0.0000000000       10.0000000000    0   0   0
N                8.9528643500        0.0000000000       12.2382160900    0   0   0
N               11.1910804400        2.2382160900       12.2382160900    0   0   0
N                8.9528819731        2.2381785484       14.4871894079
N               11.1910809200        0.0000347533       14.4871358092
N                8.9528737727        0.0000125895       16.6772788658
N               11.1910794100        2.2382324592       16.6774067481
N                8.9528643500        6.7146482700       10.0000000000    0   0   0
N               11.1910804400        4.4764321800       10.0000000000    0   0   0
N                8.9528643500        4.4764321800       12.2382160900    0   0   0
N               11.1910804400        6.7146482700       12.2382160900    0   0   0
N                8.9528718928        6.7146828640       14.4871195880
N               11.1910789200        4.4764086850       14.4870756321
N                8.9528709415        4.4764161097       16.6770554715
N               11.1910803400        6.7146219661       16.6772825720
N                8.9528643500       11.1910804400       10.0000000000    0   0   0
N               11.1910804400        8.9528643500       10.0000000000    0   0   0
N                8.9528643500        8.9528643500       12.2382160900    0   0   0
N               11.1910804400       11.1910804400       12.2382160900    0   0   0
N                8.9528685015       11.1910835053       14.4871300051
N               11.1910809700        8.9528534082       14.4871507611
N                8.9528768216        8.9528651351       16.6772631300
N               11.1910796900       11.1910888157       16.6772100594



     Writing config-only to output data dir ./tmp/ScN_slab.save/ :
     XML data file
     NEW-OLD atomic charge density approx. for the potential

     negative rho (up, down):  7.669E-03 0.000E+00

     total cpu time spent up to now is    13420.7 secs

     per-process dynamical memory:  1041.6 Mb

     Self-consistent Calculation

     iteration #  1     ecut=    45.00 Ry     beta= 0.25
     Davidson diagonalization with overlap
     ethr =  1.00E-06,  avg # of iterations =  2.0

     Threshold (ethr) on eigenvalues was too large:
     Diagonalizing with lowered threshold

     Davidson diagonalization with overlap
     ethr =  4.55E-09,  avg # of iterations =  4.0

     negative rho (up, down):  7.669E-03 0.000E+00

     total cpu time spent up to now is    13738.1 secs

     total energy              =   -8262.71789189 Ry
     estimated scf accuracy    <       0.00005624 Ry

     iteration #  2     ecut=    45.00 Ry     beta= 0.25
     Davidson diagonalization with overlap
     ethr =  4.88E-09,  avg # of iterations =  2.0

     negative rho (up, down):  7.671E-03 0.000E+00

     total cpu time spent up to now is    13853.4 secs

     total energy              =   -8262.71789397 Ry
     estimated scf accuracy    <       0.00001040 Ry

     iteration #  3     ecut=    45.00 Ry     beta= 0.25
     Davidson diagonalization with overlap
     ethr =  9.03E-10,  avg # of iterations =  2.0

     negative rho (up, down):  7.671E-03 0.000E+00

     total cpu time spent up to now is    13986.4 secs

     total energy              =   -8262.71789504 Ry
     estimated scf accuracy    <       0.00000345 Ry

     iteration #  4     ecut=    45.00 Ry     beta= 0.25
     Davidson diagonalization with overlap
     ethr =  3.00E-10,  avg # of iterations =  2.7

     negative rho (up, down):  7.672E-03 0.000E+00

     total cpu time spent up to now is    14100.4 secs

     total energy              =   -8262.71789517 Ry
     estimated scf accuracy    <       0.00000098 Ry

     iteration #  5     ecut=    45.00 Ry     beta= 0.25
     Davidson diagonalization with overlap
     ethr =  8.52E-11,  avg # of iterations =  2.0

     negative rho (up, down):  7.673E-03 0.000E+00

     total cpu time spent up to now is    14218.7 secs

     total energy              =   -8262.71789527 Ry
     estimated scf accuracy    <       0.00000025 Ry

     iteration #  6     ecut=    45.00 Ry     beta= 0.25
     Davidson diagonalization with overlap
     ethr =  2.20E-11,  avg # of iterations =  3.1

     negative rho (up, down):  7.673E-03 0.000E+00

     total cpu time spent up to now is    14344.3 secs

     total energy              =   -8262.71789531 Ry
     estimated scf accuracy    <       0.00000007 Ry

     iteration #  7     ecut=    45.00 Ry     beta= 0.25
     Davidson diagonalization with overlap
     ethr =  5.65E-12,  avg # of iterations =  3.8

     negative rho (up, down):  7.674E-03 0.000E+00

     total cpu time spent up to now is    14473.7 secs

     End of self-consistent calculation

          k = 0.0000 0.0000 0.0000 (165739 PWs)   bands (ev):

   -46.5276 -46.5101 -46.5101 -46.5101 -46.5101 -46.5009 -46.5009 -46.5009
   -46.5009 -46.4841 -46.4841 -46.4841 -46.4841 -46.4767 -46.4767 -46.4767
   -46.4767 -46.4608 -46.3890 -46.3705 -46.3704 -46.3704 -46.3703 -46.3604
   -46.3604 -46.3604 -46.3603 -46.3430 -46.3430 -46.3429 -46.3429 -46.3356
   -46.3356 -46.3356 -46.3355 -46.3194 -46.1934 -46.1728 -46.1728 -46.1728
   -46.1727 -46.1609 -46.1609 -46.1608 -46.1608 -46.1410 -46.1410 -46.1410
   -46.1410 -46.1338 -46.1338 -46.1338 -46.1337 -46.1164 -46.0976 -46.0878
   -46.0878 -46.0878 -46.0877 -46.0849 -46.0849 -46.0849 -46.0848 -46.0733
   -46.0732 -46.0732 -46.0731 -46.0638 -46.0638 -46.0638 -46.0637 -46.0485
   -25.3985 -25.3952 -25.3952 -25.3952 -25.3952 -25.3844 -25.3844 -25.3844
   -25.3844 -25.3802 -25.3802 -25.3802 -25.3802 -25.3425 -25.3425 -25.3425
   -25.3425 -25.3383 -25.3383 -25.3383 -25.3383 -25.2967 -25.2967 -25.2967
   -25.2967 -25.2919 -25.2842 -25.2842 -25.2842 -25.2842 -25.2811 -25.2741
   -25.2741 -25.2741 -25.2741 -25.2641 -25.2641 -25.2641 -25.2640 -25.2553
   -25.2553 -25.2278 -25.2278 -25.2278 -25.2277 -25.2276 -25.2276 -25.2275
   -25.2275 -25.2018 -25.2018 -25.2018 -25.2018 -25.1809 -25.1809 -25.1809
   -25.1809 -25.1780 -25.1780 -25.1779 -25.1779 -25.1593 -25.1520 -25.1520
   -25.1015 -25.1015 -25.1015 -25.1014 -25.0901 -25.0901 -25.0901 -25.0901
   -25.0765 -25.0765 -25.0765 -25.0765 -25.0747 -25.0747 -25.0747 -25.0746
   -25.0329 -25.0329 -25.0329 -25.0329 -25.0151 -25.0151 -25.0151 -25.0151
   -25.0120 -25.0120 -25.0068 -25.0068 -25.0068 -25.0068 -25.0063 -25.0063
   -25.0063 -25.0063 -24.9995 -24.9995 -24.9995 -24.9995 -24.9679 -24.9679
   -24.9679 -24.9679 -24.9674 -24.9674 -24.9674 -24.9674 -24.9651 -24.9594
   -24.9594 -24.9434 -24.9434 -24.9434 -24.9434 -24.9194 -24.9193 -24.9193
   -24.9193 -24.9138 -24.9138 -24.9138 -24.9138 -24.8825 -24.8824 -24.8824
   -24.8824 -24.8733 -24.8732 -24.8732 -24.8732 -24.8501 -24.8501 -24.8490
   -24.8490 -24.8490 -24.8490 -24.8418 -24.8418 -24.8345 -24.8282 -24.8281
   -24.8281 -24.8281 -24.8029 -24.8028 -24.8028 -24.8028 -24.7912 -24.7912
   -24.7912 -24.7912 -24.7874 -24.7874 -24.7874 -24.7874 -24.7712 -24.7563
   -24.7563 -24.7563 -24.7563 -24.7517 -24.7517 -24.7517 -24.7517 -24.7428
   -24.7427 -24.7427 -24.7427 -24.7305 -24.7305 -24.7289 -24.7289 -24.7289
   -24.7288 -24.7017 -24.7017 -24.7017 -24.7016 -24.6964 -24.6963 -24.6963
   -24.6963 -24.6858 -24.6858 -24.6858 -24.6858 -24.6850 -24.6848 -24.6848
   -24.6848 -24.6848 -24.6841 -24.6841 -24.6841 -24.6841 -24.6719 -24.6719
   -24.6719 -24.6719 -24.6599 -24.6599 -24.6598 -24.6598 -24.6365 -24.6364
   -24.6364 -24.6364 -24.6114 -24.6114 -24.6055 -24.6055 -24.6054 -24.6054
   -11.8937 -11.3872 -11.3871 -11.3871 -11.3871 -11.3047 -10.9812 -10.9697
   -10.9311 -10.9311 -10.9311 -10.9311 -10.8913 -10.8912 -10.8912 -10.8912
   -10.8911 -10.8910 -10.8910 -10.8910 -10.8761 -10.7807 -10.7173 -10.7172
   -10.7172 -10.7172 -10.5662 -10.5661 -10.5661 -10.5660 -10.5561 -10.5561
   -10.5561 -10.5561 -10.5522 -10.5522 -10.5522 -10.5521 -10.5029 -10.5029
   -10.5029 -10.5029 -10.4016 -10.3885 -10.3885 -10.3885 -10.3884 -10.3491
   -10.2354 -10.2354 -10.2354 -10.2354 -10.1619 -10.1618 -10.1618 -10.1618
   -10.1582 -10.1582 -10.1582 -10.1582 -10.0451 -10.0450 -10.0450 -10.0450
    -9.9902  -9.9902  -9.9902  -9.9902  -9.9355  -9.9355  -9.9355  -9.9355
    -2.3386  -2.3386  -2.3386  -2.3385  -2.3257  -2.3257  -2.3257  -2.3256
    -2.1865  -2.1865  -2.1865  -2.1864  -2.1377  -2.1377  -2.1377  -2.1377
    -1.7169  -1.7169  -1.7169  -1.7169  -1.6542  -1.6542  -1.6542  -1.6542
    -1.6224  -1.6223  -1.6223  -1.6223  -1.6200  -1.6200  -1.6200  -1.6200
    -1.5164  -1.5164  -1.5164  -1.5163  -1.4112  -1.4112  -1.4112  -1.4112
    -1.3325  -1.3046  -1.3046  -1.3046  -1.3046  -1.1935  -1.1935  -1.1935
    -1.1935  -1.1881  -1.1881  -1.1881  -1.1880  -1.0041  -1.0041  -0.9513
    -0.8905  -0.8905  -0.8905  -0.8905  -0.6500  -0.6500  -0.6358  -0.6357
    -0.6357  -0.6357  -0.6341  -0.6341  -0.6341  -0.6341  -0.5978  -0.5978
    -0.5977  -0.5977  -0.5882  -0.5882  -0.5882  -0.5882  -0.5258  -0.5257
    -0.5257  -0.5257  -0.4602  -0.4602  -0.4601  -0.4601  -0.4440  -0.4440
    -0.4440  -0.4440  -0.4071  -0.4071  -0.4070  -0.4070  -0.3981  -0.3981
    -0.3981  -0.3981  -0.3689  -0.3689  -0.3688  -0.3688  -0.3009  -0.3009
    -0.3009  -0.3009  -0.2493  -0.2493  -0.2493  -0.2493  -0.2297  -0.2297
    -0.2297  -0.2296  -0.1968  -0.1875  -0.1875  -0.1875  -0.1875  -0.1777
    -0.1544  -0.1544  -0.1544  -0.1544  -0.1460  -0.1460  -0.1460  -0.1460
    -0.1022  -0.0892  -0.0892  -0.0892  -0.0892  -0.0480  -0.0480  -0.0479
    -0.0479  -0.0454  -0.0454  -0.0454  -0.0454  -0.0354  -0.0354  -0.0354
    -0.0353   0.0556   0.0556   0.1169   0.1169   0.1169   0.1169   0.1244
     0.1244   0.1244   0.1244   0.1318   0.1318   0.1318   0.1318   0.1603
     0.1603   0.1603   0.1603   0.1668   0.1668   0.1669   0.1669   0.1808
     0.1808   0.1809   0.1809   0.2070   0.2070   0.2070   0.2070   0.3079
     0.3079   0.3080   0.3080   0.3842   0.3842   0.3843   0.3843   0.7341
     0.7342   0.7342   0.7342   0.7667   0.7671   0.7671   0.7671   0.7671
     0.8059   0.8059   0.8146   0.8146   0.8146   0.8146   0.8292   0.8292
     0.8292   0.8292   1.0014   1.0014   1.1813   1.2096   1.2096   1.2344
     1.2344   1.2344   1.2344   1.2479   1.7672   1.7672   2.0352   2.0352
     2.1060   2.6824   2.6824   2.6892   3.0999   3.1000   3.1000   3.1000
     3.4917   3.8937   4.1170   4.1170   4.1170   4.1170   4.1815   4.1849
     4.1849   4.3892   4.3892   4.3893   4.3893   4.4163   4.4164   4.4164
     4.4164   4.4208   4.4208   4.4208   4.4208   4.4225   4.5031   4.5032
     4.5032   4.5032   4.5423   4.5423   4.5423   4.5423   4.5654   4.5654
     4.5654   4.5654   4.6974   4.6974   4.6974   4.6975   4.7379   4.7379
     4.7379   4.7379   4.7843   4.7844   4.7844   4.7845   4.8578   4.8578
     4.8783   4.8783   4.8784   4.8784   5.1450   5.2383   5.2383   5.2384
     5.2384   5.2437   5.2437   5.2437   5.2437   5.3090   5.3090   5.3091
     5.3091   5.3342   5.3343   5.3343   5.3343   5.4465   5.4465   5.4466
     5.4466   5.4518   5.4518   5.4518   5.4518   5.4625   5.4625   5.4625
     5.4625   5.5557   5.5558   5.5558   5.5558   5.6638   5.6638   5.6638
     5.6639   5.7165   5.7872   5.7885   5.7885   5.8172   5.8173   5.8173
     5.8173   5.8608   5.8608   5.8805   5.8805   5.8806   5.8807   5.9258
     5.9547   5.9607   5.9836

          k = 0.0000 0.2500 0.0000 (165664 PWs)   bands (ev):

   -46.5264 -46.5173 -46.5095 -46.5095 -46.5046 -46.5046 -46.5019 -46.4966
   -46.4966 -46.4880 -46.4880 -46.4845 -46.4810 -46.4810 -46.4772 -46.4772
   -46.4700 -46.4618 -46.3877 -46.3780 -46.3697 -46.3697 -46.3644 -46.3644
   -46.3617 -46.3559 -46.3559 -46.3468 -46.3468 -46.3437 -46.3398 -46.3398
   -46.3361 -46.3361 -46.3288 -46.3205 -46.1920 -46.1813 -46.1719 -46.1719
   -46.1657 -46.1657 -46.1630 -46.1555 -46.1555 -46.1452 -46.1452 -46.1427
   -46.1378 -46.1378 -46.1342 -46.1342 -46.1264 -46.1175 -46.0969 -46.0920
   -46.0876 -46.0876 -46.0863 -46.0863 -46.0829 -46.0829 -46.0826 -46.0769
   -46.0769 -46.0702 -46.0696 -46.0696 -46.0645 -46.0645 -46.0577 -46.0496
   -25.4000 -25.4000 -25.3970 -25.3955 -25.3955 -25.3892 -25.3892 -25.3873
   -25.3811 -25.3811 -25.3720 -25.3692 -25.3692 -25.3523 -25.3523 -25.3512
   -25.3425 -25.3425 -25.3269 -25.3269 -25.3243 -25.3189 -25.3189 -25.2978
   -25.2933 -25.2933 -25.2870 -25.2870 -25.2800 -25.2780 -25.2780 -25.2713
   -25.2675 -25.2675 -25.2656 -25.2656 -25.2562 -25.2502 -25.2497 -25.2438
   -25.2438 -25.2392 -25.2389 -25.2389 -25.2360 -25.2360 -25.2293 -25.2293
   -25.2228 -25.2117 -25.2113 -25.2112 -25.2100 -25.2059 -25.2059 -25.1807
   -25.1742 -25.1467 -25.1451 -25.1448 -25.1448 -25.1381 -25.1335 -25.1335
   -25.1333 -25.1333 -25.1317 -25.1298 -25.1298 -25.1067 -25.1048 -25.0864
   -25.0864 -25.0777 -25.0685 -25.0674 -25.0674 -25.0662 -25.0397 -25.0397
   -25.0372 -25.0356 -25.0356 -25.0341 -25.0341 -25.0335 -25.0228 -25.0175
   -25.0175 -25.0145 -25.0131 -25.0131 -25.0074 -25.0024 -25.0020 -25.0020
   -24.9970 -24.9970 -24.9927 -24.9927 -24.9921 -24.9913 -24.9840 -24.9840
   -24.9727 -24.9727 -24.9720 -24.9672 -24.9644 -24.9568 -24.9490 -24.9490
   -24.9452 -24.9421 -24.9421 -24.9388 -24.9388 -24.9231 -24.9231 -24.9168
   -24.9168 -24.9161 -24.9125 -24.9125 -24.9100 -24.8872 -24.8840 -24.8840
   -24.8828 -24.8828 -24.8741 -24.8682 -24.8603 -24.8599 -24.8588 -24.8588
   -24.8507 -24.8507 -24.8471 -24.8462 -24.8461 -24.8430 -24.8372 -24.8201
   -24.8201 -24.8195 -24.8157 -24.8056 -24.8041 -24.8041 -24.7873 -24.7873
   -24.7871 -24.7871 -24.7822 -24.7822 -24.7732 -24.7731 -24.7701 -24.7701
   -24.7654 -24.7626 -24.7496 -24.7496 -24.7491 -24.7432 -24.7432 -24.7416
   -24.7415 -24.7405 -24.7405 -24.7375 -24.7375 -24.7355 -24.7328 -24.7267
   -24.7181 -24.7181 -24.7114 -24.7114 -24.7043 -24.7043 -24.7019 -24.7019
   -24.7017 -24.7017 -24.7011 -24.7009 -24.7004 -24.7004 -24.6863 -24.6863
   -24.6861 -24.6861 -24.6777 -24.6710 -24.6656 -24.6656 -24.6637 -24.6534
   -24.6534 -24.6518 -24.6518 -24.6507 -24.6507 -24.6469 -24.6433 -24.6376
   -24.6376 -24.6374 -24.6180 -24.6155 -24.6114 -24.6114 -24.6106 -24.6106
   -11.8554 -11.5815 -11.3522 -11.3522 -11.2717 -11.1945 -11.1040 -11.1040
   -11.0424 -10.9653 -10.9496 -10.9321 -10.8991 -10.8635 -10.8635 -10.8626
   -10.8626 -10.8466 -10.8005 -10.7651 -10.7651 -10.7599 -10.7496 -10.6999
   -10.6998 -10.6772 -10.6771 -10.6698 -10.6697 -10.6688 -10.6413 -10.5987
   -10.5987 -10.5684 -10.5684 -10.5330 -10.4754 -10.4754 -10.4705 -10.4705
   -10.4642 -10.4642 -10.3838 -10.3739 -10.3603 -10.3603 -10.3311 -10.2848
   -10.2848 -10.2788 -10.2583 -10.2307 -10.2184 -10.2129 -10.2129 -10.1679
   -10.1679 -10.1412 -10.1412 -10.1391 -10.0680 -10.0680 -10.0444 -10.0444
   -10.0088 -10.0088  -9.9505  -9.9505  -9.9428  -9.9428  -9.8879  -9.8879
    -2.4779  -2.4779  -2.4621  -2.4620  -2.3934  -2.3933  -2.3610  -2.3610
    -2.1251  -2.1251  -2.1059  -2.1059  -1.9347  -1.9347  -1.8535  -1.8535
    -1.8049  -1.7650  -1.7650  -1.7647  -1.7647  -1.7302  -1.7275  -1.7275
    -1.6862  -1.6862  -1.6532  -1.6532  -1.6515  -1.5642  -1.5641  -1.5263
    -1.5246  -1.5012  -1.5012  -1.4900  -1.4900  -1.4286  -1.4286  -1.4216
    -1.3872  -1.3756  -1.3755  -1.3409  -1.3007  -1.2424  -1.2424  -1.1249
    -1.0996  -1.0996  -1.0841  -0.9992  -0.9917  -0.9848  -0.9848  -0.9673
    -0.9489  -0.9473  -0.9374  -0.9374  -0.7981  -0.7954  -0.6839  -0.6771
    -0.6771  -0.6568  -0.6568  -0.6441  -0.6299  -0.6298  -0.6064  -0.6064
    -0.5879  -0.5627  -0.5514  -0.5514  -0.5313  -0.5313  -0.5242  -0.5241
    -0.5145  -0.5145  -0.5103  -0.5103  -0.4971  -0.4971  -0.4822  -0.4822
    -0.4815  -0.4815  -0.4748  -0.4637  -0.4637  -0.4507  -0.4507  -0.4323
    -0.4323  -0.4302  -0.3708  -0.3708  -0.3498  -0.3374  -0.3374  -0.3358
    -0.3222  -0.3088  -0.3031  -0.3004  -0.3004  -0.2816  -0.2352  -0.2352
    -0.2072  -0.2072  -0.1900  -0.1900  -0.1691  -0.1691  -0.1664  -0.1423
    -0.1423  -0.1369  -0.1369  -0.1351  -0.1183  -0.1071  -0.1049  -0.1049
    -0.0937  -0.0937  -0.0909  -0.0909  -0.0676  -0.0676  -0.0418  -0.0372
    -0.0372   0.0026   0.0026   0.0127   0.0207   0.0207   0.0241   0.0241
     0.0309   0.0309   0.0608   0.0750   0.0869   0.0876   0.0876   0.1033
     0.1112   0.1116   0.1125   0.1125   0.1344   0.1345   0.1458   0.1458
     0.1661   0.1661   0.1972   0.1972   0.2366   0.2529   0.2610   0.2610
     0.2666   0.2930   0.3150   0.3150   0.3552   0.3552   0.3706   0.3706
     0.4194   0.4194   0.4221   0.4565   0.4565   0.5418   0.5478   0.5897
     0.6634   0.6634   0.6637   0.6838   0.7096   0.7097   0.7248   0.7336
     0.7367   0.7368   0.7614   0.7614   0.7988   0.7994   0.8034   0.8573
     0.8588   0.8663   0.9615   1.0330   1.0543   1.0605   1.0621   1.0902
     1.0916   1.0917   1.2017   1.4495   1.5796   1.6121   1.7746   1.9165
     2.4061   2.7087   2.8532   2.9188   2.9325   3.2242   3.2242   3.3259
     3.6357   3.6681   3.8286   3.8663   3.9254   4.0376   4.0377   4.0606
     4.1794   4.1795   4.1874   4.2049   4.2598   4.3187   4.3652   4.3843
     4.3843   4.4047   4.4138   4.4161   4.4161   4.4479   4.4479   4.4523
     4.4523   4.5442   4.5442   4.5673   4.6056   4.6056   4.6737   4.6760
     4.6760   4.6860   4.6860   4.6889   4.6919   4.7355   4.7355   4.8091
     4.8401   4.8401   4.8412   4.8425   4.8425   4.8705   4.8705   4.9054
     4.9533   4.9755   4.9755   5.0386   5.0493   5.0493   5.0580   5.0716
     5.1069   5.1069   5.1444   5.1583   5.1584   5.1956   5.2400   5.2400
     5.2432   5.2432   5.2443   5.2443   5.3324   5.3324   5.3663   5.3663
     5.4295   5.4902   5.5096   5.5600   5.5790   5.5790   5.5799   5.5800
     5.5932   5.6498   5.6498   5.6647   5.6648   5.7214   5.7434   5.7434
     5.7474   5.7474   5.7546   5.7587   5.7712   5.7967   5.7967   5.8103
     5.8516   5.8516   5.8525   5.8525   5.8734   5.8739   5.9122   5.9122
     5.9397   5.9397   5.9779

          k = 0.0000-0.5000 0.0000 (165810 PWs)   bands (ev):

   -46.5229 -46.5229 -46.5076 -46.5076 -46.5076 -46.5076 -46.4931 -46.4931
   -46.4922 -46.4922 -46.4922 -46.4922 -46.4786 -46.4786 -46.4786 -46.4786
   -46.4650 -46.4650 -46.3840 -46.3839 -46.3677 -46.3677 -46.3676 -46.3676
   -46.3526 -46.3526 -46.3513 -46.3512 -46.3512 -46.3512 -46.3375 -46.3375
   -46.3375 -46.3374 -46.3237 -46.3236 -46.1878 -46.1878 -46.1695 -46.1695
   -46.1695 -46.1695 -46.1527 -46.1527 -46.1501 -46.1501 -46.1501 -46.1501
   -46.1355 -46.1355 -46.1355 -46.1355 -46.1209 -46.1209 -46.0951 -46.0950
   -46.0872 -46.0872 -46.0871 -46.0871 -46.0803 -46.0802 -46.0802 -46.0801
   -46.0767 -46.0766 -46.0666 -46.0665 -46.0665 -46.0665 -46.0528 -46.0528
   -25.4007 -25.4007 -25.4007 -25.4007 -25.3931 -25.3931 -25.3841 -25.3841
   -25.3841 -25.3841 -25.3624 -25.3624 -25.3539 -25.3538 -25.3538 -25.3538
   -25.3469 -25.3469 -25.3469 -25.3469 -25.3102 -25.3102 -25.2936 -25.2936
   -25.2936 -25.2936 -25.2843 -25.2843 -25.2843 -25.2843 -25.2768 -25.2767
   -25.2702 -25.2701 -25.2701 -25.2701 -25.2482 -25.2481 -25.2477 -25.2476
   -25.2476 -25.2476 -25.2374 -25.2374 -25.2353 -25.2353 -25.2307 -25.2307
   -25.2307 -25.2307 -25.1929 -25.1929 -25.1870 -25.1870 -25.1870 -25.1870
   -25.1723 -25.1723 -25.1723 -25.1723 -25.1575 -25.1575 -25.1313 -25.1313
   -25.1216 -25.1215 -25.1077 -25.1077 -25.1077 -25.1077 -25.1068 -25.1068
   -25.0824 -25.0824 -25.0824 -25.0824 -25.0606 -25.0605 -25.0541 -25.0541
   -25.0541 -25.0541 -25.0284 -25.0284 -25.0211 -25.0210 -25.0210 -25.0210
   -25.0199 -25.0198 -25.0101 -25.0101 -25.0101 -25.0101 -24.9970 -24.9970
   -24.9952 -24.9952 -24.9952 -24.9952 -24.9938 -24.9937 -24.9790 -24.9790
   -24.9642 -24.9642 -24.9642 -24.9642 -24.9554 -24.9554 -24.9468 -24.9468
   -24.9370 -24.9370 -24.9370 -24.9370 -24.9226 -24.9226 -24.9226 -24.9226
   -24.9183 -24.9183 -24.9183 -24.9183 -24.9075 -24.9075 -24.9075 -24.9075
   -24.8738 -24.8737 -24.8699 -24.8699 -24.8626 -24.8625 -24.8593 -24.8593
   -24.8478 -24.8478 -24.8344 -24.8344 -24.8323 -24.8323 -24.8323 -24.8322
   -24.8253 -24.8253 -24.8253 -24.8253 -24.7994 -24.7994 -24.7993 -24.7993
   -24.7965 -24.7965 -24.7790 -24.7789 -24.7607 -24.7607 -24.7606 -24.7606
   -24.7501 -24.7500 -24.7493 -24.7493 -24.7416 -24.7415 -24.7415 -24.7415
   -24.7381 -24.7380 -24.7380 -24.7380 -24.7326 -24.7326 -24.7326 -24.7326
   -24.7319 -24.7318 -24.7231 -24.7231 -24.7231 -24.7231 -24.7164 -24.7164
   -24.7017 -24.7017 -24.7016 -24.7016 -24.6967 -24.6967 -24.6967 -24.6967
   -24.6738 -24.6737 -24.6737 -24.6737 -24.6576 -24.6575 -24.6546 -24.6546
   -24.6445 -24.6445 -24.6445 -24.6445 -24.6342 -24.6341 -24.6280 -24.6280
   -24.6279 -24.6279 -24.6277 -24.6277 -24.6257 -24.6257 -24.6257 -24.6257
   -11.7460 -11.7460 -11.2526 -11.2526 -11.2526 -11.2526 -11.1785 -11.1785
   -11.0352 -11.0352 -10.9320 -10.9320 -10.8873 -10.8873 -10.7866 -10.7866
   -10.7865 -10.7865 -10.7828 -10.7828 -10.7828 -10.7828 -10.7634 -10.7634
   -10.6804 -10.6804 -10.6617 -10.6617 -10.6542 -10.6542 -10.6541 -10.6541
   -10.6371 -10.6371 -10.6371 -10.6371 -10.4340 -10.4339 -10.4339 -10.4339
   -10.3979 -10.3979 -10.3979 -10.3978 -10.3368 -10.3368 -10.2825 -10.2825
   -10.2814 -10.2814 -10.2814 -10.2814 -10.2778 -10.2778 -10.1701 -10.1700
   -10.1514 -10.1514 -10.1514 -10.1514 -10.0848 -10.0848 -10.0848 -10.0848
    -9.9692  -9.9692  -9.9692  -9.9692  -9.8870  -9.8870  -9.8870  -9.8869
    -2.4991  -2.4991  -2.4991  -2.4991  -2.4765  -2.4764  -2.4764  -2.4764
    -1.9099  -1.9099  -1.9099  -1.9099  -1.8671  -1.8671  -1.8671  -1.8671
    -1.7724  -1.7724  -1.7724  -1.7724  -1.7720  -1.7720  -1.7090  -1.7090
    -1.7090  -1.7090  -1.6927  -1.6927  -1.6913  -1.6913  -1.6913  -1.6913
    -1.5751  -1.5751  -1.5750  -1.5750  -1.3681  -1.3681  -1.3634  -1.3634
    -1.3634  -1.3634  -1.2857  -1.2857  -1.2369  -1.2369  -1.1912  -1.1911
    -1.1911  -1.1911  -1.0865  -1.0865  -1.0197  -1.0197  -0.9826  -0.9825
    -0.7942  -0.7942  -0.7942  -0.7942  -0.7659  -0.7659  -0.7658  -0.7658
    -0.7253  -0.7253  -0.6623  -0.6623  -0.6437  -0.6437  -0.6250  -0.6250
    -0.6181  -0.6181  -0.6181  -0.6181  -0.6050  -0.6050  -0.6050  -0.6049
    -0.5366  -0.5366  -0.5366  -0.5365  -0.5289  -0.5289  -0.5289  -0.5289
    -0.4876  -0.4876  -0.4876  -0.4876  -0.4465  -0.4465  -0.4465  -0.4465
    -0.3850  -0.3850  -0.3385  -0.3385  -0.3230  -0.3230  -0.3229  -0.3229
    -0.3026  -0.3026  -0.3026  -0.3026  -0.2931  -0.2931  -0.2676  -0.2676
    -0.2676  -0.2675  -0.2160  -0.2160  -0.2160  -0.2159  -0.1750  -0.1749
    -0.1260  -0.1260  -0.1260  -0.1260  -0.0977  -0.0977  -0.0919  -0.0919
    -0.0919  -0.0919  -0.0883  -0.0883  -0.0883  -0.0883  -0.0204  -0.0204
    -0.0204  -0.0204   0.0511   0.0511   0.0511   0.0511   0.0780   0.0780
     0.0864   0.0865   0.0865   0.0865   0.1054   0.1054   0.1055   0.1055
     0.1120   0.1120   0.1361   0.1361   0.1361   0.1361   0.1413   0.1413
     0.2600   0.2600   0.2600   0.2600   0.3289   0.3289   0.3776   0.3776
     0.4314   0.4315   0.4682   0.4682   0.4682   0.4682   0.4836   0.4836
     0.5107   0.5107   0.5107   0.5107   0.5839   0.5839   0.5839   0.5839
     0.6179   0.6179   0.6180   0.6180   0.6253   0.6254   0.6773   0.6773
     0.6844   0.6844   0.7491   0.7492   0.7565   0.7566   0.7566   0.7566
     0.7986   0.7986   0.8469   0.8469   0.9373   0.9374   1.1016   1.1016
     1.1583   1.1583   1.1885   1.1885   1.3297   1.3297   1.6900   1.6900
     2.7876   2.7876   2.9774   2.9774   3.2761   3.2761   3.4471   3.4471
     3.5628   3.5628   3.5628   3.5629   3.5867   3.5867   4.0224   4.0224
     4.0889   4.0889   4.2651   4.2651   4.3425   4.3425   4.3425   4.3425
     4.3895   4.3895   4.3896   4.3896   4.4443   4.4443   4.4874   4.4875
     4.5270   4.5270   4.5270   4.5270   4.5660   4.5660   4.5660   4.5660
     4.6716   4.6716   4.6761   4.6761   4.7937   4.7937   4.7938   4.7938
     4.8121   4.8121   4.8121   4.8122   4.8659   4.8659   4.8776   4.8776
     4.8776   4.8776   4.9393   4.9393   5.0016   5.0016   5.0017   5.0017
     5.1344   5.1344   5.1344   5.1344   5.2079   5.2080   5.2675   5.2675
     5.2676   5.2676   5.3365   5.3365   5.3365   5.3365   5.3458   5.3458
     5.3697   5.3698   5.4999   5.4999   5.4999   5.4999   5.6573   5.6573
     5.7135   5.7136   5.7248   5.7248   5.7248   5.7248   5.7484   5.7484
     5.7485   5.7485   5.8420   5.8420   5.8420   5.8420   5.8588   5.8588
     5.8928   5.8929   5.8929   5.8929   5.9132   5.9132   5.9139   5.9139
     5.9149   5.9149   5.9285

          k = 0.2500 0.2500 0.0000 (165752 PWs)   bands (ev):

   -46.5253 -46.5164 -46.5164 -46.5098 -46.5015 -46.5015 -46.4987 -46.4987
   -46.4943 -46.4898 -46.4865 -46.4865 -46.4848 -46.4848 -46.4764 -46.4707
   -46.4707 -46.4629 -46.3865 -46.3771 -46.3770 -46.3700 -46.3613 -46.3612
   -46.3582 -46.3581 -46.3534 -46.3487 -46.3455 -46.3454 -46.3439 -46.3438
   -46.3351 -46.3295 -46.3295 -46.3215 -46.1906 -46.1802 -46.1802 -46.1720
   -46.1625 -46.1624 -46.1585 -46.1584 -46.1523 -46.1470 -46.1440 -46.1439
   -46.1429 -46.1428 -46.1328 -46.1271 -46.1271 -46.1186 -46.0963 -46.0917
   -46.0916 -46.0888 -46.0830 -46.0830 -46.0827 -46.0827 -46.0823 -46.0792
   -46.0745 -46.0744 -46.0708 -46.0707 -46.0650 -46.0586 -46.0586 -46.0507
   -25.4083 -25.4066 -25.3958 -25.3895 -25.3895 -25.3881 -25.3872 -25.3872
   -25.3805 -25.3805 -25.3740 -25.3740 -25.3703 -25.3568 -25.3550 -25.3550
   -25.3546 -25.3285 -25.3285 -25.3200 -25.3200 -25.3062 -25.3051 -25.3025
   -25.3004 -25.2893 -25.2893 -25.2791 -25.2748 -25.2748 -25.2745 -25.2717
   -25.2716 -25.2670 -25.2670 -25.2592 -25.2592 -25.2591 -25.2531 -25.2531
   -25.2529 -25.2517 -25.2466 -25.2466 -25.2394 -25.2323 -25.2191 -25.2191
   -25.2175 -25.2174 -25.2065 -25.2065 -25.1943 -25.1937 -25.1820 -25.1788
   -25.1788 -25.1699 -25.1699 -25.1680 -25.1680 -25.1515 -25.1407 -25.1406
   -25.1233 -25.1156 -25.1155 -25.1122 -25.1076 -25.1076 -25.0942 -25.0942
   -25.0881 -25.0726 -25.0726 -25.0691 -25.0689 -25.0688 -25.0628 -25.0628
   -25.0535 -25.0317 -25.0317 -25.0272 -25.0234 -25.0234 -25.0187 -25.0145
   -25.0104 -25.0094 -25.0094 -25.0076 -25.0076 -25.0024 -25.0024 -25.0023
   -25.0013 -25.0013 -24.9994 -24.9950 -24.9950 -24.9942 -24.9722 -24.9722
   -24.9690 -24.9690 -24.9688 -24.9687 -24.9629 -24.9629 -24.9553 -24.9513
   -24.9505 -24.9505 -24.9355 -24.9302 -24.9302 -24.9290 -24.9193 -24.9185
   -24.9161 -24.9160 -24.9145 -24.9145 -24.9132 -24.9026 -24.8894 -24.8894
   -24.8721 -24.8721 -24.8661 -24.8661 -24.8633 -24.8571 -24.8571 -24.8570
   -24.8552 -24.8552 -24.8444 -24.8444 -24.8419 -24.8370 -24.8302 -24.8302
   -24.8159 -24.8155 -24.8155 -24.8107 -24.8077 -24.8076 -24.8058 -24.7967
   -24.7967 -24.7926 -24.7739 -24.7730 -24.7707 -24.7707 -24.7619 -24.7619
   -24.7604 -24.7562 -24.7562 -24.7541 -24.7534 -24.7472 -24.7472 -24.7388
   -24.7388 -24.7388 -24.7355 -24.7348 -24.7347 -24.7298 -24.7281 -24.7281
   -24.7270 -24.7255 -24.7255 -24.7194 -24.7194 -24.7135 -24.7125 -24.7125
   -24.7022 -24.6862 -24.6861 -24.6853 -24.6853 -24.6846 -24.6846 -24.6808
   -24.6807 -24.6785 -24.6785 -24.6760 -24.6759 -24.6748 -24.6718 -24.6655
   -24.6572 -24.6572 -24.6489 -24.6448 -24.6448 -24.6413 -24.6412 -24.6329
   -24.6295 -24.6275 -24.6275 -24.6258 -24.6257 -24.6104 -24.6072 -24.6059
   -11.8173 -11.5452 -11.5451 -11.2862 -11.2390 -11.1612 -11.1611 -11.0118
   -11.0117 -10.9449 -10.9334 -10.9262 -10.9261 -10.9026 -10.9026 -10.8733
   -10.8733 -10.8173 -10.8025 -10.7852 -10.7852 -10.7338 -10.7338 -10.7187
   -10.7064 -10.6996 -10.6995 -10.6959 -10.6487 -10.6487 -10.6146 -10.6130
   -10.6130 -10.5624 -10.5623 -10.5263 -10.5263 -10.5036 -10.5036 -10.4621
   -10.4525 -10.4164 -10.4003 -10.3656 -10.3473 -10.3473 -10.3130 -10.3005
   -10.2582 -10.2582 -10.2318 -10.2318 -10.2066 -10.2066 -10.1990 -10.1990
   -10.1640 -10.1640 -10.1297 -10.1166 -10.1166 -10.0757 -10.0531 -10.0531
   -10.0458 -10.0458  -9.9705  -9.9705  -9.9413  -9.8865  -9.8564  -9.8312
    -2.6321  -2.6194  -2.5874  -2.5650  -2.2534  -2.2533  -2.2281  -2.2281
    -2.1392  -2.1392  -2.0888  -2.0888  -1.9097  -1.9076  -1.8959  -1.8664
    -1.8634  -1.8620  -1.8620  -1.7981  -1.7981  -1.7279  -1.7146  -1.7145
    -1.7137  -1.6036  -1.6036  -1.5837  -1.5836  -1.5750  -1.5634  -1.5634
    -1.5084  -1.5084  -1.4594  -1.4594  -1.4505  -1.4505  -1.3638  -1.3638
    -1.3512  -1.3399  -1.3399  -1.3277  -1.3146  -1.2578  -1.2578  -1.1748
    -1.1748  -1.0991  -1.0890  -1.0371  -1.0371  -1.0187  -1.0187  -0.9998
    -0.9998  -0.9866  -0.9733  -0.9733  -0.8012  -0.7872  -0.7871  -0.7594
    -0.7593  -0.7069  -0.6712  -0.6534  -0.6512  -0.6157  -0.6128  -0.6128
    -0.5815  -0.5814  -0.5783  -0.5690  -0.5689  -0.5530  -0.5530  -0.5496
    -0.5495  -0.5417  -0.5266  -0.5173  -0.4961  -0.4959  -0.4566  -0.4566
    -0.4385  -0.4385  -0.4176  -0.4176  -0.4081  -0.4081  -0.4061  -0.4060
    -0.3969  -0.3969  -0.3815  -0.3814  -0.3629  -0.3629  -0.3262  -0.3262
    -0.3146  -0.3146  -0.3025  -0.3025  -0.2839  -0.2839  -0.2746  -0.2723
    -0.2302  -0.2164  -0.1978  -0.1912  -0.1876  -0.1876  -0.1793  -0.1778
    -0.1778  -0.1701  -0.1629  -0.1390  -0.1343  -0.1343  -0.1122  -0.1053
    -0.0935  -0.0935  -0.0613  -0.0306  -0.0305  -0.0084  -0.0083  -0.0081
    -0.0081   0.0116   0.0255   0.0387   0.0387   0.0715   0.0809   0.0856
     0.0856   0.1035   0.1073   0.1103   0.1166   0.1304   0.1304   0.1504
     0.1578   0.1579   0.1800   0.1800   0.1871   0.1872   0.1993   0.1993
     0.2195   0.2195   0.2301   0.2301   0.2444   0.2444   0.2736   0.2736
     0.3177   0.3178   0.3351   0.3351   0.3668   0.3669   0.4101   0.4721
     0.4721   0.4857   0.5281   0.5281   0.5351   0.5405   0.5405   0.5505
     0.5760   0.6430   0.6546   0.6546   0.6600   0.6700   0.6777   0.6777
     0.7095   0.7134   0.7134   0.7443   0.7443   0.8147   0.8147   0.8395
     0.8418   0.8803   0.8804   0.9302   0.9302   0.9723   0.9723   1.0306
     1.0520   1.1163   1.2958   1.2958   1.3682   1.5559   1.5883   1.7758
     2.6012   2.8739   2.8742   3.0568   3.0568   3.1025   3.4368   3.4368
     3.7032   3.7032   3.8043   3.8300   3.8300   3.9201   3.9263   3.9477
     3.9477   3.9565   4.1140   4.1140   4.1881   4.1881   4.2106   4.2107
     4.2775   4.2805   4.3391   4.3977   4.3997   4.3998   4.4182   4.4269
     4.4376   4.4376   4.5052   4.5052   4.5469   4.6579   4.6579   4.6765
     4.6799   4.6800   4.6982   4.6982   4.7326   4.7326   4.8491   4.8491
     4.8517   4.8517   4.8751   4.8751   4.8771   4.9436   4.9571   4.9657
     4.9658   4.9739   5.0557   5.0749   5.0760   5.0760   5.0964   5.0964
     5.1220   5.1379   5.1380   5.1534   5.1643   5.1644   5.1778   5.2233
     5.2467   5.3516   5.3516   5.3752   5.3753   5.4276   5.4276   5.4540
     5.4540   5.4994   5.4995   5.5294   5.5344   5.5344   5.5401   5.5401
     5.6006   5.6061   5.6061   5.6146   5.6147   5.6494   5.6495   5.6886
     5.6886   5.7320   5.7472   5.7472   5.7496   5.7833   5.7987   5.7987
     5.8160   5.8802   5.8862   5.8901   5.8998   5.8998   5.9032   5.9273
     5.9495   5.9538   5.9978

          k = 0.2500-0.5000 0.0000 (165780 PWs)   bands (ev):

   -46.5218 -46.5218 -46.5139 -46.5139 -46.5004 -46.5004 -46.4931 -46.4930
   -46.4925 -46.4925 -46.4920 -46.4920 -46.4854 -46.4854 -46.4729 -46.4729
   -46.4659 -46.4659 -46.3828 -46.3828 -46.3743 -46.3743 -46.3601 -46.3600
   -46.3525 -46.3525 -46.3517 -46.3517 -46.3509 -46.3509 -46.3445 -46.3444
   -46.3317 -46.3316 -46.3246 -46.3246 -46.1866 -46.1866 -46.1770 -46.1770
   -46.1609 -46.1609 -46.1525 -46.1525 -46.1510 -46.1510 -46.1494 -46.1494
   -46.1432 -46.1432 -46.1292 -46.1292 -46.1218 -46.1218 -46.0946 -46.0945
   -46.0906 -46.0906 -46.0829 -46.0829 -46.0812 -46.0810 -46.0790 -46.0789
   -46.0770 -46.0769 -46.0723 -46.0722 -46.0612 -46.0611 -46.0538 -46.0538
   -25.4110 -25.4110 -25.3923 -25.3923 -25.3874 -25.3873 -25.3871 -25.3871
   -25.3801 -25.3801 -25.3718 -25.3718 -25.3656 -25.3656 -25.3655 -25.3655
   -25.3396 -25.3396 -25.3142 -25.3142 -25.3089 -25.3089 -25.3074 -25.3074
   -25.2835 -25.2835 -25.2780 -25.2780 -25.2763 -25.2763 -25.2748 -25.2748
   -25.2728 -25.2727 -25.2685 -25.2685 -25.2593 -25.2593 -25.2534 -25.2534
   -25.2531 -25.2531 -25.2529 -25.2529 -25.2341 -25.2341 -25.2229 -25.2229
   -25.2083 -25.2083 -25.1995 -25.1995 -25.1966 -25.1966 -25.1947 -25.1947
   -25.1712 -25.1712 -25.1648 -25.1648 -25.1484 -25.1484 -25.1436 -25.1436
   -25.1432 -25.1432 -25.1195 -25.1195 -25.1004 -25.1004 -25.0959 -25.0959
   -25.0707 -25.0707 -25.0693 -25.0692 -25.0649 -25.0649 -25.0529 -25.0529
   -25.0466 -25.0466 -25.0401 -25.0401 -25.0375 -25.0374 -25.0227 -25.0227
   -25.0202 -25.0202 -25.0072 -25.0072 -25.0001 -25.0001 -24.9953 -24.9953
   -24.9898 -24.9897 -24.9838 -24.9838 -24.9836 -24.9836 -24.9828 -24.9828
   -24.9719 -24.9719 -24.9681 -24.9681 -24.9557 -24.9557 -24.9529 -24.9529
   -24.9466 -24.9466 -24.9456 -24.9456 -24.9412 -24.9412 -24.9287 -24.9287
   -24.9055 -24.9055 -24.9047 -24.9047 -24.8959 -24.8959 -24.8925 -24.8925
   -24.8840 -24.8840 -24.8711 -24.8711 -24.8670 -24.8670 -24.8518 -24.8518
   -24.8445 -24.8445 -24.8374 -24.8374 -24.8340 -24.8340 -24.8285 -24.8285
   -24.8229 -24.8229 -24.8213 -24.8213 -24.8061 -24.8061 -24.8022 -24.8022
   -24.7919 -24.7919 -24.7856 -24.7856 -24.7767 -24.7767 -24.7636 -24.7636
   -24.7534 -24.7534 -24.7462 -24.7462 -24.7455 -24.7455 -24.7443 -24.7443
   -24.7353 -24.7353 -24.7351 -24.7350 -24.7313 -24.7313 -24.7296 -24.7296
   -24.7258 -24.7258 -24.7215 -24.7215 -24.7183 -24.7183 -24.7107 -24.7107
   -24.7103 -24.7103 -24.7033 -24.7033 -24.6822 -24.6821 -24.6807 -24.6807
   -24.6721 -24.6721 -24.6684 -24.6684 -24.6626 -24.6626 -24.6588 -24.6588
   -24.6526 -24.6526 -24.6501 -24.6501 -24.6471 -24.6471 -24.6460 -24.6460
   -24.6448 -24.6448 -24.6146 -24.6146 -24.6135 -24.6135 -24.6120 -24.6120
   -11.7086 -11.7086 -11.4415 -11.4415 -11.1465 -11.1465 -11.0665 -11.0665
   -11.0037 -11.0037 -10.9260 -10.9259 -10.9077 -10.9077 -10.8733 -10.8733
   -10.8196 -10.8196 -10.8019 -10.8019 -10.7840 -10.7840 -10.7456 -10.7456
   -10.7344 -10.7344 -10.6618 -10.6618 -10.6573 -10.6573 -10.6313 -10.6313
   -10.5950 -10.5950 -10.5332 -10.5332 -10.5105 -10.5105 -10.5055 -10.5055
   -10.4207 -10.4207 -10.3959 -10.3959 -10.3177 -10.3177 -10.2725 -10.2724
   -10.2639 -10.2639 -10.2523 -10.2523 -10.2024 -10.2024 -10.1579 -10.1579
   -10.1464 -10.1464 -10.1455 -10.1455 -10.1396 -10.1396 -10.0786 -10.0786
   -10.0549 -10.0549  -9.9830  -9.9830  -9.8823  -9.8823  -9.8173  -9.8173
    -2.6732  -2.6732  -2.6575  -2.6575  -2.2580  -2.2580  -2.2236  -2.2236
    -2.0250  -2.0250  -1.9825  -1.9825  -1.9478  -1.9478  -1.8912  -1.8912
    -1.8747  -1.8747  -1.8366  -1.8366  -1.8118  -1.8118  -1.7657  -1.7657
    -1.6945  -1.6945  -1.6534  -1.6534  -1.5444  -1.5444  -1.5208  -1.5208
    -1.4861  -1.4861  -1.4410  -1.4410  -1.3845  -1.3845  -1.3289  -1.3289
    -1.3135  -1.3135  -1.2668  -1.2667  -1.2359  -1.2359  -1.1984  -1.1984
    -1.1928  -1.1928  -1.1336  -1.1336  -1.1063  -1.1063  -1.0496  -1.0496
    -1.0453  -1.0452  -0.9777  -0.9777  -0.9286  -0.9286  -0.8499  -0.8499
    -0.6726  -0.6726  -0.6468  -0.6468  -0.6039  -0.6039  -0.5886  -0.5886
    -0.5393  -0.5393  -0.5353  -0.5353  -0.5347  -0.5347  -0.5320  -0.5319
    -0.5254  -0.5254  -0.5188  -0.5188  -0.5044  -0.5044  -0.5042  -0.5042
    -0.4747  -0.4746  -0.4730  -0.4730  -0.4427  -0.4427  -0.4426  -0.4426
    -0.4064  -0.4064  -0.3881  -0.3881  -0.3647  -0.3647  -0.3635  -0.3635
    -0.3573  -0.3573  -0.3378  -0.3378  -0.3260  -0.3260  -0.2743  -0.2743
    -0.2245  -0.2245  -0.2118  -0.2118  -0.2002  -0.2002  -0.1772  -0.1772
    -0.1456  -0.1456  -0.1446  -0.1446  -0.1049  -0.1049  -0.0700  -0.0700
    -0.0092  -0.0092  -0.0018  -0.0018   0.0091   0.0091   0.0149   0.0149
     0.0468   0.0468   0.0672   0.0672   0.0913   0.0913   0.0951   0.0951
     0.1151   0.1152   0.1234   0.1234   0.1500   0.1501   0.1655   0.1655
     0.1724   0.1724   0.1749   0.1749   0.1965   0.1965   0.1970   0.1970
     0.3111   0.3111   0.3140   0.3140   0.3182   0.3182   0.3581   0.3581
     0.3602   0.3603   0.3709   0.3709   0.4686   0.4686   0.5177   0.5177
     0.5231   0.5232   0.5398   0.5398   0.5499   0.5499   0.5594   0.5594
     0.5772   0.5772   0.6124   0.6124   0.6413   0.6414   0.6549   0.6549
     0.6847   0.6847   0.7049   0.7049   0.7549   0.7549   0.7958   0.7958
     0.8152   0.8153   0.8484   0.8484   0.9554   0.9554   1.0085   1.0085
     1.0450   1.0450   1.0789   1.0789   1.2800   1.2800   1.5309   1.5309
     2.9401   2.9401   3.0848   3.0848   3.2879   3.2879   3.4231   3.4231
     3.5402   3.5402   3.6839   3.6839   3.7455   3.7456   3.8541   3.8541
     3.9339   3.9339   4.0510   4.0510   4.1677   4.1678   4.1774   4.1774
     4.2856   4.2857   4.3126   4.3126   4.3371   4.3372   4.3566   4.3566
     4.4074   4.4074   4.4407   4.4407   4.5035   4.5035   4.6467   4.6467
     4.7315   4.7315   4.7380   4.7381   4.7533   4.7533   4.7890   4.7890
     4.8318   4.8318   4.8372   4.8372   4.8886   4.8886   4.9504   4.9504
     4.9834   4.9834   5.0498   5.0498   5.1160   5.1160   5.1395   5.1396
     5.1819   5.1819   5.1838   5.1838   5.2262   5.2263   5.2808   5.2808
     5.3065   5.3065   5.3292   5.3293   5.3960   5.3961   5.3979   5.3979
     5.4895   5.4895   5.4902   5.4902   5.4948   5.4948   5.5354   5.5354
     5.6091   5.6092   5.6636   5.6636   5.6742   5.6742   5.7343   5.7343
     5.8039   5.8039   5.8142   5.8142   5.8566   5.8566   5.8627   5.8627
     5.8862   5.8862   5.9292   5.9292   5.9368   5.9368   5.9371   5.9371
     5.9586   5.9587   6.0010

          k =-0.5000-0.5000 0.0000 (165708 PWs)   bands (ev):

   -46.5188 -46.5187 -46.5187 -46.5187 -46.4928 -46.4928 -46.4928 -46.4928
   -46.4928 -46.4928 -46.4928 -46.4928 -46.4919 -46.4919 -46.4686 -46.4686
   -46.4686 -46.4686 -46.3796 -46.3795 -46.3795 -46.3794 -46.3522 -46.3522
   -46.3522 -46.3522 -46.3521 -46.3521 -46.3521 -46.3520 -46.3508 -46.3508
   -46.3273 -46.3273 -46.3273 -46.3272 -46.1829 -46.1829 -46.1829 -46.1829
   -46.1519 -46.1519 -46.1519 -46.1519 -46.1519 -46.1519 -46.1519 -46.1518
   -46.1492 -46.1491 -46.1246 -46.1246 -46.1246 -46.1246 -46.0931 -46.0931
   -46.0930 -46.0930 -46.0815 -46.0814 -46.0780 -46.0779 -46.0779 -46.0778
   -46.0778 -46.0778 -46.0778 -46.0777 -46.0568 -46.0567 -46.0567 -46.0567
   -25.4148 -25.4148 -25.3902 -25.3902 -25.3902 -25.3902 -25.3804 -25.3804
   -25.3742 -25.3742 -25.3742 -25.3742 -25.3742 -25.3742 -25.3742 -25.3742
   -25.3252 -25.3252 -25.3252 -25.3252 -25.3126 -25.3126 -25.2752 -25.2752
   -25.2752 -25.2752 -25.2750 -25.2750 -25.2750 -25.2749 -25.2702 -25.2702
   -25.2702 -25.2702 -25.2702 -25.2702 -25.2702 -25.2701 -25.2603 -25.2603
   -25.2468 -25.2468 -25.2468 -25.2468 -25.2468 -25.2468 -25.2468 -25.2468
   -25.2160 -25.2160 -25.2159 -25.2159 -25.1769 -25.1769 -25.1769 -25.1769
   -25.1630 -25.1630 -25.1630 -25.1630 -25.1475 -25.1474 -25.1474 -25.1474
   -25.1474 -25.1474 -25.1474 -25.1474 -25.0969 -25.0969 -25.0969 -25.0969
   -25.0740 -25.0740 -25.0740 -25.0740 -25.0684 -25.0684 -25.0326 -25.0326
   -25.0326 -25.0326 -25.0326 -25.0326 -25.0326 -25.0326 -25.0236 -25.0236
   -25.0236 -25.0236 -25.0018 -25.0018 -24.9990 -24.9990 -24.9990 -24.9990
   -24.9912 -24.9912 -24.9912 -24.9912 -24.9912 -24.9912 -24.9912 -24.9912
   -24.9638 -24.9638 -24.9638 -24.9638 -24.9545 -24.9545 -24.9545 -24.9545
   -24.9545 -24.9545 -24.9545 -24.9545 -24.9442 -24.9442 -24.9442 -24.9442
   -24.8985 -24.8985 -24.8856 -24.8855 -24.8855 -24.8855 -24.8737 -24.8737
   -24.8737 -24.8737 -24.8737 -24.8737 -24.8737 -24.8736 -24.8585 -24.8585
   -24.8585 -24.8585 -24.8473 -24.8473 -24.8473 -24.8473 -24.8239 -24.8239
   -24.8239 -24.8239 -24.8113 -24.8113 -24.8112 -24.8112 -24.7799 -24.7799
   -24.7798 -24.7798 -24.7774 -24.7774 -24.7774 -24.7774 -24.7774 -24.7774
   -24.7774 -24.7774 -24.7689 -24.7689 -24.7369 -24.7369 -24.7368 -24.7368
   -24.7360 -24.7360 -24.7360 -24.7360 -24.7360 -24.7360 -24.7360 -24.7360
   -24.7341 -24.7340 -24.7169 -24.7169 -24.7169 -24.7169 -24.6877 -24.6877
   -24.6877 -24.6877 -24.6831 -24.6830 -24.6782 -24.6782 -24.6782 -24.6782
   -24.6782 -24.6782 -24.6781 -24.6781 -24.6660 -24.6660 -24.6622 -24.6622
   -24.6621 -24.6621 -24.6621 -24.6621 -24.6621 -24.6621 -24.6480 -24.6479
   -24.6479 -24.6479 -24.6085 -24.6085 -24.6081 -24.6081 -24.6080 -24.6080
   -11.6019 -11.6018 -11.6018 -11.6018 -11.0566 -11.0565 -11.0565 -11.0565
   -10.9147 -10.9147 -10.9147 -10.9147 -10.9146 -10.9146 -10.9146 -10.9146
   -10.8449 -10.8448 -10.8448 -10.8447 -10.8338 -10.8337 -10.8337 -10.8337
   -10.6528 -10.6528 -10.6528 -10.6528 -10.5945 -10.5945 -10.5945 -10.5945
   -10.5945 -10.5944 -10.5944 -10.5944 -10.5457 -10.5457 -10.5457 -10.5457
   -10.4237 -10.4237 -10.4143 -10.4143 -10.2667 -10.2667 -10.2667 -10.2667
   -10.2136 -10.2136 -10.2135 -10.2135 -10.1809 -10.1809 -10.1809 -10.1809
   -10.1808 -10.1808 -10.1808 -10.1808 -10.0777 -10.0776 -10.0776 -10.0776
   -10.0776 -10.0776 -10.0776 -10.0776  -9.8482  -9.8482  -9.7927  -9.7927
    -2.7360  -2.7360  -2.7234  -2.7234  -2.0146  -2.0146  -2.0146  -2.0146
    -2.0146  -2.0146  -2.0146  -2.0146  -2.0017  -2.0017  -1.9625  -1.9625
    -1.9625  -1.9624  -1.9624  -1.9624  -1.9624  -1.9624  -1.9580  -1.9580
    -1.4399  -1.4398  -1.4398  -1.4398  -1.4386  -1.4385  -1.4385  -1.4385
    -1.4237  -1.4237  -1.4236  -1.4236  -1.3567  -1.3566  -1.3566  -1.3566
    -1.3566  -1.3566  -1.3566  -1.3566  -1.2074  -1.2074  -1.2074  -1.2074
    -1.2074  -1.2074  -1.2074  -1.2074  -1.1475  -1.1475  -1.1475  -1.1475
    -1.0451  -1.0451  -1.0451  -1.0451  -1.0342  -1.0342  -1.0342  -1.0342
    -0.6984  -0.6983  -0.6774  -0.6774  -0.5880  -0.5880  -0.5701  -0.5700
    -0.5317  -0.5316  -0.5316  -0.5316  -0.5316  -0.5316  -0.5316  -0.5316
    -0.4807  -0.4806  -0.4806  -0.4806  -0.4806  -0.4806  -0.4806  -0.4806
    -0.4005  -0.4004  -0.4004  -0.4004  -0.4004  -0.4004  -0.4004  -0.4004
    -0.3887  -0.3887  -0.3887  -0.3887  -0.3839  -0.3839  -0.3839  -0.3838
    -0.3319  -0.3319  -0.3319  -0.3319  -0.3056  -0.3056  -0.3055  -0.3055
    -0.3055  -0.3055  -0.3055  -0.3055  -0.2591  -0.2591  -0.2122  -0.2122
    -0.1617  -0.1617  -0.1617  -0.1617  -0.1256  -0.1256  -0.0371  -0.0371
     0.0255   0.0255   0.0255   0.0256   0.0297   0.0297   0.0297   0.0298
     0.0731   0.0731   0.0731   0.0731   0.0731   0.0731   0.0731   0.0732
     0.1713   0.1713   0.1713   0.1713   0.1713   0.1713   0.1714   0.1714
     0.2936   0.2937   0.2937   0.2937   0.3244   0.3244   0.3245   0.3245
     0.3680   0.3680   0.3680   0.3680   0.3980   0.3980   0.3980   0.3980
     0.4561   0.4561   0.4562   0.4562   0.5061   0.5061   0.5061   0.5062
     0.5062   0.5062   0.5062   0.5062   0.5195   0.5195   0.5195   0.5195
     0.5196   0.5196   0.5196   0.5196   0.6036   0.6036   0.6036   0.6036
     0.7226   0.7226   0.7226   0.7226   0.7497   0.7497   0.7497   0.7497
     0.8171   0.8171   0.8172   0.8172   0.8574   0.8574   0.8574   0.8574
     1.0743   1.0743   1.0743   1.0743   1.2186   1.2186   1.2186   1.2186
     3.3319   3.3319   3.3320   3.3320   3.3328   3.3328   3.3328   3.3328
     3.4183   3.4183   3.4183   3.4184   3.8393   3.8393   3.8393   3.8393
     3.9583   3.9583   3.9583   3.9584   3.9584   3.9584   3.9584   3.9584
     4.1395   4.1396   4.1396   4.1396   4.3896   4.3896   4.3897   4.3897
     4.4335   4.4335   4.4335   4.4336   4.5483   4.5483   4.5483   4.5483
     4.5592   4.5592   4.5592   4.5592   4.8680   4.8680   4.8680   4.8680
     4.8681   4.8681   4.8681   4.8681   4.9479   4.9479   4.9479   4.9479
     4.9796   4.9796   4.9797   4.9797   5.1808   5.1808   5.1808   5.1808
     5.2451   5.2451   5.2451   5.2451   5.2451   5.2451   5.2451   5.2451
     5.2527   5.2527   5.3621   5.3621   5.4747   5.4748   5.4748   5.4748
     5.4749   5.4749   5.4749   5.4750   5.5507   5.5507   5.5507   5.5507
     5.7742   5.7742   5.7743   5.7743   5.8090   5.8090   5.8090   5.8090
     5.8200   5.8201   5.8201   5.8201   5.8201   5.8201   5.8201   5.8201
     5.9593   5.9593   5.9593   5.9593   5.9593   5.9593   5.9593   5.9593
     5.9859   5.9889   6.0811

          k = 0.2500 0.0000 0.0000 (165664 PWs)   bands (ev):

   -46.5264 -46.5173 -46.5095 -46.5095 -46.5046 -46.5046 -46.5019 -46.4966
   -46.4966 -46.4880 -46.4880 -46.4845 -46.4810 -46.4810 -46.4772 -46.4772
   -46.4700 -46.4618 -46.3877 -46.3780 -46.3697 -46.3697 -46.3645 -46.3644
   -46.3617 -46.3559 -46.3558 -46.3469 -46.3468 -46.3437 -46.3398 -46.3398
   -46.3361 -46.3360 -46.3288 -46.3205 -46.1920 -46.1813 -46.1719 -46.1719
   -46.1657 -46.1657 -46.1630 -46.1555 -46.1555 -46.1452 -46.1451 -46.1427
   -46.1378 -46.1378 -46.1342 -46.1342 -46.1264 -46.1175 -46.0969 -46.0920
   -46.0877 -46.0876 -46.0863 -46.0862 -46.0829 -46.0828 -46.0826 -46.0769
   -46.0769 -46.0702 -46.0696 -46.0696 -46.0645 -46.0644 -46.0577 -46.0496
   -25.4000 -25.4000 -25.3970 -25.3955 -25.3955 -25.3892 -25.3892 -25.3873
   -25.3811 -25.3811 -25.3720 -25.3692 -25.3692 -25.3523 -25.3523 -25.3512
   -25.3425 -25.3425 -25.3269 -25.3269 -25.3243 -25.3189 -25.3189 -25.2978
   -25.2933 -25.2933 -25.2871 -25.2870 -25.2800 -25.2780 -25.2780 -25.2713
   -25.2676 -25.2675 -25.2656 -25.2656 -25.2562 -25.2502 -25.2497 -25.2438
   -25.2438 -25.2392 -25.2389 -25.2388 -25.2360 -25.2360 -25.2293 -25.2293
   -25.2228 -25.2117 -25.2113 -25.2112 -25.2100 -25.2059 -25.2059 -25.1807
   -25.1742 -25.1467 -25.1451 -25.1448 -25.1448 -25.1381 -25.1335 -25.1335
   -25.1333 -25.1333 -25.1317 -25.1298 -25.1298 -25.1067 -25.1048 -25.0864
   -25.0864 -25.0777 -25.0685 -25.0674 -25.0674 -25.0662 -25.0397 -25.0397
   -25.0372 -25.0356 -25.0356 -25.0341 -25.0341 -25.0335 -25.0228 -25.0175
   -25.0175 -25.0145 -25.0131 -25.0131 -25.0074 -25.0024 -25.0021 -25.0020
   -24.9970 -24.9970 -24.9927 -24.9927 -24.9921 -24.9913 -24.9840 -24.9840
   -24.9727 -24.9727 -24.9720 -24.9672 -24.9644 -24.9568 -24.9490 -24.9490
   -24.9452 -24.9421 -24.9421 -24.9388 -24.9388 -24.9231 -24.9231 -24.9168
   -24.9168 -24.9161 -24.9125 -24.9125 -24.9100 -24.8872 -24.8840 -24.8840
   -24.8828 -24.8828 -24.8741 -24.8682 -24.8603 -24.8599 -24.8588 -24.8588
   -24.8507 -24.8507 -24.8471 -24.8462 -24.8461 -24.8430 -24.8372 -24.8201
   -24.8201 -24.8195 -24.8157 -24.8056 -24.8041 -24.8041 -24.7873 -24.7873
   -24.7871 -24.7871 -24.7822 -24.7821 -24.7732 -24.7731 -24.7701 -24.7701
   -24.7654 -24.7626 -24.7496 -24.7496 -24.7491 -24.7432 -24.7432 -24.7416
   -24.7415 -24.7405 -24.7404 -24.7375 -24.7375 -24.7355 -24.7328 -24.7267
   -24.7181 -24.7181 -24.7114 -24.7114 -24.7043 -24.7043 -24.7019 -24.7019
   -24.7018 -24.7017 -24.7011 -24.7009 -24.7004 -24.7004 -24.6863 -24.6863
   -24.6861 -24.6861 -24.6777 -24.6710 -24.6656 -24.6656 -24.6637 -24.6534
   -24.6534 -24.6518 -24.6518 -24.6507 -24.6507 -24.6469 -24.6433 -24.6376
   -24.6376 -24.6374 -24.6180 -24.6155 -24.6114 -24.6114 -24.6106 -24.6106
   -11.8554 -11.5815 -11.3522 -11.3522 -11.2717 -11.1945 -11.1040 -11.1040
   -11.0424 -10.9653 -10.9496 -10.9321 -10.8991 -10.8635 -10.8635 -10.8626
   -10.8626 -10.8466 -10.8005 -10.7651 -10.7651 -10.7599 -10.7496 -10.6998
   -10.6998 -10.6772 -10.6772 -10.6698 -10.6697 -10.6688 -10.6413 -10.5987
   -10.5987 -10.5684 -10.5684 -10.5330 -10.4754 -10.4754 -10.4705 -10.4705
   -10.4642 -10.4642 -10.3838 -10.3739 -10.3603 -10.3603 -10.3311 -10.2848
   -10.2848 -10.2788 -10.2583 -10.2307 -10.2184 -10.2129 -10.2129 -10.1679
   -10.1679 -10.1412 -10.1411 -10.1391 -10.0680 -10.0680 -10.0444 -10.0444
   -10.0088 -10.0088  -9.9505  -9.9505  -9.9428  -9.9428  -9.8879  -9.8879
    -2.4779  -2.4778  -2.4621  -2.4620  -2.3934  -2.3933  -2.3610  -2.3610
    -2.1252  -2.1251  -2.1059  -2.1059  -1.9347  -1.9347  -1.8535  -1.8535
    -1.8049  -1.7651  -1.7650  -1.7647  -1.7646  -1.7302  -1.7275  -1.7275
    -1.6863  -1.6862  -1.6532  -1.6532  -1.6515  -1.5642  -1.5641  -1.5263
    -1.5246  -1.5012  -1.5012  -1.4900  -1.4900  -1.4286  -1.4286  -1.4216
    -1.3872  -1.3756  -1.3755  -1.3409  -1.3007  -1.2424  -1.2424  -1.1249
    -1.0996  -1.0996  -1.0841  -0.9992  -0.9917  -0.9848  -0.9848  -0.9673
    -0.9489  -0.9473  -0.9374  -0.9374  -0.7981  -0.7954  -0.6839  -0.6771
    -0.6771  -0.6568  -0.6568  -0.6441  -0.6299  -0.6298  -0.6064  -0.6064
    -0.5879  -0.5627  -0.5514  -0.5514  -0.5313  -0.5313  -0.5242  -0.5241
    -0.5145  -0.5145  -0.5103  -0.5103  -0.4971  -0.4971  -0.4822  -0.4822
    -0.4815  -0.4815  -0.4748  -0.4637  -0.4637  -0.4507  -0.4507  -0.4323
    -0.4323  -0.4302  -0.3708  -0.3708  -0.3498  -0.3375  -0.3374  -0.3358
    -0.3222  -0.3088  -0.3031  -0.3004  -0.3004  -0.2816  -0.2352  -0.2352
    -0.2072  -0.2072  -0.1900  -0.1900  -0.1691  -0.1691  -0.1664  -0.1423
    -0.1423  -0.1369  -0.1369  -0.1351  -0.1183  -0.1071  -0.1049  -0.1049
    -0.0937  -0.0937  -0.0909  -0.0909  -0.0676  -0.0676  -0.0418  -0.0372
    -0.0372   0.0026   0.0026   0.0127   0.0207   0.0207   0.0241   0.0241
     0.0309   0.0309   0.0608   0.0750   0.0869   0.0876   0.0876   0.1033
     0.1112   0.1116   0.1125   0.1125   0.1344   0.1345   0.1458   0.1458
     0.1661   0.1661   0.1972   0.1972   0.2366   0.2529   0.2610   0.2610
     0.2666   0.2930   0.3150   0.3150   0.3552   0.3552   0.3706   0.3706
     0.4194   0.4194   0.4221   0.4565   0.4565   0.5418   0.5478   0.5897
     0.6634   0.6634   0.6637   0.6838   0.7096   0.7097   0.7248   0.7336
     0.7367   0.7368   0.7614   0.7614   0.7988   0.7994   0.8034   0.8573
     0.8588   0.8663   0.9615   1.0330   1.0543   1.0605   1.0621   1.0902
     1.0917   1.0917   1.2017   1.4495   1.5796   1.6121   1.7746   1.9165
     2.4061   2.7087   2.8532   2.9188   2.9325   3.2242   3.2242   3.3259
     3.6357   3.6681   3.8286   3.8663   3.9254   4.0376   4.0377   4.0606
     4.1794   4.1795   4.1874   4.2049   4.2598   4.3187   4.3652   4.3843
     4.3843   4.4047   4.4138   4.4160   4.4161   4.4479   4.4479   4.4523
     4.4523   4.5442   4.5442   4.5673   4.6056   4.6057   4.6737   4.6760
     4.6760   4.6860   4.6860   4.6889   4.6919   4.7355   4.7355   4.8091
     4.8401   4.8401   4.8412   4.8424   4.8425   4.8705   4.8705   4.9054
     4.9533   4.9755   4.9755   5.0386   5.0493   5.0493   5.0580   5.0716
     5.1069   5.1069   5.1444   5.1583   5.1584   5.1956   5.2400   5.2400
     5.2431   5.2432   5.2443   5.2443   5.3324   5.3325   5.3663   5.3663
     5.4295   5.4902   5.5096   5.5600   5.5790   5.5790   5.5799   5.5800
     5.5932   5.6498   5.6498   5.6647   5.6648   5.7214   5.7434   5.7434
     5.7474   5.7474   5.7546   5.7587   5.7712   5.7967   5.7967   5.8103
     5.8516   5.8516   5.8526   5.8527   5.8734   5.8739   5.9121   5.9122
     5.9397   5.9398   5.9779

          k =-0.5000 0.0000 0.0000 (165810 PWs)   bands (ev):

   -46.5229 -46.5229 -46.5076 -46.5076 -46.5076 -46.5076 -46.4931 -46.4931
   -46.4922 -46.4922 -46.4922 -46.4922 -46.4786 -46.4786 -46.4786 -46.4786
   -46.4650 -46.4650 -46.3840 -46.3839 -46.3677 -46.3677 -46.3676 -46.3676
   -46.3526 -46.3526 -46.3513 -46.3512 -46.3512 -46.3512 -46.3375 -46.3375
   -46.3375 -46.3374 -46.3237 -46.3236 -46.1878 -46.1878 -46.1695 -46.1695
   -46.1695 -46.1694 -46.1527 -46.1527 -46.1501 -46.1501 -46.1501 -46.1501
   -46.1355 -46.1355 -46.1355 -46.1355 -46.1209 -46.1209 -46.0951 -46.0950
   -46.0872 -46.0872 -46.0872 -46.0871 -46.0803 -46.0802 -46.0802 -46.0801
   -46.0767 -46.0766 -46.0666 -46.0665 -46.0665 -46.0665 -46.0528 -46.0528
   -25.4007 -25.4007 -25.4007 -25.4007 -25.3931 -25.3931 -25.3841 -25.3841
   -25.3841 -25.3841 -25.3624 -25.3624 -25.3539 -25.3538 -25.3538 -25.3538
   -25.3469 -25.3469 -25.3469 -25.3469 -25.3102 -25.3102 -25.2936 -25.2936
   -25.2936 -25.2936 -25.2843 -25.2843 -25.2843 -25.2843 -25.2768 -25.2767
   -25.2702 -25.2702 -25.2701 -25.2701 -25.2482 -25.2482 -25.2477 -25.2476
   -25.2476 -25.2476 -25.2374 -25.2374 -25.2353 -25.2353 -25.2307 -25.2307
   -25.2307 -25.2307 -25.1929 -25.1929 -25.1870 -25.1870 -25.1870 -25.1870
   -25.1723 -25.1723 -25.1723 -25.1723 -25.1575 -25.1575 -25.1313 -25.1313
   -25.1216 -25.1215 -25.1077 -25.1077 -25.1077 -25.1077 -25.1068 -25.1068
   -25.0824 -25.0824 -25.0824 -25.0824 -25.0606 -25.0605 -25.0541 -25.0541
   -25.0541 -25.0541 -25.0284 -25.0284 -25.0211 -25.0211 -25.0210 -25.0210
   -25.0199 -25.0198 -25.0101 -25.0101 -25.0101 -25.0101 -24.9970 -24.9970
   -24.9952 -24.9952 -24.9952 -24.9951 -24.9938 -24.9937 -24.9790 -24.9790
   -24.9642 -24.9642 -24.9642 -24.9642 -24.9554 -24.9554 -24.9468 -24.9468
   -24.9370 -24.9370 -24.9370 -24.9370 -24.9226 -24.9226 -24.9226 -24.9226
   -24.9183 -24.9183 -24.9183 -24.9183 -24.9075 -24.9075 -24.9075 -24.9075
   -24.8738 -24.8737 -24.8699 -24.8699 -24.8626 -24.8625 -24.8593 -24.8593
   -24.8478 -24.8478 -24.8344 -24.8344 -24.8323 -24.8323 -24.8323 -24.8322
   -24.8253 -24.8253 -24.8253 -24.8252 -24.7994 -24.7994 -24.7993 -24.7993
   -24.7965 -24.7965 -24.7790 -24.7789 -24.7607 -24.7607 -24.7606 -24.7606
   -24.7501 -24.7500 -24.7493 -24.7493 -24.7416 -24.7416 -24.7416 -24.7415
   -24.7381 -24.7380 -24.7380 -24.7380 -24.7326 -24.7326 -24.7326 -24.7326
   -24.7319 -24.7318 -24.7231 -24.7231 -24.7231 -24.7231 -24.7164 -24.7164
   -24.7017 -24.7017 -24.7017 -24.7016 -24.6967 -24.6967 -24.6967 -24.6967
   -24.6738 -24.6737 -24.6737 -24.6737 -24.6576 -24.6575 -24.6546 -24.6546
   -24.6445 -24.6445 -24.6445 -24.6445 -24.6342 -24.6341 -24.6280 -24.6280
   -24.6279 -24.6279 -24.6277 -24.6277 -24.6257 -24.6257 -24.6257 -24.6257
   -11.7460 -11.7460 -11.2526 -11.2526 -11.2526 -11.2526 -11.1785 -11.1784
   -11.0352 -11.0352 -10.9320 -10.9319 -10.8873 -10.8873 -10.7866 -10.7866
   -10.7865 -10.7865 -10.7828 -10.7828 -10.7828 -10.7827 -10.7634 -10.7634
   -10.6804 -10.6804 -10.6617 -10.6617 -10.6542 -10.6542 -10.6541 -10.6541
   -10.6371 -10.6371 -10.6371 -10.6371 -10.4339 -10.4339 -10.4339 -10.4339
   -10.3979 -10.3979 -10.3979 -10.3978 -10.3368 -10.3368 -10.2825 -10.2825
   -10.2815 -10.2814 -10.2814 -10.2814 -10.2778 -10.2778 -10.1701 -10.1701
   -10.1514 -10.1514 -10.1514 -10.1514 -10.0848 -10.0848 -10.0848 -10.0848
    -9.9692  -9.9692  -9.9692  -9.9692  -9.8870  -9.8870  -9.8870  -9.8869
    -2.4991  -2.4991  -2.4991  -2.4991  -2.4765  -2.4764  -2.4764  -2.4764
    -1.9100  -1.9099  -1.9099  -1.9099  -1.8671  -1.8671  -1.8671  -1.8671
    -1.7724  -1.7724  -1.7724  -1.7724  -1.7720  -1.7720  -1.7090  -1.7090
    -1.7090  -1.7089  -1.6927  -1.6927  -1.6913  -1.6913  -1.6913  -1.6913
    -1.5751  -1.5751  -1.5750  -1.5750  -1.3681  -1.3681  -1.3635  -1.3634
    -1.3634  -1.3634  -1.2857  -1.2856  -1.2369  -1.2369  -1.1912  -1.1911
    -1.1911  -1.1911  -1.0865  -1.0865  -1.0197  -1.0197  -0.9826  -0.9825
    -0.7942  -0.7942  -0.7942  -0.7942  -0.7659  -0.7658  -0.7658  -0.7658
    -0.7253  -0.7253  -0.6623  -0.6623  -0.6438  -0.6437  -0.6250  -0.6250
    -0.6181  -0.6181  -0.6181  -0.6181  -0.6050  -0.6050  -0.6050  -0.6049
    -0.5366  -0.5366  -0.5365  -0.5365  -0.5289  -0.5289  -0.5289  -0.5289
    -0.4876  -0.4876  -0.4876  -0.4876  -0.4465  -0.4465  -0.4465  -0.4465
    -0.3850  -0.3850  -0.3385  -0.3385  -0.3230  -0.3230  -0.3229  -0.3229
    -0.3026  -0.3026  -0.3026  -0.3025  -0.2931  -0.2930  -0.2676  -0.2676
    -0.2676  -0.2675  -0.2160  -0.2160  -0.2159  -0.2159  -0.1749  -0.1749
    -0.1260  -0.1260  -0.1260  -0.1260  -0.0977  -0.0977  -0.0919  -0.0919
    -0.0919  -0.0919  -0.0883  -0.0883  -0.0883  -0.0883  -0.0205  -0.0204
    -0.0204  -0.0204   0.0511   0.0511   0.0511   0.0511   0.0780   0.0780
     0.0864   0.0865   0.0865   0.0865   0.1054   0.1055   0.1055   0.1055
     0.1120   0.1120   0.1361   0.1361   0.1361   0.1361   0.1413   0.1413
     0.2600   0.2600   0.2600   0.2600   0.3289   0.3289   0.3776   0.3776
     0.4314   0.4315   0.4682   0.4682   0.4682   0.4682   0.4835   0.4836
     0.5107   0.5107   0.5107   0.5107   0.5839   0.5839   0.5839   0.5839
     0.6179   0.6179   0.6180   0.6180   0.6253   0.6254   0.6773   0.6774
     0.6844   0.6844   0.7491   0.7492   0.7565   0.7566   0.7566   0.7566
     0.7986   0.7986   0.8469   0.8469   0.9373   0.9374   1.1016   1.1016
     1.1583   1.1583   1.1885   1.1885   1.3297   1.3297   1.6900   1.6900
     2.7876   2.7876   2.9774   2.9774   3.2761   3.2761   3.4471   3.4471
     3.5628   3.5628   3.5628   3.5629   3.5867   3.5867   4.0224   4.0224
     4.0889   4.0889   4.2651   4.2651   4.3425   4.3425   4.3425   4.3425
     4.3895   4.3895   4.3895   4.3896   4.4442   4.4443   4.4874   4.4875
     4.5270   4.5270   4.5270   4.5270   4.5660   4.5660   4.5660   4.5660
     4.6716   4.6716   4.6761   4.6761   4.7937   4.7937   4.7938   4.7938
     4.8121   4.8121   4.8121   4.8122   4.8659   4.8659   4.8776   4.8776
     4.8776   4.8776   4.9393   4.9393   5.0016   5.0016   5.0016   5.0017
     5.1344   5.1344   5.1344   5.1344   5.2079   5.2080   5.2675   5.2675
     5.2676   5.2676   5.3365   5.3365   5.3365   5.3365   5.3458   5.3458
     5.3697   5.3698   5.4999   5.4999   5.4999   5.4999   5.6573   5.6573
     5.7135   5.7136   5.7248   5.7248   5.7248   5.7248   5.7484   5.7484
     5.7485   5.7485   5.8419   5.8420   5.8420   5.8420   5.8588   5.8589
     5.8928   5.8928   5.8929   5.8929   5.9132   5.9132   5.9139   5.9149
     5.9149   5.9273   5.9910

          k =-0.5000 0.2500 0.0000 (165780 PWs)   bands (ev):

   -46.5218 -46.5218 -46.5139 -46.5139 -46.5004 -46.5004 -46.4931 -46.4930
   -46.4925 -46.4925 -46.4920 -46.4920 -46.4854 -46.4854 -46.4729 -46.4729
   -46.4659 -46.4659 -46.3828 -46.3828 -46.3743 -46.3743 -46.3601 -46.3600
   -46.3525 -46.3525 -46.3517 -46.3517 -46.3509 -46.3509 -46.3445 -46.3444
   -46.3317 -46.3316 -46.3246 -46.3246 -46.1866 -46.1866 -46.1770 -46.1770
   -46.1609 -46.1609 -46.1525 -46.1525 -46.1510 -46.1510 -46.1494 -46.1494
   -46.1432 -46.1432 -46.1292 -46.1292 -46.1218 -46.1218 -46.0946 -46.0945
   -46.0906 -46.0906 -46.0829 -46.0828 -46.0811 -46.0810 -46.0790 -46.0789
   -46.0770 -46.0769 -46.0723 -46.0722 -46.0612 -46.0611 -46.0538 -46.0538
   -25.4110 -25.4110 -25.3923 -25.3923 -25.3874 -25.3873 -25.3871 -25.3871
   -25.3801 -25.3801 -25.3718 -25.3718 -25.3656 -25.3656 -25.3655 -25.3655
   -25.3396 -25.3396 -25.3142 -25.3142 -25.3089 -25.3089 -25.3074 -25.3074
   -25.2835 -25.2835 -25.2780 -25.2780 -25.2763 -25.2763 -25.2748 -25.2748
   -25.2728 -25.2727 -25.2685 -25.2685 -25.2593 -25.2593 -25.2534 -25.2534
   -25.2531 -25.2531 -25.2529 -25.2529 -25.2341 -25.2341 -25.2229 -25.2229
   -25.2083 -25.2083 -25.1995 -25.1995 -25.1966 -25.1966 -25.1947 -25.1947
   -25.1712 -25.1712 -25.1648 -25.1648 -25.1484 -25.1484 -25.1436 -25.1436
   -25.1432 -25.1432 -25.1195 -25.1195 -25.1004 -25.1004 -25.0959 -25.0959
   -25.0707 -25.0707 -25.0692 -25.0692 -25.0649 -25.0649 -25.0529 -25.0529
   -25.0466 -25.0466 -25.0401 -25.0401 -25.0375 -25.0374 -25.0227 -25.0227
   -25.0202 -25.0202 -25.0072 -25.0072 -25.0001 -25.0001 -24.9953 -24.9953
   -24.9898 -24.9898 -24.9838 -24.9838 -24.9836 -24.9836 -24.9828 -24.9828
   -24.9720 -24.9719 -24.9681 -24.9681 -24.9557 -24.9557 -24.9529 -24.9529
   -24.9466 -24.9466 -24.9456 -24.9456 -24.9412 -24.9412 -24.9287 -24.9287
   -24.9055 -24.9055 -24.9047 -24.9047 -24.8959 -24.8959 -24.8925 -24.8925
   -24.8840 -24.8840 -24.8711 -24.8711 -24.8670 -24.8670 -24.8518 -24.8518
   -24.8445 -24.8445 -24.8374 -24.8374 -24.8340 -24.8340 -24.8285 -24.8285
   -24.8229 -24.8229 -24.8213 -24.8213 -24.8061 -24.8061 -24.8022 -24.8022
   -24.7919 -24.7919 -24.7856 -24.7856 -24.7767 -24.7767 -24.7636 -24.7635
   -24.7534 -24.7534 -24.7462 -24.7462 -24.7455 -24.7455 -24.7443 -24.7443
   -24.7353 -24.7353 -24.7350 -24.7350 -24.7313 -24.7313 -24.7296 -24.7296
   -24.7258 -24.7258 -24.7215 -24.7215 -24.7183 -24.7183 -24.7107 -24.7107
   -24.7103 -24.7103 -24.7033 -24.7033 -24.6822 -24.6821 -24.6807 -24.6807
   -24.6721 -24.6721 -24.6684 -24.6684 -24.6626 -24.6626 -24.6588 -24.6588
   -24.6526 -24.6526 -24.6501 -24.6501 -24.6471 -24.6471 -24.6460 -24.6460
   -24.6448 -24.6448 -24.6146 -24.6146 -24.6135 -24.6135 -24.6120 -24.6120
   -11.7086 -11.7086 -11.4415 -11.4415 -11.1466 -11.1465 -11.0665 -11.0665
   -11.0037 -11.0037 -10.9260 -10.9259 -10.9077 -10.9077 -10.8733 -10.8732
   -10.8196 -10.8196 -10.8019 -10.8018 -10.7840 -10.7840 -10.7457 -10.7456
   -10.7344 -10.7344 -10.6618 -10.6618 -10.6573 -10.6573 -10.6314 -10.6313
   -10.5950 -10.5949 -10.5332 -10.5332 -10.5105 -10.5105 -10.5055 -10.5055
   -10.4207 -10.4207 -10.3959 -10.3959 -10.3177 -10.3177 -10.2725 -10.2724
   -10.2639 -10.2639 -10.2523 -10.2523 -10.2024 -10.2024 -10.1579 -10.1579
   -10.1464 -10.1464 -10.1455 -10.1455 -10.1396 -10.1396 -10.0786 -10.0786
   -10.0549 -10.0549  -9.9830  -9.9830  -9.8823  -9.8823  -9.8173  -9.8173
    -2.6732  -2.6732  -2.6575  -2.6575  -2.2580  -2.2580  -2.2236  -2.2236
    -2.0250  -2.0250  -1.9825  -1.9825  -1.9478  -1.9478  -1.8912  -1.8912
    -1.8747  -1.8747  -1.8366  -1.8366  -1.8118  -1.8118  -1.7657  -1.7657
    -1.6945  -1.6945  -1.6534  -1.6534  -1.5444  -1.5444  -1.5208  -1.5208
    -1.4861  -1.4861  -1.4410  -1.4410  -1.3845  -1.3845  -1.3289  -1.3289
    -1.3135  -1.3135  -1.2668  -1.2667  -1.2359  -1.2359  -1.1984  -1.1984
    -1.1928  -1.1928  -1.1336  -1.1336  -1.1063  -1.1063  -1.0497  -1.0496
    -1.0453  -1.0452  -0.9777  -0.9777  -0.9286  -0.9286  -0.8499  -0.8499
    -0.6726  -0.6725  -0.6468  -0.6468  -0.6039  -0.6039  -0.5886  -0.5886
    -0.5393  -0.5393  -0.5353  -0.5353  -0.5347  -0.5347  -0.5319  -0.5319
    -0.5254  -0.5254  -0.5188  -0.5188  -0.5044  -0.5044  -0.5042  -0.5042
    -0.4747  -0.4746  -0.4730  -0.4730  -0.4427  -0.4427  -0.4426  -0.4426
    -0.4064  -0.4064  -0.3881  -0.3881  -0.3648  -0.3647  -0.3635  -0.3635
    -0.3573  -0.3573  -0.3378  -0.3378  -0.3260  -0.3260  -0.2743  -0.2743
    -0.2245  -0.2245  -0.2118  -0.2118  -0.2002  -0.2002  -0.1772  -0.1772
    -0.1456  -0.1456  -0.1446  -0.1446  -0.1049  -0.1049  -0.0700  -0.0700
    -0.0092  -0.0092  -0.0018  -0.0018   0.0091   0.0091   0.0149   0.0149
     0.0468   0.0468   0.0672   0.0672   0.0913   0.0913   0.0951   0.0951
     0.1151   0.1152   0.1234   0.1234   0.1500   0.1501   0.1655   0.1655
     0.1724   0.1724   0.1749   0.1750   0.1965   0.1965   0.1970   0.1970
     0.3111   0.3111   0.3140   0.3140   0.3181   0.3182   0.3581   0.3581
     0.3602   0.3603   0.3709   0.3709   0.4686   0.4686   0.5177   0.5177
     0.5231   0.5232   0.5398   0.5398   0.5499   0.5499   0.5594   0.5594
     0.5772   0.5772   0.6124   0.6124   0.6413   0.6414   0.6549   0.6549
     0.6847   0.6847   0.7049   0.7049   0.7549   0.7549   0.7958   0.7958
     0.8152   0.8153   0.8484   0.8484   0.9554   0.9554   1.0085   1.0085
     1.0450   1.0450   1.0789   1.0789   1.2800   1.2800   1.5309   1.5309
     2.9401   2.9401   3.0848   3.0848   3.2879   3.2879   3.4231   3.4231
     3.5402   3.5402   3.6839   3.6840   3.7455   3.7456   3.8541   3.8541
     3.9339   3.9339   4.0510   4.0510   4.1677   4.1678   4.1774   4.1774
     4.2856   4.2856   4.3126   4.3126   4.3371   4.3372   4.3566   4.3566
     4.4074   4.4074   4.4407   4.4407   4.5035   4.5035   4.6467   4.6467
     4.7315   4.7315   4.7380   4.7380   4.7533   4.7533   4.7890   4.7890
     4.8318   4.8318   4.8372   4.8372   4.8886   4.8886   4.9504   4.9504
     4.9834   4.9834   5.0498   5.0498   5.1160   5.1160   5.1395   5.1396
     5.1819   5.1819   5.1838   5.1838   5.2262   5.2263   5.2808   5.2808
     5.3065   5.3065   5.3292   5.3292   5.3960   5.3961   5.3979   5.3979
     5.4895   5.4895   5.4902   5.4902   5.4948   5.4948   5.5354   5.5354
     5.6091   5.6092   5.6636   5.6636   5.6742   5.6742   5.7343   5.7343
     5.8039   5.8039   5.8142   5.8142   5.8566   5.8566   5.8627   5.8627
     5.8862   5.8862   5.9292   5.9292   5.9368   5.9368   5.9371   5.9371
     5.9586   5.9586   6.0009

     the Fermi energy is     2.0432 ev

!    total energy              =   -8262.71789531 Ry
     estimated scf accuracy    <       0.00000002 Ry
     smearing contrib. (-TS)   =       0.00526428 Ry
     internal energy E=F+TS    =   -8262.72315960 Ry

     The total energy is F=E-TS. E is the sum of the following terms:
     one-electron contribution = -100516.50150140 Ry
     hartree contribution      =   50382.75655668 Ry
     xc contribution           =   -1356.19376010 Ry
     ewald contribution        =   43230.05248230 Ry
     DFT-D3 Dispersion         =      -2.83693708 Ry

     convergence has been achieved in   7 iterations

     negative rho (up, down):  7.674E-03 0.000E+00

     Forces acting on atoms (cartesian axes, Ry/au):

     atom    1 type  1   force =    -0.00000018   -0.00000002    0.01775399
     atom    2 type  1   force =    -0.00000339    0.00000290   -0.00583482
     atom    3 type  1   force =    -0.00000446   -0.00000294   -0.00583490
     atom    4 type  1   force =    -0.00000012    0.00000054    0.01775331
     atom    5 type  1   force =    -0.00000129   -0.00001297   -0.00010303
     atom    6 type  1   force =    -0.00000122    0.00000222   -0.00052817
     atom    7 type  1   force =     0.00000151    0.00000447   -0.00054974
     atom    8 type  1   force =     0.00000973   -0.00000106   -0.00010700
     atom    9 type  1   force =    -0.00000046    0.00000023    0.01775322
     atom   10 type  1   force =     0.00000171   -0.00000176   -0.00583510
     atom   11 type  1   force =     0.00000106    0.00000030   -0.00583462
     atom   12 type  1   force =    -0.00000047   -0.00000073    0.01775250
     atom   13 type  1   force =    -0.00000178    0.00001108   -0.00010126
     atom   14 type  1   force =    -0.00000451   -0.00000082   -0.00052316
     atom   15 type  1   force =     0.00000011   -0.00000290   -0.00052417
     atom   16 type  1   force =     0.00000097   -0.00000048   -0.00010015
     atom   17 type  1   force =     0.00000000   -0.00000022    0.01775354
     atom   18 type  1   force =    -0.00000016   -0.00000110   -0.00583440
     atom   19 type  1   force =     0.00000085    0.00000270   -0.00583354
     atom   20 type  1   force =    -0.00000018    0.00000018    0.01775205
     atom   21 type  1   force =     0.00000043    0.00000189   -0.00009936
     atom   22 type  1   force =     0.00000087   -0.00000135   -0.00053519
     atom   23 type  1   force =     0.00000121   -0.00000212   -0.00052880
     atom   24 type  1   force =     0.00000262    0.00000152   -0.00009681
     atom   25 type  1   force =     0.00000000    0.00000011    0.01775199
     atom   26 type  1   force =     0.00000339    0.00000290   -0.00583482
     atom   27 type  1   force =     0.00000000    0.00000213   -0.00583232
     atom   28 type  1   force =     0.00000012    0.00000054    0.01775331
     atom   29 type  1   force =     0.00000000   -0.00000340   -0.00009406
     atom   30 type  1   force =     0.00000122    0.00000222   -0.00052817
     atom   31 type  1   force =     0.00000000    0.00000172   -0.00052534
     atom   32 type  1   force =    -0.00000973   -0.00000106   -0.00010700
     atom   33 type  1   force =     0.00000000   -0.00000013    0.01775374
     atom   34 type  1   force =    -0.00000171   -0.00000176   -0.00583510
     atom   35 type  1   force =     0.00000000   -0.00000046   -0.00583358
     atom   36 type  1   force =     0.00000047   -0.00000073    0.01775250
     atom   37 type  1   force =     0.00000000    0.00000182   -0.00009925
     atom   38 type  1   force =     0.00000451   -0.00000082   -0.00052316
     atom   39 type  1   force =     0.00000000   -0.00000049   -0.00054113
     atom   40 type  1   force =    -0.00000097   -0.00000048   -0.00010015
     atom   41 type  1   force =     0.00000000    0.00000003    0.01775315
     atom   42 type  1   force =     0.00000016   -0.00000110   -0.00583440
     atom   43 type  1   force =     0.00000000   -0.00000166   -0.00583273
     atom   44 type  1   force =     0.00000018    0.00000018    0.01775205
     atom   45 type  1   force =     0.00000000    0.00000168   -0.00009950
     atom   46 type  1   force =    -0.00000087   -0.00000135   -0.00053519
     atom   47 type  1   force =     0.00000000   -0.00000121   -0.00053433
     atom   48 type  1   force =    -0.00000262    0.00000152   -0.00009681
     atom   49 type  1   force =     0.00000018   -0.00000002    0.01775399
     atom   50 type  1   force =     0.00000000    0.00000707   -0.00583470
     atom   51 type  1   force =     0.00000446   -0.00000294   -0.00583490
     atom   52 type  1   force =     0.00000000    0.00000085    0.01775517
     atom   53 type  1   force =     0.00000129   -0.00001297   -0.00010303
     atom   54 type  1   force =     0.00000000    0.00000469   -0.00052174
     atom   55 type  1   force =    -0.00000151    0.00000447   -0.00054974
     atom   56 type  1   force =     0.00000000    0.00000146   -0.00011819
     atom   57 type  1   force =     0.00000046    0.00000023    0.01775322
     atom   58 type  1   force =     0.00000000   -0.00000618   -0.00583480
     atom   59 type  1   force =    -0.00000106    0.00000030   -0.00583462
     atom   60 type  1   force =     0.00000000   -0.00000123    0.01775202
     atom   61 type  1   force =     0.00000178    0.00001108   -0.00010126
     atom   62 type  1   force =     0.00000000   -0.00000244   -0.00050539
     atom   63 type  1   force =    -0.00000011   -0.00000290   -0.00052417
     atom   64 type  1   force =     0.00000000   -0.00000512   -0.00009880
     atom   65 type  1   force =    -0.00000000   -0.00000022    0.01775354
     atom   66 type  1   force =     0.00000000   -0.00000080   -0.00583799
     atom   67 type  1   force =    -0.00000085    0.00000270   -0.00583354
     atom   68 type  1   force =     0.00000000    0.00000037    0.01775113
     atom   69 type  1   force =    -0.00000043    0.00000189   -0.00009936
     atom   70 type  1   force =     0.00000000   -0.00000261   -0.00054296
     atom   71 type  1   force =    -0.00000121   -0.00000212   -0.00052880
     atom   72 type  1   force =     0.00000000    0.00000365   -0.00009032
     atom   73 type  2   force =     0.00000037   -0.00000029    0.00102845
     atom   74 type  2   force =     0.00000047   -0.00000045    0.00102648
     atom   75 type  2   force =     0.00000002    0.00000152   -0.01271600
     atom   76 type  2   force =    -0.00000265   -0.00000055   -0.01271140
     atom   77 type  2   force =     0.00000510    0.00000981   -0.00010282
     atom   78 type  2   force =     0.00000381   -0.00000330   -0.00008488
     atom   79 type  2   force =     0.00000222   -0.00000856    0.00048458
     atom   80 type  2   force =     0.00000999   -0.00000238    0.00047895
     atom   81 type  2   force =     0.00000008    0.00000043    0.00102586
     atom   82 type  2   force =     0.00000030    0.00000025    0.00102472
     atom   83 type  2   force =     0.00000263   -0.00000302   -0.01272464
     atom   84 type  2   force =     0.00000119    0.00000103   -0.01271330
     atom   85 type  2   force =     0.00000291   -0.00001041   -0.00008654
     atom   86 type  2   force =    -0.00000782    0.00000048   -0.00008394
     atom   87 type  2   force =     0.00000229    0.00000809    0.00053756
     atom   88 type  2   force =     0.00000475    0.00000424    0.00048097
     atom   89 type  2   force =    -0.00000004   -0.00000015    0.00102571
     atom   90 type  2   force =     0.00000015    0.00000021    0.00102728
     atom   91 type  2   force =    -0.00000044    0.00000150   -0.01271724
     atom   92 type  2   force =     0.00000008   -0.00000048   -0.01271535
     atom   93 type  2   force =     0.00000133    0.00000062   -0.00008612
     atom   94 type  2   force =     0.00000255    0.00000275   -0.00008906
     atom   95 type  2   force =     0.00000263    0.00000111    0.00048475
     atom   96 type  2   force =     0.00000181   -0.00000201    0.00049182
     atom   97 type  2   force =     0.00000000   -0.00000046    0.00102709
     atom   98 type  2   force =    -0.00000047   -0.00000045    0.00102648
     atom   99 type  2   force =     0.00000000    0.00000038   -0.01271703
     atom  100 type  2   force =     0.00000265   -0.00000055   -0.01271140
     atom  101 type  2   force =     0.00000000   -0.00000183   -0.00008570
     atom  102 type  2   force =    -0.00000381   -0.00000330   -0.00008488
     atom  103 type  2   force =     0.00000000   -0.00000345    0.00049726
     atom  104 type  2   force =    -0.00000999   -0.00000238    0.00047895
     atom  105 type  2   force =     0.00000000    0.00000039    0.00102781
     atom  106 type  2   force =    -0.00000030    0.00000025    0.00102472
     atom  107 type  2   force =     0.00000000    0.00000053   -0.01271882
     atom  108 type  2   force =    -0.00000119    0.00000103   -0.01271330
     atom  109 type  2   force =     0.00000000    0.00000243   -0.00009310
     atom  110 type  2   force =     0.00000782    0.00000048   -0.00008394
     atom  111 type  2   force =     0.00000000    0.00000290    0.00048312
     atom  112 type  2   force =    -0.00000475    0.00000424    0.00048097
     atom  113 type  2   force =     0.00000000    0.00000006    0.00102638
     atom  114 type  2   force =    -0.00000015    0.00000021    0.00102728
     atom  115 type  2   force =     0.00000000   -0.00000095   -0.01271466
     atom  116 type  2   force =    -0.00000008   -0.00000048   -0.01271535
     atom  117 type  2   force =     0.00000000   -0.00000061   -0.00008903
     atom  118 type  2   force =    -0.00000255    0.00000275   -0.00008906
     atom  119 type  2   force =     0.00000000    0.00000063    0.00049484
     atom  120 type  2   force =    -0.00000181   -0.00000201    0.00049182
     atom  121 type  2   force =    -0.00000037   -0.00000029    0.00102845
     atom  122 type  2   force =     0.00000000   -0.00000100    0.00102617
     atom  123 type  2   force =    -0.00000002    0.00000152   -0.01271600
     atom  124 type  2   force =     0.00000000   -0.00000184   -0.01270933
     atom  125 type  2   force =    -0.00000510    0.00000981   -0.00010282
     atom  126 type  2   force =     0.00000000   -0.00000951   -0.00008083
     atom  127 type  2   force =    -0.00000222   -0.00000856    0.00048458
     atom  128 type  2   force =     0.00000000   -0.00000473    0.00045594
     atom  129 type  2   force =    -0.00000008    0.00000043    0.00102586
     atom  130 type  2   force =     0.00000000    0.00000064    0.00102298
     atom  131 type  2   force =    -0.00000263   -0.00000302   -0.01272464
     atom  132 type  2   force =     0.00000000    0.00000250   -0.01271570
     atom  133 type  2   force =    -0.00000291   -0.00001041   -0.00008654
     atom  134 type  2   force =     0.00000000    0.00000514   -0.00007502
     atom  135 type  2   force =    -0.00000229    0.00000809    0.00053756
     atom  136 type  2   force =     0.00000000    0.00000670    0.00047611
     atom  137 type  2   force =     0.00000004   -0.00000015    0.00102571
     atom  138 type  2   force =     0.00000000    0.00000034    0.00102783
     atom  139 type  2   force =     0.00000044    0.00000150   -0.01271724
     atom  140 type  2   force =     0.00000000   -0.00000067   -0.01271665
     atom  141 type  2   force =    -0.00000133    0.00000062   -0.00008612
     atom  142 type  2   force =     0.00000000    0.00000432   -0.00009148
     atom  143 type  2   force =    -0.00000263    0.00000111    0.00048475
     atom  144 type  2   force =     0.00000000   -0.00000176    0.00050131

     Total force =     0.003119     Total SCF correction =     0.000538
     SCF correction compared to forces is large: reduce conv_thr to get better values
     Energy error            =      3.8E-05 Ry
     Gradient error          =      5.5E-04 Ry/Bohr

     bfgs converged in  11 scf cycles and  10 bfgs steps
     (criteria: energy <  1.0E-04 Ry, force <  7.8E-04 Ry/Bohr)

     End of BFGS Geometry Optimization

     Final energy             =   -8262.7178953110 Ry

     File ./tmp/ScN_slab.bfgs deleted, as requested
Begin final coordinates

ATOMIC_POSITIONS (angstrom)
Sc               0.0000000000        0.0000000000       10.0000000000    0   0   0
Sc               2.2382160900        0.0000000000       12.2382160900    0   0   0
Sc               0.0000000000        2.2382160900       12.2382160900    0   0   0
Sc               2.2382160900        2.2382160900       10.0000000000    0   0   0
Sc              -0.0000043939        0.0000394314       14.4785208909
Sc               2.2382148717       -0.0000024804       16.6643638467
Sc              -0.0000127436        2.2382119581       16.6644619240
Sc               2.2381901641        2.2382139940       14.4785314195
Sc               0.0000000000        4.4764321800       10.0000000000    0   0   0
Sc               2.2382160900        4.4764321800       12.2382160900    0   0   0
Sc               0.0000000000        6.7146482700       12.2382160900    0   0   0
Sc               2.2382160900        6.7146482700       10.0000000000    0   0   0
Sc               0.0000054135        4.4763954761       14.4784867045
Sc               2.2382216199        4.4764320992       16.6643488964
Sc              -0.0000078649        6.7146442448       16.6643235407
Sc               2.2382190607        6.7146525539       14.4785092889
Sc               0.0000000000        8.9528643500       10.0000000000    0   0   0
Sc               2.2382160900        8.9528643500       12.2382160900    0   0   0
Sc               0.0000000000       11.1910804400       12.2382160900    0   0   0
Sc               2.2382160900       11.1910804400       10.0000000000    0   0   0
Sc              -0.0000050840        8.9528620326       14.4785074954
Sc               2.2382027549        8.9528681116       16.6643919468
Sc              -0.0000076854       11.1910923594       16.6643383409
Sc               2.2382067066       11.1910778507       14.4784971620
Sc               4.4764321800        0.0000000000       10.0000000000    0   0   0
Sc               6.7146482700        0.0000000000       12.2382160900    0   0   0
Sc               4.4764321800        2.2382160900       12.2382160900    0   0   0
Sc               6.7146482700        2.2382160900       10.0000000000    0   0   0
Sc               4.4764348900        0.0000142222       14.4784907553
Sc               6.7146485683       -0.0000021704       16.6643807467
Sc               4.4764323100        2.2382145844       16.6643710067
Sc               6.7146725559        2.2382098640       14.4785313295
Sc               4.4764321800        4.4764321800       10.0000000000    0   0   0
Sc               6.7146482700        4.4764321800       12.2382160900    0   0   0
Sc               4.4764321800        6.7146482700       12.2382160900    0   0   0
Sc               6.7146482700        6.7146482700       10.0000000000    0   0   0
Sc               4.4764301000        4.4764253634       14.4785011856
Sc               6.7146449301        4.4764310792       16.6643251364
Sc               4.4764311400        6.7146432688       16.6644122125
Sc               6.7146460693        6.7146553739       14.4785062489
Sc               4.4764321800        8.9528643500       10.0000000000    0   0   0
Sc               6.7146482700        8.9528643500       12.2382160900    0   0   0
Sc               4.4764321800       11.1910804400       12.2382160900    0   0   0
Sc               6.7146482700       11.1910804400       10.0000000000    0   0   0
Sc               4.4764324400        8.9528567864       14.4785194567
Sc               6.7146600851        8.9528671516       16.6643924468
Sc               4.4764327100       11.1910871175       16.6643619447
Sc               6.7146587034       11.1910800407       14.4784995720
Sc               8.9528643500        0.0000000000       10.0000000000    0   0   0
Sc              11.1910804400        0.0000000000       12.2382160900    0   0   0
Sc               8.9528643500        2.2382160900       12.2382160900    0   0   0
Sc              11.1910804400        2.2382160900       10.0000000000    0   0   0
Sc               8.9528654939        0.0000372114       14.4785219509
Sc              11.1910813800       -0.0000132682       16.6643769899
Sc               8.9528776836        2.2382108881       16.6644574840
Sc              11.1910805600        2.2381982065       14.4785584450
Sc               8.9528643500        4.4764321800       10.0000000000    0   0   0
Sc              11.1910804400        4.4764321800       12.2382160900    0   0   0
Sc               8.9528643500        6.7146482700       12.2382160900    0   0   0
Sc              11.1910804400        6.7146482700       10.0000000000    0   0   0
Sc               8.9528622565        4.4763964961       14.4784847545
Sc              11.1910818400        4.4764427707       16.6642660299
Sc               8.9528717649        6.7146425648       16.6643375907
Sc              11.1910808600        6.7146715680       14.4784828072
Sc               8.9528643500        8.9528643500       10.0000000000    0   0   0
Sc              11.1910804400        8.9528643500       12.2382160900    0   0   0
Sc               8.9528643500       11.1910804400       12.2382160900    0   0   0
Sc              11.1910804400       11.1910804400       10.0000000000    0   0   0
Sc               8.9528692040        8.9528630526       14.4785075454
Sc              11.1910806400        8.9528686371       16.6644101951
Sc               8.9528730054       11.1910912994       16.6643701809
Sc              11.1910796900       11.1910753654       14.4784796902
N                0.0000000000        2.2382160900       10.0000000000    0   0   0
N                2.2382160900        0.0000000000       10.0000000000    0   0   0
N                0.0000000000        0.0000000000       12.2382160900    0   0   0
N                2.2382160900        2.2382160900       12.2382160900    0   0   0
N               -0.0000169331        2.2381794984       14.4871887579
N                2.2382035508        0.0000174351       14.4871344823
N               -0.0000104927        0.0000131995       16.6772924658
N                2.2381895349        2.2382237026       16.6773155196
N                0.0000000000        6.7146482700       10.0000000000    0   0   0
N                2.2382160900        4.4764321800       10.0000000000    0   0   0
N                0.0000000000        4.4764321800       12.2382160900    0   0   0
N                2.2382160900        6.7146482700       12.2382160900    0   0   0
N               -0.0000069128        6.7146830940       14.4871192480
N                2.2382397349        4.4764253868       14.4871172829
N               -0.0000066815        4.4764150397       16.6770559315
N                2.2381990523        6.7146316801       16.6773000861
N                0.0000000000       11.1910804400       10.0000000000    0   0   0
N                2.2382160900        8.9528643500       10.0000000000    0   0   0
N                0.0000000000        8.9528643500       12.2382160900    0   0   0
N                2.2382160900       11.1910804400       12.2382160900    0   0   0
N               -0.0000049515       11.1910825453       14.4871286651
N                2.2382090562        8.9528548547       14.4871506642
N               -0.0000120916        8.9528659751       16.6772915100
N                2.2382091718       11.1910888460       16.6772331433
N                4.4764321800        2.2382160900       10.0000000000    0   0   0
N                6.7146482700        0.0000000000       10.0000000000    0   0   0
N                4.4764321800        0.0000000000       12.2382160900    0   0   0
N                6.7146482700        2.2382160900       12.2382160900    0   0   0
N                4.4764324400        2.2382162581       14.4871442489
N                6.7146624892        0.0000155351       14.4871380023
N                4.4764319700        0.0000100039       16.6772232957
N                6.7146740151        2.2382225826       16.6773141596
N                4.4764321800        6.7146482700       10.0000000000    0   0   0
N                6.7146482700        4.4764321800       10.0000000000    0   0   0
N                4.4764321800        4.4764321800       12.2382160900    0   0   0
N                6.7146482700        6.7146482700       12.2382160900    0   0   0
N                4.4764310300        6.7146466034       14.4871647142
N                6.7146238651        4.4764234268       14.4871157029
N                4.4764316100        4.4764229890       16.6772643633
N                6.7146662977        6.7146322201       16.6772802661
N                4.4764321800       11.1910804400       10.0000000000    0   0   0
N                6.7146482700        8.9528643500       10.0000000000    0   0   0
N                4.4764321800        8.9528643500       12.2382160900    0   0   0
N                6.7146482700       11.1910804400       12.2382160900    0   0   0
N                4.4764330700       11.1910819870       14.4871367827
N                6.7146549638        8.9528572447       14.4871505942
N                4.4764329900        8.9528629357       16.6772562236
N                6.7146550882       11.1910902360       16.6772585633
N                8.9528643500        2.2382160900       10.0000000000    0   0   0
N               11.1910804400        0.0000000000       10.0000000000    0   0   0
N                8.9528643500        0.0000000000       12.2382160900    0   0   0
N               11.1910804400        2.2382160900       12.2382160900    0   0   0
N                8.9528819731        2.2381785484       14.4871894079
N               11.1910809200        0.0000347533       14.4871358092
N                8.9528737727        0.0000125895       16.6772788658
N               11.1910794100        2.2382324592       16.6774067481
N                8.9528643500        6.7146482700       10.0000000000    0   0   0
N               11.1910804400        4.4764321800       10.0000000000    0   0   0
N                8.9528643500        4.4764321800       12.2382160900    0   0   0
N               11.1910804400        6.7146482700       12.2382160900    0   0   0
N                8.9528718928        6.7146828640       14.4871195880
N               11.1910789200        4.4764086850       14.4870756321
N                8.9528709415        4.4764161097       16.6770554715
N               11.1910803400        6.7146219661       16.6772825720
N                8.9528643500       11.1910804400       10.0000000000    0   0   0
N               11.1910804400        8.9528643500       10.0000000000    0   0   0
N                8.9528643500        8.9528643500       12.2382160900    0   0   0
N               11.1910804400       11.1910804400       12.2382160900    0   0   0
N                8.9528685015       11.1910835053       14.4871300051
N               11.1910809700        8.9528534082       14.4871507611
N                8.9528768216        8.9528651351       16.6772631300
N               11.1910796900       11.1910888157       16.6772100594
End final coordinates



     Writing all to output data dir ./tmp/ScN_slab.save/ :
     XML data file, charge density, pseudopotentials, collected wavefunctions

     init_run     :     70.40s CPU     72.46s WALL (       1 calls)
     electrons    :  13626.84s CPU  14005.43s WALL (      11 calls)
     update_pot   :     10.21s CPU     10.92s WALL (      10 calls)
     forces       :    406.82s CPU    412.81s WALL (      11 calls)
     force_dftd3  :      3.13s CPU      3.24s WALL (      11 calls)

     Called by init_run:
     wfcinit      :     64.19s CPU     66.02s WALL (       1 calls)
     potinit      :      1.59s CPU      1.67s WALL (       1 calls)
     hinit0       :      1.40s CPU      1.44s WALL (       1 calls)

     Called by electrons:
     c_bands      :  12280.94s CPU  12585.99s WALL (      96 calls)
     sum_band     :   1205.66s CPU   1261.79s WALL (      96 calls)
     v_of_rho     :     67.62s CPU     73.11s WALL (     101 calls)
     newd         :     66.05s CPU     72.56s WALL (     101 calls)
     mix_rho      :      4.41s CPU      4.88s WALL (      96 calls)
     energy_dftd3 :      0.90s CPU      0.91s WALL (      11 calls)

     Called by c_bands:
     init_us_2    :     42.53s CPU     42.96s WALL (     612 calls)
     cegterg      :  11895.78s CPU  12198.21s WALL (     290 calls)

     Called by *egterg:
     cdiaghg      :    386.38s CPU    400.98s WALL (    1536 calls)
     h_psi        :   4966.19s CPU   5183.84s WALL (    1587 calls)
     s_psi        :   1628.42s CPU   1639.65s WALL (    1587 calls)
     g_psi        :      6.42s CPU      6.49s WALL (    1294 calls)

     Called by h_psi:
     h_psi:calbec :   1742.89s CPU   1758.78s WALL (    1587 calls)
     vloc_psi     :   1586.39s CPU   1767.14s WALL (    1587 calls)
                                        0.00s GPU  (    1587 calls)
     add_vuspsi   :   1627.84s CPU   1639.32s WALL (    1587 calls)

     General routines
     calbec       :   2729.71s CPU   2754.87s WALL (    2007 calls)
     fft          :     72.29s CPU     78.04s WALL (    1428 calls)
     ffts         :      3.51s CPU      3.74s WALL (     197 calls)
     fftw         :   1866.38s CPU   2083.56s WALL ( 1212138 calls)
     interpolate  :      7.97s CPU      8.41s WALL (     101 calls)

     Parallel routines

     PWSCF        :  14138.21s CPU  14589.10s WALL


   This run was terminated on:  16:43:34  23Feb2026            

=------------------------------------------------------------------------------=
   JOB DONE.
=------------------------------------------------------------------------------=
