
     Program PWSCF v.7.5 starts on 13Mar2026 at 11:21:22 

     This program is part of the open-source Quantum ESPRESSO suite
     for quantum simulation of materials; please cite
         "P. Giannozzi et al., J. Phys.:Condens. Matter 21 395502 (2009);
         "P. Giannozzi et al., J. Phys.:Condens. Matter 29 465901 (2017);
         "P. Giannozzi et al., J. Chem. Phys. 152 154105 (2020);
          URL http://www.quantum-espresso.org", 
     in publications or presentations arising from this work. More details at
     http://www.quantum-espresso.org/quote

     Parallel version (MPI & OpenMP), running on      64 processor cores
     Number of MPI processes:                64
     Threads/MPI process:                     1

     MPI processes distributed on     1 nodes
     641174 MiB available memory on the printing compute node when the environment starts

     Waiting for input...
     Reading input from standard input

     Current dimensions of program PWSCF are:
     Max number of different atomic species (ntypx) = 10
     Max number of k-points (npk) =  40000
     Max angular momentum in pseudopotentials (lmaxx) =  4

     K-points division:     npool     =       4
     R & G space division:  proc/nbgrp/npool/nimage =      16
     Subspace diagonalization in iterative solution of the eigenvalue problem:
     one sub-group per band group will be used
     ELPA distributed-memory algorithm (size of sub-group:  4*  4 procs)


     Parallelization info
     --------------------
     sticks:   dense  smooth     PW     G-vecs:    dense   smooth      PW
     Min        1200     480    126               266998    67548    9180
     Max        1201     481    127               267007    67559    9191
     Sum       19213    7685   2025              4272073  1080831  146981

     Using Slab Decomposition



     bravais-lattice index     =            0
     lattice parameter (alat)  =      23.1672  a.u.
     unit-cell volume          =   26502.2878 (a.u.)^3
     number of atoms/cell      =          152
     number of atomic types    =            4
     number of electrons       =      1338.00
     number of Kohn-Sham states=          803
     kinetic-energy cutoff     =      45.0000  Ry
     charge density cutoff     =     450.0000  Ry
     scf convergence threshold =      5.0E-06
     mixing beta               =       0.3000
     number of iterations used =            8  plain     mixing
     energy convergence thresh.=      1.0E-04
     force convergence thresh. =      7.8E-04
     Exchange-correlation=  SLA  PW   PBX  PBC
                           (   1   4   3   4   0   0   0)
     nstep                     =          150


     celldm(1)=  23.167240  celldm(2)=   0.000000  celldm(3)=   0.000000
     celldm(4)=   0.000000  celldm(5)=   0.000000  celldm(6)=   0.000000

     crystal axes: (cart. coord. in units of alat)
               a(1) = (   1.000000   0.000000   0.000000 )  
               a(2) = (   0.000000   1.000000   0.000000 )  
               a(3) = (   0.000000   0.000000   2.131378 )  

     reciprocal axes: (cart. coord. in units 2 pi/alat)
               b(1) = (  1.000000  0.000000  0.000000 )  
               b(2) = (  0.000000  1.000000  0.000000 )  
               b(3) = (  0.000000  0.000000  0.469180 )  


     PseudoPot. # 1 for V  read from file:
     /scratch/anizami/QE_2/USPP/v_pbe_v1.4.uspp.F.UPF
     MD5 check sum: 22b79981416ebb76fdaf5b1b8640f6fb
     Pseudo is Ultrasoft + core correction, Zval = 13.0
     Generated by new atomic code, or converted to UPF format
     Using radial grid of  853 points,  6 beta functions with: 
                l(1) =   0
                l(2) =   0
                l(3) =   1
                l(4) =   1
                l(5) =   2
                l(6) =   2
     Q(r) pseudized with  8 coefficients,  rinner =    1.100   1.100   1.100
                                                       1.100   1.100

     PseudoPot. # 2 for N  read from file:
     /scratch/anizami/QE_2/USPP/n_pbe_v1.2.uspp.F.UPF
     MD5 check sum: 95339753478d7afb44899504a8723017
     Pseudo is Ultrasoft + core correction, Zval =  5.0
     Generated by new atomic code, or converted to UPF format
     Using radial grid of  729 points,  4 beta functions with: 
                l(1) =   0
                l(2) =   0
                l(3) =   1
                l(4) =   1
     Q(r) pseudized with  8 coefficients,  rinner =    0.900   0.900   0.900


     PseudoPot. # 3 for S  read from file:
     /scratch/anizami/QE_2/USPP/s_pbe_v1.4.uspp.F.UPF
     MD5 check sum: 88d86576ff6df21479756cfb9bdac1df
     Pseudo is Ultrasoft + core correction, Zval =  6.0
     Generated by new atomic code, or converted to UPF format
     Using radial grid of  907 points,  6 beta functions with: 
                l(1) =   0
                l(2) =   0
                l(3) =   1
                l(4) =   1
                l(5) =   2
                l(6) =   2
     Q(r) pseudized with  8 coefficients,  rinner =    1.300   1.300   1.300
                                                       1.300   1.300

     PseudoPot. # 4 for Li read from file:
     /scratch/anizami/QE_2/USPP/li_pbe_v1.4.uspp.F.UPF
     MD5 check sum: e912e257baa3777c20ea3d68f190483c
     Pseudo is Ultrasoft, Zval =  3.0
     Generated by new atomic code, or converted to UPF format
     Using radial grid of  751 points,  5 beta functions with: 
                l(1) =   0
                l(2) =   0
                l(3) =   0
                l(4) =   1
                l(5) =   1
     Q(r) pseudized with 10 coefficients,  rinner =    1.150   1.150   1.150


     atomic species   valence    mass     pseudopotential
     V                13.00     1.00000     V ( 1.00)
     N                 5.00     1.00000     N ( 1.00)
     S                 6.00     1.00000     S ( 1.00)
     Li                3.00     1.00000     Li( 1.00)

     No symmetry found



   Cartesian axes

     site n.     atom                  positions (alat units)
         1        V      tau(   1) = (   0.0000000   0.0000000   0.8156889  )
         2        V      tau(   2) = (   0.1666667   0.0000000   0.9823556  )
         3        V      tau(   3) = (   0.0000000   0.1666667   0.9823556  )
         4        V      tau(   4) = (   0.1666667   0.1666667   0.8156889  )
         5        V      tau(   5) = (   0.0000000   0.0000000   1.1549460  )
         6        V      tau(   6) = (   0.1666598   0.0000000   1.3066828  )
         7        V      tau(   7) = (  -0.0000000   0.1666598   1.3066828  )
         8        V      tau(   8) = (   0.1666654   0.1666654   1.1549466  )
         9        V      tau(   9) = (   0.0000000   0.3333333   0.8156889  )
        10        V      tau(  10) = (   0.1666667   0.3333333   0.9823556  )
        11        V      tau(  11) = (   0.0000000   0.5000000   0.9823556  )
        12        V      tau(  12) = (   0.1666667   0.5000000   0.8156889  )
        13        V      tau(  13) = (   0.0000000   0.3333321   1.1549468  )
        14        V      tau(  14) = (   0.1666607   0.3333401   1.3066848  )
        15        V      tau(  15) = (  -0.0000000   0.5000000   1.3066818  )
        16        V      tau(  16) = (   0.1666657   0.5000000   1.1549478  )
        17        V      tau(  17) = (   0.0000000   0.6666667   0.8156889  )
        18        V      tau(  18) = (   0.1666667   0.6666667   0.9823556  )
        19        V      tau(  19) = (   0.0000000   0.8333333   0.9823556  )
        20        V      tau(  20) = (   0.1666667   0.8333333   0.8156889  )
        21        V      tau(  21) = (  -0.0000000   0.6666678   1.1549468  )
        22        V      tau(  22) = (   0.1666607   0.6666599   1.3066848  )
        23        V      tau(  23) = (  -0.0000000   0.8333402   1.3066828  )
        24        V      tau(  24) = (   0.1666654   0.8333346   1.1549466  )
        25        V      tau(  25) = (   0.3333333   0.0000000   0.8156889  )
        26        V      tau(  26) = (   0.5000000   0.0000000   0.9823556  )
        27        V      tau(  27) = (   0.3333333   0.1666667   0.9823556  )
        28        V      tau(  28) = (   0.5000000   0.1666667   0.8156889  )
        29        V      tau(  29) = (   0.3333321   0.0000000   1.1549468  )
        30        V      tau(  30) = (   0.5000000   0.0000000   1.3066819  )
        31        V      tau(  31) = (   0.3333401   0.1666607   1.3066848  )
        32        V      tau(  32) = (   0.5000000   0.1666657   1.1549478  )
        33        V      tau(  33) = (   0.3333333   0.3333333   0.8156889  )
        34        V      tau(  34) = (   0.5000000   0.3333333   0.9823556  )
        35        V      tau(  35) = (   0.3333333   0.5000000   0.9823556  )
        36        V      tau(  36) = (   0.5000000   0.5000000   0.8156889  )
        37        V      tau(  37) = (   0.3333322   0.3333322   1.1549475  )
        38        V      tau(  38) = (   0.5000000   0.3333372   1.3066835  )
        39        V      tau(  39) = (   0.3333372   0.5000000   1.3066835  )
        40        V      tau(  40) = (   0.5000000   0.5000000   1.1549463  )
        41        V      tau(  41) = (   0.3333333   0.6666667   0.8156889  )
        42        V      tau(  42) = (   0.5000000   0.6666667   0.9823556  )
        43        V      tau(  43) = (   0.3333333   0.8333333   0.9823556  )
        44        V      tau(  44) = (   0.5000000   0.8333333   0.8156889  )
        45        V      tau(  45) = (   0.3333322   0.6666678   1.1549475  )
        46        V      tau(  46) = (   0.5000000   0.6666628   1.3066835  )
        47        V      tau(  47) = (   0.3333401   0.8333393   1.3066847  )
        48        V      tau(  48) = (   0.5000000   0.8333343   1.1549478  )
        49        V      tau(  49) = (   0.6666667   0.0000000   0.8156889  )
        50        V      tau(  50) = (   0.8333333   0.0000000   0.9823556  )
        51        V      tau(  51) = (   0.6666667   0.1666667   0.9823556  )
        52        V      tau(  52) = (   0.8333333   0.1666667   0.8156889  )
        53        V      tau(  53) = (   0.6666678   0.0000000   1.1549468  )
        54        V      tau(  54) = (   0.8333402   0.0000000   1.3066828  )
        55        V      tau(  55) = (   0.6666599   0.1666607   1.3066848  )
        56        V      tau(  56) = (   0.8333346   0.1666654   1.1549465  )
        57        V      tau(  57) = (   0.6666667   0.3333333   0.8156889  )
        58        V      tau(  58) = (   0.8333333   0.3333333   0.9823556  )
        59        V      tau(  59) = (   0.6666667   0.5000000   0.9823556  )
        60        V      tau(  60) = (   0.8333333   0.5000000   0.8156889  )
        61        V      tau(  61) = (   0.6666677   0.3333322   1.1549475  )
        62        V      tau(  62) = (   0.8333393   0.3333401   1.3066848  )
        63        V      tau(  63) = (   0.6666628   0.5000000   1.3066835  )
        64        V      tau(  64) = (   0.8333343   0.5000000   1.1549478  )
        65        V      tau(  65) = (   0.6666667   0.6666667   0.8156889  )
        66        V      tau(  66) = (   0.8333333   0.6666667   0.9823556  )
        67        V      tau(  67) = (   0.6666667   0.8333333   0.9823556  )
        68        V      tau(  68) = (   0.8333333   0.8333333   0.8156889  )
        69        V      tau(  69) = (   0.6666678   0.6666678   1.1549475  )
        70        V      tau(  70) = (   0.8333393   0.6666599   1.3066848  )
        71        V      tau(  71) = (   0.6666599   0.8333393   1.3066847  )
        72        V      tau(  72) = (   0.8333346   0.8333346   1.1549466  )
        73        N      tau(  73) = (   0.0000000   0.1666667   0.8156889  )
        74        N      tau(  74) = (   0.1666667   0.0000000   0.8156889  )
        75        N      tau(  75) = (   0.0000000   0.0000000   0.9823556  )
        76        N      tau(  76) = (   0.1666667   0.1666667   0.9823556  )
        77        N      tau(  77) = (   0.0000000   0.1666658   1.1515691  )
        78        N      tau(  78) = (   0.1666658   0.0000000   1.1515691  )
        79        N      tau(  79) = (  -0.0000000  -0.0000000   1.3280559  )
        80        N      tau(  80) = (   0.1666682   0.1666682   1.3280488  )
        81        N      tau(  81) = (   0.0000000   0.5000000   0.8156889  )
        82        N      tau(  82) = (   0.1666667   0.3333333   0.8156889  )
        83        N      tau(  83) = (   0.0000000   0.3333333   0.9823556  )
        84        N      tau(  84) = (   0.1666667   0.5000000   0.9823556  )
        85        N      tau(  85) = (  -0.0000000   0.5000000   1.1515689  )
        86        N      tau(  86) = (   0.1666660   0.3333328   1.1515707  )
        87        N      tau(  87) = (  -0.0000000   0.3333303   1.3280534  )
        88        N      tau(  88) = (   0.1666674   0.5000000   1.3280559  )
        89        N      tau(  89) = (   0.0000000   0.8333333   0.8156889  )
        90        N      tau(  90) = (   0.1666667   0.6666667   0.8156889  )
        91        N      tau(  91) = (   0.0000000   0.6666667   0.9823556  )
        92        N      tau(  92) = (   0.1666667   0.8333333   0.9823556  )
        93        N      tau(  93) = (   0.0000000   0.8333342   1.1515691  )
        94        N      tau(  94) = (   0.1666660   0.6666672   1.1515707  )
        95        N      tau(  95) = (   0.0000000   0.6666697   1.3280534  )
        96        N      tau(  96) = (   0.1666682   0.8333318   1.3280488  )
        97        N      tau(  97) = (   0.3333333   0.1666667   0.8156889  )
        98        N      tau(  98) = (   0.5000000   0.0000000   0.8156889  )
        99        N      tau(  99) = (   0.3333333   0.0000000   0.9823556  )
       100        N      tau( 100) = (   0.5000000   0.1666667   0.9823556  )
       101        N      tau( 101) = (   0.3333328   0.1666660   1.1515706  )
       102        N      tau( 102) = (   0.5000000   0.0000000   1.1515689  )
       103        N      tau( 103) = (   0.3333303  -0.0000000   1.3280534  )
       104        N      tau( 104) = (   0.5000000   0.1666674   1.3280560  )
       105        N      tau( 105) = (   0.3333333   0.5000000   0.8156889  )
       106        N      tau( 106) = (   0.5000000   0.3333333   0.8156889  )
       107        N      tau( 107) = (   0.3333333   0.3333333   0.9823556  )
       108        N      tau( 108) = (   0.5000000   0.5000000   0.9823556  )
       109        N      tau( 109) = (   0.3333329   0.5000000   1.1515702  )
       110        N      tau( 110) = (   0.5000000   0.3333329   1.1515702  )
       111        N      tau( 111) = (   0.3333310   0.3333310   1.3280519  )
       112        N      tau( 112) = (   0.5000000   0.5000000   1.3280588  )
       113        N      tau( 113) = (   0.3333333   0.8333333   0.8156889  )
       114        N      tau( 114) = (   0.5000000   0.6666667   0.8156889  )
       115        N      tau( 115) = (   0.3333333   0.6666667   0.9823556  )
       116        N      tau( 116) = (   0.5000000   0.8333333   0.9823556  )
       117        N      tau( 117) = (   0.3333328   0.8333340   1.1515707  )
       118        N      tau( 118) = (   0.5000000   0.6666671   1.1515702  )
       119        N      tau( 119) = (   0.3333310   0.6666690   1.3280519  )
       120        N      tau( 120) = (   0.5000000   0.8333326   1.3280560  )
       121        N      tau( 121) = (   0.6666667   0.1666667   0.8156889  )
       122        N      tau( 122) = (   0.8333333   0.0000000   0.8156889  )
       123        N      tau( 123) = (   0.6666667   0.0000000   0.9823556  )
       124        N      tau( 124) = (   0.8333333   0.1666667   0.9823556  )
       125        N      tau( 125) = (   0.6666672   0.1666660   1.1515706  )
       126        N      tau( 126) = (   0.8333342  -0.0000000   1.1515691  )
       127        N      tau( 127) = (   0.6666697   0.0000000   1.3280534  )
       128        N      tau( 128) = (   0.8333318   0.1666682   1.3280488  )
       129        N      tau( 129) = (   0.6666667   0.5000000   0.8156889  )
       130        N      tau( 130) = (   0.8333333   0.3333333   0.8156889  )
       131        N      tau( 131) = (   0.6666667   0.3333333   0.9823556  )
       132        N      tau( 132) = (   0.8333333   0.5000000   0.9823556  )
       133        N      tau( 133) = (   0.6666671   0.5000000   1.1515702  )
       134        N      tau( 134) = (   0.8333340   0.3333328   1.1515707  )
       135        N      tau( 135) = (   0.6666690   0.3333310   1.3280519  )
       136        N      tau( 136) = (   0.8333326   0.5000000   1.3280559  )
       137        N      tau( 137) = (   0.6666667   0.8333333   0.8156889  )
       138        N      tau( 138) = (   0.8333333   0.6666667   0.8156889  )
       139        N      tau( 139) = (   0.6666667   0.6666667   0.9823556  )
       140        N      tau( 140) = (   0.8333333   0.8333333   0.9823556  )
       141        N      tau( 141) = (   0.6666672   0.8333340   1.1515707  )
       142        N      tau( 142) = (   0.8333340   0.6666672   1.1515706  )
       143        N      tau( 143) = (   0.6666690   0.6666690   1.3280519  )
       144        N      tau( 144) = (   0.8333318   0.8333318   1.3280488  )
       145        S      tau( 145) = (   0.5152913   0.2970684   1.5133264  )
       146        S      tau( 146) = (   0.3058556   0.5199604   1.5249533  )
       147        S      tau( 147) = (   0.2778192   0.5377102   1.6906948  )
       148        S      tau( 148) = (   0.4194901   0.5002299   1.7704259  )
       149        S      tau( 149) = (   0.4311091   0.3207830   1.7704501  )
       150        S      tau( 150) = (   0.5625332   0.2824405   1.6749730  )
       151        Li     tau( 151) = (   0.3333310   0.3333310   1.5727655  )
       152        Li     tau( 152) = (   0.4935584   0.4839822   1.5629659  )

     --------------------------------------------
     DFT-D3 Dispersion Correction (3-body terms):
     --------------------------------------------
       Reference C6 values for interpolation: 

         atom   Coordination number   C6
         Li         0.000          2326.89
         Li         0.987           170.64
         N          0.000            50.54
         N          0.994            44.25
         N          2.014            39.35
         N          2.990            31.16
         S          0.000           268.01
         S          0.995           261.99
         S          1.990           251.62
         V          0.000          2232.20
         V          1.914           580.29
         V          2.911           538.67

       Values used:

         atom   Coordination number  R0_AB[au]  C6      C8
         V         12.126            3.516    538.67  59684.75
         V         16.502            3.516    538.67  59684.75
         V         16.502            3.516    538.67  59684.75
         V         12.126            3.516    538.67  59684.75
         V         16.723            3.516    538.67  59684.75
         V         12.455            3.516    538.67  59684.75
         V         12.455            3.516    538.67  59684.75
         V         16.724            3.516    538.67  59684.75
         V         12.126            3.516    538.67  59684.75
         V         16.502            3.516    538.67  59684.75
         V         16.502            3.516    538.67  59684.75
         V         12.126            3.516    538.67  59684.75
         V         16.723            3.516    538.67  59684.75
         V         12.545            3.516    538.67  59684.75
         V         12.459            3.516    538.67  59684.75
         V         16.726            3.516    538.67  59684.75
         V         12.126            3.516    538.67  59684.75
         V         16.502            3.516    538.67  59684.75
         V         16.502            3.516    538.67  59684.75
         V         12.126            3.516    538.67  59684.75
         V         16.723            3.516    538.67  59684.75
         V         12.506            3.516    538.67  59684.75
         V         12.454            3.516    538.67  59684.75
         V         16.723            3.516    538.67  59684.75
         V         12.126            3.516    538.67  59684.75
         V         16.502            3.516    538.67  59684.75
         V         16.502            3.516    538.67  59684.75
         V         12.126            3.516    538.67  59684.75
         V         16.723            3.516    538.67  59684.75
         V         12.461            3.516    538.67  59684.75
         V         12.560            3.516    538.67  59684.75
         V         16.727            3.516    538.67  59684.75
         V         12.126            3.516    538.67  59684.75
         V         16.502            3.516    538.67  59684.75
         V         16.502            3.516    538.67  59684.75
         V         12.126            3.516    538.67  59684.75
         V         16.729            3.516    538.67  59684.75
         V         13.583            3.516    538.67  59684.75
         V         13.465            3.516    538.67  59684.75
         V         16.729            3.516    538.67  59684.75
         V         12.126            3.516    538.67  59684.75
         V         16.502            3.516    538.67  59684.75
         V         16.502            3.516    538.67  59684.75
         V         12.126            3.516    538.67  59684.75
         V         16.726            3.516    538.67  59684.75
         V         12.536            3.516    538.67  59684.75
         V         12.458            3.516    538.67  59684.75
         V         16.723            3.516    538.67  59684.75
         V         12.126            3.516    538.67  59684.75
         V         16.502            3.516    538.67  59684.75
         V         16.502            3.516    538.67  59684.75
         V         12.126            3.516    538.67  59684.75
         V         16.723            3.516    538.67  59684.75
         V         12.454            3.516    538.67  59684.75
         V         12.534            3.516    538.67  59684.75
         V         16.723            3.516    538.67  59684.75
         V         12.126            3.516    538.67  59684.75
         V         16.502            3.516    538.67  59684.75
         V         16.502            3.516    538.67  59684.75
         V         12.126            3.516    538.67  59684.75
         V         16.726            3.516    538.67  59684.75
         V         12.458            3.516    538.67  59684.75
         V         12.551            3.516    538.67  59684.75
         V         16.723            3.516    538.67  59684.75
         V         12.126            3.516    538.67  59684.75
         V         16.502            3.516    538.67  59684.75
         V         16.502            3.516    538.67  59684.75
         V         12.126            3.516    538.67  59684.75
         V         16.724            3.516    538.67  59684.75
         V         12.455            3.516    538.67  59684.75
         V         12.455            3.516    538.67  59684.75
         V         16.723            3.516    538.67  59684.75
         N          5.014            2.478     31.16    687.49
         N          5.014            2.478     31.16    687.49
         N          6.042            2.478     31.16    687.49
         N          6.042            2.478     31.16    687.49
         N          6.078            2.478     31.16    687.49
         N          6.078            2.478     31.16    687.49
         N          4.972            2.478     31.16    687.49
         N          4.975            2.478     31.16    687.49
         N          5.014            2.478     31.16    687.49
         N          5.014            2.478     31.16    687.49
         N          6.042            2.478     31.16    687.49
         N          6.042            2.478     31.16    687.49
         N          6.078            2.478     31.16    687.49
         N          6.079            2.478     31.16    687.49
         N          4.973            2.478     31.16    687.49
         N          5.003            2.478     31.16    687.49
         N          5.014            2.478     31.16    687.49
         N          5.014            2.478     31.16    687.49
         N          6.042            2.478     31.16    687.49
         N          6.042            2.478     31.16    687.49
         N          6.078            2.478     31.16    687.49
         N          6.078            2.478     31.16    687.49
         N          4.973            2.478     31.16    687.49
         N          4.973            2.478     31.16    687.49
         N          5.014            2.478     31.16    687.49
         N          5.014            2.478     31.16    687.49
         N          6.042            2.478     31.16    687.49
         N          6.042            2.478     31.16    687.49
         N          6.079            2.478     31.16    687.49
         N          6.078            2.478     31.16    687.49
         N          4.973            2.478     31.16    687.49
         N          5.036            2.478     31.16    687.49
         N          5.014            2.478     31.16    687.49
         N          5.014            2.478     31.16    687.49
         N          6.042            2.478     31.16    687.49
         N          6.042            2.478     31.16    687.49
         N          6.079            2.478     31.16    687.49
         N          6.079            2.478     31.16    687.49
         N          5.075            2.478     31.16    687.49
         N          5.118            2.478     31.16    687.49
         N          5.014            2.478     31.16    687.49
         N          5.014            2.478     31.16    687.49
         N          6.042            2.478     31.16    687.49
         N          6.042            2.478     31.16    687.49
         N          6.078            2.478     31.16    687.49
         N          6.079            2.478     31.16    687.49
         N          4.997            2.478     31.16    687.49
         N          4.973            2.478     31.16    687.49
         N          5.014            2.478     31.16    687.49
         N          5.014            2.478     31.16    687.49
         N          6.042            2.478     31.16    687.49
         N          6.042            2.478     31.16    687.49
         N          6.078            2.478     31.16    687.49
         N          6.078            2.478     31.16    687.49
         N          4.973            2.478     31.16    687.49
         N          4.973            2.478     31.16    687.49
         N          5.014            2.478     31.16    687.49
         N          5.014            2.478     31.16    687.49
         N          6.042            2.478     31.16    687.49
         N          6.042            2.478     31.16    687.49
         N          6.079            2.478     31.16    687.49
         N          6.078            2.478     31.16    687.49
         N          5.004            2.478     31.16    687.49
         N          4.973            2.478     31.16    687.49
         N          5.014            2.478     31.16    687.49
         N          5.014            2.478     31.16    687.49
         N          6.042            2.478     31.16    687.49
         N          6.042            2.478     31.16    687.49
         N          6.078            2.478     31.16    687.49
         N          6.078            2.478     31.16    687.49
         N          4.974            2.478     31.16    687.49
         N          4.972            2.478     31.16    687.49
         S          4.213            3.128    251.62  12327.25
         S          4.029            3.128    251.62  12327.25
         S          2.808            3.128    251.62  12327.27
         S          3.026            3.128    251.62  12327.26
         S          3.034            3.128    251.62  12327.26
         S          2.844            3.128    251.62  12327.26
         Li         5.015            3.303    170.64  12899.87
         Li         5.216            3.303    170.64  12899.87

         Molecular C6 ( Ry / a.u.^6 ) =   4718954.24


     number of k points=    10  Marzari-Vanderbilt smearing, width (Ry)=  0.0150
                       cart. coord. in units 2pi/alat
        k(    1) = (   0.0000000   0.0000000   0.0000000), wk =   0.1250000
        k(    2) = (   0.0000000   0.2500000   0.0000000), wk =   0.2500000
        k(    3) = (   0.0000000  -0.5000000   0.0000000), wk =   0.1250000
        k(    4) = (   0.2500000   0.2500000   0.0000000), wk =   0.2500000
        k(    5) = (   0.2500000  -0.5000000   0.0000000), wk =   0.2500000
        k(    6) = (  -0.5000000  -0.5000000   0.0000000), wk =   0.1250000
        k(    7) = (   0.2500000   0.0000000   0.0000000), wk =   0.2500000
        k(    8) = (  -0.5000000   0.0000000   0.0000000), wk =   0.1250000
        k(    9) = (  -0.2500000   0.2500000   0.0000000), wk =   0.2500000
        k(   10) = (  -0.5000000   0.2500000   0.0000000), wk =   0.2500000

     Dense  grid:  4272073 G-vectors     FFT dimensions: ( 160, 160, 360)

     Smooth grid:  1080831 G-vectors     FFT dimensions: ( 100, 100, 216)

     Estimated max dynamical RAM per process >       1.47 GB

     Estimated total dynamical RAM >      91.00 GB

     Check: negative core charge=   -0.000003

     Initial potential from superposition of free atoms

     starting charge    1337.0093, renormalised to    1338.0000

     negative rho (up, down):  4.644E-02 0.000E+00
     Starting wfcs are 1042 randomized atomic wfcs

     total cpu time spent up to now is       47.6 secs

     per-process dynamical memory:   900.1 Mb

     Self-consistent Calculation

     iteration #  1     ecut=    45.00 Ry     beta= 0.30
     Davidson diagonalization with overlap
     ethr =  1.00E-02,  avg # of iterations =  2.0

     negative rho (up, down):  6.776E-02 0.000E+00

     total cpu time spent up to now is      163.2 secs

     total energy              =  -11976.69418683 Ry
     estimated scf accuracy    <     243.84703732 Ry

     iteration #  2     ecut=    45.00 Ry     beta= 0.30
     Davidson diagonalization with overlap
     ethr =  1.00E-02,  avg # of iterations =  7.2

     negative rho (up, down):  6.144E-02 0.000E+00

     total cpu time spent up to now is      439.4 secs

     total energy              =  -11743.66285699 Ry
     estimated scf accuracy    <   18873.74070771 Ry

     iteration #  3     ecut=    45.00 Ry     beta= 0.30
     Davidson diagonalization with overlap
     ethr =  1.00E-02,  avg # of iterations =  7.3

     negative rho (up, down):  6.028E-02 0.000E+00

     total cpu time spent up to now is      733.8 secs

     total energy              =  -12045.74863773 Ry
     estimated scf accuracy    <     749.45467865 Ry

     iteration #  4     ecut=    45.00 Ry     beta= 0.30
     Davidson diagonalization with overlap
     ethr =  1.00E-02,  avg # of iterations =  4.0

     negative rho (up, down):  6.061E-02 0.000E+00

     total cpu time spent up to now is      867.3 secs

     total energy              =  -12067.21505765 Ry
     estimated scf accuracy    <     387.16460426 Ry

     iteration #  5     ecut=    45.00 Ry     beta= 0.30
     Davidson diagonalization with overlap
     ethr =  1.00E-02,  avg # of iterations =  1.7

     negative rho (up, down):  6.167E-02 0.000E+00

     total cpu time spent up to now is      983.7 secs

     total energy              =  -12072.76127315 Ry
     estimated scf accuracy    <     296.47082128 Ry

     iteration #  6     ecut=    45.00 Ry     beta= 0.30
     Davidson diagonalization with overlap
     ethr =  1.00E-02,  avg # of iterations =  2.3

     negative rho (up, down):  6.301E-02 0.000E+00

     total cpu time spent up to now is     1097.4 secs

     total energy              =  -12078.09347769 Ry
     estimated scf accuracy    <      31.58969216 Ry

     iteration #  7     ecut=    45.00 Ry     beta= 0.30
     Davidson diagonalization with overlap
     ethr =  2.36E-03,  avg # of iterations =  8.6

     negative rho (up, down):  6.244E-02 0.000E+00

     total cpu time spent up to now is     1249.9 secs

     total energy              =  -12077.86908846 Ry
     estimated scf accuracy    <     178.12910557 Ry

     iteration #  8     ecut=    45.00 Ry     beta= 0.30
     Davidson diagonalization with overlap
     ethr =  2.36E-03,  avg # of iterations =  1.8

     negative rho (up, down):  6.315E-02 0.000E+00

     total cpu time spent up to now is     1367.1 secs

     total energy              =  -12080.65170941 Ry
     estimated scf accuracy    <      43.13034525 Ry

     iteration #  9     ecut=    45.00 Ry     beta= 0.30
     Davidson diagonalization with overlap
     ethr =  2.36E-03,  avg # of iterations =  1.8

     negative rho (up, down):  6.410E-02 0.000E+00

     total cpu time spent up to now is     1485.5 secs

     total energy              =  -12081.39137306 Ry
     estimated scf accuracy    <      39.48008664 Ry

     iteration # 10     ecut=    45.00 Ry     beta= 0.30
     Davidson diagonalization with overlap
