8
Lattice="4.563929318 0.0 0.0 0.0 4.563929318 0.0 0.0 0.0 4.563929318" Properties=species:S:1:pos:R:3:forces:R:3 energy=-6509.536948457419 free_energy=-6509.536948457419 stress="4.6826038375172033e-05 -0.0 -0.0 -0.0 4.6826038375172033e-05 -0.0 -0.0 -0.0 4.6826038375172033e-05" pbc="T T T"
Zr       0.00000000       0.00000000       0.00000000       0.00000000       0.00000000       0.00000000
Zr       2.28196466       2.28196466       0.00000000       0.00000000       0.00000000       0.00000000
Zr       2.28196466       0.00000000       2.28196466       0.00000000       0.00000000       0.00000000
Zr       0.00000000       2.28196466       2.28196466       0.00000000       0.00000000       0.00000000
N        0.00000000       0.00000000       2.28196466       0.00000000       0.00000000       0.00000000
N        0.00000000       2.28196466       0.00000000       0.00000000       0.00000000       0.00000000
N        2.28196466       0.00000000       0.00000000       0.00000000       0.00000000       0.00000000
N        2.28196466       2.28196466       2.28196466       0.00000000       0.00000000       0.00000000
