144
Lattice="13.429296207015998 0.0 0.0 0.0 13.429296207015998 0.0 0.0 0.0 26.714643787988994" Properties=species:S:1:pos:R:3:forces:R:3 energy=-112419.99421107558 free_energy=-112419.99421107558 pbc="T T T"
Sc       0.00000000       0.00000000      10.00000000      -0.00000463      -0.00000051       0.45647340
Sc       2.23821609       0.00000000      12.23821609      -0.00008716       0.00007456      -0.15001924
Sc       0.00000000       2.23821609      12.23821609      -0.00011467      -0.00007559      -0.15002130
Sc       2.23821609       2.23821609      10.00000000      -0.00000309       0.00001388       0.45645591
Sc      -0.00000439       0.00003943      14.47852089      -0.00003317      -0.00033347      -0.00264901
Sc       2.23821487      -0.00000248      16.66436385      -0.00003137       0.00005708      -0.01357980
Sc      -0.00001274       2.23821196      16.66446192       0.00003882       0.00011493      -0.01413438
Sc       2.23819016       2.23821399      14.47853142       0.00025017      -0.00002725      -0.00275108
Sc       0.00000000       4.47643218      10.00000000      -0.00001183       0.00000591       0.45645360
Sc       2.23821609       4.47643218      12.23821609       0.00004397      -0.00004525      -0.15002644
Sc       0.00000000       6.71464827      12.23821609       0.00002725       0.00000771      -0.15001410
Sc       2.23821609       6.71464827      10.00000000      -0.00001208      -0.00001877       0.45643509
Sc       0.00000541       4.47639548      14.47848670      -0.00004577       0.00028488      -0.00260350
Sc       2.23822162       4.47643210      16.66434890      -0.00011596      -0.00002108      -0.01345098
Sc      -0.00000786       6.71464424      16.66432354       0.00000283      -0.00007456      -0.01347695
Sc       2.23821906       6.71465255      14.47850929       0.00002494      -0.00001234      -0.00257496
Sc       0.00000000       8.95286435      10.00000000       0.00000000      -0.00000566       0.45646183
Sc       2.23821609       8.95286435      12.23821609      -0.00000411      -0.00002828      -0.15000844
Sc       0.00000000      11.19108044      12.23821609       0.00002185       0.00006942      -0.14998633
Sc       2.23821609      11.19108044      10.00000000      -0.00000463       0.00000463       0.45642352
Sc      -0.00000508       8.95286203      14.47850750       0.00001106       0.00004859      -0.00255465
Sc       2.23820275       8.95286811      16.66439195       0.00002237      -0.00003471      -0.01376029
Sc      -0.00000769      11.19109236      16.66433834       0.00003111      -0.00005451      -0.01359599
Sc       2.23820671      11.19107785      14.47849716       0.00006736       0.00003908      -0.00248908
Sc       4.47643218       0.00000000      10.00000000       0.00000000       0.00000283       0.45642198
Sc       6.71464827       0.00000000      12.23821609       0.00008716       0.00007456      -0.15001924
Sc       4.47643218       2.23821609      12.23821609       0.00000000       0.00005476      -0.14995496
Sc       6.71464827       2.23821609      10.00000000       0.00000309       0.00001388       0.45645591
Sc       4.47643489       0.00001422      14.47849076       0.00000000      -0.00008742      -0.00241838
Sc       6.71464857      -0.00000217      16.66438075       0.00003137       0.00005708      -0.01357980
Sc       4.47643231       2.23821458      16.66437101       0.00000000       0.00004422      -0.01350703
Sc       6.71467256       2.23820986      14.47853133      -0.00025017      -0.00002725      -0.00275108
Sc       4.47643218       4.47643218      10.00000000       0.00000000      -0.00000334       0.45646697
Sc       6.71464827       4.47643218      12.23821609      -0.00004397      -0.00004525      -0.15002644
Sc       4.47643218       6.71464827      12.23821609       0.00000000      -0.00001183      -0.14998736
Sc       6.71464827       6.71464827      10.00000000       0.00001208      -0.00001877       0.45643509
Sc       4.47643010       4.47642536      14.47850119       0.00000000       0.00004679      -0.00255182
Sc       6.71464493       4.47643108      16.66432514       0.00011596      -0.00002108      -0.01345098
Sc       4.47643114       6.71464327      16.66441221       0.00000000      -0.00001260      -0.01391301
Sc       6.71464607       6.71465537      14.47850625      -0.00002494      -0.00001234      -0.00257496
Sc       4.47643218       8.95286435      10.00000000       0.00000000       0.00000077       0.45645180
Sc       6.71464827       8.95286435      12.23821609       0.00000411      -0.00002828      -0.15000844
Sc       4.47643218      11.19108044      12.23821609       0.00000000      -0.00004268      -0.14996551
Sc       6.71464827      11.19108044      10.00000000       0.00000463       0.00000463       0.45642352
Sc       4.47643244       8.95285679      14.47851946       0.00000000       0.00004319      -0.00255825
Sc       6.71466009       8.95286715      16.66439245      -0.00002237      -0.00003471      -0.01376029
Sc       4.47643271      11.19108712      16.66436194       0.00000000      -0.00003111      -0.01373818
Sc       6.71465870      11.19108004      14.47849957      -0.00006736       0.00003908      -0.00248908
Sc       8.95286435       0.00000000      10.00000000       0.00000463      -0.00000051       0.45647340
Sc      11.19108044       0.00000000      12.23821609       0.00000000       0.00018178      -0.15001616
Sc       8.95286435       2.23821609      12.23821609       0.00011467      -0.00007559      -0.15002130
Sc      11.19108044       2.23821609      10.00000000       0.00000000       0.00002185       0.45650374
Sc       8.95286549       0.00003721      14.47852195       0.00003317      -0.00033347      -0.00264901
Sc      11.19108138      -0.00001327      16.66437699       0.00000000       0.00012058      -0.01341447
Sc       8.95287768       2.23821089      16.66445748      -0.00003882       0.00011493      -0.01413438
Sc      11.19108056       2.23819821      14.47855845       0.00000000       0.00003754      -0.00303879
Sc       8.95286435       4.47643218      10.00000000       0.00001183       0.00000591       0.45645360
Sc      11.19108044       4.47643218      12.23821609       0.00000000      -0.00015889      -0.15001873
Sc       8.95286435       6.71464827      12.23821609      -0.00002725       0.00000771      -0.15001410
Sc      11.19108044       6.71464827      10.00000000       0.00000000      -0.00003162       0.45642275
Sc       8.95286226       4.47639650      14.47848475       0.00004577       0.00028488      -0.00260350
Sc      11.19108184       4.47644277      16.66426603       0.00000000      -0.00006273      -0.01299410
Sc       8.95287176       6.71464256      16.66433759      -0.00000283      -0.00007456      -0.01347695
Sc      11.19108086       6.71467157      14.47848281       0.00000000      -0.00013164      -0.00254025
Sc       8.95286435       8.95286435      10.00000000      -0.00000000      -0.00000566       0.45646183
Sc      11.19108044       8.95286435      12.23821609       0.00000000      -0.00002057      -0.15010075
Sc       8.95286435      11.19108044      12.23821609      -0.00002185       0.00006942      -0.14998633
Sc      11.19108044      11.19108044      10.00000000       0.00000000       0.00000951       0.45639986
Sc       8.95286920       8.95286305      14.47850755      -0.00001106       0.00004859      -0.00255465
Sc      11.19108064       8.95286864      16.66441020       0.00000000      -0.00006711      -0.01396006
Sc       8.95287301      11.19109130      16.66437018      -0.00003111      -0.00005451      -0.01359599
Sc      11.19107969      11.19107537      14.47847969       0.00000000       0.00009385      -0.00232222
N        0.00000000       2.23821609      10.00000000       0.00000951      -0.00000746       0.02644251
N        2.23821609       0.00000000      10.00000000       0.00001208      -0.00001157       0.02639186
N        0.00000000       0.00000000      12.23821609       0.00000051       0.00003908      -0.32694148
N        2.23821609       2.23821609      12.23821609      -0.00006813      -0.00001414      -0.32682321
N       -0.00001693       2.23817950      14.48718876       0.00013113       0.00025223      -0.00264361
N        2.23820355       0.00001744      14.48713448       0.00009796      -0.00008485      -0.00218235
N       -0.00001049       0.00001320      16.67729247       0.00005708      -0.00022009       0.01245905
N        2.23818953       2.23822370      16.67731552       0.00025685      -0.00006119       0.01231430
N        0.00000000       6.71464827      10.00000000       0.00000206       0.00001106       0.02637592
N        2.23821609       4.47643218      10.00000000       0.00000771       0.00000643       0.02634661
N        0.00000000       4.47643218      12.23821609       0.00006762      -0.00007765      -0.32716362
N        2.23821609       6.71464827      12.23821609       0.00003060       0.00002648      -0.32687206
N       -0.00000691       6.71468309      14.48711925       0.00007482      -0.00026765      -0.00222503
N        2.23823973       4.47642539      14.48711728      -0.00020106       0.00001234      -0.00215818
N       -0.00000668       4.47641504      16.67705593       0.00005888       0.00020800       0.01382122
N        2.23819905       6.71463168      16.67730009       0.00012213       0.00010901       0.01236623
N        0.00000000      11.19108044      10.00000000      -0.00000103      -0.00000386       0.02637206
N        2.23821609       8.95286435      10.00000000       0.00000386       0.00000540       0.02641243
N        0.00000000       8.95286435      12.23821609      -0.00001131       0.00003857      -0.32697336
N        2.23821609      11.19108044      12.23821609       0.00000206      -0.00001234      -0.32692477
N       -0.00000495      11.19108255      14.48712867       0.00003420       0.00001594      -0.00221423
N        2.23820906       8.95285485      14.48715066       0.00006556       0.00007071      -0.00228982
N       -0.00001209       8.95286598      16.67729151       0.00006762       0.00002854       0.01246342
N        2.23820917      11.19108885      16.67723314       0.00004654      -0.00005168       0.01264520
N        4.47643218       2.23821609      10.00000000       0.00000000      -0.00001183       0.02640754
N        6.71464827       0.00000000      10.00000000      -0.00001208      -0.00001157       0.02639186
N        4.47643218       0.00000000      12.23821609       0.00000000       0.00000977      -0.32696796
N        6.71464827       2.23821609      12.23821609       0.00006813      -0.00001414      -0.32682321
N        4.47643244       2.23821626      14.48714425       0.00000000      -0.00004705      -0.00220344
N        6.71466249       0.00001554      14.48713800      -0.00009796      -0.00008485      -0.00218235
N        4.47643197       0.00001000      16.67722330       0.00000000      -0.00008870       0.01278507
N        6.71467402       2.23822258      16.67731416      -0.00025685      -0.00006119       0.01231430
N        4.47643218       6.71464827      10.00000000       0.00000000       0.00001003       0.02642606
N        6.71464827       4.47643218      10.00000000      -0.00000771       0.00000643       0.02634661
N        4.47643218       4.47643218      12.23821609       0.00000000       0.00001363      -0.32701398
N        6.71464827       6.71464827      12.23821609      -0.00003060       0.00002648      -0.32687206
N        4.47643103       6.71464660      14.48716471       0.00000000       0.00006248      -0.00239370
N        6.71462387       4.47642343      14.48711570       0.00020106       0.00001234      -0.00215818
N        4.47643161       4.47642299      16.67726436       0.00000000       0.00007456       0.01242151
N        6.71466630       6.71463222      16.67728027      -0.00012213       0.00010901       0.01236623
N        4.47643218      11.19108044      10.00000000       0.00000000       0.00000154       0.02638929
N        6.71464827       8.95286435      10.00000000      -0.00000386       0.00000540       0.02641243
N        4.47643218       8.95286435      12.23821609       0.00000000      -0.00002443      -0.32690703
N        6.71464827      11.19108044      12.23821609      -0.00000206      -0.00001234      -0.32692477
N        4.47643307      11.19108199      14.48713678       0.00000000      -0.00001568      -0.00228905
N        6.71465496       8.95285724      14.48715059      -0.00006556       0.00007071      -0.00228982
N        4.47643299       8.95286294      16.67725622       0.00000000       0.00001620       0.01272285
N        6.71465509      11.19109024      16.67725856      -0.00004654      -0.00005168       0.01264520
N        8.95286435       2.23821609      10.00000000      -0.00000951      -0.00000746       0.02644251
N       11.19108044       0.00000000      10.00000000       0.00000000      -0.00002571       0.02638389
N        8.95286435       0.00000000      12.23821609      -0.00000051       0.00003908      -0.32694148
N       11.19108044       2.23821609      12.23821609       0.00000000      -0.00004731      -0.32676999
N        8.95288197       2.23817855      14.48718941      -0.00013113       0.00025223      -0.00264361
N       11.19108092       0.00003475      14.48713581       0.00000000      -0.00024451      -0.00207822
N        8.95287377       0.00001259      16.67727887      -0.00005708      -0.00022009       0.01245905
N       11.19107941       2.23823246      16.67740675       0.00000000      -0.00012161       0.01172269
N        8.95286435       6.71464827      10.00000000      -0.00000206       0.00001106       0.02637592
N       11.19108044       4.47643218      10.00000000       0.00000000       0.00001646       0.02630187
N        8.95286435       4.47643218      12.23821609      -0.00006762      -0.00007765      -0.32716362
N       11.19108044       6.71464827      12.23821609       0.00000000       0.00006428      -0.32693376
N        8.95287189       6.71468286      14.48711959      -0.00007482      -0.00026765      -0.00222503
N       11.19107892       4.47640868      14.48707563       0.00000000       0.00013215      -0.00192884
N        8.95287094       4.47641611      16.67705547      -0.00005888       0.00020800       0.01382122
N       11.19108034       6.71462197      16.67728257       0.00000000       0.00017226       0.01224128
N        8.95286435      11.19108044      10.00000000       0.00000103      -0.00000386       0.02637206
N       11.19108044       8.95286435      10.00000000       0.00000000       0.00000874       0.02642657
N        8.95286435       8.95286435      12.23821609       0.00001131       0.00003857      -0.32697336
N       11.19108044      11.19108044      12.23821609       0.00000000      -0.00001723      -0.32695819
N        8.95286850      11.19108351      14.48713001      -0.00003420       0.00001594      -0.00221423
N       11.19108097       8.95285341      14.48715076       0.00000000       0.00011107      -0.00235205
N        8.95287682       8.95286514      16.67726313      -0.00006762       0.00002854       0.01246342
N       11.19107969      11.19108882      16.67721006       0.00000000      -0.00004525       0.01288920
