144
Lattice="12.641749285038259 0.0 0.0 0.0 12.641749285038259 0.0 0.0 0.0 26.320880516406753" Properties=species:S:1:pos:R:3:forces:R:3 energy=-136818.40192927755 free_energy=-136818.40192927755 pbc="T T T"
Ti       0.00000000       0.00000000      10.00000000       0.00000000       0.00000000       1.94986165
Ti       2.10695823       0.00000000      12.10695823       0.00019129       0.00000000       0.25750652
Ti       0.00000000       2.10695823      12.10695823       0.00000000       0.00019129       0.25750652
Ti       2.10695823       2.10695823      10.00000000       0.00012778       0.00012778       1.94987784
Ti      -0.00000028      -0.00000023      14.20734174       0.00000000       0.00000000       0.00055690
Ti       2.10695235       0.00000014      16.21777969       0.00019746      -0.00000000      -0.00270069
Ti      -0.00000004       2.10695248      16.21778035       0.00000000       0.00019746      -0.00270069
Ti       2.10696086       2.10696087      14.20734338       0.00013344       0.00013344       0.00054482
Ti       0.00000000       4.21391647      10.00000000       0.00000000       0.00011261       1.94989790
Ti       2.10695823       4.21391647      12.10695823       0.00011133       0.00014013       0.25755357
Ti       0.00000000       6.32087470      12.10695823       0.00000000       0.00000000       0.25758494
Ti       2.10695823       6.32087470      10.00000000       0.00009873       0.00000000       1.94990150
Ti      -0.00000014       4.21391791      14.20734344       0.00000000       0.00018229       0.00053942
Ti       2.10695701       4.21391223      16.21778720       0.00007739       0.00015684      -0.00273977
Ti      -0.00000027       6.32087463      16.21778573       0.00000000       0.00000000      -0.00273437
Ti       2.10696709       6.32087450      14.20734927      -0.00001466      -0.00000000       0.00049699
Ti       0.00000000       8.42783294      10.00000000       0.00000000      -0.00011261       1.94989790
Ti       2.10695823       8.42783294      12.10695823       0.00011133      -0.00014013       0.25755357
Ti       0.00000000      10.53479117      12.10695823       0.00000000      -0.00019129       0.25750652
Ti       2.10695823      10.53479117      10.00000000       0.00012778      -0.00012778       1.94987784
Ti      -0.00000020       8.42783167      14.20734287       0.00000000      -0.00018229       0.00053942
Ti       2.10695700       8.42783673      16.21778770       0.00007739      -0.00015684      -0.00273977
Ti       0.00000012      10.53479702      16.21777989       0.00000000      -0.00019746      -0.00270069
Ti       2.10696100      10.53478825      14.20734321       0.00013344      -0.00013344       0.00054482
Ti       4.21391647       0.00000000      10.00000000       0.00011261       0.00000000       1.94989790
Ti       6.32087470       0.00000000      12.10695823       0.00000000       0.00000000       0.25758494
Ti       4.21391647       2.10695823      12.10695823       0.00014013       0.00011133       0.25755357
Ti       6.32087470       2.10695823      10.00000000       0.00000000       0.00009873       1.94990150
Ti       4.21391775      -0.00000029      14.20734312       0.00018229       0.00000000       0.00053942
Ti       6.32087450      -0.00000001      16.21778470       0.00000000       0.00000000      -0.00273437
Ti       4.21391229       2.10695707      16.21778816       0.00015684       0.00007739      -0.00273977
Ti       6.32087463       2.10696723      14.20734935       0.00000000      -0.00001466       0.00049699
Ti       4.21391647       4.21391647      10.00000000       0.00009796       0.00009796       1.94989636
Ti       6.32087470       4.21391647      12.10695823      -0.00000000       0.00009847       0.25756874
Ti       4.21391647       6.32087470      12.10695823       0.00009847      -0.00000000       0.25756874
Ti       6.32087470       6.32087470      10.00000000       0.00000000       0.00000000       1.94989995
Ti       4.21392455       4.21392443      14.20735408       0.00002571       0.00002571       0.00047334
Ti       6.32087477       4.21391707      16.21779786       0.00000000       0.00002237      -0.00276445
Ti       4.21391704       6.32087482      16.21779820       0.00002237      -0.00000000      -0.00276445
Ti       6.32087464       6.32087451      14.20735783       0.00000000       0.00000000       0.00046486
Ti       4.21391647       8.42783294      10.00000000       0.00009796      -0.00009796       1.94989636
Ti       6.32087470       8.42783294      12.10695823       0.00000000      -0.00009847       0.25756874
Ti       4.21391647      10.53479117      12.10695823       0.00014013      -0.00011133       0.25755357
Ti       6.32087470      10.53479117      10.00000000       0.00000000      -0.00009873       1.94990150
Ti       4.21392450       8.42782503      14.20735360       0.00002571      -0.00002571       0.00047334
Ti       6.32087491       8.42783193      16.21779771      -0.00000000      -0.00002237      -0.00276445
Ti       4.21391224      10.53479220      16.21778736       0.00015684      -0.00007739      -0.00273977
Ti       6.32087453      10.53478202      14.20734948       0.00000000       0.00001466       0.00049699
Ti       8.42783294       0.00000000      10.00000000      -0.00011261       0.00000000       1.94989790
Ti      10.53479117       0.00000000      12.10695823      -0.00019129       0.00000000       0.25750652
Ti       8.42783294       2.10695823      12.10695823      -0.00014013       0.00011133       0.25755357
Ti      10.53479117       2.10695823      10.00000000      -0.00012778       0.00012778       1.94987784
Ti       8.42783149      -0.00000004      14.20734329      -0.00018229      -0.00000000       0.00053942
Ti      10.53479707      -0.00000001      16.21778028      -0.00019746       0.00000000      -0.00270069
Ti       8.42783690       2.10695694      16.21778788      -0.00015684       0.00007739      -0.00273977
Ti      10.53478826       2.10696083      14.20734282      -0.00013344       0.00013344       0.00054482
Ti       8.42783294       4.21391647      10.00000000      -0.00009796       0.00009796       1.94989636
Ti      10.53479117       4.21391647      12.10695823      -0.00011133       0.00014013       0.25755357
Ti       8.42783294       6.32087470      12.10695823      -0.00009847      -0.00000000       0.25756874
Ti      10.53479117       6.32087470      10.00000000      -0.00009873       0.00000000       1.94990150
Ti       8.42782471       4.21392439      14.20735388      -0.00002571       0.00002571       0.00047334
Ti      10.53479263       4.21391211      16.21778830      -0.00007739       0.00015684      -0.00273977
Ti       8.42783232       6.32087453      16.21779856      -0.00002237       0.00000000      -0.00276445
Ti      10.53478237       6.32087474      14.20734920       0.00001466      -0.00000000       0.00049699
Ti       8.42783294       8.42783294      10.00000000      -0.00009796      -0.00009796       1.94989636
Ti      10.53479117       8.42783294      12.10695823      -0.00011133      -0.00014013       0.25755357
Ti       8.42783294      10.53479117      12.10695823      -0.00014013      -0.00011133       0.25755357
Ti      10.53479117      10.53479117      10.00000000      -0.00012778      -0.00012778       1.94987784
Ti       8.42782441       8.42782494      14.20735351      -0.00002571      -0.00002571       0.00047334
Ti      10.53479252       8.42783674      16.21778693      -0.00007739      -0.00015684      -0.00273977
Ti       8.42783672      10.53479238      16.21778762      -0.00015684      -0.00007739      -0.00273977
Ti      10.53478848      10.53478833      14.20734271      -0.00013344      -0.00013344       0.00054482
N        0.00000000       2.10695823      10.00000000       0.00000000       0.00008690      -1.32413201
N        2.10695823       0.00000000      10.00000000       0.00008690       0.00000000      -1.32413201
N        0.00000000       0.00000000      12.10695823       0.00000000       0.00000000      -0.88477548
N        2.10695823       2.10695823      12.10695823       0.00006094       0.00006094      -0.88479193
N       -0.00000048       2.10696118      14.22537790       0.00000000       0.00004191       0.00104155
N        2.10696104      -0.00000014      14.22537748       0.00004191       0.00000000       0.00104155
N        0.00000012       0.00000004      16.38936933       0.00000000       0.00000000       0.00283001
N        2.10695660       2.10695669      16.38937713       0.00004037       0.00004037       0.00270634
N        0.00000000       6.32087470      10.00000000       0.00000000       0.00000000      -1.32407493
N        2.10695823       4.21391647      10.00000000       0.00003625       0.00003240      -1.32407262
N        0.00000000       4.21391647      12.10695823       0.00000000       0.00007173      -0.88477882
N        2.10695823       6.32087470      12.10695823       0.00003548       0.00000000      -0.88474205
N       -0.00000053       6.32087443      14.22538417       0.00000000       0.00000000       0.00101584
N        2.10696243       4.21391876      14.22538486      -0.00000206       0.00003805       0.00100659
N        0.00000007       4.21391370      16.38937891       0.00000000       0.00006865       0.00264129
N        2.10695634       6.32087458      16.38938995       0.00001286       0.00000000       0.00254205
N        0.00000000      10.53479117      10.00000000       0.00000000      -0.00008690      -1.32413201
N        2.10695823       8.42783294      10.00000000       0.00003625      -0.00003240      -1.32407262
N        0.00000000       8.42783294      12.10695823       0.00000000      -0.00007173      -0.88477882
N        2.10695823      10.53479117      12.10695823       0.00006094      -0.00006094      -0.88479193
N       -0.00000014      10.53478819      14.22537729       0.00000000      -0.00004191       0.00104155
N        2.10696250       8.42783003      14.22538498      -0.00000206      -0.00003805       0.00100659
N       -0.00000037       8.42783538      16.38937857      -0.00000000      -0.00006865       0.00264129
N        2.10695664      10.53479268      16.38937690       0.00004037      -0.00004037       0.00270634
N        4.21391647       2.10695823      10.00000000       0.00003240       0.00003625      -1.32407262
N        6.32087470       0.00000000      10.00000000       0.00000000       0.00000000      -1.32407493
N        4.21391647       0.00000000      12.10695823       0.00007173       0.00000000      -0.88477882
N        6.32087470       2.10695823      12.10695823      -0.00000000       0.00003548      -0.88474205
N        4.21391902       2.10696250      14.22538479       0.00003805      -0.00000206       0.00100659
N        6.32087469      -0.00000039      14.22538410       0.00000000       0.00000000       0.00101584
N        4.21391363      -0.00000037      16.38937924       0.00006865      -0.00000000       0.00264129
N        6.32087454       2.10695636      16.38939041       0.00000000       0.00001286       0.00254205
N        4.21391647       6.32087470      10.00000000       0.00004165      -0.00000000      -1.32400886
N        6.32087470       4.21391647      10.00000000       0.00000000       0.00004165      -1.32400886
N        4.21391647       4.21391647      12.10695823       0.00004139       0.00004139      -0.88474745
N        6.32087470       6.32087470      12.10695823       0.00000000       0.00000000      -0.88472868
N        4.21392008       6.32087453      14.22539074      -0.00000823      -0.00000000       0.00097985
N        6.32087455       4.21391985      14.22539079       0.00000000      -0.00000823       0.00097985
N        4.21391399       4.21391408      16.38939763       0.00003085       0.00003085       0.00252559
N        6.32087439       6.32087474      16.38941347       0.00000000       0.00000000       0.00243329
N        4.21391647      10.53479117      10.00000000       0.00003240      -0.00003625      -1.32407262
N        6.32087470       8.42783294      10.00000000      -0.00000000      -0.00004165      -1.32400886
N        4.21391647       8.42783294      12.10695823       0.00004139      -0.00004139      -0.88474745
N        6.32087470      10.53479117      12.10695823       0.00000000      -0.00003548      -0.88474205
N        4.21391891      10.53478694      14.22538459       0.00003805       0.00000206       0.00100659
N        6.32087444       8.42782939      14.22539080      -0.00000000       0.00000823       0.00097985
N        4.21391410       8.42783540      16.38939752       0.00003085      -0.00003085       0.00252559
N        6.32087443      10.53479302      16.38939000       0.00000000      -0.00001286       0.00254205
N        8.42783294       2.10695823      10.00000000      -0.00003240       0.00003625      -1.32407262
N       10.53479117       0.00000000      10.00000000      -0.00008690       0.00000000      -1.32413201
N        8.42783294       0.00000000      12.10695823      -0.00007173       0.00000000      -0.88477882
N       10.53479117       2.10695823      12.10695823      -0.00006094       0.00006094      -0.88479193
N        8.42783068       2.10696247      14.22538465      -0.00003805      -0.00000206       0.00100659
N       10.53478849      -0.00000011      14.22537797      -0.00004191       0.00000000       0.00104155
N        8.42783572       0.00000001      16.38937938      -0.00006865       0.00000000       0.00264129
N       10.53479254       2.10695675      16.38937736      -0.00004037       0.00004037       0.00270634
N        8.42783294       6.32087470      10.00000000      -0.00004165       0.00000000      -1.32400886
N       10.53479117       4.21391647      10.00000000      -0.00003625       0.00003240      -1.32407262
N        8.42783294       4.21391647      12.10695823      -0.00004139       0.00004139      -0.88474745
N       10.53479117       6.32087470      12.10695823      -0.00003548      -0.00000000      -0.88474205
N        8.42782940       6.32087463      14.22539078       0.00000823       0.00000000       0.00097985
N       10.53478676       4.21391900      14.22538481       0.00000206       0.00003805       0.00100659
N        8.42783556       4.21391401      16.38939763      -0.00003085       0.00003085       0.00252559
N       10.53479296       6.32087448      16.38939008      -0.00001286      -0.00000000       0.00254205
N        8.42783294      10.53479117      10.00000000      -0.00003240      -0.00003625      -1.32407262
N       10.53479117       8.42783294      10.00000000      -0.00003625      -0.00003240      -1.32407262
N        8.42783294       8.42783294      12.10695823      -0.00004139      -0.00004139      -0.88474745
N       10.53479117      10.53479117      12.10695823      -0.00006094      -0.00006094      -0.88479193
N        8.42783069      10.53478690      14.22538435      -0.00003805       0.00000206       0.00100659
N       10.53478679       8.42783058      14.22538437       0.00000206      -0.00003805       0.00100659
N        8.42783524       8.42783513      16.38939699      -0.00003085      -0.00003085       0.00252559
N       10.53479300      10.53479291      16.38937668      -0.00004037      -0.00004037       0.00270634
