144
Lattice="12.259575388456497 0.0 0.0 0.0 12.259575388456497 0.0 0.0 0.0 26.129789272297636" Properties=species:S:1:pos:R:3:forces:R:3 energy=-162018.97495070062 free_energy=-162018.97495070062 pbc="T T T"
V        0.00000000       0.00000000      10.00000000       0.00000000       0.00000000       2.41941090
V        2.04326254       0.00000000      12.04326254      -0.00005322       0.00000000      -0.51552007
V        0.00000000       2.04326254      12.04326254       0.00000000      -0.00005322      -0.51552007
V        2.04326254       2.04326254      10.00000000      -0.00005888      -0.00005888       2.41948906
V        0.00000014       0.00000017      14.15914706       0.00000000       0.00000000      -0.00073945
V        2.04317869       0.00000006      16.01937620      -0.00015144      -0.00000000      -0.00303184
V       -0.00000009       2.04317861      16.01937601       0.00000000      -0.00015144      -0.00303184
V        2.04324677       2.04324668      14.15915459       0.00012778       0.00012778      -0.00083638
V        0.00000000       4.08652507      10.00000000       0.00000000       0.00001851       2.41943276
V        2.04326254       4.08652507      12.04326254       0.00000129      -0.00003060      -0.51556198
V        0.00000000       6.12978761      12.04326254       0.00000000       0.00000000      -0.51540488
V        2.04326254       6.12978761      10.00000000      -0.00003188       0.00000000       2.41939548
V        0.00000012       4.08651042      14.15915742       0.00000000       0.00001466      -0.00077853
V        2.04318935       4.08660849      16.01940050      -0.00002751       0.00013704      -0.00309252
V       -0.00000015       6.12978750      16.01936413       0.00000000       0.00000000      -0.00300819
V        2.04325066       6.12978739      14.15916964       0.00015324      -0.00000000      -0.00082018
V        0.00000000       8.17305015      10.00000000       0.00000000      -0.00001851       2.41943276
V        2.04326254       8.17305015      12.04326254       0.00000129       0.00003060      -0.51556198
V        0.00000000      10.21631269      12.04326254       0.00000000       0.00005322      -0.51552007
V        2.04326254      10.21631269      10.00000000      -0.00005888       0.00005888       2.41948906
V       -0.00000021       8.17306455      14.15915740      -0.00000000      -0.00001466      -0.00077853
V        2.04318943       8.17296693      16.01940032      -0.00002751      -0.00013704      -0.00309252
V       -0.00000001      10.21639651      16.01937628       0.00000000       0.00015144      -0.00303184
V        2.04324670      10.21632830      14.15915438       0.00012778      -0.00012778      -0.00083638
V        4.08652507       0.00000000      10.00000000       0.00001851       0.00000000       2.41943276
V        6.12978761       0.00000000      12.04326254       0.00000000       0.00000000      -0.51540488
V        4.08652507       2.04326254      12.04326254      -0.00003060       0.00000129      -0.51556198
V        6.12978761       2.04326254      10.00000000       0.00000000      -0.00003188       2.41939548
V        4.08651044       0.00000017      14.15915733       0.00001466      -0.00000000      -0.00077853
V        6.12978762       0.00000005      16.01936471       0.00000000       0.00000000      -0.00300819
V        4.08660830       2.04318943      16.01940061       0.00013704      -0.00002751      -0.00309252
V        6.12978737       2.04325074      14.15916964      -0.00000000       0.00015324      -0.00082018
V        4.08652507       4.08652507      10.00000000       0.00007610       0.00007610       2.41946592
V        6.12978761       4.08652507      12.04326254      -0.00000000       0.00007430      -0.51538817
V        4.08652507       6.12978761      12.04326254       0.00007430       0.00000000      -0.51538817
V        6.12978761       6.12978761      10.00000000       0.00000000       0.00000000       2.41945101
V        4.08651161       4.08651142      14.15916615       0.00010284       0.00010284      -0.00085412
V        6.12978755       4.08657266      16.01938465       0.00000000       0.00014424      -0.00297168
V        4.08657261       6.12978755      16.01938441       0.00014424       0.00000000      -0.00297168
V        6.12978740       6.12978750      14.15915153       0.00000000       0.00000000      -0.00071657
V        4.08652507       8.17305015      10.00000000       0.00007610      -0.00007610       2.41946592
V        6.12978761       8.17305015      12.04326254       0.00000000      -0.00007430      -0.51538817
V        4.08652507      10.21631269      12.04326254      -0.00003060      -0.00000129      -0.51556198
V        6.12978761      10.21631269      10.00000000       0.00000000       0.00003188       2.41939548
V        4.08651163       8.17306392      14.15916616       0.00010284      -0.00010284      -0.00085412
V        6.12978758       8.17300248      16.01938437       0.00000000      -0.00014424      -0.00297168
V        4.08660832      10.21638572      16.01940008       0.00013704       0.00002751      -0.00309252
V        6.12978754      10.21632426      14.15916971      -0.00000000      -0.00015324      -0.00082018
V        8.17305015       0.00000000      10.00000000      -0.00001851       0.00000000       2.41943276
V       10.21631269       0.00000000      12.04326254       0.00005322       0.00000000      -0.51552007
V        8.17305015       2.04326254      12.04326254       0.00003060       0.00000129      -0.51556198
V       10.21631269       2.04326254      10.00000000       0.00005888      -0.00005888       2.41948906
V        8.17306475       0.00000005      14.15915731      -0.00001466      -0.00000000      -0.00077853
V       10.21639659       0.00000010      16.01937614       0.00015144       0.00000000      -0.00303184
V        8.17296688       2.04318943      16.01940085      -0.00013704      -0.00002751      -0.00309252
V       10.21632851       2.04324670      14.15915425      -0.00012778       0.00012778      -0.00083638
V        8.17305015       4.08652507      10.00000000      -0.00007610       0.00007610       2.41946592
V       10.21631269       4.08652507      12.04326254      -0.00000129      -0.00003060      -0.51556198
V        8.17305015       6.12978761      12.04326254      -0.00007430      -0.00000000      -0.51538817
V       10.21631269       6.12978761      10.00000000       0.00003188       0.00000000       2.41939548
V        8.17306344       4.08651161      14.15916607      -0.00010284       0.00010284      -0.00085412
V       10.21638578       4.08660852      16.01940030       0.00002751       0.00013704      -0.00309252
V        8.17300265       6.12978765      16.01938464      -0.00014424       0.00000000      -0.00297168
V       10.21632464       6.12978759      14.15916976      -0.00015324       0.00000000      -0.00082018
V        8.17305015       8.17305015      10.00000000      -0.00007610      -0.00007610       2.41946592
V       10.21631269       8.17305015      12.04326254      -0.00000129       0.00003060      -0.51556198
V        8.17305015      10.21631269      12.04326254       0.00003060      -0.00000129      -0.51556198
V       10.21631269      10.21631269      10.00000000       0.00005888       0.00005888       2.41948906
V        8.17306379       8.17306367      14.15916627      -0.00010284      -0.00010284      -0.00085412
V       10.21638578       8.17296673      16.01940049       0.00002751      -0.00013704      -0.00309252
V        8.17296675      10.21638582      16.01940010      -0.00013704       0.00002751      -0.00309252
V       10.21632839      10.21632826      14.15915436      -0.00012778      -0.00012778      -0.00083638
N        0.00000000       2.04326254      10.00000000       0.00000000       0.00007713      -1.35339965
N        2.04326254       0.00000000      10.00000000       0.00007713       0.00000000      -1.35339965
N        0.00000000       0.00000000      12.04326254       0.00000000       0.00000000      -0.54797587
N        2.04326254       2.04326254      12.04326254       0.00005811       0.00005811      -0.54844459
N        0.00000011       2.04325162      14.11774867       0.00000000      -0.00001954      -0.00754310
N        2.04325139       0.00000010      14.11774837      -0.00001954       0.00000000      -0.00754310
N       -0.00000003      -0.00000004      16.28140097       0.00000000       0.00000000       0.00931305
N        2.04328088       2.04328080      16.28131467       0.00007251       0.00007251       0.00913719
N        0.00000000       6.12978761      10.00000000       0.00000000       0.00000000      -1.35348707
N        2.04326254       4.08652507      10.00000000       0.00004731       0.00000591      -1.35334257
N        0.00000000       4.08652507      12.04326254       0.00000000      -0.00012444      -0.54821036
N        2.04326254       6.12978761      12.04326254       0.00010130      -0.00000000      -0.54813168
N       -0.00000004       6.12978763      14.11774632       0.00000000       0.00000000      -0.00756753
N        2.04325395       4.08651825      14.11776723       0.00004114       0.00005888      -0.00754799
N       -0.00000015       4.08648742      16.28137024       0.00000000       0.00000643       0.00918758
N        2.04327102       6.12978746      16.28140190       0.00007739       0.00000000       0.00910813
N        0.00000000      10.21631269      10.00000000       0.00000000      -0.00007713      -1.35339965
N        2.04326254       8.17305015      10.00000000       0.00004731      -0.00000591      -1.35334257
N        0.00000000       8.17305015      12.04326254       0.00000000       0.00012444      -0.54821036
N        2.04326254      10.21631269      12.04326254       0.00005811      -0.00005811      -0.54844459
N        0.00000002      10.21632361      14.11774819       0.00000000       0.00001954      -0.00754310
N        2.04325394       8.17305713      14.11776737       0.00004114      -0.00005888      -0.00754799
N        0.00000008       8.17308791      16.28137021       0.00000000      -0.00000643       0.00918758
N        2.04328081      10.21629444      16.28131458       0.00007251      -0.00007251       0.00913719
N        4.08652507       2.04326254      10.00000000       0.00000591       0.00004731      -1.35334257
N        6.12978761       0.00000000      10.00000000       0.00000000       0.00000000      -1.35348707
N        4.08652507       0.00000000      12.04326254      -0.00012444       0.00000000      -0.54821036
N        6.12978761       2.04326254      12.04326254       0.00000000       0.00010130      -0.54813168
N        4.08651806       2.04325401      14.11776706       0.00005888       0.00004114      -0.00754799
N        6.12978755       0.00000009      14.11774615       0.00000000       0.00000000      -0.00756753
N        4.08648737      -0.00000003      16.28137073       0.00000643       0.00000000       0.00918758
N        6.12978766       2.04327112      16.28140232      -0.00000000       0.00007739       0.00910813
N        4.08652507       6.12978761      10.00000000      -0.00005374       0.00000000      -1.35340942
N        6.12978761       4.08652507      10.00000000       0.00000000      -0.00005374      -1.35340942
N        4.08652507       4.08652507      12.04326254      -0.00007662      -0.00007662      -0.54837337
N        6.12978761       6.12978761      12.04326254       0.00000000       0.00000000      -0.54800133
N        4.08651944       6.12978749      14.11776202       0.00009796       0.00000000      -0.00757730
N        6.12978765       4.08651937      14.11776169       0.00000000       0.00009796      -0.00757730
N        4.08649688       4.08649676      16.28135293       0.00004962       0.00004962       0.00898523
N        6.12978763       6.12978751      16.28143727       0.00000000       0.00000000       0.00891093
N        4.08652507      10.21631269      10.00000000       0.00000591      -0.00004731      -1.35334257
N        6.12978761       8.17305015      10.00000000       0.00000000       0.00005374      -1.35340942
N        4.08652507       8.17305015      12.04326254      -0.00007662       0.00007662      -0.54837337
N        6.12978761      10.21631269      12.04326254       0.00000000      -0.00010130      -0.54813168
N        4.08651803      10.21632104      14.11776749       0.00005888      -0.00004114      -0.00754799
N        6.12978756       8.17305586      14.11776202       0.00000000      -0.00009796      -0.00757730
N        4.08649686       8.17307859      16.28135247       0.00004962      -0.00004962       0.00898523
N        6.12978764      10.21630424      16.28140207       0.00000000      -0.00007739       0.00910813
N        8.17305015       2.04326254      10.00000000      -0.00000591       0.00004731      -1.35334257
N       10.21631269       0.00000000      10.00000000      -0.00007713       0.00000000      -1.35339965
N        8.17305015       0.00000000      12.04326254       0.00012444       0.00000000      -0.54821036
N       10.21631269       2.04326254      12.04326254      -0.00005811       0.00005811      -0.54844459
N        8.17305705       2.04325389      14.11776692      -0.00005888       0.00004114      -0.00754799
N       10.21632390      -0.00000012      14.11774847       0.00001954      -0.00000000      -0.00754310
N        8.17308774       0.00000001      16.28137044      -0.00000643       0.00000000       0.00918758
N       10.21629447       2.04328081      16.28131459      -0.00007251       0.00007251       0.00913719
N        8.17305015       6.12978761      10.00000000       0.00005374       0.00000000      -1.35340942
N       10.21631269       4.08652507      10.00000000      -0.00004731       0.00000591      -1.35334257
N        8.17305015       4.08652507      12.04326254       0.00007662      -0.00007662      -0.54837337
N       10.21631269       6.12978761      12.04326254      -0.00010130       0.00000000      -0.54813168
N        8.17305564       6.12978734      14.11776159      -0.00009796       0.00000000      -0.00757730
N       10.21632133       4.08651823      14.11776751      -0.00004114       0.00005888      -0.00754799
N        8.17307852       4.08649675      16.28135264      -0.00004962       0.00004962       0.00898523
N       10.21630421       6.12978767      16.28140185      -0.00007739      -0.00000000       0.00910813
N        8.17305015      10.21631269      10.00000000      -0.00000591      -0.00004731      -1.35334257
N       10.21631269       8.17305015      10.00000000      -0.00004731      -0.00000591      -1.35334257
N        8.17305015       8.17305015      12.04326254       0.00007662       0.00007662      -0.54837337
N       10.21631269      10.21631269      12.04326254      -0.00005811      -0.00005811      -0.54844459
N        8.17305698      10.21632135      14.11776746      -0.00005888      -0.00004114      -0.00754799
N       10.21632132       8.17305693      14.11776688      -0.00004114      -0.00005888      -0.00754799
N        8.17307843       8.17307849      16.28135263      -0.00004962      -0.00004962       0.00898523
N       10.21629446      10.21629436      16.28131461      -0.00007251      -0.00007251       0.00913719
