144
Lattice="13.691787681916065 0.0 0.0 0.0 13.691787681916065 0.0 0.0 0.0 26.84589886156329" Properties=species:S:1:pos:R:3:forces:R:3 energy=-117122.51472795352 free_energy=-117122.51472795352 pbc="T T T"
Zr       0.00000000       0.00000000      10.00000000       0.00000000       0.00000000       1.54272103
Zr       2.28196466       0.00000000      12.28196466       0.00032987       0.00000000       0.22073666
Zr       0.00000000       2.28196466      12.28196466       0.00000000       0.00032987       0.22073666
Zr       2.28196466       2.28196466      10.00000000       0.00020749       0.00020749       1.54276037
Zr       0.00000021      -0.00000305      14.56271786       0.00000000       0.00000000      -0.00358669
Zr       2.28192107      -0.00000491      16.75501110       0.00049751       0.00000000      -0.00316194
Zr      -0.00000662       2.28191905      16.75500442       0.00000000       0.00049751      -0.00316194
Zr       2.28191488       2.28191317      14.56273151       0.00066514       0.00066514      -0.00402378
Zr       0.00000000       4.56392932      10.00000000       0.00000000       0.00031702       1.54287478
Zr       2.28196466       4.56392932      12.28196466      -0.00018023       0.00015607       0.22070992
Zr       0.00000000       6.84589398      12.28196466       0.00000000       0.00000000       0.22092410
Zr       2.28196466       6.84589398      10.00000000      -0.00010901       0.00000000       1.54272746
Zr       0.00000656       4.56385834      14.56274213      -0.00000000       0.00104464      -0.00416107
Zr       2.28200234       4.56391637      16.75506692      -0.00060832       0.00006171      -0.00375535
Zr      -0.00000868       6.84588689      16.75507590       0.00000000       0.00000000      -0.00411968
Zr       2.28199762       6.84589071      14.56277870      -0.00074485       0.00000000      -0.00459405
Zr       0.00000000       9.12785864      10.00000000       0.00000000      -0.00031702       1.54287478
Zr       2.28196466       9.12785864      12.28196466      -0.00018023      -0.00015607       0.22070992
Zr       0.00000000      11.40982330      12.28196466       0.00000000      -0.00032987       0.22073666
Zr       2.28196466      11.40982330      10.00000000       0.00020749      -0.00020749       1.54276037
Zr       0.00000288       9.12793393      14.56273809       0.00000000      -0.00104464      -0.00416107
Zr       2.28200400       9.12787318      16.75504926      -0.00060832      -0.00006171      -0.00375535
Zr      -0.00000347      11.40987313      16.75503719       0.00000000      -0.00049751      -0.00316194
Zr       2.28190806      11.40987398      14.56274993       0.00066514      -0.00066514      -0.00402378
Zr       4.56392932       0.00000000      10.00000000       0.00031702       0.00000000       1.54287478
Zr       6.84589398       0.00000000      12.28196466       0.00000000       0.00000000       0.22092410
Zr       4.56392932       2.28196466      12.28196466       0.00015607      -0.00018023       0.22070992
Zr       6.84589398       2.28196466      10.00000000       0.00000000      -0.00010901       1.54272746
Zr       4.56385895      -0.00000191      14.56274227       0.00104464       0.00000000      -0.00416107
Zr       6.84588914      -0.00000925      16.75507435       0.00000000       0.00000000      -0.00411968
Zr       4.56391825       2.28200212      16.75506371       0.00006171      -0.00060832      -0.00375535
Zr       6.84589827       2.28199413      14.56276828      -0.00000000      -0.00074485      -0.00459405
Zr       4.56392932       4.56392932      10.00000000      -0.00000694      -0.00000694       1.54245209
Zr       6.84589398       4.56392932      12.28196466      -0.00000000      -0.00035018       0.22019879
Zr       4.56392932       6.84589398      12.28196466      -0.00035018       0.00000000       0.22019879
Zr       6.84589398       6.84589398      10.00000000       0.00000000       0.00000000       1.54210268
Zr       4.56394246       4.56394219      14.56283031      -0.00036613      -0.00036613      -0.00496737
Zr       6.84588937       4.56400553      16.75505295       0.00000000      -0.00106906      -0.00342265
Zr       4.56400539       6.84589348      16.75504275      -0.00106906       0.00000000      -0.00342265
Zr       6.84589394       6.84588976      14.56289386       0.00000000       0.00000000      -0.00560372
Zr       4.56392932       9.12785864      10.00000000      -0.00000694       0.00000694       1.54245209
Zr       6.84589398       9.12785864      12.28196466       0.00000000       0.00035018       0.22019879
Zr       4.56392932      11.40982330      12.28196466       0.00015607       0.00018023       0.22070992
Zr       6.84589398      11.40982330      10.00000000       0.00000000       0.00010901       1.54272746
Zr       4.56394347       9.12784692      14.56282022      -0.00036613       0.00036613      -0.00496737
Zr       6.84590069       9.12779134      16.75504242       0.00000000       0.00106906      -0.00342265
Zr       4.56391724      11.40979447      16.75504998       0.00006171       0.00060832      -0.00375535
Zr       6.84589390      11.40979075      14.56277980       0.00000000       0.00074485      -0.00459405
Zr       9.12785864       0.00000000      10.00000000      -0.00031702       0.00000000       1.54287478
Zr      11.40982330       0.00000000      12.28196466      -0.00032987       0.00000000       0.22073666
Zr       9.12785864       2.28196466      12.28196466      -0.00015607      -0.00018023       0.22070992
Zr      11.40982330       2.28196466      10.00000000      -0.00020749       0.00020749       1.54276037
Zr       9.12793448       0.00000369      14.56273258      -0.00104464       0.00000000      -0.00416107
Zr      11.40986968      -0.00000165      16.75501526      -0.00049751       0.00000000      -0.00316194
Zr       9.12787890       2.28200319      16.75506689      -0.00006171      -0.00060832      -0.00375535
Zr      11.40986929       2.28190922      14.56274328      -0.00066514       0.00066514      -0.00402378
Zr       9.12785864       4.56392932      10.00000000       0.00000694      -0.00000694       1.54245209
Zr      11.40982330       4.56392932      12.28196466       0.00018023       0.00015607       0.22070992
Zr       9.12785864       6.84589398      12.28196466       0.00035018      -0.00000000       0.22019879
Zr      11.40982330       6.84589398      10.00000000       0.00010901       0.00000000       1.54272746
Zr       9.12784665       4.56393970      14.56281826       0.00036613      -0.00036613      -0.00496737
Zr      11.40979272       4.56391752      16.75505956       0.00060832       0.00006171      -0.00375535
Zr       9.12778793       6.84590057      16.75506039       0.00106906      -0.00000000      -0.00342265
Zr      11.40978559       6.84589219      14.56278005       0.00074485      -0.00000000      -0.00459405
Zr       9.12785864       9.12785864      10.00000000       0.00000694       0.00000694       1.54245209
Zr      11.40982330       9.12785864      12.28196466       0.00018023      -0.00015607       0.22070992
Zr       9.12785864      11.40982330      12.28196466      -0.00015607       0.00018023       0.22070992
Zr      11.40982330      11.40982330      10.00000000      -0.00020749      -0.00020749       1.54276037
Zr       9.12784691       9.12784634      14.56282968       0.00036613       0.00036613      -0.00496737
Zr      11.40977502       9.12786906      16.75505682       0.00060832      -0.00006171      -0.00375535
Zr       9.12787404      11.40978018      16.75504354      -0.00006171       0.00060832      -0.00375535
Zr      11.40987887      11.40987566      14.56274466      -0.00066514      -0.00066514      -0.00402378
N        0.00000000       2.28196466      10.00000000       0.00000000      -0.00004551      -0.90074897
N        2.28196466       0.00000000      10.00000000      -0.00004551       0.00000000      -0.90074897
N        0.00000000       0.00000000      12.28196466       0.00000000       0.00000000      -0.86462086
N        2.28196466       2.28196466      12.28196466       0.00002365       0.00002365      -0.86444422
N       -0.00000197       2.28195433      14.58786647       0.00000000      -0.00010850       0.00419861
N        2.28195741      -0.00000022      14.58786416      -0.00010850       0.00000000       0.00419861
N        0.00000055      -0.00000013      16.91440779       0.00000000       0.00000000       0.00504682
N        2.28197662       2.28197736      16.91431710      -0.00012907      -0.00012907       0.00521548
N        0.00000000       6.84589398      10.00000000       0.00000000       0.00000000      -0.90066309
N        2.28196466       4.56392932      10.00000000      -0.00000797      -0.00003420      -0.90069986
N        0.00000000       4.56392932      12.28196466       0.00000000       0.00000231      -0.86440797
N        2.28196466       6.84589398      12.28196466       0.00007739      -0.00000000      -0.86417605
N       -0.00000012       6.84589554      14.58796441       0.00000000       0.00000000       0.00405643
N        2.28196464       4.56392020      14.58793933       0.00003959      -0.00001877       0.00427189
N        0.00000235       4.56394988      16.91434362       0.00000000      -0.00018486       0.00536641
N        2.28195034       6.84589846      16.91431426       0.00011544       0.00000000       0.00546179
N        0.00000000      11.40982330      10.00000000       0.00000000       0.00004551      -0.90074897
N        2.28196466       9.12785864      10.00000000      -0.00000797       0.00003420      -0.90069986
N        0.00000000       9.12785864      12.28196466      -0.00000000      -0.00000231      -0.86440797
N        2.28196466      11.40982330      12.28196466       0.00002365      -0.00002365      -0.86444422
N        0.00000155      11.40982817      14.58789997       0.00000000       0.00010850       0.00419861
N        2.28196514       9.12786994      14.58793491       0.00003959       0.00001877       0.00427189
N        0.00000128       9.12784197      16.91429492      -0.00000000       0.00018486       0.00536641
N        2.28197598      11.40980748      16.91440094      -0.00012907       0.00012907       0.00521548
N        4.56392932       2.28196466      10.00000000      -0.00003420      -0.00000797      -0.90069986
N        6.84589398       0.00000000      10.00000000       0.00000000       0.00000000      -0.90066309
N        4.56392932       0.00000000      12.28196466       0.00000231       0.00000000      -0.86440797
N        6.84589398       2.28196466      12.28196466       0.00000000       0.00007739      -0.86417605
N        4.56392142       2.28196372      14.58791047      -0.00001877       0.00003959       0.00427189
N        6.84589294      -0.00000337      14.58797741       0.00000000       0.00000000       0.00405643
N        4.56394618      -0.00000146      16.91433955      -0.00018486      -0.00000000       0.00536641
N        6.84589808       2.28195224      16.91430076       0.00000000       0.00011544       0.00546179
N        4.56392932       6.84589398      10.00000000       0.00000437       0.00000000      -0.90068701
N        6.84589398       4.56392932      10.00000000       0.00000000       0.00000437      -0.90068701
N        4.56392932       4.56392932      12.28196466       0.00005271       0.00005271      -0.86395751
N        6.84589398       6.84589398      12.28196466       0.00000000       0.00000000      -0.86361247
N        4.56392662       6.84589342      14.58783971       0.00010156      -0.00000000       0.00475526
N        6.84589112       4.56392522      14.58784565       0.00000000       0.00010156       0.00475526
N        4.56392207       4.56391886      16.91441710       0.00006016       0.00006016       0.00539469
N        6.84589493       6.84589500      16.91446282       0.00000000       0.00000000       0.00538440
N        4.56392932      11.40982330      10.00000000      -0.00003420       0.00000797      -0.90069986
N        6.84589398       9.12785864      10.00000000       0.00000000      -0.00000437      -0.90068701
N        4.56392932       9.12785864      12.28196466       0.00005271      -0.00005271      -0.86395751
N        6.84589398      11.40982330      12.28196466       0.00000000      -0.00007739      -0.86417605
N        4.56391709      11.40982268      14.58790487      -0.00001877      -0.00003959       0.00427189
N        6.84589023       9.12786079      14.58783812       0.00000000      -0.00010156       0.00475526
N        4.56391907       9.12786404      16.91436817       0.00006016      -0.00006016       0.00539469
N        6.84589632      11.40983781      16.91434487       0.00000000      -0.00011544       0.00546179
N        9.12785864       2.28196466      10.00000000       0.00003420      -0.00000797      -0.90069986
N       11.40982330       0.00000000      10.00000000       0.00004551      -0.00000000      -0.90074897
N        9.12785864       0.00000000      12.28196466      -0.00000231       0.00000000      -0.86440797
N       11.40982330       2.28196466      12.28196466      -0.00002365       0.00002365      -0.86444422
N        9.12786743       2.28196299      14.58794319       0.00001877       0.00003959       0.00427189
N       11.40982807      -0.00000080      14.58787083       0.00010850      -0.00000000       0.00419861
N        9.12783906       0.00000253      16.91429949       0.00018486       0.00000000       0.00536641
N       11.40980635       2.28197457      16.91437629       0.00012907      -0.00012907       0.00521548
N        9.12785864       6.84589398      10.00000000      -0.00000437       0.00000000      -0.90068701
N       11.40982330       4.56392932      10.00000000       0.00000797      -0.00003420      -0.90069986
N        9.12785864       4.56392932      12.28196466      -0.00005271       0.00005271      -0.86395751
N       11.40982330       6.84589398      12.28196466      -0.00007739       0.00000000      -0.86417605
N        9.12786052       6.84588848      14.58784285      -0.00010156      -0.00000000       0.00475526
N       11.40982283       4.56391749      14.58790578      -0.00003959      -0.00001877       0.00427189
N        9.12786243       4.56392164      16.91435517      -0.00006016       0.00006016       0.00539469
N       11.40983727       6.84589481      16.91434638      -0.00011544       0.00000000       0.00546179
N        9.12785864      11.40982330      10.00000000       0.00003420       0.00000797      -0.90069986
N       11.40982330       9.12785864      10.00000000       0.00000797       0.00003420      -0.90069986
N        9.12785864       9.12785864      12.28196466      -0.00005271      -0.00005271      -0.86395751
N       11.40982330      11.40982330      12.28196466      -0.00002365      -0.00002365      -0.86444422
N        9.12787074      11.40982292      14.58789911       0.00001877      -0.00003959       0.00427189
N       11.40982651       9.12786848      14.58790081      -0.00003959       0.00001877       0.00427189
N        9.12786700       9.12786794      16.91441581      -0.00006016      -0.00006016       0.00539469
N       11.40980902      11.40981210      16.91437626       0.00012907       0.00012907       0.00521548
