8
Lattice="4.383210749629909 0.0 0.0 0.0 4.383210749629909 0.0 0.0 0.0 4.383210749629909" Properties=species:S:1:pos:R:3:forces:R:3 energy=-7326.397185511005 free_energy=-7326.397185511005 stress="0.010410071041131383 -0.0 -0.0 -0.0 0.010410071041131383 -0.0 -0.0 -0.0 0.010410071041131383" pbc="T T T"
Nb       0.00000000       0.00000000       0.00000000       0.00000000       0.00000000       0.00000000
Nb       2.19160537       2.19160537       0.00000000       0.00000000       0.00000000       0.00000000
Nb       2.19160537       0.00000000       2.19160537       0.00000000       0.00000000       0.00000000
Nb       0.00000000       2.19160537       2.19160537       0.00000000       0.00000000       0.00000000
N        0.00000000       0.00000000       2.19160537       0.00000000       0.00000000       0.00000000
N        0.00000000       2.19160537       0.00000000       0.00000000       0.00000000       0.00000000
N        2.19160537       0.00000000       0.00000000       0.00000000       0.00000000       0.00000000
N        2.19160537       2.19160537       2.19160537       0.00000000       0.00000000       0.00000000
