
     Program PWSCF v.7.5 starts on 29Apr2026 at  1:10:35 

     This program is part of the open-source Quantum ESPRESSO suite
     for quantum simulation of materials; please cite
         "P. Giannozzi et al., J. Phys.:Condens. Matter 21 395502 (2009);
         "P. Giannozzi et al., J. Phys.:Condens. Matter 29 465901 (2017);
         "P. Giannozzi et al., J. Chem. Phys. 152 154105 (2020);
          URL http://www.quantum-espresso.org", 
     in publications or presentations arising from this work. More details at
     http://www.quantum-espresso.org/quote

     Parallel version (MPI & OpenMP), running on      32 processor cores
     Number of MPI processes:                32
     Threads/MPI process:                     1

     MPI processes distributed on     1 nodes
     587939 MiB available memory on the printing compute node when the environment starts

     Waiting for input...
     Reading input from standard input

     Current dimensions of program PWSCF are:
     Max number of different atomic species (ntypx) = 10
     Max number of k-points (npk) =  40000
     Max angular momentum in pseudopotentials (lmaxx) =  4
     file V.pbe-spnl-kjpaw_psl.1.0.0.UPF: wavefunction(s)  3P 3D renormalized
     file N.pbe-n-kjpaw_psl.1.0.0.UPF: wavefunction(s)  2S renormalized

     Atomic positions and unit cell read from directory:
     ./tmp/VN_slab.save/

     Found identity + (  0.5000  0.5000  0.0000) symmetry
     This is a supercell, fractional translations are disabled
     Message from routine setup:
     using ibrav=0 with symmetry is DISCOURAGED, use correct ibrav instead

     K-points division:     npool     =       2
     R & G space division:  proc/nbgrp/npool/nimage =      16
     Subspace diagonalization in iterative solution of the eigenvalue problem:
     one sub-group per band group will be used
     ELPA distributed-memory algorithm (size of sub-group:  4*  4 procs)


     Parallelization info
     --------------------
     sticks:   dense  smooth     PW     G-vecs:    dense   smooth      PW
     Min        1281     640    168               294145   103996   13996
     Max        1282     641    169               294149   104005   14005
     Sum       20509   10245   2701              4706349  1663999  224041

     Using Slab Decomposition



     bravais-lattice index     =            0
     lattice parameter (alat)  =      23.1672  a.u.
     unit-cell volume          =   26502.2878 (a.u.)^3
     number of atoms/cell      =          144
     number of atomic types    =            2
     number of electrons       =      1296.00
     number of Kohn-Sham states=          778
     kinetic-energy cutoff     =      60.0000  Ry
     charge density cutoff     =     480.0000  Ry
     Exchange-correlation= SLA  PW   PBX  PBC
                           (   1   4   3   4   0   0   0)

     celldm(1)=  23.167240  celldm(2)=   0.000000  celldm(3)=   0.000000
     celldm(4)=   0.000000  celldm(5)=   0.000000  celldm(6)=   0.000000

     crystal axes: (cart. coord. in units of alat)
               a(1) = (   1.000000   0.000000   0.000000 )  
               a(2) = (   0.000000   1.000000   0.000000 )  
               a(3) = (   0.000000   0.000000   2.131378 )  

     reciprocal axes: (cart. coord. in units 2 pi/alat)
               b(1) = (  1.000000  0.000000  0.000000 )  
               b(2) = (  0.000000  1.000000  0.000000 )  
               b(3) = (  0.000000  0.000000  0.469180 )  


     PseudoPot. # 1 for V  read from file:
     /lustre10/scratch/anizami/QE_2/PAW_pslib/V.pbe-spnl-kjpaw_psl.1.0.0.UPF
     MD5 check sum: 069c5df6a0a9f40a694a86a6cab52b89
     Pseudo is Projector augmented-wave + core cor, Zval = 13.0
     Generated using &quot;atomic&quot; code by A. Dal Corso  v.6.3
     Shape of augmentation charge: PSQ
     Using radial grid of 1181 points,  6 beta functions with: 
                l(1) =   0
                l(2) =   0
                l(3) =   1
                l(4) =   1
                l(5) =   2
                l(6) =   2
     Q(r) pseudized with 0 coefficients 


     PseudoPot. # 2 for N  read from file:
     /lustre10/scratch/anizami/QE_2/PAW_pslib/N.pbe-n-kjpaw_psl.1.0.0.UPF
     MD5 check sum: 14c48229446f9f2d411169a3abcbc3fa
     Pseudo is Projector augmented-wave + core cor, Zval =  5.0
     Generated using &quot;atomic&quot; code by A. Dal Corso  v.6.3
     Shape of augmentation charge: PSQ
     Using radial grid of 1085 points,  4 beta functions with: 
                l(1) =   0
                l(2) =   0
                l(3) =   1
                l(4) =   1
     Q(r) pseudized with 0 coefficients 


     atomic species   valence    mass     pseudopotential
     V                13.00     1.00000     V ( 1.00)
     N                 5.00     1.00000     N ( 1.00)

      8 Sym. Ops. (no inversion) found


                                    s                        frac. trans.

      isym =  1     identity                                     

 cryst.   s( 1) = (     1          0          0      )
                  (     0          1          0      )
                  (     0          0          1      )

 cart.    s( 1) = (  1.0000000  0.0000000  0.0000000 )
                  (  0.0000000  1.0000000  0.0000000 )
                  (  0.0000000  0.0000000  1.0000000 )


      isym =  2     180 deg rotation - cart. axis [0,0,1]        

 cryst.   s( 2) = (    -1          0          0      )
                  (     0         -1          0      )
                  (     0          0          1      )

 cart.    s( 2) = ( -1.0000000  0.0000000  0.0000000 )
                  (  0.0000000 -1.0000000  0.0000000 )
                  (  0.0000000  0.0000000  1.0000000 )


      isym =  3      90 deg rotation - cart. axis [0,0,-1]       

 cryst.   s( 3) = (     0         -1          0      )
                  (     1          0          0      )
                  (     0          0          1      )

 cart.    s( 3) = (  0.0000000  1.0000000  0.0000000 )
                  ( -1.0000000  0.0000000  0.0000000 )
                  (  0.0000000  0.0000000  1.0000000 )


      isym =  4      90 deg rotation - cart. axis [0,0,1]        

 cryst.   s( 4) = (     0          1          0      )
                  (    -1          0          0      )
                  (     0          0          1      )

 cart.    s( 4) = (  0.0000000 -1.0000000  0.0000000 )
                  (  1.0000000  0.0000000  0.0000000 )
                  (  0.0000000  0.0000000  1.0000000 )


      isym =  5     inv. 180 deg rotation - cart. axis [0,1,0]   

 cryst.   s( 5) = (     1          0          0      )
                  (     0         -1          0      )
                  (     0          0          1      )

 cart.    s( 5) = (  1.0000000  0.0000000  0.0000000 )
                  (  0.0000000 -1.0000000  0.0000000 )
                  (  0.0000000  0.0000000  1.0000000 )


      isym =  6     inv. 180 deg rotation - cart. axis [1,0,0]   

 cryst.   s( 6) = (    -1          0          0      )
                  (     0          1          0      )
                  (     0          0          1      )

 cart.    s( 6) = ( -1.0000000  0.0000000  0.0000000 )
                  (  0.0000000  1.0000000  0.0000000 )
                  (  0.0000000  0.0000000  1.0000000 )


      isym =  7     inv. 180 deg rotation - cart. axis [1,1,0]   

 cryst.   s( 7) = (     0         -1          0      )
                  (    -1          0          0      )
                  (     0          0          1      )

 cart.    s( 7) = (  0.0000000 -1.0000000  0.0000000 )
                  ( -1.0000000  0.0000000  0.0000000 )
                  (  0.0000000  0.0000000  1.0000000 )


      isym =  8     inv. 180 deg rotation - cart. axis [1,-1,0]  

 cryst.   s( 8) = (     0          1          0      )
                  (     1          0          0      )
                  (     0          0          1      )

 cart.    s( 8) = (  0.0000000  1.0000000  0.0000000 )
                  (  1.0000000  0.0000000  0.0000000 )
                  (  0.0000000  0.0000000  1.0000000 )


   Cartesian axes

     site n.     atom                  positions (alat units)
         1        V      tau(   1) = (   0.0000000   0.0000000   0.8156889  )
         2        V      tau(   2) = (   0.1666667   0.0000000   0.9823556  )
         3        V      tau(   3) = (   0.0000000   0.1666667   0.9823556  )
         4        V      tau(   4) = (   0.1666667   0.1666667   0.8156889  )
         5        V      tau(   5) = (   0.0000000   0.0000000   1.1549460  )
         6        V      tau(   6) = (   0.1666598   0.0000000   1.3066828  )
         7        V      tau(   7) = (  -0.0000000   0.1666598   1.3066828  )
         8        V      tau(   8) = (   0.1666654   0.1666654   1.1549466  )
         9        V      tau(   9) = (   0.0000000   0.3333333   0.8156889  )
        10        V      tau(  10) = (   0.1666667   0.3333333   0.9823556  )
        11        V      tau(  11) = (   0.0000000   0.5000000   0.9823556  )
        12        V      tau(  12) = (   0.1666667   0.5000000   0.8156889  )
        13        V      tau(  13) = (   0.0000000   0.3333321   1.1549468  )
        14        V      tau(  14) = (   0.1666607   0.3333401   1.3066848  )
        15        V      tau(  15) = (  -0.0000000   0.5000000   1.3066818  )
        16        V      tau(  16) = (   0.1666657   0.5000000   1.1549478  )
        17        V      tau(  17) = (   0.0000000   0.6666667   0.8156889  )
        18        V      tau(  18) = (   0.1666667   0.6666667   0.9823556  )
        19        V      tau(  19) = (   0.0000000   0.8333333   0.9823556  )
        20        V      tau(  20) = (   0.1666667   0.8333333   0.8156889  )
        21        V      tau(  21) = (  -0.0000000   0.6666678   1.1549468  )
        22        V      tau(  22) = (   0.1666607   0.6666599   1.3066848  )
        23        V      tau(  23) = (  -0.0000000   0.8333402   1.3066828  )
        24        V      tau(  24) = (   0.1666654   0.8333346   1.1549466  )
        25        V      tau(  25) = (   0.3333333   0.0000000   0.8156889  )
        26        V      tau(  26) = (   0.5000000   0.0000000   0.9823556  )
        27        V      tau(  27) = (   0.3333333   0.1666667   0.9823556  )
        28        V      tau(  28) = (   0.5000000   0.1666667   0.8156889  )
        29        V      tau(  29) = (   0.3333321   0.0000000   1.1549468  )
        30        V      tau(  30) = (   0.5000000   0.0000000   1.3066819  )
        31        V      tau(  31) = (   0.3333401   0.1666607   1.3066848  )
        32        V      tau(  32) = (   0.5000000   0.1666657   1.1549478  )
        33        V      tau(  33) = (   0.3333333   0.3333333   0.8156889  )
        34        V      tau(  34) = (   0.5000000   0.3333333   0.9823556  )
        35        V      tau(  35) = (   0.3333333   0.5000000   0.9823556  )
        36        V      tau(  36) = (   0.5000000   0.5000000   0.8156889  )
        37        V      tau(  37) = (   0.3333322   0.3333322   1.1549475  )
        38        V      tau(  38) = (   0.5000000   0.3333372   1.3066835  )
        39        V      tau(  39) = (   0.3333372   0.5000000   1.3066835  )
        40        V      tau(  40) = (   0.5000000   0.5000000   1.1549463  )
        41        V      tau(  41) = (   0.3333333   0.6666667   0.8156889  )
        42        V      tau(  42) = (   0.5000000   0.6666667   0.9823556  )
        43        V      tau(  43) = (   0.3333333   0.8333333   0.9823556  )
        44        V      tau(  44) = (   0.5000000   0.8333333   0.8156889  )
        45        V      tau(  45) = (   0.3333322   0.6666678   1.1549475  )
        46        V      tau(  46) = (   0.5000000   0.6666628   1.3066835  )
        47        V      tau(  47) = (   0.3333401   0.8333393   1.3066847  )
        48        V      tau(  48) = (   0.5000000   0.8333343   1.1549478  )
        49        V      tau(  49) = (   0.6666667   0.0000000   0.8156889  )
        50        V      tau(  50) = (   0.8333333   0.0000000   0.9823556  )
        51        V      tau(  51) = (   0.6666667   0.1666667   0.9823556  )
        52        V      tau(  52) = (   0.8333333   0.1666667   0.8156889  )
        53        V      tau(  53) = (   0.6666678   0.0000000   1.1549468  )
        54        V      tau(  54) = (   0.8333402   0.0000000   1.3066828  )
        55        V      tau(  55) = (   0.6666599   0.1666607   1.3066848  )
        56        V      tau(  56) = (   0.8333346   0.1666654   1.1549465  )
        57        V      tau(  57) = (   0.6666667   0.3333333   0.8156889  )
        58        V      tau(  58) = (   0.8333333   0.3333333   0.9823556  )
        59        V      tau(  59) = (   0.6666667   0.5000000   0.9823556  )
        60        V      tau(  60) = (   0.8333333   0.5000000   0.8156889  )
        61        V      tau(  61) = (   0.6666677   0.3333322   1.1549475  )
        62        V      tau(  62) = (   0.8333393   0.3333401   1.3066848  )
        63        V      tau(  63) = (   0.6666628   0.5000000   1.3066835  )
        64        V      tau(  64) = (   0.8333343   0.5000000   1.1549478  )
        65        V      tau(  65) = (   0.6666667   0.6666667   0.8156889  )
        66        V      tau(  66) = (   0.8333333   0.6666667   0.9823556  )
        67        V      tau(  67) = (   0.6666667   0.8333333   0.9823556  )
        68        V      tau(  68) = (   0.8333333   0.8333333   0.8156889  )
        69        V      tau(  69) = (   0.6666678   0.6666678   1.1549475  )
        70        V      tau(  70) = (   0.8333393   0.6666599   1.3066848  )
        71        V      tau(  71) = (   0.6666599   0.8333393   1.3066847  )
        72        V      tau(  72) = (   0.8333346   0.8333346   1.1549466  )
        73        N      tau(  73) = (   0.0000000   0.1666667   0.8156889  )
        74        N      tau(  74) = (   0.1666667   0.0000000   0.8156889  )
        75        N      tau(  75) = (   0.0000000   0.0000000   0.9823556  )
        76        N      tau(  76) = (   0.1666667   0.1666667   0.9823556  )
        77        N      tau(  77) = (   0.0000000   0.1666658   1.1515691  )
        78        N      tau(  78) = (   0.1666658   0.0000000   1.1515691  )
        79        N      tau(  79) = (  -0.0000000  -0.0000000   1.3280559  )
        80        N      tau(  80) = (   0.1666682   0.1666682   1.3280488  )
        81        N      tau(  81) = (   0.0000000   0.5000000   0.8156889  )
        82        N      tau(  82) = (   0.1666667   0.3333333   0.8156889  )
        83        N      tau(  83) = (   0.0000000   0.3333333   0.9823556  )
        84        N      tau(  84) = (   0.1666667   0.5000000   0.9823556  )
        85        N      tau(  85) = (  -0.0000000   0.5000000   1.1515689  )
        86        N      tau(  86) = (   0.1666660   0.3333328   1.1515707  )
        87        N      tau(  87) = (  -0.0000000   0.3333303   1.3280534  )
        88        N      tau(  88) = (   0.1666674   0.5000000   1.3280559  )
        89        N      tau(  89) = (   0.0000000   0.8333333   0.8156889  )
        90        N      tau(  90) = (   0.1666667   0.6666667   0.8156889  )
        91        N      tau(  91) = (   0.0000000   0.6666667   0.9823556  )
        92        N      tau(  92) = (   0.1666667   0.8333333   0.9823556  )
        93        N      tau(  93) = (   0.0000000   0.8333342   1.1515691  )
        94        N      tau(  94) = (   0.1666660   0.6666672   1.1515707  )
        95        N      tau(  95) = (   0.0000000   0.6666697   1.3280534  )
        96        N      tau(  96) = (   0.1666682   0.8333318   1.3280488  )
        97        N      tau(  97) = (   0.3333333   0.1666667   0.8156889  )
        98        N      tau(  98) = (   0.5000000   0.0000000   0.8156889  )
        99        N      tau(  99) = (   0.3333333   0.0000000   0.9823556  )
       100        N      tau( 100) = (   0.5000000   0.1666667   0.9823556  )
       101        N      tau( 101) = (   0.3333328   0.1666660   1.1515706  )
       102        N      tau( 102) = (   0.5000000   0.0000000   1.1515689  )
       103        N      tau( 103) = (   0.3333303  -0.0000000   1.3280534  )
       104        N      tau( 104) = (   0.5000000   0.1666674   1.3280560  )
       105        N      tau( 105) = (   0.3333333   0.5000000   0.8156889  )
       106        N      tau( 106) = (   0.5000000   0.3333333   0.8156889  )
       107        N      tau( 107) = (   0.3333333   0.3333333   0.9823556  )
       108        N      tau( 108) = (   0.5000000   0.5000000   0.9823556  )
       109        N      tau( 109) = (   0.3333329   0.5000000   1.1515702  )
       110        N      tau( 110) = (   0.5000000   0.3333329   1.1515702  )
       111        N      tau( 111) = (   0.3333310   0.3333310   1.3280519  )
       112        N      tau( 112) = (   0.5000000   0.5000000   1.3280588  )
       113        N      tau( 113) = (   0.3333333   0.8333333   0.8156889  )
       114        N      tau( 114) = (   0.5000000   0.6666667   0.8156889  )
       115        N      tau( 115) = (   0.3333333   0.6666667   0.9823556  )
       116        N      tau( 116) = (   0.5000000   0.8333333   0.9823556  )
       117        N      tau( 117) = (   0.3333328   0.8333340   1.1515707  )
       118        N      tau( 118) = (   0.5000000   0.6666671   1.1515702  )
       119        N      tau( 119) = (   0.3333310   0.6666690   1.3280519  )
       120        N      tau( 120) = (   0.5000000   0.8333326   1.3280560  )
       121        N      tau( 121) = (   0.6666667   0.1666667   0.8156889  )
       122        N      tau( 122) = (   0.8333333   0.0000000   0.8156889  )
       123        N      tau( 123) = (   0.6666667   0.0000000   0.9823556  )
       124        N      tau( 124) = (   0.8333333   0.1666667   0.9823556  )
       125        N      tau( 125) = (   0.6666672   0.1666660   1.1515706  )
       126        N      tau( 126) = (   0.8333342  -0.0000000   1.1515691  )
       127        N      tau( 127) = (   0.6666697   0.0000000   1.3280534  )
       128        N      tau( 128) = (   0.8333318   0.1666682   1.3280488  )
       129        N      tau( 129) = (   0.6666667   0.5000000   0.8156889  )
       130        N      tau( 130) = (   0.8333333   0.3333333   0.8156889  )
       131        N      tau( 131) = (   0.6666667   0.3333333   0.9823556  )
       132        N      tau( 132) = (   0.8333333   0.5000000   0.9823556  )
       133        N      tau( 133) = (   0.6666671   0.5000000   1.1515702  )
       134        N      tau( 134) = (   0.8333340   0.3333328   1.1515707  )
       135        N      tau( 135) = (   0.6666690   0.3333310   1.3280519  )
       136        N      tau( 136) = (   0.8333326   0.5000000   1.3280559  )
       137        N      tau( 137) = (   0.6666667   0.8333333   0.8156889  )
       138        N      tau( 138) = (   0.8333333   0.6666667   0.8156889  )
       139        N      tau( 139) = (   0.6666667   0.6666667   0.9823556  )
       140        N      tau( 140) = (   0.8333333   0.8333333   0.9823556  )
       141        N      tau( 141) = (   0.6666672   0.8333340   1.1515707  )
       142        N      tau( 142) = (   0.8333340   0.6666672   1.1515706  )
       143        N      tau( 143) = (   0.6666690   0.6666690   1.3280519  )
       144        N      tau( 144) = (   0.8333318   0.8333318   1.3280488  )

   Crystallographic axes

     site n.     atom                  positions (cryst. coord.)
         1        V      tau(   1) = (  0.0000000  0.0000000  0.3827050  )
         2        V      tau(   2) = (  0.1666667  0.0000000  0.4609016  )
         3        V      tau(   3) = (  0.0000000  0.1666667  0.4609016  )
         4        V      tau(   4) = (  0.1666667  0.1666667  0.3827050  )
         5        V      tau(   5) = (  0.0000000  0.0000000  0.5418776  )
         6        V      tau(   6) = (  0.1666598  0.0000000  0.6130695  )
         7        V      tau(   7) = ( -0.0000000  0.1666598  0.6130695  )
         8        V      tau(   8) = (  0.1666654  0.1666654  0.5418779  )
         9        V      tau(   9) = (  0.0000000  0.3333333  0.3827050  )
        10        V      tau(  10) = (  0.1666667  0.3333333  0.4609016  )
        11        V      tau(  11) = (  0.0000000  0.5000000  0.4609016  )
        12        V      tau(  12) = (  0.1666667  0.5000000  0.3827050  )
        13        V      tau(  13) = (  0.0000000  0.3333321  0.5418780  )
        14        V      tau(  14) = (  0.1666607  0.3333401  0.6130704  )
        15        V      tau(  15) = ( -0.0000000  0.5000000  0.6130690  )
        16        V      tau(  16) = (  0.1666657  0.5000000  0.5418784  )
        17        V      tau(  17) = (  0.0000000  0.6666667  0.3827050  )
        18        V      tau(  18) = (  0.1666667  0.6666667  0.4609016  )
        19        V      tau(  19) = (  0.0000000  0.8333333  0.4609016  )
        20        V      tau(  20) = (  0.1666667  0.8333333  0.3827050  )
        21        V      tau(  21) = ( -0.0000000  0.6666678  0.5418780  )
        22        V      tau(  22) = (  0.1666607  0.6666599  0.6130704  )
        23        V      tau(  23) = ( -0.0000000  0.8333402  0.6130695  )
        24        V      tau(  24) = (  0.1666654  0.8333346  0.5418779  )
        25        V      tau(  25) = (  0.3333333  0.0000000  0.3827050  )
        26        V      tau(  26) = (  0.5000000  0.0000000  0.4609016  )
        27        V      tau(  27) = (  0.3333333  0.1666667  0.4609016  )
        28        V      tau(  28) = (  0.5000000  0.1666667  0.3827050  )
        29        V      tau(  29) = (  0.3333321  0.0000000  0.5418780  )
        30        V      tau(  30) = (  0.5000000  0.0000000  0.6130690  )
        31        V      tau(  31) = (  0.3333401  0.1666607  0.6130704  )
        32        V      tau(  32) = (  0.5000000  0.1666657  0.5418784  )
        33        V      tau(  33) = (  0.3333333  0.3333333  0.3827050  )
        34        V      tau(  34) = (  0.5000000  0.3333333  0.4609016  )
        35        V      tau(  35) = (  0.3333333  0.5000000  0.4609016  )
        36        V      tau(  36) = (  0.5000000  0.5000000  0.3827050  )
        37        V      tau(  37) = (  0.3333322  0.3333322  0.5418783  )
        38        V      tau(  38) = (  0.5000000  0.3333372  0.6130698  )
        39        V      tau(  39) = (  0.3333372  0.5000000  0.6130698  )
        40        V      tau(  40) = (  0.5000000  0.5000000  0.5418778  )
        41        V      tau(  41) = (  0.3333333  0.6666667  0.3827050  )
        42        V      tau(  42) = (  0.5000000  0.6666667  0.4609016  )
        43        V      tau(  43) = (  0.3333333  0.8333333  0.4609016  )
        44        V      tau(  44) = (  0.5000000  0.8333333  0.3827050  )
        45        V      tau(  45) = (  0.3333322  0.6666678  0.5418783  )
        46        V      tau(  46) = (  0.5000000  0.6666628  0.6130698  )
        47        V      tau(  47) = (  0.3333401  0.8333393  0.6130704  )
        48        V      tau(  48) = (  0.5000000  0.8333343  0.5418785  )
        49        V      tau(  49) = (  0.6666667  0.0000000  0.3827050  )
        50        V      tau(  50) = (  0.8333333  0.0000000  0.4609016  )
        51        V      tau(  51) = (  0.6666667  0.1666667  0.4609016  )
        52        V      tau(  52) = (  0.8333333  0.1666667  0.3827050  )
        53        V      tau(  53) = (  0.6666678  0.0000000  0.5418780  )
        54        V      tau(  54) = (  0.8333402  0.0000000  0.6130695  )
        55        V      tau(  55) = (  0.6666599  0.1666607  0.6130704  )
        56        V      tau(  56) = (  0.8333346  0.1666654  0.5418779  )
        57        V      tau(  57) = (  0.6666667  0.3333333  0.3827050  )
        58        V      tau(  58) = (  0.8333333  0.3333333  0.4609016  )
        59        V      tau(  59) = (  0.6666667  0.5000000  0.4609016  )
        60        V      tau(  60) = (  0.8333333  0.5000000  0.3827050  )
        61        V      tau(  61) = (  0.6666677  0.3333322  0.5418783  )
        62        V      tau(  62) = (  0.8333393  0.3333401  0.6130704  )
        63        V      tau(  63) = (  0.6666628  0.5000000  0.6130698  )
        64        V      tau(  64) = (  0.8333343  0.5000000  0.5418785  )
        65        V      tau(  65) = (  0.6666667  0.6666667  0.3827050  )
        66        V      tau(  66) = (  0.8333333  0.6666667  0.4609016  )
        67        V      tau(  67) = (  0.6666667  0.8333333  0.4609016  )
        68        V      tau(  68) = (  0.8333333  0.8333333  0.3827050  )
        69        V      tau(  69) = (  0.6666678  0.6666678  0.5418783  )
        70        V      tau(  70) = (  0.8333393  0.6666599  0.6130704  )
        71        V      tau(  71) = (  0.6666599  0.8333393  0.6130704  )
        72        V      tau(  72) = (  0.8333346  0.8333346  0.5418779  )
        73        N      tau(  73) = (  0.0000000  0.1666667  0.3827050  )
        74        N      tau(  74) = (  0.1666667  0.0000000  0.3827050  )
        75        N      tau(  75) = (  0.0000000  0.0000000  0.4609016  )
        76        N      tau(  76) = (  0.1666667  0.1666667  0.4609016  )
        77        N      tau(  77) = (  0.0000000  0.1666658  0.5402932  )
        78        N      tau(  78) = (  0.1666658  0.0000000  0.5402932  )
        79        N      tau(  79) = ( -0.0000000 -0.0000000  0.6230973  )
        80        N      tau(  80) = (  0.1666682  0.1666682  0.6230940  )
        81        N      tau(  81) = (  0.0000000  0.5000000  0.3827050  )
        82        N      tau(  82) = (  0.1666667  0.3333333  0.3827050  )
        83        N      tau(  83) = (  0.0000000  0.3333333  0.4609016  )
        84        N      tau(  84) = (  0.1666667  0.5000000  0.4609016  )
        85        N      tau(  85) = ( -0.0000000  0.5000000  0.5402932  )
        86        N      tau(  86) = (  0.1666660  0.3333328  0.5402940  )
        87        N      tau(  87) = ( -0.0000000  0.3333303  0.6230961  )
        88        N      tau(  88) = (  0.1666674  0.5000000  0.6230973  )
        89        N      tau(  89) = (  0.0000000  0.8333333  0.3827050  )
        90        N      tau(  90) = (  0.1666667  0.6666667  0.3827050  )
        91        N      tau(  91) = (  0.0000000  0.6666667  0.4609016  )
        92        N      tau(  92) = (  0.1666667  0.8333333  0.4609016  )
        93        N      tau(  93) = (  0.0000000  0.8333342  0.5402932  )
        94        N      tau(  94) = (  0.1666660  0.6666672  0.5402940  )
        95        N      tau(  95) = (  0.0000000  0.6666697  0.6230961  )
        96        N      tau(  96) = (  0.1666682  0.8333318  0.6230940  )
        97        N      tau(  97) = (  0.3333333  0.1666667  0.3827050  )
        98        N      tau(  98) = (  0.5000000  0.0000000  0.3827050  )
        99        N      tau(  99) = (  0.3333333  0.0000000  0.4609016  )
       100        N      tau( 100) = (  0.5000000  0.1666667  0.4609016  )
       101        N      tau( 101) = (  0.3333328  0.1666660  0.5402940  )
       102        N      tau( 102) = (  0.5000000  0.0000000  0.5402931  )
       103        N      tau( 103) = (  0.3333303 -0.0000000  0.6230961  )
       104        N      tau( 104) = (  0.5000000  0.1666674  0.6230973  )
       105        N      tau( 105) = (  0.3333333  0.5000000  0.3827050  )
       106        N      tau( 106) = (  0.5000000  0.3333333  0.3827050  )
       107        N      tau( 107) = (  0.3333333  0.3333333  0.4609016  )
       108        N      tau( 108) = (  0.5000000  0.5000000  0.4609016  )
       109        N      tau( 109) = (  0.3333329  0.5000000  0.5402938  )
       110        N      tau( 110) = (  0.5000000  0.3333329  0.5402937  )
       111        N      tau( 111) = (  0.3333310  0.3333310  0.6230955  )
       112        N      tau( 112) = (  0.5000000  0.5000000  0.6230987  )
       113        N      tau( 113) = (  0.3333333  0.8333333  0.3827050  )
       114        N      tau( 114) = (  0.5000000  0.6666667  0.3827050  )
       115        N      tau( 115) = (  0.3333333  0.6666667  0.4609016  )
       116        N      tau( 116) = (  0.5000000  0.8333333  0.4609016  )
       117        N      tau( 117) = (  0.3333328  0.8333340  0.5402940  )
       118        N      tau( 118) = (  0.5000000  0.6666671  0.5402938  )
       119        N      tau( 119) = (  0.3333310  0.6666690  0.6230954  )
       120        N      tau( 120) = (  0.5000000  0.8333326  0.6230973  )
       121        N      tau( 121) = (  0.6666667  0.1666667  0.3827050  )
       122        N      tau( 122) = (  0.8333333  0.0000000  0.3827050  )
       123        N      tau( 123) = (  0.6666667  0.0000000  0.4609016  )
       124        N      tau( 124) = (  0.8333333  0.1666667  0.4609016  )
       125        N      tau( 125) = (  0.6666672  0.1666660  0.5402939  )
       126        N      tau( 126) = (  0.8333342 -0.0000000  0.5402932  )
       127        N      tau( 127) = (  0.6666697  0.0000000  0.6230961  )
       128        N      tau( 128) = (  0.8333318  0.1666682  0.6230940  )
       129        N      tau( 129) = (  0.6666667  0.5000000  0.3827050  )
       130        N      tau( 130) = (  0.8333333  0.3333333  0.3827050  )
       131        N      tau( 131) = (  0.6666667  0.3333333  0.4609016  )
       132        N      tau( 132) = (  0.8333333  0.5000000  0.4609016  )
       133        N      tau( 133) = (  0.6666671  0.5000000  0.5402937  )
       134        N      tau( 134) = (  0.8333340  0.3333328  0.5402940  )
       135        N      tau( 135) = (  0.6666690  0.3333310  0.6230954  )
       136        N      tau( 136) = (  0.8333326  0.5000000  0.6230973  )
       137        N      tau( 137) = (  0.6666667  0.8333333  0.3827050  )
       138        N      tau( 138) = (  0.8333333  0.6666667  0.3827050  )
       139        N      tau( 139) = (  0.6666667  0.6666667  0.4609016  )
       140        N      tau( 140) = (  0.8333333  0.8333333  0.4609016  )
       141        N      tau( 141) = (  0.6666672  0.8333340  0.5402940  )
       142        N      tau( 142) = (  0.8333340  0.6666672  0.5402939  )
       143        N      tau( 143) = (  0.6666690  0.6666690  0.6230954  )
       144        N      tau( 144) = (  0.8333318  0.8333318  0.6230940  )

     number of k points=    15  Marzari-Vanderbilt smearing, width (Ry)=  0.0150
                       cart. coord. in units 2pi/alat
        k(    1) = (   0.0000000   0.0000000   0.0000000), wk =   0.0312500
        k(    2) = (   0.0000000   0.1250000   0.0000000), wk =   0.1250000
        k(    3) = (   0.0000000   0.2500000   0.0000000), wk =   0.1250000
        k(    4) = (   0.0000000   0.3750000   0.0000000), wk =   0.1250000
        k(    5) = (   0.0000000  -0.5000000   0.0000000), wk =   0.0625000
        k(    6) = (   0.1250000   0.1250000   0.0000000), wk =   0.1250000
        k(    7) = (   0.1250000   0.2500000   0.0000000), wk =   0.2500000
        k(    8) = (   0.1250000   0.3750000   0.0000000), wk =   0.2500000
        k(    9) = (   0.1250000  -0.5000000   0.0000000), wk =   0.1250000
        k(   10) = (   0.2500000   0.2500000   0.0000000), wk =   0.1250000
        k(   11) = (   0.2500000   0.3750000   0.0000000), wk =   0.2500000
        k(   12) = (   0.2500000  -0.5000000   0.0000000), wk =   0.1250000
        k(   13) = (   0.3750000   0.3750000   0.0000000), wk =   0.1250000
        k(   14) = (   0.3750000  -0.5000000   0.0000000), wk =   0.1250000
        k(   15) = (  -0.5000000  -0.5000000   0.0000000), wk =   0.0312500

                       cryst. coord.
        k(    1) = (   0.0000000   0.0000000   0.0000000), wk =   0.0312500
        k(    2) = (   0.0000000   0.1250000   0.0000000), wk =   0.1250000
        k(    3) = (   0.0000000   0.2500000   0.0000000), wk =   0.1250000
        k(    4) = (   0.0000000   0.3750000   0.0000000), wk =   0.1250000
        k(    5) = (   0.0000000  -0.5000000   0.0000000), wk =   0.0625000
        k(    6) = (   0.1250000   0.1250000   0.0000000), wk =   0.1250000
        k(    7) = (   0.1250000   0.2500000   0.0000000), wk =   0.2500000
        k(    8) = (   0.1250000   0.3750000   0.0000000), wk =   0.2500000
        k(    9) = (   0.1250000  -0.5000000   0.0000000), wk =   0.1250000
        k(   10) = (   0.2500000   0.2500000   0.0000000), wk =   0.1250000
        k(   11) = (   0.2500000   0.3750000   0.0000000), wk =   0.2500000
        k(   12) = (   0.2500000  -0.5000000   0.0000000), wk =   0.1250000
        k(   13) = (   0.3750000   0.3750000   0.0000000), wk =   0.1250000
        k(   14) = (   0.3750000  -0.5000000   0.0000000), wk =   0.1250000
        k(   15) = (  -0.5000000  -0.5000000   0.0000000), wk =   0.0312500

     Dense  grid:  4706349 G-vectors     FFT dimensions: ( 162, 162, 360)

     Smooth grid:  1663999 G-vectors     FFT dimensions: ( 120, 120, 243)

     Dynamical RAM for                 wfc:     154.32 MB

     Dynamical RAM for     wfc (w. buffer):    1388.84 MB

     Dynamical RAM for           str. fact:       8.98 MB

     Dynamical RAM for           local pot:       0.00 MB

     Dynamical RAM for          nlocal pot:     371.31 MB

     Dynamical RAM for                qrad:       3.52 MB

     Dynamical RAM for          rho,v,vnew:      27.28 MB

     Dynamical RAM for           G-vectors:      17.62 MB

     Dynamical RAM for          h,s,v(r/c):      62.34 MB

     Dynamical RAM for          <psi|beta>:      22.22 MB

     Dynamical RAM for                 psi:     925.89 MB

     Dynamical RAM for                hpsi:     925.89 MB

     Dynamical RAM for                spsi:     925.89 MB

     Dynamical RAM for      wfcinit/wfcrot:     322.49 MB

     Dynamical RAM for           addusdens:     581.24 MB

     Estimated static dynamical RAM per process >       1.81 GB

     Estimated max dynamical RAM per process >       4.61 GB

     Estimated total dynamical RAM >     147.38 GB

     Check: negative core charge=   -0.000002

     The potential is recalculated from file :
     ./tmp/VN_slab.save/charge-density


     negative rho (up, down):  1.689E-02 0.000E+00
     Starting wfcs are 1008 randomized atomic wfcs
     Checking if some PAW data can be deallocated... 
       PAW data deallocated on   17 nodes for type:  1
       PAW data deallocated on   14 nodes for type:  2

     Band Structure Calculation
     Davidson diagonalization with overlap

     Computing kpt #:     1  of     8 on this pool
     total cpu time spent up to now is      235.9 secs

     Computing kpt #:     2  of     8 on this pool
     total cpu time spent up to now is      421.6 secs

     Computing kpt #:     3  of     8 on this pool
     total cpu time spent up to now is      626.4 secs

     Computing kpt #:     4  of     8 on this pool
     total cpu time spent up to now is      808.8 secs

     Computing kpt #:     5  of     8 on this pool
     total cpu time spent up to now is      997.7 secs

     Computing kpt #:     6  of     8 on this pool
     total cpu time spent up to now is     1239.2 secs

     Computing kpt #:     7  of     8 on this pool
     total cpu time spent up to now is     1415.6 secs

     Computing kpt #:     8  of     8 on this pool
     total cpu time spent up to now is     1609.9 secs

     ethr =  1.00E-04,  avg # of iterations = 11.9

     total cpu time spent up to now is     1609.9 secs

     End of band structure calculation

          k = 0.0000 0.0000 0.0000 (208073 PWs)   bands (ev):

   -61.8773 -61.8580 -61.8577 -61.8577 -61.8577 -61.8462 -61.8460 -61.8460
   -61.8460 -61.8282 -61.8280 -61.8280 -61.8279 -61.8226 -61.8225 -61.8225
   -61.8224 -61.8078 -61.8058 -61.7977 -61.7934 -61.7932 -61.7931 -61.7930
   -61.7898 -61.7898 -61.7896 -61.7896 -61.7800 -61.7799 -61.7797 -61.7796
   -61.7796 -61.7796 -61.7795 -61.7794 -61.7727 -61.7723 -61.7723 -61.7721
   -61.7657 -61.7655 -61.7655 -61.7654 -61.7600 -61.7450 -61.7447 -61.7447
   -61.7446 -61.7404 -61.7404 -61.7403 -61.7401 -61.7251 -61.6908 -61.6888
   -61.6882 -61.6882 -61.6882 -61.6872 -61.6868 -61.6867 -61.6867 -61.6832
   -61.6827 -61.6827 -61.6827 -61.6741 -61.6737 -61.6736 -61.6736 -61.6622
   -35.9634 -35.9634 -35.9633 -35.9633 -35.9407 -35.9407 -35.9406 -35.9406
   -35.9350 -35.9350 -35.9232 -35.9232 -35.9231 -35.9231 -35.9074 -35.9074
   -35.9074 -35.9073 -35.8725 -35.8725 -35.8724 -35.8724 -35.8711 -35.8711
   -35.8710 -35.8710 -35.8677 -35.8677 -35.8676 -35.8676 -35.8569 -35.8569
   -35.8548 -35.8548 -35.8548 -35.8547 -35.8453 -35.8453 -35.8453 -35.8452
   -35.8395 -35.8217 -35.8217 -35.8217 -35.8216 -35.8216 -35.8215 -35.8215
   -35.8214 -35.7992 -35.7992 -35.7992 -35.7991 -35.7934 -35.7934 -35.7934
   -35.7933 -35.7814 -35.7814 -35.7814 -35.7814 -35.7777 -35.7776 -35.7776
   -35.7776 -35.7490 -35.7489 -35.7341 -35.7341 -35.7340 -35.7340 -35.7320
   -35.7320 -35.7320 -35.7318 -35.7258 -35.6992 -35.6992 -35.6992 -35.6992
   -35.6979 -35.6979 -35.6979 -35.6978 -35.6718 -35.6679 -35.6679 -35.6649
   -35.6649 -35.6649 -35.6648 -35.6613 -35.6613 -35.6613 -35.6613 -35.6607
   -35.6606 -35.6606 -35.6605 -35.6545 -35.6545 -35.6544 -35.6544 -35.6394
   -35.6394 -35.6393 -35.6393 -35.6356 -35.6356 -35.6264 -35.6263 -35.6262
   -35.6262 -35.6153 -35.6153 -35.6152 -35.6152 -35.6020 -35.6020 -35.6020
   -35.6019 -35.5996 -35.5996 -35.5963 -35.5963 -35.5961 -35.5961 -35.5957
   -35.5956 -35.5956 -35.5956 -35.5903 -35.5898 -35.5898 -35.5897 -35.5897
   -35.5854 -35.5807 -35.5807 -35.5805 -35.5805 -35.5708 -35.5698 -35.5698
   -35.5698 -35.5697 -35.5681 -35.5679 -35.5679 -35.5678 -35.5637 -35.5637
   -35.5635 -35.5635 -35.5514 -35.5512 -35.5512 -35.5511 -35.5442 -35.5442
   -35.5437 -35.5436 -35.5435 -35.5434 -35.5403 -35.5403 -35.5402 -35.5402
   -35.5309 -35.5308 -35.5307 -35.5307 -35.5292 -35.5292 -35.5292 -35.5290
   -35.5002 -35.5002 -35.5002 -35.5002 -35.4981 -35.4981 -35.4981 -35.4981
   -35.4927 -35.4927 -35.4927 -35.4926 -35.4826 -35.4826 -35.4826 -35.4825
   -35.4724 -35.4642 -35.4642 -35.4640 -35.4640 -35.4521 -35.4521 -35.4235
   -35.4231 -35.4231 -35.4231 -35.4217 -35.4213 -35.4213 -35.4213 -35.3943
   -35.3939 -35.3939 -35.3939 -35.3937 -35.3787 -35.3785 -35.3784 -35.3784
   -14.3008 -13.6410 -13.6410 -13.6409 -13.6409 -13.4232 -13.0376 -13.0376
   -13.0376 -13.0375 -12.8630 -12.8630 -12.8630 -12.8630 -12.8253 -12.7925
   -12.7924 -12.7924 -12.7924 -12.6127 -12.5675 -12.4606 -12.4605 -12.4605
   -12.4604 -12.4347 -12.4347 -12.4346 -12.4346 -12.4061 -12.3962 -12.3962
   -12.3962 -12.3961 -12.2511 -12.2511 -12.2511 -12.2509 -12.0937 -12.0936
   -12.0936 -12.0935 -11.8969 -11.8969 -11.8968 -11.8968 -11.8408 -11.7017
   -11.7016 -11.7015 -11.7015 -11.6839 -11.6838 -11.6838 -11.6838 -11.5316
   -11.4586 -11.4586 -11.4585 -11.4585 -11.4472 -11.4470 -11.4470 -11.4469
   -11.4141 -11.4141 -11.4139 -11.4138 -11.1803 -11.1801 -11.1801 -11.1799
    -4.7264  -4.7264  -4.7263  -4.7263  -4.5267  -4.5267  -4.5266  -4.5266
    -4.4111  -4.4110  -4.4110  -4.4110  -4.2885  -4.2885  -4.2885  -4.2884
    -3.9657  -3.9657  -3.9657  -3.9657  -3.7518  -3.7518  -3.7518  -3.7517
    -3.6497  -3.6497  -3.6497  -3.6497  -3.6415  -3.6415  -3.6415  -3.6415
    -3.5240  -3.4971  -3.4970  -3.4970  -3.4970  -3.2550  -3.2550  -3.2550
    -3.2548  -3.1594  -3.1594  -3.1194  -3.1194  -3.1193  -3.1193  -3.1012
    -3.1011  -3.1011  -3.1010  -3.0967  -3.0967  -3.0967  -3.0967  -3.0106
    -3.0106  -3.0105  -3.0105  -2.6974  -2.6973  -2.6973  -2.6973  -2.5702
    -2.5702  -2.5324  -2.4655  -2.4654  -2.4654  -2.4653  -2.4435  -2.4434
    -2.4434  -2.4434  -2.4383  -2.4383  -2.4382  -2.4382  -2.4263  -2.4262
    -2.4262  -2.4262  -2.3711  -2.3709  -2.3709  -2.3709  -2.3257  -2.3257
    -2.3256  -2.3256  -2.2102  -2.2102  -2.2102  -2.2101  -2.1924  -2.1924
    -2.1924  -2.1924  -2.1454  -2.1454  -2.1454  -2.1454  -2.1369  -2.1369
    -2.1369  -2.1368  -2.1328  -2.1327  -2.1327  -2.1327  -1.9919  -1.9919
    -1.9919  -1.9919  -1.9842  -1.9609  -1.9609  -1.9609  -1.9609  -1.8297
    -1.8297  -1.8296  -1.8295  -1.8221  -1.8221  -1.8221  -1.8221  -1.6995
    -1.6995  -1.6995  -1.6995  -1.6980  -1.6980  -1.6980  -1.6980  -1.6529
    -1.6445  -1.6445  -1.6445  -1.6444  -1.5603  -1.5603  -1.5583  -1.5583
    -1.5582  -1.5582  -1.4401  -1.4401  -1.4401  -1.4401  -1.3801  -1.3801
    -1.3800  -1.3800  -1.3763  -1.3763  -1.3762  -1.3762  -1.3561  -1.3272
    -1.3272  -1.3267  -1.3267  -1.2458  -1.2454  -1.2454  -1.2452  -1.2058
    -1.2058  -1.2057  -1.2057  -1.1496  -1.1494  -1.1494  -1.1492  -0.9124
    -0.9123  -0.9122  -0.9121  -0.9009  -0.9008  -0.9008  -0.9008  -0.8555
    -0.8555  -0.8035  -0.8035  -0.8034  -0.8033  -0.7361  -0.7360  -0.7358
    -0.7357  -0.6287  -0.6286  -0.6286  -0.6286  -0.4286  -0.3901  -0.3901
    -0.3166  -0.3166  -0.3165  -0.3165  -0.2422  -0.2422  -0.2421  -0.2420
    -0.2348   0.0073   0.0073   0.1401   0.3587   0.4411   0.5548   0.5548
     0.8994   0.8994   0.9070   0.9070   0.9071   0.9072   1.1910   1.1910
     1.3133   1.8376   1.8376   1.8376   1.8377   1.8554   2.4197   2.4197
     2.5037   2.5038   2.5038   2.5038   2.5368   2.5368   2.5369   2.5369
     2.5765   2.5765   2.5839   2.5839   2.5840   2.5840   2.6394   2.6394
     2.6395   2.6396   2.6817   2.6818   2.6819   2.6819   2.7102   2.7102
     2.7102   2.7106   2.9530   3.0609   3.0609   3.0609   3.0610   3.1016
     3.1017   3.1017   3.1017   3.1503   3.2224   3.2225   3.2229   3.2229
     3.2550   3.2551   3.2552   3.2552   3.2575   3.2577   3.2577   3.2578
     3.3539   3.3539   3.3540   3.3540   3.4073   3.4073   3.4074   3.4075
     3.4169   3.4398   3.4399   3.4400   3.4400   3.4524   3.4526   3.4526
     3.4527   3.4822   3.4822   3.4822   3.4823   3.4992   3.4994   3.4994
     3.4995   3.5555   3.5555   3.5555   3.5556   3.7399   3.7400   3.7400
     3.7400   3.7776   3.7777   3.8533   3.8770   3.8771   3.8772   3.8773
     3.9035   3.9038   3.9038   3.9040   3.9967   3.9968   3.9968   3.9968
     4.0007   4.0007   4.0007   4.0008   4.0669   4.0670   4.0671   4.0671
     4.1003   4.1004   4.1004   4.1005   4.1049   4.1871   4.1873   4.2102
     4.2102   4.2102   4.2102   4.2453   4.2454   4.2454   4.2454   4.2474
     4.2474   4.2475   4.2475   4.2522   4.3642   4.3645   4.3645   4.3646
     4.3992   4.3993   4.3993   4.3994   4.4123   4.4123   4.4124   4.4125
     4.4288   4.4413   4.4415   4.4415   4.4416   4.5112   4.5113   4.5114
     4.5115   4.5236   4.5236   4.5237   4.5238   4.5396   4.5397   4.5398
     4.5399   4.6003   4.6003   4.6006   4.6007   4.6150   4.6151   4.6151
     4.6151   4.6549   4.6550   4.6551   4.6551   4.7053   4.7054   4.7354
     4.7354   4.7355   4.7358   4.7726   4.7886   4.7887   4.7888   4.7889
     4.8444   4.8446   4.8447   4.8449   4.8458   4.8852   4.9085   4.9147
     4.9148   4.9148

     occupation numbers 
     1.0000   1.0000   1.0000   1.0000   1.0000   1.0000   1.0000   1.0000
     1.0000   1.0000   1.0000   1.0000   1.0000   1.0000   1.0000   1.0000
     1.0000   1.0000   1.0000   1.0000   1.0000   1.0000   1.0000   1.0000
     1.0000   1.0000   1.0000   1.0000   1.0000   1.0000   1.0000   1.0000
     1.0000   1.0000   1.0000   1.0000   1.0000   1.0000   1.0000   1.0000
     1.0000   1.0000   1.0000   1.0000   1.0000   1.0000   1.0000   1.0000
     1.0000   1.0000   1.0000   1.0000   1.0000   1.0000   1.0000   1.0000
     1.0000   1.0000   1.0000   1.0000   1.0000   1.0000   1.0000   1.0000
     1.0000   1.0000   1.0000   1.0000   1.0000   1.0000   1.0000   1.0000
     1.0000   1.0000   1.0000   1.0000   1.0000   1.0000   1.0000   1.0000
     1.0000   1.0000   1.0000   1.0000   1.0000   1.0000   1.0000   1.0000
     1.0000   1.0000   1.0000   1.0000   1.0000   1.0000   1.0000   1.0000
     1.0000   1.0000   1.0000   1.0000   1.0000   1.0000   1.0000   1.0000
     1.0000   1.0000   1.0000   1.0000   1.0000   1.0000   1.0000   1.0000
     1.0000   1.0000   1.0000   1.0000   1.0000   1.0000   1.0000   1.0000
     1.0000   1.0000   1.0000   1.0000   1.0000   1.0000   1.0000   1.0000
     1.0000   1.0000   1.0000   1.0000   1.0000   1.0000   1.0000   1.0000
     1.0000   1.0000   1.0000   1.0000   1.0000   1.0000   1.0000   1.0000
     1.0000   1.0000   1.0000   1.0000   1.0000   1.0000   1.0000   1.0000
     1.0000   1.0000   1.0000   1.0000   1.0000   1.0000   1.0000   1.0000
     1.0000   1.0000   1.0000   1.0000   1.0000   1.0000   1.0000   1.0000
     1.0000   1.0000   1.0000   1.0000   1.0000   1.0000   1.0000   1.0000
     1.0000   1.0000   1.0000   1.0000   1.0000   1.0000   1.0000   1.0000
     1.0000   1.0000   1.0000   1.0000   1.0000   1.0000   1.0000   1.0000
     1.0000   1.0000   1.0000   1.0000   1.0000   1.0000   1.0000   1.0000
     1.0000   1.0000   1.0000   1.0000   1.0000   1.0000   1.0000   1.0000
     1.0000   1.0000   1.0000   1.0000   1.0000   1.0000   1.0000   1.0000
     1.0000   1.0000   1.0000   1.0000   1.0000   1.0000   1.0000   1.0000
     1.0000   1.0000   1.0000   1.0000   1.0000   1.0000   1.0000   1.0000
     1.0000   1.0000   1.0000   1.0000   1.0000   1.0000   1.0000   1.0000
     1.0000   1.0000   1.0000   1.0000   1.0000   1.0000   1.0000   1.0000
     1.0000   1.0000   1.0000   1.0000   1.0000   1.0000   1.0000   1.0000
     1.0000   1.0000   1.0000   1.0000   1.0000   1.0000   1.0000   1.0000
     1.0000   1.0000   1.0000   1.0000   1.0000   1.0000   1.0000   1.0000
     1.0000   1.0000   1.0000   1.0000   1.0000   1.0000   1.0000   1.0000
     1.0000   1.0000   1.0000   1.0000   1.0000   1.0000   1.0000   1.0000
     1.0000   1.0000   1.0000   1.0000   1.0000   1.0000   1.0000   1.0000
     1.0000   1.0000   1.0000   1.0000   1.0000   1.0000   1.0000   1.0000
     1.0000   1.0000   1.0000   1.0000   1.0000   1.0000   1.0000   1.0000
     1.0000   1.0000   1.0000   1.0000   1.0000   1.0000   1.0000   1.0000
     1.0000   1.0000   1.0000   1.0000   1.0000   1.0000   1.0000   1.0000
     1.0000   1.0000   1.0000   1.0000   1.0000   1.0000   1.0000   1.0000
     1.0000   1.0000   1.0000   1.0000   1.0000   1.0000   1.0000   1.0000
     1.0000   1.0000   1.0000   1.0000   1.0000   1.0000   1.0000   1.0000
     1.0000   1.0000   1.0000   1.0000   1.0000   1.0000   1.0000   1.0000
     1.0000   1.0000   1.0000   1.0000   1.0000   1.0000   1.0000   1.0000
     1.0000   1.0000   1.0000   1.0000   1.0000   1.0000   1.0000   1.0000
     1.0000   1.0000   1.0000   1.0000   1.0000   1.0000   1.0000   1.0000
     1.0000   1.0000   1.0000   1.0000   1.0000   1.0000   1.0000   1.0000
     1.0000   1.0000   1.0000   1.0000   1.0000   1.0000   1.0000   1.0000
     1.0000   1.0000   1.0000   1.0000   1.0000   1.0000   1.0000   1.0000
     1.0000   1.0000   1.0000   1.0000   1.0000   1.0000   1.0000   1.0000
     1.0000   1.0000   1.0000   1.0000   1.0000   1.0000   1.0000   1.0000
     1.0000   1.0000   1.0000   1.0000   1.0000   1.0000   1.0000   1.0000
     1.0000   1.0000   1.0000   1.0000   1.0000   1.0000   1.0000   1.0000
     1.0000   1.0000   1.0000   1.0000   1.0000   1.0000   1.0000   1.0000
     1.0000   1.0000   1.0000   1.0000   1.0000   1.0000   1.0000   1.0000
     1.0000   1.0000   1.0000   1.0000   1.0000   1.0000   1.0000   1.0000
     1.0000   1.0000   1.0000   1.0000   1.0000   1.0000   1.0000   1.0000
     1.0000   1.0000   1.0000   1.0000   1.0000   1.0000   1.0000   1.0000
     1.0000   1.0000   1.0000   1.0000   1.0000   1.0000   1.0000   1.0000
     1.0000   1.0000   1.0000   1.0000   1.0000   1.0000   1.0000   1.0000
     1.0000   1.0000   1.0000   1.0000   1.0000   1.0000   1.0000   1.0000
     1.0000   1.0000   1.0000   1.0000   1.0000   1.0000   1.0000   1.0000
     1.0000   1.0000   1.0000   1.0000   1.0000   1.0000   1.0000   1.0000
     1.0000   1.0000   1.0000   1.0000   1.0000   1.0000   1.0000   1.0000
     1.0000   1.0000   1.0000   1.0000   1.0000   1.0000   1.0000   1.0000
     1.0000   1.0000   1.0000   1.0000   1.0000   1.0000   1.0000   1.0000
     1.0000   1.0000   1.0000   1.0000   1.0000   1.0000   1.0000   1.0000
     1.0000   1.0000   1.0000   1.0000   1.0000   1.0000   1.0000   1.0000
     1.0000   1.0000   1.0000   1.0000   1.0000   1.0000   1.0000   1.0000
     1.0000   1.0000   1.0000   1.0000   1.0000   1.0000   1.0000   1.0000
     1.0000   1.0000   1.0000   1.0000   1.0000   1.0000   1.0000   1.0000
     1.0000   1.0000   1.0000   1.0000   1.0000   1.0000   1.0000   1.0000
     1.0000   1.0000   1.0000   1.0000   1.0000   1.0000   1.0000   1.0000
     1.0000   1.0000   1.0000   1.0000   1.0000   1.0000   1.0000   1.0000
     1.0000   1.0000   1.0000   1.0000   1.0000   1.0000   1.0000   1.0000
     1.0000   1.0000   1.0110   1.0453   1.0453   1.0453   1.0453   1.0638
     1.0639   1.0639   1.0639   1.0810   1.0646   1.0645   1.0642   1.0642
     1.0279   1.0278   1.0277   1.0277   1.0242   1.0239   1.0239   1.0238
     0.7804   0.7803   0.7800   0.7799   0.5885   0.5883   0.5882   0.5877
     0.5531   0.4700   0.4698   0.4693   0.4692   0.4261   0.4253   0.4252
     0.4250   0.3291   0.3290   0.3290   0.3288   0.2790   0.2787   0.2786
     0.2784   0.1484   0.1483   0.1483   0.1482   0.0069   0.0069   0.0069
     0.0069   0.0031   0.0031   0.0005   0.0003   0.0003   0.0003   0.0003
     0.0001   0.0001   0.0001   0.0001   0.0000   0.0000   0.0000   0.0000
     0.0000   0.0000   0.0000   0.0000   0.0000   0.0000   0.0000   0.0000
     0.0000   0.0000   0.0000   0.0000   0.0000   0.0000   0.0000   0.0000
     0.0000   0.0000   0.0000   0.0000   0.0000   0.0000   0.0000   0.0000
     0.0000   0.0000   0.0000   0.0000   0.0000   0.0000   0.0000   0.0000
     0.0000   0.0000   0.0000   0.0000   0.0000   0.0000   0.0000   0.0000
     0.0000   0.0000   0.0000   0.0000   0.0000   0.0000   0.0000   0.0000
     0.0000   0.0000   0.0000   0.0000   0.0000   0.0000   0.0000   0.0000
     0.0000   0.0000   0.0000   0.0000   0.0000   0.0000   0.0000   0.0000
     0.0000   0.0000   0.0000   0.0000   0.0000   0.0000   0.0000   0.0000
     0.0000   0.0000   0.0000   0.0000   0.0000   0.0000   0.0000   0.0000
     0.0000   0.0000   0.0000   0.0000   0.0000   0.0000   0.0000   0.0000
     0.0000   0.0000

          k = 0.0000 0.1250 0.0000 (208019 PWs)   bands (ev):

   -61.8770 -61.8619 -61.8576 -61.8575 -61.8533 -61.8485 -61.8484 -61.8436
   -61.8434 -61.8297 -61.8296 -61.8267 -61.8265 -61.8263 -61.8226 -61.8225
   -61.8191 -61.8079 -61.8055 -61.7976 -61.7954 -61.7931 -61.7931 -61.7908
   -61.7905 -61.7904 -61.7888 -61.7888 -61.7839 -61.7813 -61.7813 -61.7793
   -61.7791 -61.7784 -61.7783 -61.7750 -61.7746 -61.7725 -61.7725 -61.7698
   -61.7686 -61.7684 -61.7625 -61.7624 -61.7602 -61.7465 -61.7463 -61.7445
   -61.7436 -61.7433 -61.7405 -61.7403 -61.7367 -61.7253 -61.6907 -61.6887
   -61.6883 -61.6882 -61.6880 -61.6878 -61.6870 -61.6868 -61.6857 -61.6845
   -61.6842 -61.6814 -61.6811 -61.6759 -61.6741 -61.6738 -61.6716 -61.6623
   -35.9675 -35.9675 -35.9566 -35.9566 -35.9467 -35.9467 -35.9367 -35.9367
   -35.9338 -35.9337 -35.9318 -35.9318 -35.9213 -35.9213 -35.9079 -35.9079
   -35.8915 -35.8915 -35.8840 -35.8822 -35.8815 -35.8815 -35.8735 -35.8735
   -35.8696 -35.8696 -35.8621 -35.8621 -35.8588 -35.8569 -35.8558 -35.8558
   -35.8557 -35.8519 -35.8516 -35.8515 -35.8494 -35.8470 -35.8470 -35.8395
   -35.8389 -35.8347 -35.8347 -35.8236 -35.8235 -35.8226 -35.8224 -35.8125
   -35.8125 -35.8081 -35.8081 -35.8072 -35.8032 -35.8031 -35.7881 -35.7881
   -35.7869 -35.7851 -35.7850 -35.7786 -35.7784 -35.7752 -35.7748 -35.7663
   -35.7663 -35.7500 -35.7496 -35.7481 -35.7455 -35.7394 -35.7393 -35.7278
   -35.7267 -35.7266 -35.7196 -35.7174 -35.7090 -35.7017 -35.7017 -35.7001
   -35.6962 -35.6895 -35.6894 -35.6859 -35.6800 -35.6742 -35.6742 -35.6715
   -35.6694 -35.6693 -35.6690 -35.6673 -35.6640 -35.6615 -35.6614 -35.6578
   -35.6578 -35.6507 -35.6505 -35.6505 -35.6483 -35.6482 -35.6457 -35.6400
   -35.6391 -35.6388 -35.6388 -35.6377 -35.6348 -35.6297 -35.6297 -35.6253
   -35.6253 -35.6212 -35.6211 -35.6126 -35.6126 -35.6123 -35.6092 -35.6092
   -35.6077 -35.6073 -35.6072 -35.6043 -35.6008 -35.5997 -35.5919 -35.5900
   -35.5891 -35.5890 -35.5875 -35.5875 -35.5874 -35.5874 -35.5864 -35.5864
   -35.5845 -35.5826 -35.5804 -35.5804 -35.5790 -35.5741 -35.5741 -35.5734
   -35.5681 -35.5680 -35.5669 -35.5639 -35.5639 -35.5633 -35.5633 -35.5627
   -35.5580 -35.5580 -35.5524 -35.5524 -35.5522 -35.5521 -35.5517 -35.5501
   -35.5477 -35.5476 -35.5457 -35.5451 -35.5366 -35.5366 -35.5357 -35.5329
   -35.5329 -35.5320 -35.5319 -35.5305 -35.5305 -35.5282 -35.5281 -35.5227
   -35.5089 -35.4998 -35.4998 -35.4996 -35.4996 -35.4974 -35.4973 -35.4967
   -35.4966 -35.4904 -35.4903 -35.4881 -35.4868 -35.4819 -35.4818 -35.4787
   -35.4715 -35.4676 -35.4676 -35.4629 -35.4629 -35.4532 -35.4529 -35.4327
   -35.4237 -35.4234 -35.4234 -35.4232 -35.4185 -35.4183 -35.4140 -35.3971
   -35.3969 -35.3929 -35.3913 -35.3911 -35.3797 -35.3789 -35.3787 -35.3786
   -14.2889 -13.7768 -13.6299 -13.6298 -13.5009 -13.4126 -13.1593 -13.1592
   -12.9721 -12.9144 -12.9143 -12.8536 -12.8535 -12.8394 -12.8212 -12.7844
   -12.7843 -12.7657 -12.7557 -12.6086 -12.5581 -12.5001 -12.5000 -12.4803
   -12.4802 -12.4586 -12.4477 -12.4476 -12.4298 -12.4297 -12.4228 -12.3965
   -12.3196 -12.3195 -12.2784 -12.2783 -12.2233 -12.2232 -12.1834 -12.0853
   -12.0853 -12.0060 -11.9973 -11.8881 -11.8879 -11.8366 -11.7967 -11.7590
   -11.7590 -11.7122 -11.7027 -11.6957 -11.6957 -11.6124 -11.6124 -11.5316
   -11.5314 -11.5277 -11.4926 -11.4926 -11.4351 -11.4351 -11.4216 -11.4193
   -11.4083 -11.4081 -11.3663 -11.3661 -11.2117 -11.2115 -11.1593 -11.1591
    -4.8213  -4.8213  -4.6132  -4.6132  -4.6044  -4.6043  -4.5738  -4.5738
    -4.4258  -4.4258  -4.4148  -4.4148  -4.2353  -4.2353  -4.1336  -4.1335
    -4.0183  -3.9798  -3.9798  -3.8784  -3.8210  -3.8210  -3.7172  -3.6954
    -3.6762  -3.6762  -3.6624  -3.6624  -3.6519  -3.6519  -3.6040  -3.5648
    -3.5648  -3.5409  -3.5253  -3.4290  -3.4289  -3.4101  -3.4101  -3.2927
    -3.2423  -3.2422  -3.1941  -3.1842  -3.1578  -3.1530  -3.1529  -3.1254
    -3.1253  -3.0733  -3.0732  -3.0528  -3.0093  -3.0092  -2.9744  -2.9744
    -2.9638  -2.9578  -2.9541  -2.7174  -2.7174  -2.6881  -2.6657  -2.6657
    -2.6119  -2.5686  -2.5454  -2.5453  -2.5388  -2.4772  -2.4772  -2.4667
    -2.4650  -2.4649  -2.4555  -2.4555  -2.4313  -2.4312  -2.4056  -2.4055
    -2.3778  -2.3778  -2.3758  -2.3584  -2.3583  -2.3513  -2.3405  -2.2610
    -2.2610  -2.2562  -2.2561  -2.2365  -2.2365  -2.2265  -2.2265  -2.2141
    -2.2141  -2.1987  -2.1986  -2.1951  -2.1951  -2.1748  -2.1020  -2.0814
    -2.0814  -2.0728  -2.0728  -2.0598  -2.0451  -2.0153  -2.0140  -2.0110
    -2.0109  -1.9990  -1.9989  -1.9521  -1.9521  -1.9170  -1.9126  -1.9084
    -1.8687  -1.8687  -1.8356  -1.8355  -1.7965  -1.7812  -1.7620  -1.7620
    -1.7481  -1.7480  -1.7214  -1.7079  -1.7079  -1.6994  -1.6716  -1.6715
    -1.6649  -1.6648  -1.6209  -1.6209  -1.5977  -1.5590  -1.5061  -1.4750
    -1.4749  -1.4445  -1.4444  -1.4420  -1.4419  -1.4351  -1.4350  -1.4314
    -1.4314  -1.4095  -1.3962  -1.3628  -1.3520  -1.3517  -1.3464  -1.3460
    -1.3247  -1.3247  -1.2989  -1.2988  -1.2158  -1.2101  -1.2100  -1.1860
    -1.1771  -1.1770  -1.1414  -1.1413  -1.0771  -1.0771  -0.9984  -0.9834
    -0.9833  -0.9815  -0.9268  -0.9266  -0.8963  -0.8739  -0.8553  -0.8351
    -0.8349  -0.8250  -0.8249  -0.8229  -0.8074  -0.7759  -0.7432  -0.7429
    -0.6555  -0.6478  -0.6477  -0.5984  -0.5829  -0.5789  -0.4624  -0.4264
    -0.4136  -0.3621  -0.3386  -0.3384  -0.2772  -0.2770  -0.2094  -0.1559
    -0.1073  -0.0509  -0.0279   0.0750   0.3615   0.4927   0.5599   0.7004
     0.8055   0.8177   0.8219   0.9532   0.9534   1.0034   1.0913   1.1575
     1.4349   1.7212   1.8646   1.8646   1.9298   1.9337   2.2245   2.2906
     2.2907   2.3433   2.4217   2.4331   2.4608   2.5374   2.5375   2.5416
     2.5539   2.5539   2.5635   2.5723   2.6099   2.6100   2.6145   2.6146
     2.6319   2.6771   2.6772   2.6904   2.6905   2.7710   2.8549   2.8550
     2.8933   2.9034   2.9035   2.9185   2.9671   3.0175   3.0176   3.0409
     3.0515   3.0517   3.1409   3.1410   3.1812   3.1896   3.1898   3.1969
     3.2007   3.2416   3.2554   3.2555   3.2625   3.2627   3.3035   3.3035
     3.3050   3.3051   3.3140   3.3191   3.3398   3.3399   3.3954   3.4361
     3.4362   3.4379   3.4381   3.4385   3.4385   3.4568   3.4569   3.4817
     3.5077   3.5077   3.5175   3.5179   3.5229   3.5267   3.5268   3.6184
     3.6239   3.6241   3.6739   3.6755   3.6756   3.6789   3.6790   3.7640
     3.7705   3.7733   3.7743   3.7745   3.7797   3.7797   3.8590   3.8591
     3.8613   3.9593   3.9726   4.0008   4.0009   4.0066   4.0067   4.0263
     4.0326   4.0336   4.0492   4.0493   4.0502   4.0505   4.0932   4.0933
     4.0938   4.1166   4.1602   4.1680   4.1681   4.1705   4.1837   4.2020
     4.2021   4.2321   4.2322   4.2346   4.2350   4.2351   4.2352   4.2366
     4.2367   4.2687   4.2806   4.2807   4.3204   4.3376   4.3378   4.3670
     4.3670   4.3703   4.3705   4.3713   4.3714   4.3919   4.3921   4.4219
     4.4288   4.4466   4.4467   4.4518   4.4624   4.4740   4.4741   4.4789
     4.4789   4.4999   4.5129   4.5245   4.5245   4.5300   4.5302   4.5360
     4.5575   4.5576   4.5815   4.5926   4.5927   4.6338   4.6359   4.6571
     4.6593   4.6818   4.6818   4.7041   4.7077   4.7102   4.7102   4.7104
     4.7418   4.7419   4.7422   4.7736   4.7767   4.7924   4.7924   4.8075
     4.8076   4.8204   4.8452   4.8635   4.8771   4.8874   4.8967   4.9057
     4.9067   4.9068

     occupation numbers 
     1.0000   1.0000   1.0000   1.0000   1.0000   1.0000   1.0000   1.0000
     1.0000   1.0000   1.0000   1.0000   1.0000   1.0000   1.0000   1.0000
     1.0000   1.0000   1.0000   1.0000   1.0000   1.0000   1.0000   1.0000
     1.0000   1.0000   1.0000   1.0000   1.0000   1.0000   1.0000   1.0000
     1.0000   1.0000   1.0000   1.0000   1.0000   1.0000   1.0000   1.0000
     1.0000   1.0000   1.0000   1.0000   1.0000   1.0000   1.0000   1.0000
     1.0000   1.0000   1.0000   1.0000   1.0000   1.0000   1.0000   1.0000
     1.0000   1.0000   1.0000   1.0000   1.0000   1.0000   1.0000   1.0000
     1.0000   1.0000   1.0000   1.0000   1.0000   1.0000   1.0000   1.0000
     1.0000   1.0000   1.0000   1.0000   1.0000   1.0000   1.0000   1.0000
     1.0000   1.0000   1.0000   1.0000   1.0000   1.0000   1.0000   1.0000
     1.0000   1.0000   1.0000   1.0000   1.0000   1.0000   1.0000   1.0000
     1.0000   1.0000   1.0000   1.0000   1.0000   1.0000   1.0000   1.0000
     1.0000   1.0000   1.0000   1.0000   1.0000   1.0000   1.0000   1.0000
     1.0000   1.0000   1.0000   1.0000   1.0000   1.0000   1.0000   1.0000
     1.0000   1.0000   1.0000   1.0000   1.0000   1.0000   1.0000   1.0000
     1.0000   1.0000   1.0000   1.0000   1.0000   1.0000   1.0000   1.0000
     1.0000   1.0000   1.0000   1.0000   1.0000   1.0000   1.0000   1.0000
     1.0000   1.0000   1.0000   1.0000   1.0000   1.0000   1.0000   1.0000
     1.0000   1.0000   1.0000   1.0000   1.0000   1.0000   1.0000   1.0000
     1.0000   1.0000   1.0000   1.0000   1.0000   1.0000   1.0000   1.0000
     1.0000   1.0000   1.0000   1.0000   1.0000   1.0000   1.0000   1.0000
     1.0000   1.0000   1.0000   1.0000   1.0000   1.0000   1.0000   1.0000
     1.0000   1.0000   1.0000   1.0000   1.0000   1.0000   1.0000   1.0000
     1.0000   1.0000   1.0000   1.0000   1.0000   1.0000   1.0000   1.0000
     1.0000   1.0000   1.0000   1.0000   1.0000   1.0000   1.0000   1.0000
     1.0000   1.0000   1.0000   1.0000   1.0000   1.0000   1.0000   1.0000
     1.0000   1.0000   1.0000   1.0000   1.0000   1.0000   1.0000   1.0000
     1.0000   1.0000   1.0000   1.0000   1.0000   1.0000   1.0000   1.0000
     1.0000   1.0000   1.0000   1.0000   1.0000   1.0000   1.0000   1.0000
     1.0000   1.0000   1.0000   1.0000   1.0000   1.0000   1.0000   1.0000
     1.0000   1.0000   1.0000   1.0000   1.0000   1.0000   1.0000   1.0000
     1.0000   1.0000   1.0000   1.0000   1.0000   1.0000   1.0000   1.0000
     1.0000   1.0000   1.0000   1.0000   1.0000   1.0000   1.0000   1.0000
     1.0000   1.0000   1.0000   1.0000   1.0000   1.0000   1.0000   1.0000
     1.0000   1.0000   1.0000   1.0000   1.0000   1.0000   1.0000   1.0000
     1.0000   1.0000   1.0000   1.0000   1.0000   1.0000   1.0000   1.0000
     1.0000   1.0000   1.0000   1.0000   1.0000   1.0000   1.0000   1.0000
     1.0000   1.0000   1.0000   1.0000   1.0000   1.0000   1.0000   1.0000
     1.0000   1.0000   1.0000   1.0000   1.0000   1.0000   1.0000   1.0000
     1.0000   1.0000   1.0000   1.0000   1.0000   1.0000   1.0000   1.0000
     1.0000   1.0000   1.0000   1.0000   1.0000   1.0000   1.0000   1.0000
     1.0000   1.0000   1.0000   1.0000   1.0000   1.0000   1.0000   1.0000
     1.0000   1.0000   1.0000   1.0000   1.0000   1.0000   1.0000   1.0000
     1.0000   1.0000   1.0000   1.0000   1.0000   1.0000   1.0000   1.0000
     1.0000   1.0000   1.0000   1.0000   1.0000   1.0000   1.0000   1.0000
     1.0000   1.0000   1.0000   1.0000   1.0000   1.0000   1.0000   1.0000
     1.0000   1.0000   1.0000   1.0000   1.0000   1.0000   1.0000   1.0000
     1.0000   1.0000   1.0000   1.0000   1.0000   1.0000   1.0000   1.0000
     1.0000   1.0000   1.0000   1.0000   1.0000   1.0000   1.0000   1.0000
     1.0000   1.0000   1.0000   1.0000   1.0000   1.0000   1.0000   1.0000
     1.0000   1.0000   1.0000   1.0000   1.0000   1.0000   1.0000   1.0000
     1.0000   1.0000   1.0000   1.0000   1.0000   1.0000   1.0000   1.0000
     1.0000   1.0000   1.0000   1.0000   1.0000   1.0000   1.0000   1.0000
     1.0000   1.0000   1.0000   1.0000   1.0000   1.0000   1.0000   1.0000
     1.0000   1.0000   1.0000   1.0000   1.0000   1.0000   1.0000   1.0000
     1.0000   1.0000   1.0000   1.0000   1.0000   1.0000   1.0000   1.0000
     1.0000   1.0000   1.0000   1.0000   1.0000   1.0000   1.0000   1.0000
     1.0000   1.0000   1.0000   1.0000   1.0000   1.0000   1.0000   1.0000
     1.0000   1.0000   1.0000   1.0000   1.0000   1.0000   1.0000   1.0000
     1.0000   1.0000   1.0000   1.0000   1.0000   1.0000   1.0000   1.0000
     1.0000   1.0000   1.0000   1.0000   1.0000   1.0000   1.0000   1.0000
     1.0000   1.0000   1.0000   1.0000   1.0000   1.0000   1.0000   1.0000
     1.0000   1.0000   1.0000   1.0000   1.0000   1.0000   1.0000   1.0000
     1.0000   1.0000   1.0000   1.0000   1.0000   1.0000   1.0000   1.0000
     1.0000   1.0000   1.0000   1.0000   1.0000   1.0000   1.0000   1.0000
     1.0000   1.0000   1.0000   1.0000   1.0000   1.0000   1.0000   1.0000
     1.0000   1.0000   1.0000   1.0000   1.0000   1.0000   1.0000   1.0000
     1.0000   1.0000   1.0000   1.0000   1.0000   1.0000   1.0000   1.0000
     1.0000   1.0000   1.0000   1.0000   1.0000   1.0000   1.0000   1.0000
     1.0000   1.0000   1.0000   1.0000   1.0000   1.0000   1.0000   1.0000
     1.0000   1.0000   1.0000   1.0000   1.0000   1.0000   1.0000   1.0000
     1.0000   1.0000   1.0000   1.0000   1.0000   1.0000   1.0000   1.0000
     1.0000   1.0000   1.0000   1.0000   1.0000   1.0000   1.0000   1.0000
     1.0000   1.0000   1.0000   1.0000   1.0000   1.0000   1.0000   1.0000
     1.0000   1.0000   1.0000   1.0000   1.0000   1.0000   1.0000   1.0000
     1.0000   1.0000   1.0000   1.0000   1.0000   1.0002   1.0017   1.0017
     1.0038   1.0046   1.0046   1.0061   1.0137   1.0278   1.0279   1.0367
     1.0412   1.0412   1.0787   1.0787   1.0827   1.0812   1.0811   1.0791
     1.0776   1.0457   1.0274   1.0272   1.0163   1.0160   0.9309   0.9307
     0.9271   0.9269   0.9031   0.8891   0.8267   0.8264   0.6323   0.4833
     0.4828   0.4767   0.4760   0.4748   0.4747   0.4110   0.4105   0.3304
     0.2561   0.2560   0.2308   0.2297   0.2176   0.2086   0.2084   0.0620
     0.0570   0.0569   0.0248   0.0241   0.0241   0.0227   0.0226   0.0041
     0.0036   0.0034   0.0033   0.0033   0.0029   0.0029   0.0004   0.0004
     0.0004   0.0000   0.0000   0.0000   0.0000   0.0000   0.0000   0.0000
     0.0000   0.0000   0.0000   0.0000   0.0000   0.0000   0.0000   0.0000
     0.0000   0.0000   0.0000   0.0000   0.0000   0.0000   0.0000   0.0000
     0.0000   0.0000   0.0000   0.0000   0.0000   0.0000   0.0000   0.0000
     0.0000   0.0000   0.0000   0.0000   0.0000   0.0000   0.0000   0.0000
     0.0000   0.0000   0.0000   0.0000   0.0000   0.0000   0.0000   0.0000
     0.0000   0.0000   0.0000   0.0000   0.0000   0.0000   0.0000   0.0000
     0.0000   0.0000   0.0000   0.0000   0.0000   0.0000   0.0000   0.0000
     0.0000   0.0000   0.0000   0.0000   0.0000   0.0000   0.0000   0.0000
     0.0000   0.0000   0.0000   0.0000   0.0000   0.0000   0.0000   0.0000
     0.0000   0.0000   0.0000   0.0000   0.0000   0.0000   0.0000   0.0000
     0.0000   0.0000   0.0000   0.0000   0.0000   0.0000   0.0000   0.0000
     0.0000   0.0000

          k = 0.0000 0.2500 0.0000 (208053 PWs)   bands (ev):

   -61.8760 -61.8657 -61.8570 -61.8568 -61.8508 -61.8506 -61.8487 -61.8410
   -61.8409 -61.8317 -61.8315 -61.8304 -61.8256 -61.8254 -61.8229 -61.8227
   -61.8161 -61.8086 -61.8047 -61.7976 -61.7968 -61.7930 -61.7929 -61.7911
   -61.7911 -61.7883 -61.7878 -61.7878 -61.7878 -61.7828 -61.7828 -61.7785
   -61.7784 -61.7777 -61.7769 -61.7769 -61.7729 -61.7729 -61.7712 -61.7711
   -61.7695 -61.7675 -61.7610 -61.7594 -61.7592 -61.7490 -61.7485 -61.7483
   -61.7425 -61.7423 -61.7406 -61.7405 -61.7335 -61.7260 -61.6905 -61.6887
   -61.6885 -61.6882 -61.6879 -61.6878 -61.6872 -61.6868 -61.6858 -61.6854
   -61.6845 -61.6797 -61.6795 -61.6779 -61.6746 -61.6744 -61.6694 -61.6630
   -35.9690 -35.9690 -35.9499 -35.9499 -35.9482 -35.9482 -35.9476 -35.9476
   -35.9328 -35.9328 -35.9303 -35.9302 -35.9206 -35.9205 -35.8963 -35.8955
   -35.8954 -35.8954 -35.8912 -35.8912 -35.8742 -35.8741 -35.8725 -35.8725
   -35.8653 -35.8652 -35.8652 -35.8652 -35.8568 -35.8543 -35.8543 -35.8526
   -35.8523 -35.8489 -35.8489 -35.8486 -35.8465 -35.8465 -35.8463 -35.8463
   -35.8374 -35.8353 -35.8310 -35.8300 -35.8300 -35.8253 -35.8252 -35.8246
   -35.8246 -35.8198 -35.8149 -35.8149 -35.8029 -35.8028 -35.7949 -35.7949
   -35.7923 -35.7781 -35.7717 -35.7703 -35.7702 -35.7669 -35.7662 -35.7626
   -35.7572 -35.7531 -35.7503 -35.7502 -35.7491 -35.7490 -35.7455 -35.7331
   -35.7225 -35.7224 -35.7190 -35.7065 -35.7027 -35.6989 -35.6969 -35.6969
   -35.6961 -35.6916 -35.6886 -35.6886 -35.6767 -35.6767 -35.6736 -35.6733
   -35.6723 -35.6719 -35.6719 -35.6716 -35.6672 -35.6599 -35.6599 -35.6536
   -35.6536 -35.6431 -35.6431 -35.6421 -35.6421 -35.6417 -35.6402 -35.6398
   -35.6386 -35.6378 -35.6371 -35.6371 -35.6370 -35.6369 -35.6324 -35.6300
   -35.6300 -35.6253 -35.6253 -35.6227 -35.6227 -35.6220 -35.6203 -35.6138
   -35.6128 -35.6127 -35.6087 -35.6081 -35.6080 -35.6041 -35.6034 -35.6033
   -35.5891 -35.5871 -35.5870 -35.5826 -35.5816 -35.5816 -35.5800 -35.5800
   -35.5784 -35.5757 -35.5756 -35.5756 -35.5744 -35.5682 -35.5682 -35.5676
   -35.5648 -35.5647 -35.5646 -35.5646 -35.5625 -35.5625 -35.5598 -35.5590
   -35.5590 -35.5584 -35.5582 -35.5581 -35.5544 -35.5543 -35.5518 -35.5502
   -35.5494 -35.5493 -35.5487 -35.5477 -35.5427 -35.5375 -35.5374 -35.5371
   -35.5371 -35.5315 -35.5315 -35.5253 -35.5251 -35.5202 -35.5186 -35.5186
   -35.5163 -35.5021 -35.5020 -35.4987 -35.4987 -35.4980 -35.4979 -35.4961
   -35.4961 -35.4916 -35.4897 -35.4896 -35.4795 -35.4794 -35.4791 -35.4749
   -35.4733 -35.4733 -35.4689 -35.4639 -35.4638 -35.4564 -35.4553 -35.4421
   -35.4247 -35.4245 -35.4238 -35.4236 -35.4149 -35.4147 -35.4054 -35.4002
   -35.4000 -35.3909 -35.3885 -35.3883 -35.3821 -35.3800 -35.3798 -35.3797
   -14.2535 -13.9039 -13.5969 -13.5969 -13.3811 -13.3614 -13.2746 -13.2746
   -13.0777 -12.9078 -12.8257 -12.8256 -12.8098 -12.7949 -12.7949 -12.7607
   -12.7607 -12.7568 -12.6561 -12.5966 -12.5658 -12.5657 -12.5553 -12.5553
   -12.5307 -12.4892 -12.4667 -12.4666 -12.4278 -12.4158 -12.4157 -12.3681
   -12.3067 -12.3066 -12.2714 -12.2562 -12.2561 -12.1983 -12.1982 -12.0937
   -12.0608 -12.0608 -11.9247 -11.8619 -11.8618 -11.8340 -11.8340 -11.8243
   -11.7314 -11.7178 -11.7014 -11.6786 -11.6785 -11.6151 -11.6150 -11.5484
   -11.5484 -11.5329 -11.5329 -11.5163 -11.4447 -11.4339 -11.4256 -11.4256
   -11.3914 -11.3912 -11.2937 -11.2935 -11.2499 -11.2497 -11.1523 -11.1521
    -4.8813  -4.8812  -4.7107  -4.7107  -4.6690  -4.6690  -4.5402  -4.5401
    -4.4663  -4.4662  -4.2847  -4.2847  -4.0685  -4.0684  -4.0320  -4.0228
    -4.0228  -3.9591  -3.9591  -3.8581  -3.8581  -3.7695  -3.7636  -3.7516
    -3.7516  -3.7402  -3.6839  -3.6839  -3.6054  -3.6053  -3.5851  -3.5851
    -3.5780  -3.5644  -3.5644  -3.5294  -3.4491  -3.3980  -3.3810  -3.3809
    -3.3123  -3.3122  -3.2551  -3.2488  -3.2487  -3.2477  -3.1916  -3.1916
    -3.1527  -3.0860  -3.0222  -3.0222  -2.9064  -2.8947  -2.8947  -2.8933
    -2.8622  -2.8621  -2.8173  -2.8046  -2.7236  -2.7235  -2.7232  -2.6242
    -2.6241  -2.5969  -2.5968  -2.5636  -2.5582  -2.5327  -2.5326  -2.5043
    -2.5043  -2.5017  -2.5017  -2.4986  -2.4924  -2.4475  -2.4474  -2.4242
    -2.4182  -2.4182  -2.3684  -2.3683  -2.3203  -2.3202  -2.3143  -2.3111
    -2.3110  -2.2478  -2.2477  -2.2446  -2.2446  -2.2430  -2.2335  -2.2335
    -2.2285  -2.2285  -2.1906  -2.1905  -2.1315  -2.1314  -2.1145  -2.1056
    -2.0289  -2.0188  -2.0187  -2.0181  -2.0181  -1.9975  -1.9975  -1.9777
    -1.9481  -1.9481  -1.9315  -1.9160  -1.8887  -1.8850  -1.8850  -1.8731
    -1.8731  -1.8670  -1.8670  -1.8248  -1.8248  -1.8199  -1.8180  -1.8027
    -1.7505  -1.7505  -1.7354  -1.6984  -1.6983  -1.6697  -1.6697  -1.6223
    -1.6222  -1.6148  -1.6147  -1.6125  -1.5552  -1.5470  -1.5020  -1.4994
    -1.4994  -1.4833  -1.4833  -1.4605  -1.4604  -1.4491  -1.4338  -1.4336
    -1.4030  -1.4028  -1.3847  -1.3420  -1.2881  -1.2863  -1.2863  -1.2844
    -1.2844  -1.2168  -1.2168  -1.2077  -1.2018  -1.2018  -1.1809  -1.1808
    -1.1661  -1.0529  -1.0528  -1.0504  -1.0462  -1.0461  -1.0456  -1.0189
    -1.0188  -1.0095  -0.9970  -0.9531  -0.9531  -0.8667  -0.8646  -0.8645
    -0.8547  -0.8362  -0.7732  -0.7730  -0.7535  -0.7533  -0.7392  -0.7004
    -0.7002  -0.6991  -0.6619  -0.6497  -0.6067  -0.4973  -0.4944  -0.4828
    -0.4668  -0.4163  -0.3998  -0.3996  -0.3868  -0.3746  -0.3744  -0.2092
    -0.0959  -0.0786   0.0410   0.1214   0.2906   0.5752   0.5931   0.6227
     0.7343   0.7487   0.8350   0.9262   1.0824   1.0826   1.1096   1.1577
     1.5972   1.6618   1.8572   1.9433   1.9433   2.0242   2.0286   2.0288
     2.0415   2.0980   2.2262   2.4278   2.4776   2.5059   2.5202   2.5203
     2.5441   2.5442   2.5599   2.5600   2.5660   2.5687   2.6327   2.6328
     2.6837   2.6838   2.6839   2.7191   2.7192   2.7386   2.7387   2.8279
     2.8323   2.8780   2.8782   2.9514   2.9516   2.9898   3.0134   3.0410
     3.0853   3.0854   3.1144   3.1145   3.1212   3.1418   3.1439   3.1440
     3.1517   3.1520   3.1611   3.1703   3.1959   3.1960   3.2737   3.2741
     3.2945   3.3081   3.3084   3.3269   3.3269   3.3680   3.4152   3.4153
     3.4311   3.4313   3.5024   3.5024   3.5169   3.5171   3.5478   3.5478
     3.5695   3.5696   3.5863   3.5865   3.5872   3.6341   3.6667   3.6668
     3.6708   3.6710   3.6802   3.7132   3.7257   3.7594   3.7607   3.7619
     3.7622   3.8197   3.8198   3.8359   3.8359   3.8367   3.8594   3.8595
     3.8772   3.9575   3.9591   3.9608   3.9609   4.0164   4.0166   4.0595
     4.1089   4.1089   4.1145   4.1374   4.1379   4.1387   4.1445   4.1447
     4.1506   4.1507   4.1510   4.1751   4.1784   4.1943   4.1946   4.1990
     4.1992   4.1998   4.2024   4.2025   4.2174   4.2485   4.2486   4.2809
     4.2811   4.2904   4.3009   4.3010   4.3011   4.3011   4.3049   4.3101
     4.3208   4.3233   4.3254   4.3270   4.3271   4.3682   4.3684   4.4031
     4.4032   4.4227   4.4228   4.4413   4.4413   4.4588   4.4744   4.4785
     4.4850   4.4910   4.4913   4.4918   4.4919   4.5186   4.5189   4.5526
     4.5768   4.5768   4.5896   4.5896   4.6256   4.6398   4.6670   4.6672
     4.6803   4.6827   4.6999   4.7064   4.7261   4.7305   4.7313   4.7603
     4.7605   4.7627   4.7629   4.7734   4.7822   4.7829   4.7963   4.7965
     4.8031   4.8033   4.8382   4.8424   4.8648   4.8649   4.8651   4.8845
     4.8847   4.8996

     occupation numbers 
     1.0000   1.0000   1.0000   1.0000   1.0000   1.0000   1.0000   1.0000
     1.0000   1.0000   1.0000   1.0000   1.0000   1.0000   1.0000   1.0000
     1.0000   1.0000   1.0000   1.0000   1.0000   1.0000   1.0000   1.0000
     1.0000   1.0000   1.0000   1.0000   1.0000   1.0000   1.0000   1.0000
     1.0000   1.0000   1.0000   1.0000   1.0000   1.0000   1.0000   1.0000
     1.0000   1.0000   1.0000   1.0000   1.0000   1.0000   1.0000   1.0000
     1.0000   1.0000   1.0000   1.0000   1.0000   1.0000   1.0000   1.0000
     1.0000   1.0000   1.0000   1.0000   1.0000   1.0000   1.0000   1.0000
     1.0000   1.0000   1.0000   1.0000   1.0000   1.0000   1.0000   1.0000
     1.0000   1.0000   1.0000   1.0000   1.0000   1.0000   1.0000   1.0000
     1.0000   1.0000   1.0000   1.0000   1.0000   1.0000   1.0000   1.0000
     1.0000   1.0000   1.0000   1.0000   1.0000   1.0000   1.0000   1.0000
     1.0000   1.0000   1.0000   1.0000   1.0000   1.0000   1.0000   1.0000
     1.0000   1.0000   1.0000   1.0000   1.0000   1.0000   1.0000   1.0000
     1.0000   1.0000   1.0000   1.0000   1.0000   1.0000   1.0000   1.0000
     1.0000   1.0000   1.0000   1.0000   1.0000   1.0000   1.0000   1.0000
     1.0000   1.0000   1.0000   1.0000   1.0000   1.0000   1.0000   1.0000
     1.0000   1.0000   1.0000   1.0000   1.0000   1.0000   1.0000   1.0000
     1.0000   1.0000   1.0000   1.0000   1.0000   1.0000   1.0000   1.0000
     1.0000   1.0000   1.0000   1.0000   1.0000   1.0000   1.0000   1.0000
     1.0000   1.0000   1.0000   1.0000   1.0000   1.0000   1.0000   1.0000
     1.0000   1.0000   1.0000   1.0000   1.0000   1.0000   1.0000   1.0000
     1.0000   1.0000   1.0000   1.0000   1.0000   1.0000   1.0000   1.0000
     1.0000   1.0000   1.0000   1.0000   1.0000   1.0000   1.0000   1.0000
     1.0000   1.0000   1.0000   1.0000   1.0000   1.0000   1.0000   1.0000
     1.0000   1.0000   1.0000   1.0000   1.0000   1.0000   1.0000   1.0000
     1.0000   1.0000   1.0000   1.0000   1.0000   1.0000   1.0000   1.0000
     1.0000   1.0000   1.0000   1.0000   1.0000   1.0000   1.0000   1.0000
     1.0000   1.0000   1.0000   1.0000   1.0000   1.0000   1.0000   1.0000
     1.0000   1.0000   1.0000   1.0000   1.0000   1.0000   1.0000   1.0000
     1.0000   1.0000   1.0000   1.0000   1.0000   1.0000   1.0000   1.0000
     1.0000   1.0000   1.0000   1.0000   1.0000   1.0000   1.0000   1.0000
     1.0000   1.0000   1.0000   1.0000   1.0000   1.0000   1.0000   1.0000
     1.0000   1.0000   1.0000   1.0000   1.0000   1.0000   1.0000   1.0000
     1.0000   1.0000   1.0000   1.0000   1.0000   1.0000   1.0000   1.0000
     1.0000   1.0000   1.0000   1.0000   1.0000   1.0000   1.0000   1.0000
     1.0000   1.0000   1.0000   1.0000   1.0000   1.0000   1.0000   1.0000
     1.0000   1.0000   1.0000   1.0000   1.0000   1.0000   1.0000   1.0000
     1.0000   1.0000   1.0000   1.0000   1.0000   1.0000   1.0000   1.0000
     1.0000   1.0000   1.0000   1.0000   1.0000   1.0000   1.0000   1.0000
     1.0000   1.0000   1.0000   1.0000   1.0000   1.0000   1.0000   1.0000
     1.0000   1.0000   1.0000   1.0000   1.0000   1.0000   1.0000   1.0000
     1.0000   1.0000   1.0000   1.0000   1.0000   1.0000   1.0000   1.0000
     1.0000   1.0000   1.0000   1.0000   1.0000   1.0000   1.0000   1.0000
     1.0000   1.0000   1.0000   1.0000   1.0000   1.0000   1.0000   1.0000
     1.0000   1.0000   1.0000   1.0000   1.0000   1.0000   1.0000   1.0000
     1.0000   1.0000   1.0000   1.0000   1.0000   1.0000   1.0000   1.0000
     1.0000   1.0000   1.0000   1.0000   1.0000   1.0000   1.0000   1.0000
     1.0000   1.0000   1.0000   1.0000   1.0000   1.0000   1.0000   1.0000
     1.0000   1.0000   1.0000   1.0000   1.0000   1.0000   1.0000   1.0000
     1.0000   1.0000   1.0000   1.0000   1.0000   1.0000   1.0000   1.0000
     1.0000   1.0000   1.0000   1.0000   1.0000   1.0000   1.0000   1.0000
     1.0000   1.0000   1.0000   1.0000   1.0000   1.0000   1.0000   1.0000
     1.0000   1.0000   1.0000   1.0000   1.0000   1.0000   1.0000   1.0000
     1.0000   1.0000   1.0000   1.0000   1.0000   1.0000   1.0000   1.0000
     1.0000   1.0000   1.0000   1.0000   1.0000   1.0000   1.0000   1.0000
     1.0000   1.0000   1.0000   1.0000   1.0000   1.0000   1.0000   1.0000
     1.0000   1.0000   1.0000   1.0000   1.0000   1.0000   1.0000   1.0000
     1.0000   1.0000   1.0000   1.0000   1.0000   1.0000   1.0000   1.0000
     1.0000   1.0000   1.0000   1.0000   1.0000   1.0000   1.0000   1.0000
     1.0000   1.0000   1.0000   1.0000   1.0000   1.0000   1.0000   1.0000
     1.0000   1.0000   1.0000   1.0000   1.0000   1.0000   1.0000   1.0000
     1.0000   1.0000   1.0000   1.0000   1.0000   1.0000   1.0000   1.0000
     1.0000   1.0000   1.0000   1.0000   1.0000   1.0000   1.0000   1.0000
     1.0000   1.0000   1.0000   1.0000   1.0000   1.0000   1.0000   1.0000
     1.0000   1.0000   1.0000   1.0000   1.0000   1.0000   1.0000   1.0000
     1.0000   1.0000   1.0000   1.0000   1.0000   1.0000   1.0000   1.0000
     1.0000   1.0000   1.0000   1.0000   1.0000   1.0000   1.0000   1.0000
     1.0000   1.0000   1.0000   1.0000   1.0000   1.0000   1.0000   1.0000
     1.0000   1.0000   1.0000   1.0000   1.0000   1.0000   1.0000   1.0000
     1.0000   1.0000   1.0000   1.0000   1.0000   1.0000   1.0000   1.0000
     1.0000   1.0000   1.0000   1.0000   1.0000   1.0000   1.0000   1.0000
     1.0000   1.0000   1.0000   1.0000   1.0000   1.0000   1.0000   1.0000
     1.0000   1.0000   1.0000   1.0000   1.0000   1.0000   1.0000   1.0000
     1.0000   1.0000   1.0000   1.0000   1.0000   1.0000   1.0000   1.0000
     1.0000   1.0000   1.0000   1.0000   1.0000   1.0000   1.0000   1.0000
     1.0000   1.0000   1.0000   1.0001   1.0001   1.0001   1.0001   1.0010
     1.0011   1.0028   1.0028   1.0107   1.0107   1.0192   1.0264   1.0368
     1.0564   1.0565   1.0693   1.0694   1.0720   1.0789   1.0795   1.0795
     1.0813   1.0814   1.0827   1.0833   1.0794   1.0794   0.9965   0.9959
     0.9528   0.9190   0.9182   0.8665   0.8664   0.7317   0.5593   0.5590
     0.5013   0.5006   0.2704   0.2702   0.2323   0.2317   0.1631   0.1631
     0.1241   0.1239   0.0990   0.0987   0.0977   0.0486   0.0282   0.0281
     0.0262   0.0261   0.0222   0.0119   0.0093   0.0046   0.0044   0.0043
     0.0043   0.0011   0.0011   0.0008   0.0008   0.0007   0.0004   0.0004
     0.0003   0.0000   0.0000   0.0000   0.0000   0.0000   0.0000   0.0000
     0.0000   0.0000   0.0000   0.0000   0.0000   0.0000   0.0000   0.0000
     0.0000   0.0000   0.0000   0.0000   0.0000   0.0000   0.0000   0.0000
     0.0000   0.0000   0.0000   0.0000   0.0000   0.0000   0.0000   0.0000
     0.0000   0.0000   0.0000   0.0000   0.0000   0.0000   0.0000   0.0000
     0.0000   0.0000   0.0000   0.0000   0.0000   0.0000   0.0000   0.0000
     0.0000   0.0000   0.0000   0.0000   0.0000   0.0000   0.0000   0.0000
     0.0000   0.0000   0.0000   0.0000   0.0000   0.0000   0.0000   0.0000
     0.0000   0.0000   0.0000   0.0000   0.0000   0.0000   0.0000   0.0000
     0.0000   0.0000   0.0000   0.0000   0.0000   0.0000   0.0000   0.0000
     0.0000   0.0000   0.0000   0.0000   0.0000   0.0000   0.0000   0.0000
     0.0000   0.0000   0.0000   0.0000   0.0000   0.0000   0.0000   0.0000
     0.0000   0.0000

          k = 0.0000 0.3750 0.0000 (207943 PWs)   bands (ev):

   -61.8743 -61.8691 -61.8560 -61.8559 -61.8528 -61.8527 -61.8440 -61.8385
   -61.8383 -61.8348 -61.8337 -61.8336 -61.8246 -61.8244 -61.8232 -61.8231
   -61.8136 -61.8099 -61.8033 -61.7996 -61.7955 -61.7926 -61.7926 -61.7917
   -61.7917 -61.7911 -61.7867 -61.7867 -61.7858 -61.7842 -61.7842 -61.7804
   -61.7773 -61.7772 -61.7757 -61.7757 -61.7737 -61.7737 -61.7736 -61.7736
   -61.7653 -61.7643 -61.7620 -61.7564 -61.7563 -61.7539 -61.7509 -61.7506
   -61.7418 -61.7416 -61.7409 -61.7407 -61.7309 -61.7272 -61.6903 -61.6893
   -61.6883 -61.6879 -61.6877 -61.6875 -61.6873 -61.6870 -61.6868 -61.6865
   -61.6831 -61.6797 -61.6782 -61.6779 -61.6755 -61.6753 -61.6675 -61.6642
   -35.9678 -35.9678 -35.9573 -35.9573 -35.9501 -35.9501 -35.9415 -35.9415
   -35.9365 -35.9365 -35.9245 -35.9245 -35.9098 -35.9098 -35.9074 -35.9072
   -35.9071 -35.9070 -35.8775 -35.8774 -35.8737 -35.8737 -35.8693 -35.8693
   -35.8600 -35.8600 -35.8564 -35.8561 -35.8561 -35.8559 -35.8559 -35.8543
   -35.8508 -35.8508 -35.8503 -35.8503 -35.8473 -35.8413 -35.8413 -35.8410
   -35.8400 -35.8400 -35.8352 -35.8352 -35.8350 -35.8307 -35.8296 -35.8286
   -35.8244 -35.8243 -35.8201 -35.8200 -35.8200 -35.8181 -35.7994 -35.7832
   -35.7827 -35.7826 -35.7760 -35.7673 -35.7661 -35.7603 -35.7602 -35.7583
   -35.7573 -35.7549 -35.7549 -35.7461 -35.7412 -35.7406 -35.7348 -35.7348
   -35.7278 -35.7276 -35.7276 -35.7126 -35.7039 -35.7039 -35.6953 -35.6951
   -35.6888 -35.6856 -35.6845 -35.6844 -35.6823 -35.6778 -35.6739 -35.6697
   -35.6660 -35.6660 -35.6620 -35.6619 -35.6601 -35.6561 -35.6560 -35.6506
   -35.6505 -35.6488 -35.6487 -35.6441 -35.6438 -35.6438 -35.6415 -35.6413
   -35.6412 -35.6411 -35.6411 -35.6391 -35.6341 -35.6340 -35.6339 -35.6339
   -35.6335 -35.6334 -35.6301 -35.6286 -35.6266 -35.6232 -35.6232 -35.6226
   -35.6186 -35.6186 -35.6166 -35.6151 -35.6151 -35.6095 -35.5991 -35.5990
   -35.5877 -35.5846 -35.5845 -35.5826 -35.5816 -35.5816 -35.5747 -35.5746
   -35.5736 -35.5709 -35.5709 -35.5682 -35.5681 -35.5671 -35.5668 -35.5667
   -35.5655 -35.5640 -35.5640 -35.5639 -35.5639 -35.5612 -35.5612 -35.5570
   -35.5569 -35.5568 -35.5558 -35.5552 -35.5552 -35.5551 -35.5534 -35.5522
   -35.5521 -35.5502 -35.5481 -35.5442 -35.5442 -35.5428 -35.5428 -35.5410
   -35.5410 -35.5339 -35.5338 -35.5320 -35.5206 -35.5205 -35.5097 -35.5084
   -35.5083 -35.5056 -35.5055 -35.4974 -35.4973 -35.4971 -35.4960 -35.4959
   -35.4956 -35.4956 -35.4900 -35.4900 -35.4811 -35.4811 -35.4754 -35.4754
   -35.4712 -35.4706 -35.4666 -35.4666 -35.4645 -35.4608 -35.4592 -35.4508
   -35.4251 -35.4248 -35.4243 -35.4241 -35.4110 -35.4108 -35.4035 -35.4033
   -35.3977 -35.3880 -35.3860 -35.3858 -35.3857 -35.3821 -35.3814 -35.3813
   -14.1954 -14.0181 -13.5430 -13.5429 -13.3793 -13.3792 -13.3297 -13.2277
   -13.1751 -12.9970 -12.7933 -12.7805 -12.7805 -12.7617 -12.7229 -12.7228
   -12.6850 -12.6849 -12.6472 -12.6472 -12.6156 -12.6155 -12.5773 -12.5695
   -12.5216 -12.5157 -12.5156 -12.4860 -12.4533 -12.3940 -12.3939 -12.3536
   -12.3367 -12.3366 -12.3217 -12.2109 -12.2109 -12.1838 -12.1837 -12.1821
   -12.0213 -12.0213 -11.9051 -11.9050 -11.8529 -11.8195 -11.8194 -11.8052
   -11.7557 -11.7480 -11.6933 -11.6932 -11.6513 -11.6513 -11.6153 -11.5754
   -11.5754 -11.4990 -11.4952 -11.4952 -11.4849 -11.4546 -11.4323 -11.4323
   -11.3647 -11.3644 -11.2908 -11.2905 -11.2335 -11.2334 -11.1618 -11.1616
    -4.9011  -4.9011  -4.8141  -4.8141  -4.6904  -4.6904  -4.6250  -4.6250
    -4.3259  -4.3259  -4.1439  -4.1439  -4.0958  -4.0958  -4.0058  -3.9296
    -3.9296  -3.8648  -3.8648  -3.8585  -3.8541  -3.8541  -3.7664  -3.7664
    -3.7393  -3.7393  -3.7203  -3.7135  -3.7135  -3.6308  -3.6106  -3.6105
    -3.5730  -3.5595  -3.5361  -3.4964  -3.4963  -3.4655  -3.4655  -3.3939
    -3.3939  -3.3623  -3.2758  -3.2757  -3.2497  -3.2315  -3.2138  -3.2138
    -3.1438  -3.1114  -3.0785  -3.0614  -3.0613  -2.8780  -2.8156  -2.7652
    -2.7652  -2.7189  -2.7188  -2.7152  -2.7133  -2.7132  -2.6433  -2.6432
    -2.6285  -2.6163  -2.5918  -2.5775  -2.5775  -2.5747  -2.5746  -2.5569
    -2.5568  -2.5548  -2.5232  -2.5228  -2.5227  -2.4781  -2.4780  -2.4561
    -2.4381  -2.4380  -2.4265  -2.4265  -2.3838  -2.3838  -2.3626  -2.3316
    -2.3316  -2.2686  -2.2685  -2.2685  -2.2597  -2.2597  -2.2568  -2.2567
    -2.2403  -2.1457  -2.1457  -2.1281  -2.1281  -2.1166  -2.0660  -2.0499
    -2.0468  -2.0467  -2.0290  -2.0290  -2.0280  -1.9809  -1.9809  -1.9766
    -1.9746  -1.9745  -1.9024  -1.9024  -1.8942  -1.8942  -1.8858  -1.8858
    -1.8814  -1.8814  -1.8148  -1.8148  -1.8122  -1.7493  -1.7297  -1.7297
    -1.6846  -1.6734  -1.6734  -1.6714  -1.6713  -1.6201  -1.6063  -1.5964
    -1.5963  -1.5678  -1.5676  -1.5483  -1.5225  -1.5038  -1.5038  -1.5024
    -1.4934  -1.4932  -1.4924  -1.4923  -1.4890  -1.4889  -1.4817  -1.4815
    -1.4346  -1.4298  -1.2935  -1.2761  -1.2556  -1.2555  -1.2237  -1.2237
    -1.1864  -1.1732  -1.1676  -1.1675  -1.1648  -1.1646  -1.1278  -1.1274
    -1.1273  -1.1076  -1.1043  -1.0989  -1.0987  -1.0970  -1.0968  -1.0841
    -1.0264  -0.9580  -0.9579  -0.9186  -0.9185  -0.8532  -0.8478  -0.8478
    -0.8449  -0.8210  -0.8127  -0.8126  -0.7735  -0.7734  -0.7640  -0.6912
    -0.6682  -0.6680  -0.6488  -0.6301  -0.5928  -0.5723  -0.5655  -0.5559
    -0.5137  -0.5135  -0.4857  -0.4856  -0.4092  -0.3546  -0.2607  -0.2550
    -0.2395   0.0177   0.0891   0.1998   0.2162   0.2755   0.4944   0.5127
     0.6012   0.6876   0.9368   1.1796   1.2242   1.2729   1.2731   1.3190
     1.4707   1.5396   1.7426   1.7610   1.7612   1.8505   1.8992   2.0679
     2.0680   2.1475   2.2812   2.4217   2.4218   2.4386   2.4770   2.5043
     2.5043   2.5273   2.5274   2.5619   2.5700   2.5702   2.5878   2.6058
     2.6242   2.7336   2.7338   2.7369   2.7486   2.7487   2.7708   2.7710
     2.8121   2.8122   2.8240   2.8518   2.8580   2.8830   2.8832   2.9073
     2.9553   2.9555   3.0161   3.0164   3.0165   3.0925   3.1275   3.1276
     3.2077   3.2078   3.2443   3.2444   3.2718   3.2719   3.2910   3.2911
     3.3084   3.3087   3.3344   3.3860   3.4070   3.4076   3.4077   3.4203
     3.4204   3.4339   3.4596   3.4598   3.4994   3.4994   3.5247   3.5248
     3.5923   3.5924   3.5983   3.6718   3.6720   3.6797   3.6797   3.7072
     3.7424   3.7879   3.7944   3.8143   3.8398   3.8448   3.8450   3.8607
     3.8608   3.8664   3.8778   3.8783   3.8824   3.8824   3.9355   3.9356
     3.9561   3.9599   3.9601   3.9785   4.0507   4.0511   4.0649   4.0649
     4.0790   4.0793   4.0794   4.0928   4.1065   4.1108   4.1200   4.1258
     4.1258   4.1323   4.1425   4.1519   4.1546   4.1623   4.1948   4.1950
     4.2132   4.2137   4.2140   4.2163   4.2164   4.2285   4.2286   4.2560
     4.2561   4.2570   4.2570   4.2846   4.2846   4.2975   4.2982   4.3414
     4.3517   4.3518   4.3570   4.3621   4.3687   4.3705   4.3722   4.3723
     4.4086   4.4088   4.4140   4.4507   4.4705   4.4973   4.5025   4.5073
     4.5077   4.5123   4.5132   4.5132   4.5173   4.5458   4.5486   4.5488
     4.5566   4.5568   4.5987   4.6224   4.6227   4.6424   4.6577   4.6579
     4.6765   4.6857   4.6900   4.6938   4.6944   4.7089   4.7097   4.7343
     4.7599   4.7616   4.7622   4.7753   4.7755   4.7883   4.7886   4.7905
     4.7991   4.7996   4.8268   4.8280   4.8284   4.8447   4.8449   4.8569
     4.8580   4.8612

     occupation numbers 
     1.0000   1.0000   1.0000   1.0000   1.0000   1.0000   1.0000   1.0000
     1.0000   1.0000   1.0000   1.0000   1.0000   1.0000   1.0000   1.0000
     1.0000   1.0000   1.0000   1.0000   1.0000   1.0000   1.0000   1.0000
     1.0000   1.0000   1.0000   1.0000   1.0000   1.0000   1.0000   1.0000
     1.0000   1.0000   1.0000   1.0000   1.0000   1.0000   1.0000   1.0000
     1.0000   1.0000   1.0000   1.0000   1.0000   1.0000   1.0000   1.0000
     1.0000   1.0000   1.0000   1.0000   1.0000   1.0000   1.0000   1.0000
     1.0000   1.0000   1.0000   1.0000   1.0000   1.0000   1.0000   1.0000
     1.0000   1.0000   1.0000   1.0000   1.0000   1.0000   1.0000   1.0000
     1.0000   1.0000   1.0000   1.0000   1.0000   1.0000   1.0000   1.0000
     1.0000   1.0000   1.0000   1.0000   1.0000   1.0000   1.0000   1.0000
     1.0000   1.0000   1.0000   1.0000   1.0000   1.0000   1.0000   1.0000
     1.0000   1.0000   1.0000   1.0000   1.0000   1.0000   1.0000   1.0000
     1.0000   1.0000   1.0000   1.0000   1.0000   1.0000   1.0000   1.0000
     1.0000   1.0000   1.0000   1.0000   1.0000   1.0000   1.0000   1.0000
     1.0000   1.0000   1.0000   1.0000   1.0000   1.0000   1.0000   1.0000
     1.0000   1.0000   1.0000   1.0000   1.0000   1.0000   1.0000   1.0000
     1.0000   1.0000   1.0000   1.0000   1.0000   1.0000   1.0000   1.0000
     1.0000   1.0000   1.0000   1.0000   1.0000   1.0000   1.0000   1.0000
     1.0000   1.0000   1.0000   1.0000   1.0000   1.0000   1.0000   1.0000
     1.0000   1.0000   1.0000   1.0000   1.0000   1.0000   1.0000   1.0000
     1.0000   1.0000   1.0000   1.0000   1.0000   1.0000   1.0000   1.0000
     1.0000   1.0000   1.0000   1.0000   1.0000   1.0000   1.0000   1.0000
     1.0000   1.0000   1.0000   1.0000   1.0000   1.0000   1.0000   1.0000
     1.0000   1.0000   1.0000   1.0000   1.0000   1.0000   1.0000   1.0000
     1.0000   1.0000   1.0000   1.0000   1.0000   1.0000   1.0000   1.0000
     1.0000   1.0000   1.0000   1.0000   1.0000   1.0000   1.0000   1.0000
     1.0000   1.0000   1.0000   1.0000   1.0000   1.0000   1.0000   1.0000
     1.0000   1.0000   1.0000   1.0000   1.0000   1.0000   1.0000   1.0000
     1.0000   1.0000   1.0000   1.0000   1.0000   1.0000   1.0000   1.0000
     1.0000   1.0000   1.0000   1.0000   1.0000   1.0000   1.0000   1.0000
     1.0000   1.0000   1.0000   1.0000   1.0000   1.0000   1.0000   1.0000
     1.0000   1.0000   1.0000   1.0000   1.0000   1.0000   1.0000   1.0000
     1.0000   1.0000   1.0000   1.0000   1.0000   1.0000   1.0000   1.0000
     1.0000   1.0000   1.0000   1.0000   1.0000   1.0000   1.0000   1.0000
     1.0000   1.0000   1.0000   1.0000   1.0000   1.0000   1.0000   1.0000
     1.0000   1.0000   1.0000   1.0000   1.0000   1.0000   1.0000   1.0000
     1.0000   1.0000   1.0000   1.0000   1.0000   1.0000   1.0000   1.0000
     1.0000   1.0000   1.0000   1.0000   1.0000   1.0000   1.0000   1.0000
     1.0000   1.0000   1.0000   1.0000   1.0000   1.0000   1.0000   1.0000
     1.0000   1.0000   1.0000   1.0000   1.0000   1.0000   1.0000   1.0000
     1.0000   1.0000   1.0000   1.0000   1.0000   1.0000   1.0000   1.0000
     1.0000   1.0000   1.0000   1.0000   1.0000   1.0000   1.0000   1.0000
     1.0000   1.0000   1.0000   1.0000   1.0000   1.0000   1.0000   1.0000
     1.0000   1.0000   1.0000   1.0000   1.0000   1.0000   1.0000   1.0000
     1.0000   1.0000   1.0000   1.0000   1.0000   1.0000   1.0000   1.0000
     1.0000   1.0000   1.0000   1.0000   1.0000   1.0000   1.0000   1.0000
     1.0000   1.0000   1.0000   1.0000   1.0000   1.0000   1.0000   1.0000
     1.0000   1.0000   1.0000   1.0000   1.0000   1.0000   1.0000   1.0000
     1.0000   1.0000   1.0000   1.0000   1.0000   1.0000   1.0000   1.0000
     1.0000   1.0000   1.0000   1.0000   1.0000   1.0000   1.0000   1.0000
     1.0000   1.0000   1.0000   1.0000   1.0000   1.0000   1.0000   1.0000
     1.0000   1.0000   1.0000   1.0000   1.0000   1.0000   1.0000   1.0000
     1.0000   1.0000   1.0000   1.0000   1.0000   1.0000   1.0000   1.0000
     1.0000   1.0000   1.0000   1.0000   1.0000   1.0000   1.0000   1.0000
     1.0000   1.0000   1.0000   1.0000   1.0000   1.0000   1.0000   1.0000
     1.0000   1.0000   1.0000   1.0000   1.0000   1.0000   1.0000   1.0000
     1.0000   1.0000   1.0000   1.0000   1.0000   1.0000   1.0000   1.0000
     1.0000   1.0000   1.0000   1.0000   1.0000   1.0000   1.0000   1.0000
     1.0000   1.0000   1.0000   1.0000   1.0000   1.0000   1.0000   1.0000
     1.0000   1.0000   1.0000   1.0000   1.0000   1.0000   1.0000   1.0000
     1.0000   1.0000   1.0000   1.0000   1.0000   1.0000   1.0000   1.0000
     1.0000   1.0000   1.0000   1.0000   1.0000   1.0000   1.0000   1.0000
     1.0000   1.0000   1.0000   1.0000   1.0000   1.0000   1.0000   1.0000
     1.0000   1.0000   1.0000   1.0000   1.0000   1.0000   1.0000   1.0000
     1.0000   1.0000   1.0000   1.0000   1.0000   1.0000   1.0000   1.0000
     1.0000   1.0000   1.0000   1.0000   1.0000   1.0000   1.0000   1.0000
     1.0000   1.0000   1.0000   1.0000   1.0000   1.0000   1.0000   1.0000
     1.0000   1.0000   1.0000   1.0000   1.0000   1.0000   1.0000   1.0000
     1.0000   1.0000   1.0000   1.0000   1.0000   1.0000   1.0000   1.0000
     1.0000   1.0000   1.0000   1.0000   1.0000   1.0000   1.0000   1.0000
     1.0000   1.0000   1.0000   1.0000   1.0000   1.0000   1.0000   1.0000
     1.0000   1.0000   1.0000   1.0000   1.0000   1.0000   1.0000   1.0000
     1.0000   1.0000   1.0000   1.0000   1.0000   1.0000   1.0000   1.0000
     1.0000   1.0000   1.0000   1.0000   1.0000   1.0000   1.0000   1.0000
     1.0000   1.0000   1.0000   1.0000   1.0000   1.0000   1.0000   1.0000
     1.0000   1.0001   1.0001   1.0001   1.0001   1.0001   1.0002   1.0002
     1.0007   1.0007   1.0009   1.0016   1.0019   1.0031   1.0031   1.0050
     1.0114   1.0114   1.0273   1.0274   1.0275   1.0597   1.0744   1.0744
     1.0743   1.0743   1.0424   1.0423   1.0002   1.0000   0.9608   0.9606
     0.9181   0.9174   0.8438   0.6668   0.5897   0.5872   0.5869   0.5407
     0.5401   0.4910   0.4016   0.4010   0.2786   0.2785   0.2133   0.2131
     0.0911   0.0909   0.0835   0.0257   0.0257   0.0224   0.0223   0.0134
     0.0066   0.0024   0.0021   0.0013   0.0007   0.0006   0.0006   0.0004
     0.0004   0.0003   0.0003   0.0002   0.0002   0.0002   0.0000   0.0000
     0.0000   0.0000   0.0000   0.0000   0.0000   0.0000   0.0000   0.0000
     0.0000   0.0000   0.0000   0.0000   0.0000   0.0000   0.0000   0.0000
     0.0000   0.0000   0.0000   0.0000   0.0000   0.0000   0.0000   0.0000
     0.0000   0.0000   0.0000   0.0000   0.0000   0.0000   0.0000   0.0000
     0.0000   0.0000   0.0000   0.0000   0.0000   0.0000   0.0000   0.0000
     0.0000   0.0000   0.0000   0.0000   0.0000   0.0000   0.0000   0.0000
     0.0000   0.0000   0.0000   0.0000   0.0000   0.0000   0.0000   0.0000
     0.0000   0.0000   0.0000   0.0000   0.0000   0.0000   0.0000   0.0000
     0.0000   0.0000   0.0000   0.0000   0.0000   0.0000   0.0000   0.0000
     0.0000   0.0000   0.0000   0.0000   0.0000   0.0000   0.0000   0.0000
     0.0000   0.0000   0.0000   0.0000   0.0000   0.0000   0.0000   0.0000
     0.0000   0.0000   0.0000   0.0000   0.0000   0.0000   0.0000   0.0000
     0.0000   0.0000

          k = 0.0000-0.5000 0.0000 (208022 PWs)   bands (ev):

   -61.8720 -61.8720 -61.8546 -61.8545 -61.8544 -61.8544 -61.8393 -61.8393
   -61.8361 -61.8360 -61.8359 -61.8359 -61.8238 -61.8238 -61.8237 -61.8237
   -61.8115 -61.8114 -61.8016 -61.8016 -61.7937 -61.7937 -61.7924 -61.7923
   -61.7922 -61.7921 -61.7856 -61.7856 -61.7855 -61.7853 -61.7832 -61.7831
   -61.7758 -61.7757 -61.7756 -61.7756 -61.7747 -61.7746 -61.7745 -61.7744
   -61.7636 -61.7634 -61.7591 -61.7590 -61.7535 -61.7535 -61.7534 -61.7533
   -61.7413 -61.7412 -61.7411 -61.7409 -61.7288 -61.7287 -61.6900 -61.6897
   -61.6880 -61.6877 -61.6875 -61.6874 -61.6873 -61.6872 -61.6872 -61.6872
   -61.6816 -61.6814 -61.6769 -61.6766 -61.6765 -61.6764 -61.6658 -61.6656
   -35.9639 -35.9639 -35.9639 -35.9638 -35.9473 -35.9473 -35.9473 -35.9473
   -35.9238 -35.9238 -35.9238 -35.9238 -35.9168 -35.9168 -35.9168 -35.9168
   -35.8925 -35.8924 -35.8924 -35.8924 -35.8639 -35.8639 -35.8638 -35.8637
   -35.8565 -35.8565 -35.8565 -35.8565 -35.8557 -35.8556 -35.8548 -35.8548
   -35.8548 -35.8547 -35.8439 -35.8439 -35.8439 -35.8438 -35.8400 -35.8399
   -35.8378 -35.8378 -35.8378 -35.8377 -35.8349 -35.8349 -35.8326 -35.8326
   -35.8326 -35.8326 -35.8320 -35.8320 -35.8089 -35.8089 -35.8007 -35.8007
   -35.7722 -35.7722 -35.7715 -35.7714 -35.7714 -35.7714 -35.7623 -35.7622
   -35.7493 -35.7493 -35.7400 -35.7400 -35.7399 -35.7399 -35.7353 -35.7352
   -35.7294 -35.7294 -35.7195 -35.7194 -35.7194 -35.7194 -35.6897 -35.6897
   -35.6854 -35.6854 -35.6791 -35.6791 -35.6772 -35.6771 -35.6679 -35.6678
   -35.6678 -35.6677 -35.6553 -35.6553 -35.6553 -35.6552 -35.6488 -35.6487
   -35.6487 -35.6487 -35.6469 -35.6469 -35.6469 -35.6468 -35.6468 -35.6466
   -35.6441 -35.6441 -35.6440 -35.6440 -35.6434 -35.6434 -35.6359 -35.6359
   -35.6289 -35.6288 -35.6287 -35.6287 -35.6287 -35.6286 -35.6233 -35.6231
   -35.6190 -35.6190 -35.6190 -35.6190 -35.6172 -35.6171 -35.5857 -35.5855
   -35.5852 -35.5852 -35.5851 -35.5851 -35.5826 -35.5825 -35.5825 -35.5824
   -35.5702 -35.5701 -35.5701 -35.5699 -35.5671 -35.5671 -35.5670 -35.5669
   -35.5649 -35.5648 -35.5594 -35.5594 -35.5593 -35.5593 -35.5584 -35.5583
   -35.5581 -35.5580 -35.5533 -35.5532 -35.5532 -35.5532 -35.5531 -35.5531
   -35.5495 -35.5494 -35.5472 -35.5472 -35.5470 -35.5470 -35.5439 -35.5438
   -35.5377 -35.5376 -35.5376 -35.5376 -35.5149 -35.5148 -35.5148 -35.5147
   -35.5033 -35.5032 -35.4963 -35.4962 -35.4962 -35.4962 -35.4962 -35.4962
   -35.4961 -35.4960 -35.4890 -35.4890 -35.4890 -35.4889 -35.4708 -35.4707
   -35.4707 -35.4707 -35.4659 -35.4658 -35.4646 -35.4644 -35.4584 -35.4583
   -35.4250 -35.4247 -35.4247 -35.4246 -35.4071 -35.4071 -35.4071 -35.4068
   -35.3913 -35.3912 -35.3850 -35.3849 -35.3835 -35.3833 -35.3833 -35.3832
   -14.1163 -14.1163 -13.4697 -13.4697 -13.4697 -13.4696 -13.2602 -13.2602
   -13.1048 -13.1048 -12.7757 -12.7756 -12.7201 -12.7201 -12.7200 -12.7200
   -12.6733 -12.6732 -12.6732 -12.6732 -12.5901 -12.5901 -12.5900 -12.5900
   -12.5517 -12.5517 -12.5009 -12.5009 -12.4262 -12.4261 -12.3667 -12.3666
   -12.3666 -12.3666 -12.2590 -12.2590 -12.1868 -12.1868 -12.1867 -12.1867
   -11.9686 -11.9686 -11.9685 -11.9685 -11.7934 -11.7934 -11.7814 -11.7813
   -11.7625 -11.7625 -11.7624 -11.7623 -11.6160 -11.6160 -11.6159 -11.6159
   -11.5422 -11.5422 -11.4773 -11.4773 -11.4559 -11.4558 -11.4558 -11.4557
   -11.3302 -11.3301 -11.3299 -11.3299 -11.1890 -11.1890 -11.1889 -11.1888
    -4.8786  -4.8786  -4.8786  -4.8785  -4.6758  -4.6758  -4.6757  -4.6757
    -4.1986  -4.1986  -4.1985  -4.1985  -4.0004  -4.0004  -4.0004  -4.0004
    -3.9441  -3.9441  -3.8205  -3.8205  -3.8205  -3.8204  -3.8054  -3.8054
    -3.8053  -3.8053  -3.6631  -3.6631  -3.5747  -3.5747  -3.5746  -3.5746
    -3.5720  -3.5720  -3.5720  -3.5720  -3.5460  -3.5460  -3.4924  -3.4924
    -3.3686  -3.3686  -3.3685  -3.3685  -3.1943  -3.1943  -3.1304  -3.1303
    -3.1269  -3.1269  -3.1269  -3.1269  -3.0533  -3.0533  -2.7237  -2.7237
    -2.6856  -2.6856  -2.6855  -2.6854  -2.6669  -2.6669  -2.6669  -2.6669
    -2.6425  -2.6425  -2.5639  -2.5639  -2.5639  -2.5639  -2.5461  -2.5461
    -2.5460  -2.5460  -2.5417  -2.5417  -2.5229  -2.5229  -2.5228  -2.5228
    -2.4458  -2.4457  -2.4352  -2.4352  -2.4250  -2.4250  -2.4250  -2.4250
    -2.2938  -2.2938  -2.2938  -2.2938  -2.2723  -2.2722  -2.2722  -2.2722
    -2.1525  -2.1525  -2.0843  -2.0843  -2.0813  -2.0813  -2.0813  -2.0812
    -2.0539  -2.0539  -2.0539  -2.0539  -2.0520  -2.0520  -1.9550  -1.9550
    -1.9550  -1.9550  -1.9375  -1.9375  -1.9375  -1.9374  -1.8582  -1.8582
    -1.8581  -1.8581  -1.7706  -1.7706  -1.7679  -1.7679  -1.7678  -1.7678
    -1.6273  -1.6273  -1.6272  -1.6272  -1.5982  -1.5982  -1.5982  -1.5982
    -1.5390  -1.5390  -1.5390  -1.5389  -1.5377  -1.5377  -1.5196  -1.5196
    -1.5035  -1.5035  -1.5034  -1.5034  -1.4789  -1.4787  -1.3752  -1.3752
    -1.3588  -1.3588  -1.3318  -1.3318  -1.3318  -1.3317  -1.2355  -1.2355
    -1.2355  -1.2355  -1.1970  -1.1969  -1.1530  -1.1530  -1.1398  -1.1398
    -1.1397  -1.1396  -1.0571  -1.0571  -0.9976  -0.9975  -0.9975  -0.9974
    -0.9725  -0.9725  -0.9724  -0.9724  -0.8641  -0.8641  -0.8608  -0.8608
    -0.8607  -0.8607  -0.8503  -0.8503  -0.8070  -0.8070  -0.6655  -0.6655
    -0.6655  -0.6654  -0.6303  -0.6303  -0.6164  -0.6164  -0.5786  -0.5785
    -0.5784  -0.5783  -0.5697  -0.5696  -0.4233  -0.4233  -0.0697  -0.0697
    -0.0616  -0.0616   0.1191   0.1192   0.1245   0.1246   0.3620   0.3620
     0.6383   0.6383   1.2214   1.2214   1.3454   1.3454   1.4536   1.4537
     1.5046   1.5046   1.5048   1.5048   1.5762   1.5762   2.0847   2.0848
     2.2305   2.2305   2.2305   2.2306   2.4262   2.4262   2.4547   2.4548
     2.5078   2.5079   2.5079   2.5080   2.6304   2.6305   2.6306   2.6306
     2.6885   2.6887   2.7066   2.7066   2.7246   2.7246   2.7865   2.7866
     2.8149   2.8149   2.8150   2.8151   2.8490   2.8490   2.8491   2.8491
     2.9030   2.9031   2.9031   2.9032   3.0504   3.0505   3.1543   3.1543
     3.1544   3.1544   3.2500   3.2501   3.2501   3.2502   3.3691   3.3691
     3.3693   3.3694   3.4090   3.4090   3.4109   3.4109   3.4110   3.4111
     3.4178   3.4178   3.4178   3.4179   3.4847   3.4848   3.5451   3.5452
     3.5452   3.5453   3.6622   3.6622   3.7217   3.7218   3.7431   3.7431
     3.7432   3.7432   3.8793   3.8794   3.8794   3.8796   3.9071   3.9072
     3.9107   3.9107   3.9108   3.9108   3.9492   3.9493   3.9762   3.9763
     3.9905   3.9905   3.9906   3.9906   3.9952   3.9952   4.0678   4.0678
     4.0678   4.0679   4.0905   4.0906   4.0906   4.0907   4.0945   4.0946
     4.1001   4.1002   4.1013   4.1015   4.1016   4.1018   4.1471   4.1472
     4.2081   4.2082   4.2082   4.2082   4.2643   4.2643   4.2644   4.2645
     4.2680   4.2682   4.2684   4.2687   4.2862   4.2862   4.2863   4.2863
     4.3595   4.3596   4.3769   4.3775   4.3839   4.3847   4.3848   4.3850
     4.4529   4.4530   4.4917   4.4918   4.5037   4.5039   4.5042   4.5042
     4.5176   4.5176   4.5177   4.5178   4.5352   4.5353   4.5354   4.5357
     4.5572   4.5572   4.5814   4.5814   4.6618   4.6620   4.6621   4.6623
     4.6816   4.6816   4.6817   4.6818   4.6853   4.6854   4.7290   4.7291
     4.7324   4.7325   4.7360   4.7361   4.7984   4.7985   4.8169   4.8171
     4.8173   4.8176   4.8323   4.8325   4.8328   4.8331   4.8443   4.8445
     4.8449   4.8451

     occupation numbers 
     1.0000   1.0000   1.0000   1.0000   1.0000   1.0000   1.0000   1.0000
     1.0000   1.0000   1.0000   1.0000   1.0000   1.0000   1.0000   1.0000
     1.0000   1.0000   1.0000   1.0000   1.0000   1.0000   1.0000   1.0000
     1.0000   1.0000   1.0000   1.0000   1.0000   1.0000   1.0000   1.0000
     1.0000   1.0000   1.0000   1.0000   1.0000   1.0000   1.0000   1.0000
     1.0000   1.0000   1.0000   1.0000   1.0000   1.0000   1.0000   1.0000
     1.0000   1.0000   1.0000   1.0000   1.0000   1.0000   1.0000   1.0000
     1.0000   1.0000   1.0000   1.0000   1.0000   1.0000   1.0000   1.0000
     1.0000   1.0000   1.0000   1.0000   1.0000   1.0000   1.0000   1.0000
     1.0000   1.0000   1.0000   1.0000   1.0000   1.0000   1.0000   1.0000
     1.0000   1.0000   1.0000   1.0000   1.0000   1.0000   1.0000   1.0000
     1.0000   1.0000   1.0000   1.0000   1.0000   1.0000   1.0000   1.0000
     1.0000   1.0000   1.0000   1.0000   1.0000   1.0000   1.0000   1.0000
     1.0000   1.0000   1.0000   1.0000   1.0000   1.0000   1.0000   1.0000
     1.0000   1.0000   1.0000   1.0000   1.0000   1.0000   1.0000   1.0000
     1.0000   1.0000   1.0000   1.0000   1.0000   1.0000   1.0000   1.0000
     1.0000   1.0000   1.0000   1.0000   1.0000   1.0000   1.0000   1.0000
     1.0000   1.0000   1.0000   1.0000   1.0000   1.0000   1.0000   1.0000
     1.0000   1.0000   1.0000   1.0000   1.0000   1.0000   1.0000   1.0000
     1.0000   1.0000   1.0000   1.0000   1.0000   1.0000   1.0000   1.0000
     1.0000   1.0000   1.0000   1.0000   1.0000   1.0000   1.0000   1.0000
     1.0000   1.0000   1.0000   1.0000   1.0000   1.0000   1.0000   1.0000
     1.0000   1.0000   1.0000   1.0000   1.0000   1.0000   1.0000   1.0000
     1.0000   1.0000   1.0000   1.0000   1.0000   1.0000   1.0000   1.0000
     1.0000   1.0000   1.0000   1.0000   1.0000   1.0000   1.0000   1.0000
     1.0000   1.0000   1.0000   1.0000   1.0000   1.0000   1.0000   1.0000
     1.0000   1.0000   1.0000   1.0000   1.0000   1.0000   1.0000   1.0000
     1.0000   1.0000   1.0000   1.0000   1.0000   1.0000   1.0000   1.0000
     1.0000   1.0000   1.0000   1.0000   1.0000   1.0000   1.0000   1.0000
     1.0000   1.0000   1.0000   1.0000   1.0000   1.0000   1.0000   1.0000
     1.0000   1.0000   1.0000   1.0000   1.0000   1.0000   1.0000   1.0000
     1.0000   1.0000   1.0000   1.0000   1.0000   1.0000   1.0000   1.0000
     1.0000   1.0000   1.0000   1.0000   1.0000   1.0000   1.0000   1.0000
     1.0000   1.0000   1.0000   1.0000   1.0000   1.0000   1.0000   1.0000
     1.0000   1.0000   1.0000   1.0000   1.0000   1.0000   1.0000   1.0000
     1.0000   1.0000   1.0000   1.0000   1.0000   1.0000   1.0000   1.0000
     1.0000   1.0000   1.0000   1.0000   1.0000   1.0000   1.0000   1.0000
     1.0000   1.0000   1.0000   1.0000   1.0000   1.0000   1.0000   1.0000
     1.0000   1.0000   1.0000   1.0000   1.0000   1.0000   1.0000   1.0000
     1.0000   1.0000   1.0000   1.0000   1.0000   1.0000   1.0000   1.0000
     1.0000   1.0000   1.0000   1.0000   1.0000   1.0000   1.0000   1.0000
     1.0000   1.0000   1.0000   1.0000   1.0000   1.0000   1.0000   1.0000
     1.0000   1.0000   1.0000   1.0000   1.0000   1.0000   1.0000   1.0000
     1.0000   1.0000   1.0000   1.0000   1.0000   1.0000   1.0000   1.0000
     1.0000   1.0000   1.0000   1.0000   1.0000   1.0000   1.0000   1.0000
     1.0000   1.0000   1.0000   1.0000   1.0000   1.0000   1.0000   1.0000
     1.0000   1.0000   1.0000   1.0000   1.0000   1.0000   1.0000   1.0000
     1.0000   1.0000   1.0000   1.0000   1.0000   1.0000   1.0000   1.0000
     1.0000   1.0000   1.0000   1.0000   1.0000   1.0000   1.0000   1.0000
     1.0000   1.0000   1.0000   1.0000   1.0000   1.0000   1.0000   1.0000
     1.0000   1.0000   1.0000   1.0000   1.0000   1.0000   1.0000   1.0000
     1.0000   1.0000   1.0000   1.0000   1.0000   1.0000   1.0000   1.0000
     1.0000   1.0000   1.0000   1.0000   1.0000   1.0000   1.0000   1.0000
     1.0000   1.0000   1.0000   1.0000   1.0000   1.0000   1.0000   1.0000
     1.0000   1.0000   1.0000   1.0000   1.0000   1.0000   1.0000   1.0000
     1.0000   1.0000   1.0000   1.0000   1.0000   1.0000   1.0000   1.0000
     1.0000   1.0000   1.0000   1.0000   1.0000   1.0000   1.0000   1.0000
     1.0000   1.0000   1.0000   1.0000   1.0000   1.0000   1.0000   1.0000
     1.0000   1.0000   1.0000   1.0000   1.0000   1.0000   1.0000   1.0000
     1.0000   1.0000   1.0000   1.0000   1.0000   1.0000   1.0000   1.0000
     1.0000   1.0000   1.0000   1.0000   1.0000   1.0000   1.0000   1.0000
     1.0000   1.0000   1.0000   1.0000   1.0000   1.0000   1.0000   1.0000
     1.0000   1.0000   1.0000   1.0000   1.0000   1.0000   1.0000   1.0000
     1.0000   1.0000   1.0000   1.0000   1.0000   1.0000   1.0000   1.0000
     1.0000   1.0000   1.0000   1.0000   1.0000   1.0000   1.0000   1.0000
     1.0000   1.0000   1.0000   1.0000   1.0000   1.0000   1.0000   1.0000
     1.0000   1.0000   1.0000   1.0000   1.0000   1.0000   1.0000   1.0000
     1.0000   1.0000   1.0000   1.0000   1.0000   1.0000   1.0000   1.0000
     1.0000   1.0000   1.0000   1.0000   1.0000   1.0000   1.0000   1.0000
     1.0000   1.0000   1.0000   1.0000   1.0000   1.0000   1.0000   1.0000
     1.0000   1.0000   1.0000   1.0000   1.0000   1.0000   1.0000   1.0000
     1.0000   1.0000   1.0000   1.0000   1.0000   1.0000   1.0000   1.0000
     1.0000   1.0000   1.0000   1.0000   1.0000   1.0000   1.0000   1.0000
     1.0000   1.0000   1.0000   1.0000   1.0000   1.0000   1.0000   1.0000
     1.0000   1.0000   1.0000   1.0000   1.0000   1.0000   1.0000   1.0000
     1.0000   1.0000   1.0000   1.0000   1.0000   1.0000   1.0000   1.0000
     1.0000   1.0000   1.0000   1.0000   1.0001   1.0001   1.0004   1.0004
     1.0007   1.0007   1.0007   1.0007   1.0015   1.0015   1.0015   1.0015
     1.0046   1.0046   1.0046   1.0046   1.0407   1.0407   1.0818   1.0818
     1.0818   1.0818   1.0350   1.0349   1.0348   1.0348   0.7277   0.7277
     0.7271   0.7268   0.5822   0.5822   0.5753   0.5751   0.5747   0.5744
     0.5498   0.5496   0.5496   0.5496   0.3213   0.3211   0.1684   0.1683
     0.1682   0.1680   0.0305   0.0304   0.0100   0.0100   0.0065   0.0065
     0.0065   0.0065   0.0002   0.0002   0.0002   0.0002   0.0001   0.0001
     0.0001   0.0001   0.0001   0.0001   0.0000   0.0000   0.0000   0.0000
     0.0000   0.0000   0.0000   0.0000   0.0000   0.0000   0.0000   0.0000
     0.0000   0.0000   0.0000   0.0000   0.0000   0.0000   0.0000   0.0000
     0.0000   0.0000   0.0000   0.0000   0.0000   0.0000   0.0000   0.0000
     0.0000   0.0000   0.0000   0.0000   0.0000   0.0000   0.0000   0.0000
     0.0000   0.0000   0.0000   0.0000   0.0000   0.0000   0.0000   0.0000
     0.0000   0.0000   0.0000   0.0000   0.0000   0.0000   0.0000   0.0000
     0.0000   0.0000   0.0000   0.0000   0.0000   0.0000   0.0000   0.0000
     0.0000   0.0000   0.0000   0.0000   0.0000   0.0000   0.0000   0.0000
     0.0000   0.0000   0.0000   0.0000   0.0000   0.0000   0.0000   0.0000
     0.0000   0.0000   0.0000   0.0000   0.0000   0.0000   0.0000   0.0000
     0.0000   0.0000   0.0000   0.0000   0.0000   0.0000   0.0000   0.0000
     0.0000   0.0000   0.0000   0.0000   0.0000   0.0000   0.0000   0.0000
     0.0000   0.0000

          k = 0.1250 0.1250 0.0000 (208047 PWs)   bands (ev):

   -61.8767 -61.8617 -61.8617 -61.8532 -61.8531 -61.8513 -61.8455 -61.8455
   -61.8415 -61.8309 -61.8288 -61.8287 -61.8263 -61.8263 -61.8248 -61.8192
   -61.8192 -61.8082 -61.8053 -61.7973 -61.7954 -61.7952 -61.7916 -61.7909
   -61.7906 -61.7894 -61.7892 -61.7882 -61.7837 -61.7836 -61.7825 -61.7803
   -61.7799 -61.7766 -61.7752 -61.7750 -61.7744 -61.7744 -61.7718 -61.7701
   -61.7699 -61.7651 -61.7650 -61.7604 -61.7599 -61.7475 -61.7457 -61.7456
   -61.7445 -61.7445 -61.7417 -61.7368 -61.7367 -61.7256 -61.6907 -61.6888
   -61.6883 -61.6880 -61.6879 -61.6879 -61.6877 -61.6860 -61.6857 -61.6856
   -61.6829 -61.6827 -61.6795 -61.6761 -61.6759 -61.6719 -61.6717 -61.6626
   -35.9735 -35.9589 -35.9588 -35.9543 -35.9520 -35.9499 -35.9364 -35.9363
   -35.9349 -35.9335 -35.9317 -35.9248 -35.9215 -35.9214 -35.9054 -35.9054
   -35.8929 -35.8927 -35.8926 -35.8769 -35.8769 -35.8768 -35.8760 -35.8704
   -35.8703 -35.8692 -35.8683 -35.8682 -35.8591 -35.8561 -35.8557 -35.8509
   -35.8508 -35.8508 -35.8502 -35.8501 -35.8472 -35.8468 -35.8468 -35.8415
   -35.8413 -35.8385 -35.8256 -35.8255 -35.8253 -35.8238 -35.8238 -35.8209
   -35.8208 -35.8136 -35.8136 -35.7986 -35.7985 -35.7956 -35.7952 -35.7951
   -35.7935 -35.7935 -35.7803 -35.7803 -35.7706 -35.7678 -35.7678 -35.7615
   -35.7615 -35.7507 -35.7507 -35.7506 -35.7474 -35.7427 -35.7427 -35.7299
   -35.7265 -35.7265 -35.7116 -35.7115 -35.7080 -35.7080 -35.6999 -35.6998
   -35.6920 -35.6920 -35.6863 -35.6825 -35.6824 -35.6798 -35.6797 -35.6713
   -35.6703 -35.6667 -35.6635 -35.6635 -35.6609 -35.6608 -35.6597 -35.6597
   -35.6595 -35.6581 -35.6581 -35.6534 -35.6407 -35.6393 -35.6393 -35.6386
   -35.6386 -35.6378 -35.6368 -35.6367 -35.6358 -35.6312 -35.6311 -35.6305
   -35.6242 -35.6240 -35.6210 -35.6209 -35.6209 -35.6170 -35.6169 -35.6110
   -35.6075 -35.5996 -35.5995 -35.5992 -35.5990 -35.5984 -35.5980 -35.5979
   -35.5961 -35.5959 -35.5957 -35.5897 -35.5895 -35.5829 -35.5813 -35.5812
   -35.5800 -35.5778 -35.5778 -35.5767 -35.5765 -35.5735 -35.5733 -35.5706
   -35.5705 -35.5654 -35.5648 -35.5645 -35.5641 -35.5630 -35.5628 -35.5625
   -35.5624 -35.5616 -35.5525 -35.5523 -35.5518 -35.5513 -35.5512 -35.5493
   -35.5468 -35.5467 -35.5445 -35.5439 -35.5396 -35.5394 -35.5353 -35.5351
   -35.5345 -35.5344 -35.5328 -35.5317 -35.5262 -35.5231 -35.5220 -35.5220
   -35.5073 -35.5073 -35.5003 -35.4994 -35.4994 -35.4993 -35.4990 -35.4946
   -35.4946 -35.4890 -35.4889 -35.4878 -35.4866 -35.4865 -35.4770 -35.4769
   -35.4707 -35.4694 -35.4681 -35.4679 -35.4601 -35.4558 -35.4522 -35.4328
   -35.4326 -35.4272 -35.4190 -35.4189 -35.4170 -35.4143 -35.4141 -35.4001
   -35.3939 -35.3938 -35.3923 -35.3888 -35.3801 -35.3799 -35.3789 -35.3788
   -14.2770 -13.7655 -13.7655 -13.4900 -13.4900 -13.4020 -13.2846 -13.0316
   -13.0316 -12.9624 -12.9624 -12.8308 -12.8308 -12.8171 -12.7965 -12.7583
   -12.7583 -12.7467 -12.7467 -12.6046 -12.5710 -12.5488 -12.5195 -12.5073
   -12.5072 -12.4542 -12.4541 -12.4174 -12.4173 -12.4098 -12.3954 -12.3954
   -12.3869 -12.3096 -12.2526 -12.2485 -12.2485 -12.2007 -12.1749 -12.1749
   -11.9981 -11.9980 -11.9883 -11.9883 -11.8375 -11.8323 -11.7881 -11.7881
   -11.7067 -11.7066 -11.6965 -11.6965 -11.6839 -11.6838 -11.6202 -11.5451
   -11.5237 -11.5210 -11.4752 -11.4752 -11.4456 -11.4456 -11.4154 -11.4154
   -11.4139 -11.4139 -11.4048 -11.2913 -11.2371 -11.1973 -11.1973 -11.1309
    -4.9238  -4.7307  -4.7072  -4.6930  -4.6930  -4.5611  -4.4944  -4.4944
    -4.4870  -4.3985  -4.3985  -4.3096  -4.2724  -4.2724  -4.0729  -4.0342
    -4.0342  -3.9706  -3.9022  -3.8908  -3.8908  -3.7430  -3.7430  -3.7218
    -3.7218  -3.7091  -3.7091  -3.6435  -3.6117  -3.6117  -3.5963  -3.5813
    -3.5700  -3.5700  -3.5267  -3.4672  -3.4672  -3.3793  -3.3343  -3.3269
    -3.3269  -3.2492  -3.2492  -3.2127  -3.2127  -3.1850  -3.1820  -3.1169
    -3.1169  -3.0720  -3.0720  -2.9842  -2.9841  -2.9718  -2.9718  -2.9681
    -2.9681  -2.8997  -2.8391  -2.7429  -2.7000  -2.7000  -2.6817  -2.6817
    -2.6378  -2.6225  -2.5982  -2.5862  -2.5562  -2.5455  -2.5081  -2.4814
    -2.4814  -2.4654  -2.4654  -2.4440  -2.4440  -2.4296  -2.3930  -2.3929
    -2.3809  -2.3809  -2.3606  -2.3595  -2.3594  -2.3332  -2.3332  -2.3294
    -2.3118  -2.3118  -2.2544  -2.2443  -2.2025  -2.2025  -2.1968  -2.1917
    -2.1508  -2.1507  -2.1430  -2.1430  -2.1398  -2.1119  -2.1119  -2.1005
    -2.1004  -2.0625  -2.0625  -2.0529  -2.0529  -2.0510  -2.0510  -2.0331
    -1.9982  -1.9945  -1.9443  -1.9443  -1.9286  -1.9286  -1.9207  -1.9202
    -1.9202  -1.8868  -1.7946  -1.7946  -1.7879  -1.7878  -1.7707  -1.7707
    -1.7644  -1.7398  -1.7362  -1.7361  -1.7215  -1.7119  -1.6751  -1.6750
    -1.6494  -1.6032  -1.6032  -1.5487  -1.5443  -1.5442  -1.5113  -1.5113
    -1.5086  -1.4904  -1.4771  -1.4698  -1.4698  -1.4420  -1.4071  -1.4071
    -1.3986  -1.3985  -1.3859  -1.3859  -1.3704  -1.3564  -1.3563  -1.2981
    -1.2711  -1.2542  -1.2542  -1.2259  -1.2258  -1.2223  -1.2194  -1.1988
    -1.1987  -1.1011  -1.1011  -1.0538  -1.0384  -1.0190  -1.0189  -0.9978
    -0.9932  -0.9932  -0.9068  -0.9061  -0.9060  -0.8882  -0.8882  -0.8852
    -0.8813  -0.8813  -0.8117  -0.8117  -0.7888  -0.7888  -0.7581  -0.7334
    -0.6779  -0.6779  -0.5972  -0.5972  -0.5852  -0.5852  -0.4630  -0.4612
    -0.4295  -0.4295  -0.3933  -0.3932  -0.2637  -0.2380  -0.2380  -0.1447
    -0.1447  -0.0737   0.0307   0.0320   0.2826   0.5517   0.6561   0.7094
     0.7338   0.7921   0.8735   0.8735   1.0454   1.0455   1.0620   1.0909
     1.5134   1.7492   1.7492   1.9600   1.9601   1.9857   2.1846   2.2247
     2.2248   2.3281   2.3281   2.3557   2.3557   2.4067   2.4292   2.4407
     2.4668   2.4668   2.5433   2.5646   2.5646   2.5757   2.6290   2.6290
     2.7816   2.7816   2.7834   2.7834   2.8232   2.8248   2.8408   2.8408
     2.8941   2.8943   2.9178   2.9260   2.9298   2.9298   2.9895   3.0045
     3.0274   3.0275   3.0769   3.1537   3.1539   3.1764   3.1764   3.2144
     3.2357   3.2358   3.2406   3.2406   3.2771   3.2772   3.2898   3.2924
     3.2933   3.2934   3.3286   3.3525   3.3526   3.3547   3.3548   3.3717
     3.3718   3.3979   3.3980   3.3995   3.3996   3.5077   3.5078   3.5417
     3.5466   3.5466   3.5948   3.5949   3.6068   3.6091   3.6163   3.6164
     3.6512   3.6554   3.6625   3.6656   3.6776   3.6777   3.7114   3.7115
     3.7290   3.7291   3.7836   3.7856   3.8128   3.8257   3.8772   3.9277
     3.9278   3.9455   3.9455   3.9675   3.9676   4.0123   4.0123   4.0332
     4.0333   4.0355   4.0536   4.0537   4.1197   4.1198   4.1291   4.1483
     4.1483   4.1561   4.1632   4.1656   4.1694   4.1694   4.1844   4.1999
     4.2002   4.2097   4.2098   4.2153   4.2337   4.2359   4.2430   4.2432
     4.2572   4.2858   4.3039   4.3059   4.3060   4.3231   4.3234   4.3314
     4.3342   4.3462   4.3487   4.3936   4.3938   4.3984   4.4086   4.4087
     4.4131   4.4133   4.4140   4.4141   4.4180   4.4181   4.4221   4.4884
     4.4885   4.4893   4.4940   4.5182   4.5268   4.5272   4.5313   4.5314
     4.5929   4.5930   4.6222   4.6223   4.6279   4.6282   4.6287   4.6288
     4.6829   4.6831   4.6850   4.6851   4.7016   4.7151   4.7152   4.7251
     4.7513   4.7515   4.7750   4.7776   4.7779   4.7901   4.7915   4.8101
     4.8107   4.8215   4.8216   4.8443   4.8542   4.8846   4.8905   4.8936
     4.8942   4.8946

     occupation numbers 
     1.0000   1.0000   1.0000   1.0000   1.0000   1.0000   1.0000   1.0000
     1.0000   1.0000   1.0000   1.0000   1.0000   1.0000   1.0000   1.0000
     1.0000   1.0000   1.0000   1.0000   1.0000   1.0000   1.0000   1.0000
     1.0000   1.0000   1.0000   1.0000   1.0000   1.0000   1.0000   1.0000
     1.0000   1.0000   1.0000   1.0000   1.0000   1.0000   1.0000   1.0000
     1.0000   1.0000   1.0000   1.0000   1.0000   1.0000   1.0000   1.0000
     1.0000   1.0000   1.0000   1.0000   1.0000   1.0000   1.0000   1.0000
     1.0000   1.0000   1.0000   1.0000   1.0000   1.0000   1.0000   1.0000
     1.0000   1.0000   1.0000   1.0000   1.0000   1.0000   1.0000   1.0000
     1.0000   1.0000   1.0000   1.0000   1.0000   1.0000   1.0000   1.0000
     1.0000   1.0000   1.0000   1.0000   1.0000   1.0000   1.0000   1.0000
     1.0000   1.0000   1.0000   1.0000   1.0000   1.0000   1.0000   1.0000
     1.0000   1.0000   1.0000   1.0000   1.0000   1.0000   1.0000   1.0000
     1.0000   1.0000   1.0000   1.0000   1.0000   1.0000   1.0000   1.0000
     1.0000   1.0000   1.0000   1.0000   1.0000   1.0000   1.0000   1.0000
     1.0000   1.0000   1.0000   1.0000   1.0000   1.0000   1.0000   1.0000
     1.0000   1.0000   1.0000   1.0000   1.0000   1.0000   1.0000   1.0000
     1.0000   1.0000   1.0000   1.0000   1.0000   1.0000   1.0000   1.0000
     1.0000   1.0000   1.0000   1.0000   1.0000   1.0000   1.0000   1.0000
     1.0000   1.0000   1.0000   1.0000   1.0000   1.0000   1.0000   1.0000
     1.0000   1.0000   1.0000   1.0000   1.0000   1.0000   1.0000   1.0000
     1.0000   1.0000   1.0000   1.0000   1.0000   1.0000   1.0000   1.0000
     1.0000   1.0000   1.0000   1.0000   1.0000   1.0000   1.0000   1.0000
     1.0000   1.0000   1.0000   1.0000   1.0000   1.0000   1.0000   1.0000
     1.0000   1.0000   1.0000   1.0000   1.0000   1.0000   1.0000   1.0000
     1.0000   1.0000   1.0000   1.0000   1.0000   1.0000   1.0000   1.0000
     1.0000   1.0000   1.0000   1.0000   1.0000   1.0000   1.0000   1.0000
     1.0000   1.0000   1.0000   1.0000   1.0000   1.0000   1.0000   1.0000
     1.0000   1.0000   1.0000   1.0000   1.0000   1.0000   1.0000   1.0000
     1.0000   1.0000   1.0000   1.0000   1.0000   1.0000   1.0000   1.0000
     1.0000   1.0000   1.0000   1.0000   1.0000   1.0000   1.0000   1.0000
     1.0000   1.0000   1.0000   1.0000   1.0000   1.0000   1.0000   1.0000
     1.0000   1.0000   1.0000   1.0000   1.0000   1.0000   1.0000   1.0000
     1.0000   1.0000   1.0000   1.0000   1.0000   1.0000   1.0000   1.0000
     1.0000   1.0000   1.0000   1.0000   1.0000   1.0000   1.0000   1.0000
     1.0000   1.0000   1.0000   1.0000   1.0000   1.0000   1.0000   1.0000
     1.0000   1.0000   1.0000   1.0000   1.0000   1.0000   1.0000   1.0000
     1.0000   1.0000   1.0000   1.0000   1.0000   1.0000   1.0000   1.0000
     1.0000   1.0000   1.0000   1.0000   1.0000   1.0000   1.0000   1.0000
     1.0000   1.0000   1.0000   1.0000   1.0000   1.0000   1.0000   1.0000
     1.0000   1.0000   1.0000   1.0000   1.0000   1.0000   1.0000   1.0000
     1.0000   1.0000   1.0000   1.0000   1.0000   1.0000   1.0000   1.0000
     1.0000   1.0000   1.0000   1.0000   1.0000   1.0000   1.0000   1.0000
     1.0000   1.0000   1.0000   1.0000   1.0000   1.0000   1.0000   1.0000
     1.0000   1.0000   1.0000   1.0000   1.0000   1.0000   1.0000   1.0000
     1.0000   1.0000   1.0000   1.0000   1.0000   1.0000   1.0000   1.0000
     1.0000   1.0000   1.0000   1.0000   1.0000   1.0000   1.0000   1.0000
     1.0000   1.0000   1.0000   1.0000   1.0000   1.0000   1.0000   1.0000
     1.0000   1.0000   1.0000   1.0000   1.0000   1.0000   1.0000   1.0000
     1.0000   1.0000   1.0000   1.0000   1.0000   1.0000   1.0000   1.0000
     1.0000   1.0000   1.0000   1.0000   1.0000   1.0000   1.0000   1.0000
     1.0000   1.0000   1.0000   1.0000   1.0000   1.0000   1.0000   1.0000
     1.0000   1.0000   1.0000   1.0000   1.0000   1.0000   1.0000   1.0000
     1.0000   1.0000   1.0000   1.0000   1.0000   1.0000   1.0000   1.0000
     1.0000   1.0000   1.0000   1.0000   1.0000   1.0000   1.0000   1.0000
     1.0000   1.0000   1.0000   1.0000   1.0000   1.0000   1.0000   1.0000
     1.0000   1.0000   1.0000   1.0000   1.0000   1.0000   1.0000   1.0000
     1.0000   1.0000   1.0000   1.0000   1.0000   1.0000   1.0000   1.0000
     1.0000   1.0000   1.0000   1.0000   1.0000   1.0000   1.0000   1.0000
     1.0000   1.0000   1.0000   1.0000   1.0000   1.0000   1.0000   1.0000
     1.0000   1.0000   1.0000   1.0000   1.0000   1.0000   1.0000   1.0000
     1.0000   1.0000   1.0000   1.0000   1.0000   1.0000   1.0000   1.0000
     1.0000   1.0000   1.0000   1.0000   1.0000   1.0000   1.0000   1.0000
     1.0000   1.0000   1.0000   1.0000   1.0000   1.0000   1.0000   1.0000
     1.0000   1.0000   1.0000   1.0000   1.0000   1.0000   1.0000   1.0000
     1.0000   1.0000   1.0000   1.0000   1.0000   1.0000   1.0000   1.0000
     1.0000   1.0000   1.0000   1.0000   1.0000   1.0000   1.0000   1.0000
     1.0000   1.0000   1.0000   1.0000   1.0000   1.0000   1.0000   1.0000
     1.0000   1.0000   1.0000   1.0000   1.0000   1.0000   1.0000   1.0000
     1.0000   1.0000   1.0000   1.0000   1.0000   1.0000   1.0000   1.0000
     1.0000   1.0000   1.0000   1.0000   1.0000   1.0000   1.0000   1.0000
     1.0000   1.0000   1.0000   1.0000   1.0000   1.0000   1.0000   1.0000
     1.0000   1.0000   1.0000   1.0000   1.0000   1.0000   1.0000   1.0000
     1.0000   1.0000   1.0000   1.0000   1.0000   1.0000   1.0000   1.0000
     1.0000   1.0000   1.0000   1.0000   1.0000   1.0000   1.0000   1.0000
     1.0000   1.0000   1.0000   1.0000   1.0000   1.0000   1.0000   1.0000
     1.0003   1.0003   1.0003   1.0003   1.0009   1.0009   1.0013   1.0013
     1.0039   1.0039   1.0060   1.0070   1.0074   1.0074   1.0191   1.0235
     1.0314   1.0314   1.0525   1.0817   1.0817   1.0832   1.0832   1.0704
     1.0524   1.0523   1.0469   1.0469   0.9902   0.9900   0.9635   0.9575
     0.9555   0.9554   0.8612   0.7851   0.7848   0.7776   0.7773   0.7187
     0.7183   0.6232   0.6230   0.6171   0.6169   0.2558   0.2558   0.1754
     0.1655   0.1655   0.0878   0.0877   0.0738   0.0714   0.0640   0.0640
     0.0367   0.0342   0.0303   0.0287   0.0232   0.0232   0.0123   0.0123
     0.0087   0.0087   0.0027   0.0025   0.0013   0.0010   0.0003   0.0001
     0.0001   0.0000   0.0000   0.0000   0.0000   0.0000   0.0000   0.0000
     0.0000   0.0000   0.0000   0.0000   0.0000   0.0000   0.0000   0.0000
     0.0000   0.0000   0.0000   0.0000   0.0000   0.0000   0.0000   0.0000
     0.0000   0.0000   0.0000   0.0000   0.0000   0.0000   0.0000   0.0000
     0.0000   0.0000   0.0000   0.0000   0.0000   0.0000   0.0000   0.0000
     0.0000   0.0000   0.0000   0.0000   0.0000   0.0000   0.0000   0.0000
     0.0000   0.0000   0.0000   0.0000   0.0000   0.0000   0.0000   0.0000
     0.0000   0.0000   0.0000   0.0000   0.0000   0.0000   0.0000   0.0000
     0.0000   0.0000   0.0000   0.0000   0.0000   0.0000   0.0000   0.0000
     0.0000   0.0000   0.0000   0.0000   0.0000   0.0000   0.0000   0.0000
     0.0000   0.0000   0.0000   0.0000   0.0000   0.0000   0.0000   0.0000
     0.0000   0.0000   0.0000   0.0000   0.0000   0.0000   0.0000   0.0000
     0.0000   0.0000

          k = 0.1250 0.2500 0.0000 (208010 PWs)   bands (ev):

   -61.8756 -61.8655 -61.8610 -61.8539 -61.8526 -61.8485 -61.8474 -61.8425
   -61.8394 -61.8322 -61.8311 -61.8304 -61.8280 -61.8264 -61.8232 -61.8195
   -61.8163 -61.8089 -61.8044 -61.7975 -61.7965 -61.7950 -61.7925 -61.7907
   -61.7897 -61.7883 -61.7880 -61.7876 -61.7875 -61.7837 -61.7828 -61.7818
   -61.7789 -61.7778 -61.7755 -61.7750 -61.7748 -61.7738 -61.7704 -61.7693
   -61.7676 -61.7673 -61.7614 -61.7611 -61.7573 -61.7490 -61.7488 -61.7482
   -61.7452 -61.7445 -61.7401 -61.7370 -61.7337 -61.7263 -61.6905 -61.6890
   -61.6886 -61.6882 -61.6879 -61.6876 -61.6875 -61.6869 -61.6859 -61.6846
   -61.6842 -61.6814 -61.6781 -61.6778 -61.6765 -61.6724 -61.6697 -61.6633
   -35.9767 -35.9607 -35.9588 -35.9587 -35.9478 -35.9458 -35.9453 -35.9381
   -35.9333 -35.9312 -35.9274 -35.9233 -35.9172 -35.9155 -35.9046 -35.9038
   -35.9031 -35.8904 -35.8877 -35.8866 -35.8778 -35.8769 -35.8761 -35.8674
   -35.8651 -35.8615 -35.8598 -35.8598 -35.8595 -35.8579 -35.8573 -35.8561
   -35.8544 -35.8534 -35.8529 -35.8482 -35.8465 -35.8428 -35.8386 -35.8370
   -35.8368 -35.8367 -35.8351 -35.8330 -35.8298 -35.8285 -35.8276 -35.8258
   -35.8239 -35.8239 -35.8116 -35.8112 -35.8066 -35.8053 -35.8025 -35.7935
   -35.7855 -35.7842 -35.7841 -35.7716 -35.7668 -35.7603 -35.7589 -35.7587
   -35.7553 -35.7542 -35.7531 -35.7527 -35.7447 -35.7446 -35.7381 -35.7375
   -35.7355 -35.7171 -35.7131 -35.7072 -35.7023 -35.6993 -35.6976 -35.6974
   -35.6968 -35.6939 -35.6889 -35.6827 -35.6818 -35.6786 -35.6741 -35.6712
   -35.6704 -35.6679 -35.6668 -35.6658 -35.6628 -35.6623 -35.6583 -35.6548
   -35.6548 -35.6542 -35.6490 -35.6482 -35.6411 -35.6406 -35.6393 -35.6392
   -35.6390 -35.6371 -35.6371 -35.6352 -35.6340 -35.6336 -35.6335 -35.6320
   -35.6303 -35.6292 -35.6264 -35.6261 -35.6231 -35.6211 -35.6172 -35.6161
   -35.6112 -35.6104 -35.6091 -35.6088 -35.6054 -35.6010 -35.5993 -35.5990
   -35.5963 -35.5933 -35.5892 -35.5887 -35.5867 -35.5842 -35.5802 -35.5783
   -35.5747 -35.5742 -35.5733 -35.5733 -35.5725 -35.5674 -35.5673 -35.5671
   -35.5662 -35.5658 -35.5641 -35.5631 -35.5628 -35.5626 -35.5615 -35.5595
   -35.5592 -35.5590 -35.5585 -35.5553 -35.5548 -35.5541 -35.5540 -35.5523
   -35.5499 -35.5487 -35.5464 -35.5446 -35.5418 -35.5412 -35.5391 -35.5350
   -35.5347 -35.5317 -35.5308 -35.5248 -35.5227 -35.5198 -35.5182 -35.5158
   -35.5124 -35.5055 -35.5037 -35.5000 -35.4988 -35.4984 -35.4982 -35.4973
   -35.4938 -35.4916 -35.4905 -35.4869 -35.4856 -35.4822 -35.4753 -35.4735
   -35.4728 -35.4714 -35.4704 -35.4681 -35.4600 -35.4594 -35.4532 -35.4420
   -35.4329 -35.4299 -35.4187 -35.4149 -35.4147 -35.4140 -35.4056 -35.4031
   -35.3969 -35.3907 -35.3904 -35.3866 -35.3825 -35.3810 -35.3801 -35.3797
   -14.2417 -13.8924 -13.7319 -13.4577 -13.4030 -13.3705 -13.3508 -13.1434
   -13.0677 -12.9335 -12.9068 -12.8987 -12.8054 -12.8054 -12.7500 -12.7365
   -12.7200 -12.6837 -12.6620 -12.6475 -12.5926 -12.5763 -12.5587 -12.5424
   -12.5214 -12.4850 -12.4743 -12.4414 -12.4217 -12.4051 -12.4016 -12.3585
   -12.3397 -12.3225 -12.2785 -12.2627 -12.2264 -12.2001 -12.1781 -12.1497
   -12.0845 -11.9743 -11.9615 -11.9169 -11.9155 -11.8199 -11.7627 -11.7557
   -11.7262 -11.7113 -11.7072 -11.6931 -11.6905 -11.6783 -11.6159 -11.5564
   -11.5249 -11.5208 -11.5124 -11.4856 -11.4720 -11.4381 -11.4289 -11.3982
   -11.3971 -11.3880 -11.3672 -11.2700 -11.2413 -11.2257 -11.1974 -11.1163
    -4.9924  -4.8597  -4.7707  -4.7454  -4.6711  -4.5497  -4.5429  -4.5412
    -4.3890  -4.3580  -4.3520  -4.2194  -4.1856  -4.1058  -4.0819  -4.0494
    -3.9530  -3.9346  -3.9289  -3.8170  -3.7864  -3.7806  -3.7742  -3.7665
    -3.7506  -3.7474  -3.7416  -3.6949  -3.6511  -3.6355  -3.6170  -3.5836
    -3.5311  -3.5103  -3.4982  -3.4900  -3.4821  -3.4335  -3.4235  -3.4153
    -3.3582  -3.2633  -3.2617  -3.2567  -3.2561  -3.2481  -3.1815  -3.1270
    -3.0874  -3.0718  -3.0683  -3.0098  -3.0012  -2.9941  -2.9148  -2.9105
    -2.8414  -2.8326  -2.7553  -2.7416  -2.7340  -2.7245  -2.7028  -2.6834
    -2.6377  -2.6349  -2.6025  -2.5993  -2.5968  -2.5660  -2.5545  -2.5302
    -2.5222  -2.4866  -2.4716  -2.4707  -2.4658  -2.4603  -2.4440  -2.4300
    -2.4290  -2.4113  -2.4054  -2.4012  -2.3480  -2.3274  -2.3207  -2.3154
    -2.2981  -2.2820  -2.2732  -2.2528  -2.2432  -2.2399  -2.2232  -2.1922
    -2.1751  -2.1469  -2.1251  -2.1129  -2.1112  -2.1046  -2.0952  -2.0805
    -2.0791  -2.0723  -2.0478  -2.0457  -1.9975  -1.9921  -1.9903  -1.9874
    -1.9675  -1.9631  -1.9496  -1.9475  -1.9409  -1.9249  -1.8892  -1.8892
    -1.8436  -1.8428  -1.8410  -1.8112  -1.8087  -1.7948  -1.7800  -1.7660
    -1.7634  -1.7425  -1.7175  -1.6865  -1.6614  -1.6356  -1.6340  -1.6278
    -1.6254  -1.6129  -1.6016  -1.5793  -1.5541  -1.5481  -1.5464  -1.5459
    -1.5170  -1.4806  -1.4672  -1.4545  -1.4380  -1.4305  -1.4131  -1.4036
    -1.3959  -1.3939  -1.3586  -1.3468  -1.3359  -1.2912  -1.2559  -1.2484
    -1.2409  -1.2336  -1.2249  -1.2234  -1.1819  -1.1500  -1.1468  -1.1292
    -1.1154  -1.1045  -1.0636  -1.0591  -1.0551  -1.0462  -1.0117  -1.0078
    -1.0003  -0.9967  -0.9690  -0.9671  -0.9638  -0.9100  -0.8918  -0.8907
    -0.8854  -0.8514  -0.8239  -0.8009  -0.7830  -0.7407  -0.6957  -0.6908
    -0.6885  -0.6772  -0.6493  -0.6048  -0.5966  -0.5470  -0.5174  -0.5069
    -0.4911  -0.4802  -0.4795  -0.4274  -0.4041  -0.3119  -0.2481  -0.2116
    -0.1327  -0.0990   0.0028   0.0958   0.2053   0.5081   0.6197   0.6848
     0.7375   0.8073   0.8474   0.9299   1.0137   1.1352   1.1483   1.1649
     1.6266   1.7001   1.8310   1.8654   1.9715   2.0344   2.0369   2.0410
     2.0857   2.1280   2.2325   2.2339   2.2987   2.3121   2.4179   2.4381
     2.4823   2.4887   2.5214   2.5331   2.5512   2.5816   2.6226   2.6257
     2.6287   2.6856   2.7068   2.7074   2.7852   2.8115   2.8174   2.8439
     2.8767   2.9053   2.9341   2.9591   2.9945   2.9977   3.0001   3.0246
     3.0337   3.0412   3.0415   3.0912   3.1288   3.1297   3.1563   3.1686
     3.1700   3.1843   3.1879   3.2157   3.2369   3.2374   3.2412   3.2458
     3.2594   3.2600   3.3059   3.3676   3.3766   3.3859   3.4032   3.4038
     3.4280   3.4584   3.4672   3.4752   3.4776   3.5115   3.5520   3.5785
     3.5792   3.5931   3.6083   3.6305   3.6355   3.6579   3.6684   3.6782
     3.6872   3.6994   3.7133   3.7167   3.7362   3.7590   3.7794   3.7817
     3.7970   3.8066   3.8095   3.8281   3.8393   3.8499   3.8761   3.9149
     3.9365   3.9391   3.9781   3.9917   4.0074   4.0258   4.0468   4.0594
     4.0740   4.0974   4.1056   4.1082   4.1085   4.1294   4.1341   4.1392
     4.1490   4.1497   4.1625   4.1774   4.1786   4.1786   4.2101   4.2121
     4.2124   4.2182   4.2254   4.2469   4.2525   4.2612   4.2668   4.2715
     4.2771   4.2796   4.2817   4.2863   4.2880   4.3002   4.3028   4.3087
     4.3092   4.3138   4.3235   4.3312   4.3364   4.3504   4.3652   4.3726
     4.3858   4.4085   4.4126   4.4128   4.4174   4.4416   4.4590   4.4667
     4.4792   4.4835   4.4908   4.5189   4.5285   4.5470   4.5530   4.5535
     4.5673   4.6039   4.6086   4.6133   4.6310   4.6450   4.6809   4.6873
     4.6879   4.6920   4.7013   4.7046   4.7240   4.7257   4.7309   4.7428
     4.7502   4.7514   4.7522   4.7625   4.7719   4.7759   4.7843   4.7892
     4.8263   4.8377   4.8409   4.8490   4.8576   4.8666   4.8713   4.8736
     4.8750   4.8799

     occupation numbers 
     1.0000   1.0000   1.0000   1.0000   1.0000   1.0000   1.0000   1.0000
     1.0000   1.0000   1.0000   1.0000   1.0000   1.0000   1.0000   1.0000
     1.0000   1.0000   1.0000   1.0000   1.0000   1.0000   1.0000   1.0000
     1.0000   1.0000   1.0000   1.0000   1.0000   1.0000   1.0000   1.0000
     1.0000   1.0000   1.0000   1.0000   1.0000   1.0000   1.0000   1.0000
     1.0000   1.0000   1.0000   1.0000   1.0000   1.0000   1.0000   1.0000
     1.0000   1.0000   1.0000   1.0000   1.0000   1.0000   1.0000   1.0000
     1.0000   1.0000   1.0000   1.0000   1.0000   1.0000   1.0000   1.0000
     1.0000   1.0000   1.0000   1.0000   1.0000   1.0000   1.0000   1.0000
     1.0000   1.0000   1.0000   1.0000   1.0000   1.0000   1.0000   1.0000
     1.0000   1.0000   1.0000   1.0000   1.0000   1.0000   1.0000   1.0000
     1.0000   1.0000   1.0000   1.0000   1.0000   1.0000   1.0000   1.0000
     1.0000   1.0000   1.0000   1.0000   1.0000   1.0000   1.0000   1.0000
     1.0000   1.0000   1.0000   1.0000   1.0000   1.0000   1.0000   1.0000
     1.0000   1.0000   1.0000   1.0000   1.0000   1.0000   1.0000   1.0000
     1.0000   1.0000   1.0000   1.0000   1.0000   1.0000   1.0000   1.0000
     1.0000   1.0000   1.0000   1.0000   1.0000   1.0000   1.0000   1.0000
     1.0000   1.0000   1.0000   1.0000   1.0000   1.0000   1.0000   1.0000
     1.0000   1.0000   1.0000   1.0000   1.0000   1.0000   1.0000   1.0000
     1.0000   1.0000   1.0000   1.0000   1.0000   1.0000   1.0000   1.0000
     1.0000   1.0000   1.0000   1.0000   1.0000   1.0000   1.0000   1.0000
     1.0000   1.0000   1.0000   1.0000   1.0000   1.0000   1.0000   1.0000
     1.0000   1.0000   1.0000   1.0000   1.0000   1.0000   1.0000   1.0000
     1.0000   1.0000   1.0000   1.0000   1.0000   1.0000   1.0000   1.0000
     1.0000   1.0000   1.0000   1.0000   1.0000   1.0000   1.0000   1.0000
     1.0000   1.0000   1.0000   1.0000   1.0000   1.0000   1.0000   1.0000
     1.0000   1.0000   1.0000   1.0000   1.0000   1.0000   1.0000   1.0000
     1.0000   1.0000   1.0000   1.0000   1.0000   1.0000   1.0000   1.0000
     1.0000   1.0000   1.0000   1.0000   1.0000   1.0000   1.0000   1.0000
     1.0000   1.0000   1.0000   1.0000   1.0000   1.0000   1.0000   1.0000
     1.0000   1.0000   1.0000   1.0000   1.0000   1.0000   1.0000   1.0000
     1.0000   1.0000   1.0000   1.0000   1.0000   1.0000   1.0000   1.0000
     1.0000   1.0000   1.0000   1.0000   1.0000   1.0000   1.0000   1.0000
     1.0000   1.0000   1.0000   1.0000   1.0000   1.0000   1.0000   1.0000
     1.0000   1.0000   1.0000   1.0000   1.0000   1.0000   1.0000   1.0000
     1.0000   1.0000   1.0000   1.0000   1.0000   1.0000   1.0000   1.0000
     1.0000   1.0000   1.0000   1.0000   1.0000   1.0000   1.0000   1.0000
     1.0000   1.0000   1.0000   1.0000   1.0000   1.0000   1.0000   1.0000
     1.0000   1.0000   1.0000   1.0000   1.0000   1.0000   1.0000   1.0000
     1.0000   1.0000   1.0000   1.0000   1.0000   1.0000   1.0000   1.0000
     1.0000   1.0000   1.0000   1.0000   1.0000   1.0000   1.0000   1.0000
     1.0000   1.0000   1.0000   1.0000   1.0000   1.0000   1.0000   1.0000
     1.0000   1.0000   1.0000   1.0000   1.0000   1.0000   1.0000   1.0000
     1.0000   1.0000   1.0000   1.0000   1.0000   1.0000   1.0000   1.0000
     1.0000   1.0000   1.0000   1.0000   1.0000   1.0000   1.0000   1.0000
     1.0000   1.0000   1.0000   1.0000   1.0000   1.0000   1.0000   1.0000
     1.0000   1.0000   1.0000   1.0000   1.0000   1.0000   1.0000   1.0000
     1.0000   1.0000   1.0000   1.0000   1.0000   1.0000   1.0000   1.0000
     1.0000   1.0000   1.0000   1.0000   1.0000   1.0000   1.0000   1.0000
     1.0000   1.0000   1.0000   1.0000   1.0000   1.0000   1.0000   1.0000
     1.0000   1.0000   1.0000   1.0000   1.0000   1.0000   1.0000   1.0000
     1.0000   1.0000   1.0000   1.0000   1.0000   1.0000   1.0000   1.0000
     1.0000   1.0000   1.0000   1.0000   1.0000   1.0000   1.0000   1.0000
     1.0000   1.0000   1.0000   1.0000   1.0000   1.0000   1.0000   1.0000
     1.0000   1.0000   1.0000   1.0000   1.0000   1.0000   1.0000   1.0000
     1.0000   1.0000   1.0000   1.0000   1.0000   1.0000   1.0000   1.0000
     1.0000   1.0000   1.0000   1.0000   1.0000   1.0000   1.0000   1.0000
     1.0000   1.0000   1.0000   1.0000   1.0000   1.0000   1.0000   1.0000
     1.0000   1.0000   1.0000   1.0000   1.0000   1.0000   1.0000   1.0000
     1.0000   1.0000   1.0000   1.0000   1.0000   1.0000   1.0000   1.0000
     1.0000   1.0000   1.0000   1.0000   1.0000   1.0000   1.0000   1.0000
     1.0000   1.0000   1.0000   1.0000   1.0000   1.0000   1.0000   1.0000
     1.0000   1.0000   1.0000   1.0000   1.0000   1.0000   1.0000   1.0000
     1.0000   1.0000   1.0000   1.0000   1.0000   1.0000   1.0000   1.0000
     1.0000   1.0000   1.0000   1.0000   1.0000   1.0000   1.0000   1.0000
     1.0000   1.0000   1.0000   1.0000   1.0000   1.0000   1.0000   1.0000
     1.0000   1.0000   1.0000   1.0000   1.0000   1.0000   1.0000   1.0000
     1.0000   1.0000   1.0000   1.0000   1.0000   1.0000   1.0000   1.0000
     1.0000   1.0000   1.0000   1.0000   1.0000   1.0000   1.0000   1.0000
     1.0000   1.0000   1.0000   1.0000   1.0000   1.0000   1.0000   1.0000
     1.0000   1.0000   1.0000   1.0000   1.0000   1.0000   1.0000   1.0000
     1.0000   1.0000   1.0000   1.0000   1.0000   1.0000   1.0000   1.0000
     1.0000   1.0000   1.0000   1.0000   1.0000   1.0000   1.0000   1.0000
     1.0000   1.0000   1.0000   1.0000   1.0000   1.0000   1.0000   1.0000
     1.0000   1.0000   1.0000   1.0000   1.0000   1.0000   1.0000   1.0000
     1.0000   1.0000   1.0000   1.0000   1.0000   1.0000   1.0000   1.0000
     1.0000   1.0000   1.0000   1.0000   1.0003   1.0007   1.0008   1.0014
     1.0027   1.0048   1.0080   1.0121   1.0205   1.0215   1.0222   1.0304
     1.0338   1.0368   1.0369   1.0591   1.0749   1.0752   1.0821   1.0833
     1.0833   1.0823   1.0816   1.0695   1.0510   1.0505   1.0462   1.0405
     1.0213   1.0203   0.9247   0.7332   0.7011   0.6672   0.6035   0.6014
     0.5126   0.4057   0.3765   0.3509   0.3431   0.2461   0.1549   0.1101
     0.1091   0.0900   0.0722   0.0514   0.0475   0.0328   0.0273   0.0229
     0.0195   0.0155   0.0119   0.0111   0.0075   0.0046   0.0029   0.0028
     0.0020   0.0016   0.0015   0.0009   0.0007   0.0005   0.0003   0.0001
     0.0000   0.0000   0.0000   0.0000   0.0000   0.0000   0.0000   0.0000
     0.0000   0.0000   0.0000   0.0000   0.0000   0.0000   0.0000   0.0000
     0.0000   0.0000   0.0000   0.0000   0.0000   0.0000   0.0000   0.0000
     0.0000   0.0000   0.0000   0.0000   0.0000   0.0000   0.0000   0.0000
     0.0000   0.0000   0.0000   0.0000   0.0000   0.0000   0.0000   0.0000
     0.0000   0.0000   0.0000   0.0000   0.0000   0.0000   0.0000   0.0000
     0.0000   0.0000   0.0000   0.0000   0.0000   0.0000   0.0000   0.0000
     0.0000   0.0000   0.0000   0.0000   0.0000   0.0000   0.0000   0.0000
     0.0000   0.0000   0.0000   0.0000   0.0000   0.0000   0.0000   0.0000
     0.0000   0.0000   0.0000   0.0000   0.0000   0.0000   0.0000   0.0000
     0.0000   0.0000   0.0000   0.0000   0.0000   0.0000   0.0000   0.0000
     0.0000   0.0000   0.0000   0.0000   0.0000   0.0000   0.0000   0.0000
     0.0000   0.0000

          k = 0.1250 0.3750 0.0000 (208002 PWs)   bands (ev):

   -61.8740 -61.8689 -61.8598 -61.8562 -61.8517 -61.8491 -61.8439 -61.8395
   -61.8374 -61.8348 -61.8338 -61.8336 -61.8274 -61.8266 -61.8219 -61.8201
   -61.8137 -61.8100 -61.8031 -61.7995 -61.7953 -61.7946 -61.7933 -61.7908
   -61.7906 -61.7900 -61.7868 -61.7866 -61.7858 -61.7848 -61.7835 -61.7816
   -61.7805 -61.7778 -61.7775 -61.7761 -61.7736 -61.7727 -61.7712 -61.7694
   -61.7656 -61.7641 -61.7622 -61.7578 -61.7548 -61.7538 -61.7512 -61.7505
   -61.7448 -61.7446 -61.7389 -61.7374 -61.7311 -61.7274 -61.6902 -61.6893
   -61.6888 -61.6882 -61.6879 -61.6877 -61.6872 -61.6870 -61.6862 -61.6854
   -61.6832 -61.6799 -61.6799 -61.6774 -61.6761 -61.6734 -61.6677 -61.6644
   -35.9770 -35.9689 -35.9603 -35.9559 -35.9537 -35.9432 -35.9371 -35.9367
   -35.9346 -35.9268 -35.9266 -35.9211 -35.9154 -35.9125 -35.9081 -35.9045
   -35.9034 -35.9024 -35.8864 -35.8821 -35.8765 -35.8737 -35.8687 -35.8665
   -35.8648 -35.8609 -35.8600 -35.8583 -35.8579 -35.8562 -35.8550 -35.8537
   -35.8505 -35.8499 -35.8481 -35.8461 -35.8441 -35.8438 -35.8427 -35.8406
   -35.8403 -35.8355 -35.8349 -35.8347 -35.8341 -35.8334 -35.8322 -35.8300
   -35.8288 -35.8287 -35.8226 -35.8152 -35.8116 -35.8108 -35.8095 -35.7928
   -35.7789 -35.7767 -35.7734 -35.7693 -35.7690 -35.7668 -35.7642 -35.7622
   -35.7566 -35.7501 -35.7435 -35.7431 -35.7408 -35.7403 -35.7400 -35.7394
   -35.7285 -35.7260 -35.7130 -35.7119 -35.7118 -35.7004 -35.6950 -35.6936
   -35.6906 -35.6846 -35.6837 -35.6810 -35.6805 -35.6798 -35.6750 -35.6731
   -35.6687 -35.6676 -35.6620 -35.6591 -35.6576 -35.6557 -35.6547 -35.6540
   -35.6513 -35.6501 -35.6500 -35.6478 -35.6449 -35.6434 -35.6427 -35.6424
   -35.6416 -35.6409 -35.6391 -35.6375 -35.6352 -35.6348 -35.6344 -35.6344
   -35.6333 -35.6316 -35.6304 -35.6300 -35.6268 -35.6230 -35.6228 -35.6216
   -35.6175 -35.6168 -35.6134 -35.6129 -35.6061 -35.6060 -35.6031 -35.5981
   -35.5953 -35.5935 -35.5873 -35.5822 -35.5805 -35.5767 -35.5750 -35.5749
   -35.5738 -35.5731 -35.5713 -35.5712 -35.5706 -35.5698 -35.5692 -35.5665
   -35.5650 -35.5645 -35.5630 -35.5629 -35.5625 -35.5597 -35.5590 -35.5575
   -35.5561 -35.5560 -35.5558 -35.5554 -35.5539 -35.5534 -35.5530 -35.5530
   -35.5526 -35.5504 -35.5492 -35.5485 -35.5476 -35.5461 -35.5441 -35.5396
   -35.5343 -35.5298 -35.5282 -35.5254 -35.5221 -35.5163 -35.5119 -35.5104
   -35.5095 -35.5058 -35.5014 -35.5002 -35.4984 -35.4972 -35.4971 -35.4964
   -35.4949 -35.4940 -35.4924 -35.4873 -35.4847 -35.4832 -35.4796 -35.4765
   -35.4744 -35.4681 -35.4655 -35.4653 -35.4639 -35.4607 -35.4559 -35.4505
   -35.4328 -35.4316 -35.4179 -35.4157 -35.4122 -35.4090 -35.4062 -35.4004
   -35.3981 -35.3878 -35.3876 -35.3863 -35.3845 -35.3828 -35.3822 -35.3809
   -14.1836 -14.0066 -13.6770 -13.5100 -13.4050 -13.3192 -13.2451 -13.2174
   -13.1649 -12.9874 -12.8867 -12.7904 -12.7885 -12.7646 -12.7557 -12.7477
   -12.7020 -12.6768 -12.6461 -12.6077 -12.6037 -12.5819 -12.5736 -12.5615
   -12.5505 -12.5175 -12.4769 -12.4466 -12.4360 -12.4216 -12.3772 -12.3688
   -12.3447 -12.3122 -12.3122 -12.2669 -12.2192 -12.1727 -12.1665 -12.1595
   -12.1090 -11.9891 -11.9361 -11.9180 -11.8454 -11.8239 -11.8009 -11.7882
   -11.7507 -11.7412 -11.7216 -11.6650 -11.6493 -11.6073 -11.5999 -11.5948
   -11.5675 -11.5582 -11.4948 -11.4847 -11.4778 -11.4499 -11.4377 -11.3875
   -11.3735 -11.3682 -11.3062 -11.3004 -11.2871 -11.2143 -11.1731 -11.1177
    -5.0217  -4.9541  -4.8000  -4.7568  -4.7497  -4.6523  -4.5569  -4.4783
    -4.4044  -4.2144  -4.2120  -4.1616  -4.0565  -4.0497  -4.0246  -3.9951
    -3.9643  -3.9290  -3.9266  -3.8776  -3.8559  -3.8239  -3.8215  -3.7697
    -3.7481  -3.7301  -3.7107  -3.6770  -3.6395  -3.6164  -3.6042  -3.5790
    -3.5676  -3.5636  -3.5585  -3.5384  -3.5153  -3.4957  -3.3953  -3.3729
    -3.3666  -3.3353  -3.2878  -3.2603  -3.2468  -3.2092  -3.2074  -3.1811
    -3.1621  -3.0887  -3.0856  -3.0601  -3.0317  -2.9316  -2.8810  -2.8717
    -2.8390  -2.7864  -2.7518  -2.7332  -2.6913  -2.6905  -2.6687  -2.6467
    -2.6042  -2.6017  -2.6013  -2.5996  -2.5899  -2.5870  -2.5765  -2.5580
    -2.5530  -2.5444  -2.4997  -2.4969  -2.4937  -2.4801  -2.4781  -2.4779
    -2.4616  -2.4549  -2.3798  -2.3683  -2.3595  -2.3593  -2.3333  -2.3211
    -2.3145  -2.3090  -2.2908  -2.2728  -2.2680  -2.2574  -2.2493  -2.2174
    -2.2079  -2.1754  -2.1628  -2.1566  -2.1403  -2.1095  -2.1041  -2.0927
    -2.0623  -2.0556  -2.0463  -2.0455  -2.0355  -2.0014  -1.9910  -1.9854
    -1.9624  -1.9524  -1.9367  -1.9002  -1.8722  -1.8661  -1.8573  -1.8520
    -1.8297  -1.7978  -1.7909  -1.7870  -1.7840  -1.7533  -1.7435  -1.7055
    -1.6964  -1.6775  -1.6756  -1.6598  -1.6314  -1.6196  -1.6064  -1.6050
    -1.5842  -1.5783  -1.5706  -1.5617  -1.5576  -1.5244  -1.5120  -1.4899
    -1.4866  -1.4842  -1.4833  -1.4812  -1.4702  -1.4509  -1.4146  -1.4114
    -1.3851  -1.3187  -1.3183  -1.3003  -1.2975  -1.2718  -1.2462  -1.2270
    -1.2166  -1.2012  -1.1842  -1.1727  -1.1673  -1.1659  -1.1621  -1.1495
    -1.1189  -1.1073  -1.1045  -1.0943  -1.0912  -1.0415  -1.0262  -1.0220
    -1.0022  -0.9852  -0.9774  -0.9671  -0.8917  -0.8883  -0.8783  -0.8751
    -0.8477  -0.8313  -0.8059  -0.7905  -0.7446  -0.7442  -0.7377  -0.7293
    -0.6994  -0.6929  -0.6661  -0.6050  -0.5927  -0.5742  -0.5652  -0.5649
    -0.5576  -0.5445  -0.4212  -0.4070  -0.3931  -0.3824  -0.3566  -0.2658
    -0.1790  -0.0295   0.0104   0.1409   0.1638   0.2581   0.4114   0.5569
     0.6969   0.7556   0.9504   1.1791   1.2146   1.2600   1.3239   1.3451
     1.5019   1.5467   1.7117   1.7384   1.8197   1.8589   1.9204   1.9610
     2.1582   2.1683   2.2646   2.2754   2.2777   2.2982   2.3307   2.4498
     2.4589   2.4844   2.4902   2.5021   2.5345   2.5510   2.5653   2.5995
     2.6289   2.6306   2.6444   2.7054   2.7305   2.7310   2.7411   2.8298
     2.8326   2.8535   2.8545   2.8702   2.9422   2.9464   2.9782   3.0009
     3.0042   3.0048   3.0221   3.0601   3.1275   3.1288   3.1293   3.1337
     3.1354   3.1587   3.1603   3.1906   3.2308   3.2317   3.2465   3.3275
     3.3298   3.3453   3.3659   3.3729   3.3804   3.3921   3.4006   3.4043
     3.4130   3.4366   3.4692   3.5071   3.5514   3.5560   3.5742   3.5888
     3.5942   3.6174   3.6631   3.6717   3.7022   3.7350   3.7396   3.7671
     3.7709   3.7723   3.7747   3.7756   3.7799   3.8105   3.8273   3.8301
     3.8374   3.8380   3.8710   3.8726   3.8882   3.9259   3.9514   3.9527
     3.9754   4.0109   4.0137   4.0246   4.0499   4.0656   4.0704   4.0780
     4.0781   4.0786   4.0792   4.1007   4.1052   4.1065   4.1102   4.1108
     4.1133   4.1406   4.1412   4.1518   4.1529   4.1585   4.1611   4.1673
     4.1717   4.1972   4.2009   4.2209   4.2326   4.2395   4.2409   4.2507
     4.2513   4.2528   4.2581   4.2675   4.2676   4.2883   4.2935   4.3091
     4.3318   4.3374   4.3377   4.3591   4.3863   4.4028   4.4113   4.4123
     4.4218   4.4229   4.4232   4.4281   4.4477   4.4563   4.4621   4.4973
     4.5015   4.5166   4.5175   4.5524   4.5549   4.5680   4.5728   4.5869
     4.5937   4.5952   4.6095   4.6132   4.6309   4.6560   4.6592   4.6754
     4.6762   4.6860   4.6876   4.6914   4.6922   4.6975   4.7281   4.7542
     4.7642   4.7646   4.7670   4.7772   4.7785   4.7849   4.7857   4.7967
     4.7972   4.8000   4.8107   4.8248   4.8283   4.8343   4.8412   4.8429
     4.8433   4.8573

     occupation numbers 
     1.0000   1.0000   1.0000   1.0000   1.0000   1.0000   1.0000   1.0000
     1.0000   1.0000   1.0000   1.0000   1.0000   1.0000   1.0000   1.0000
     1.0000   1.0000   1.0000   1.0000   1.0000   1.0000   1.0000   1.0000
     1.0000   1.0000   1.0000   1.0000   1.0000   1.0000   1.0000   1.0000
     1.0000   1.0000   1.0000   1.0000   1.0000   1.0000   1.0000   1.0000
     1.0000   1.0000   1.0000   1.0000   1.0000   1.0000   1.0000   1.0000
     1.0000   1.0000   1.0000   1.0000   1.0000   1.0000   1.0000   1.0000
     1.0000   1.0000   1.0000   1.0000   1.0000   1.0000   1.0000   1.0000
     1.0000   1.0000   1.0000   1.0000   1.0000   1.0000   1.0000   1.0000
     1.0000   1.0000   1.0000   1.0000   1.0000   1.0000   1.0000   1.0000
     1.0000   1.0000   1.0000   1.0000   1.0000   1.0000   1.0000   1.0000
     1.0000   1.0000   1.0000   1.0000   1.0000   1.0000   1.0000   1.0000
     1.0000   1.0000   1.0000   1.0000   1.0000   1.0000   1.0000   1.0000
     1.0000   1.0000   1.0000   1.0000   1.0000   1.0000   1.0000   1.0000
     1.0000   1.0000   1.0000   1.0000   1.0000   1.0000   1.0000   1.0000
     1.0000   1.0000   1.0000   1.0000   1.0000   1.0000   1.0000   1.0000
     1.0000   1.0000   1.0000   1.0000   1.0000   1.0000   1.0000   1.0000
     1.0000   1.0000   1.0000   1.0000   1.0000   1.0000   1.0000   1.0000
     1.0000   1.0000   1.0000   1.0000   1.0000   1.0000   1.0000   1.0000
     1.0000   1.0000   1.0000   1.0000   1.0000   1.0000   1.0000   1.0000
     1.0000   1.0000   1.0000   1.0000   1.0000   1.0000   1.0000   1.0000
     1.0000   1.0000   1.0000   1.0000   1.0000   1.0000   1.0000   1.0000
     1.0000   1.0000   1.0000   1.0000   1.0000   1.0000   1.0000   1.0000
     1.0000   1.0000   1.0000   1.0000   1.0000   1.0000   1.0000   1.0000
     1.0000   1.0000   1.0000   1.0000   1.0000   1.0000   1.0000   1.0000
     1.0000   1.0000   1.0000   1.0000   1.0000   1.0000   1.0000   1.0000
     1.0000   1.0000   1.0000   1.0000   1.0000   1.0000   1.0000   1.0000
     1.0000   1.0000   1.0000   1.0000   1.0000   1.0000   1.0000   1.0000
     1.0000   1.0000   1.0000   1.0000   1.0000   1.0000   1.0000   1.0000
     1.0000   1.0000   1.0000   1.0000   1.0000   1.0000   1.0000   1.0000
     1.0000   1.0000   1.0000   1.0000   1.0000   1.0000   1.0000   1.0000
     1.0000   1.0000   1.0000   1.0000   1.0000   1.0000   1.0000   1.0000
     1.0000   1.0000   1.0000   1.0000   1.0000   1.0000   1.0000   1.0000
     1.0000   1.0000   1.0000   1.0000   1.0000   1.0000   1.0000   1.0000
     1.0000   1.0000   1.0000   1.0000   1.0000   1.0000   1.0000   1.0000
     1.0000   1.0000   1.0000   1.0000   1.0000   1.0000   1.0000   1.0000
     1.0000   1.0000   1.0000   1.0000   1.0000   1.0000   1.0000   1.0000
     1.0000   1.0000   1.0000   1.0000   1.0000   1.0000   1.0000   1.0000
     1.0000   1.0000   1.0000   1.0000   1.0000   1.0000   1.0000   1.0000
     1.0000   1.0000   1.0000   1.0000   1.0000   1.0000   1.0000   1.0000
     1.0000   1.0000   1.0000   1.0000   1.0000   1.0000   1.0000   1.0000
     1.0000   1.0000   1.0000   1.0000   1.0000   1.0000   1.0000   1.0000
     1.0000   1.0000   1.0000   1.0000   1.0000   1.0000   1.0000   1.0000
     1.0000   1.0000   1.0000   1.0000   1.0000   1.0000   1.0000   1.0000
     1.0000   1.0000   1.0000   1.0000   1.0000   1.0000   1.0000   1.0000
     1.0000   1.0000   1.0000   1.0000   1.0000   1.0000   1.0000   1.0000
     1.0000   1.0000   1.0000   1.0000   1.0000   1.0000   1.0000   1.0000
     1.0000   1.0000   1.0000   1.0000   1.0000   1.0000   1.0000   1.0000
     1.0000   1.0000   1.0000   1.0000   1.0000   1.0000   1.0000   1.0000
     1.0000   1.0000   1.0000   1.0000   1.0000   1.0000   1.0000   1.0000
     1.0000   1.0000   1.0000   1.0000   1.0000   1.0000   1.0000   1.0000
     1.0000   1.0000   1.0000   1.0000   1.0000   1.0000   1.0000   1.0000
     1.0000   1.0000   1.0000   1.0000   1.0000   1.0000   1.0000   1.0000
     1.0000   1.0000   1.0000   1.0000   1.0000   1.0000   1.0000   1.0000
     1.0000   1.0000   1.0000   1.0000   1.0000   1.0000   1.0000   1.0000
     1.0000   1.0000   1.0000   1.0000   1.0000   1.0000   1.0000   1.0000
     1.0000   1.0000   1.0000   1.0000   1.0000   1.0000   1.0000   1.0000
     1.0000   1.0000   1.0000   1.0000   1.0000   1.0000   1.0000   1.0000
     1.0000   1.0000   1.0000   1.0000   1.0000   1.0000   1.0000   1.0000
     1.0000   1.0000   1.0000   1.0000   1.0000   1.0000   1.0000   1.0000
     1.0000   1.0000   1.0000   1.0000   1.0000   1.0000   1.0000   1.0000
     1.0000   1.0000   1.0000   1.0000   1.0000   1.0000   1.0000   1.0000
     1.0000   1.0000   1.0000   1.0000   1.0000   1.0000   1.0000   1.0000
     1.0000   1.0000   1.0000   1.0000   1.0000   1.0000   1.0000   1.0000
     1.0000   1.0000   1.0000   1.0000   1.0000   1.0000   1.0000   1.0000
     1.0000   1.0000   1.0000   1.0000   1.0000   1.0000   1.0000   1.0000
     1.0000   1.0000   1.0000   1.0000   1.0000   1.0000   1.0000   1.0000
     1.0000   1.0000   1.0000   1.0000   1.0000   1.0000   1.0000   1.0000
     1.0000   1.0000   1.0000   1.0000   1.0000   1.0000   1.0000   1.0000
     1.0000   1.0000   1.0000   1.0000   1.0000   1.0000   1.0000   1.0000
     1.0000   1.0000   1.0000   1.0000   1.0000   1.0000   1.0000   1.0000
     1.0000   1.0000   1.0000   1.0000   1.0000   1.0000   1.0000   1.0000
     1.0000   1.0000   1.0000   1.0000   1.0000   1.0000   1.0000   1.0000
     1.0000   1.0000   1.0000   1.0000   1.0000   1.0000   1.0000   1.0000
     1.0000   1.0000   1.0000   1.0000   1.0000   1.0000   1.0000   1.0000
     1.0000   1.0000   1.0000   1.0000   1.0000   1.0000   1.0000   1.0000
     1.0000   1.0000   1.0000   1.0000   1.0001   1.0001   1.0001   1.0010
     1.0011   1.0017   1.0017   1.0024   1.0092   1.0099   1.0162   1.0224
     1.0234   1.0236   1.0294   1.0449   1.0744   1.0749   1.0750   1.0765
     1.0771   1.0824   1.0826   1.0810   1.0572   1.0564   1.0396   0.8646
     0.8577   0.8090   0.7391   0.7143   0.6871   0.6447   0.6132   0.5997
     0.5675   0.4815   0.3700   0.2575   0.1561   0.1475   0.1167   0.0957
     0.0887   0.0630   0.0300   0.0258   0.0147   0.0077   0.0070   0.0039
     0.0036   0.0034   0.0033   0.0032   0.0029   0.0014   0.0009   0.0009
     0.0007   0.0007   0.0003   0.0003   0.0002   0.0001   0.0000   0.0000
     0.0000   0.0000   0.0000   0.0000   0.0000   0.0000   0.0000   0.0000
     0.0000   0.0000   0.0000   0.0000   0.0000   0.0000   0.0000   0.0000
     0.0000   0.0000   0.0000   0.0000   0.0000   0.0000   0.0000   0.0000
     0.0000   0.0000   0.0000   0.0000   0.0000   0.0000   0.0000   0.0000
     0.0000   0.0000   0.0000   0.0000   0.0000   0.0000   0.0000   0.0000
     0.0000   0.0000   0.0000   0.0000   0.0000   0.0000   0.0000   0.0000
     0.0000   0.0000   0.0000   0.0000   0.0000   0.0000   0.0000   0.0000
     0.0000   0.0000   0.0000   0.0000   0.0000   0.0000   0.0000   0.0000
     0.0000   0.0000   0.0000   0.0000   0.0000   0.0000   0.0000   0.0000
     0.0000   0.0000   0.0000   0.0000   0.0000   0.0000   0.0000   0.0000
     0.0000   0.0000   0.0000   0.0000   0.0000   0.0000   0.0000   0.0000
     0.0000   0.0000   0.0000   0.0000   0.0000   0.0000   0.0000   0.0000
     0.0000   0.0000

          k = 0.1250-0.5000 0.0000 (207990 PWs)   bands (ev):

   -61.8717 -61.8717 -61.8582 -61.8582 -61.8505 -61.8505 -61.8393 -61.8392
   -61.8365 -61.8365 -61.8355 -61.8354 -61.8270 -61.8269 -61.8209 -61.8209
   -61.8117 -61.8116 -61.8014 -61.8014 -61.7941 -61.7940 -61.7934 -61.7933
   -61.7904 -61.7902 -61.7859 -61.7858 -61.7851 -61.7850 -61.7833 -61.7831
   -61.7798 -61.7797 -61.7769 -61.7768 -61.7724 -61.7722 -61.7713 -61.7712
   -61.7638 -61.7636 -61.7589 -61.7589 -61.7544 -61.7544 -61.7525 -61.7525
   -61.7447 -61.7445 -61.7381 -61.7380 -61.7290 -61.7290 -61.6899 -61.6897
   -61.6885 -61.6885 -61.6880 -61.6879 -61.6867 -61.6866 -61.6865 -61.6863
   -61.6817 -61.6815 -61.6786 -61.6784 -61.6747 -61.6745 -61.6660 -61.6659
   -35.9744 -35.9744 -35.9585 -35.9585 -35.9507 -35.9507 -35.9332 -35.9332
   -35.9266 -35.9265 -35.9205 -35.9205 -35.9196 -35.9196 -35.9127 -35.9127
   -35.8927 -35.8927 -35.8912 -35.8912 -35.8727 -35.8727 -35.8677 -35.8677
   -35.8617 -35.8616 -35.8559 -35.8558 -35.8533 -35.8533 -35.8529 -35.8529
   -35.8492 -35.8492 -35.8463 -35.8463 -35.8461 -35.8460 -35.8424 -35.8424
   -35.8415 -35.8415 -35.8388 -35.8388 -35.8326 -35.8326 -35.8319 -35.8318
   -35.8261 -35.8261 -35.8248 -35.8247 -35.8199 -35.8199 -35.7942 -35.7942
   -35.7802 -35.7802 -35.7729 -35.7729 -35.7623 -35.7623 -35.7606 -35.7605
   -35.7550 -35.7549 -35.7527 -35.7526 -35.7338 -35.7337 -35.7267 -35.7267
   -35.7267 -35.7267 -35.7241 -35.7241 -35.7119 -35.7118 -35.6893 -35.6893
   -35.6875 -35.6875 -35.6778 -35.6778 -35.6749 -35.6748 -35.6741 -35.6740
   -35.6649 -35.6648 -35.6639 -35.6639 -35.6548 -35.6548 -35.6545 -35.6544
   -35.6511 -35.6510 -35.6496 -35.6496 -35.6444 -35.6444 -35.6428 -35.6428
   -35.6393 -35.6393 -35.6379 -35.6379 -35.6370 -35.6370 -35.6352 -35.6352
   -35.6325 -35.6325 -35.6314 -35.6313 -35.6302 -35.6301 -35.6265 -35.6265
   -35.6246 -35.6245 -35.6091 -35.6091 -35.6088 -35.6088 -35.5969 -35.5968
   -35.5909 -35.5909 -35.5853 -35.5851 -35.5812 -35.5812 -35.5730 -35.5730
   -35.5724 -35.5723 -35.5717 -35.5716 -35.5703 -35.5701 -35.5686 -35.5685
   -35.5621 -35.5620 -35.5607 -35.5606 -35.5592 -35.5591 -35.5590 -35.5589
   -35.5571 -35.5571 -35.5565 -35.5565 -35.5536 -35.5535 -35.5526 -35.5525
   -35.5503 -35.5502 -35.5499 -35.5499 -35.5466 -35.5465 -35.5418 -35.5417
   -35.5392 -35.5392 -35.5240 -35.5240 -35.5188 -35.5187 -35.5115 -35.5114
   -35.5032 -35.5032 -35.4986 -35.4985 -35.4985 -35.4984 -35.4944 -35.4944
   -35.4941 -35.4940 -35.4938 -35.4937 -35.4863 -35.4862 -35.4791 -35.4791
   -35.4709 -35.4709 -35.4638 -35.4638 -35.4601 -35.4601 -35.4581 -35.4579
   -35.4326 -35.4324 -35.4169 -35.4167 -35.4093 -35.4091 -35.4046 -35.4044
   -35.3916 -35.3915 -35.3852 -35.3849 -35.3848 -35.3847 -35.3826 -35.3825
   -14.1046 -14.1045 -13.6023 -13.6023 -13.3333 -13.3333 -13.2498 -13.2498
   -13.0948 -13.0948 -12.8239 -12.8239 -12.7703 -12.7703 -12.7104 -12.7104
   -12.6877 -12.6877 -12.6577 -12.6576 -12.6193 -12.6193 -12.5478 -12.5478
   -12.4972 -12.4972 -12.4935 -12.4935 -12.4171 -12.4171 -12.3967 -12.3966
   -12.3462 -12.3462 -12.2496 -12.2496 -12.2321 -12.2321 -12.1536 -12.1536
   -12.0547 -12.0546 -11.8851 -11.8850 -11.8595 -11.8594 -11.7862 -11.7862
   -11.7767 -11.7766 -11.6665 -11.6664 -11.6322 -11.6321 -11.6116 -11.6115
   -11.5347 -11.5347 -11.5139 -11.5139 -11.4730 -11.4729 -11.4043 -11.4043
   -11.3419 -11.3419 -11.3306 -11.3306 -11.2488 -11.2488 -11.1366 -11.1366
    -5.0090  -5.0090  -4.7932  -4.7932  -4.7254  -4.7254  -4.5352  -4.5352
    -4.2712  -4.2712  -4.0914  -4.0913  -4.0653  -4.0653  -3.9636  -3.9636
    -3.9317  -3.9317  -3.9232  -3.9232  -3.9078  -3.9078  -3.7415  -3.7415
    -3.7388  -3.7388  -3.6926  -3.6926  -3.6850  -3.6850  -3.6663  -3.6663
    -3.5490  -3.5490  -3.4990  -3.4990  -3.4544  -3.4544  -3.4207  -3.4207
    -3.3833  -3.3833  -3.2998  -3.2998  -3.2023  -3.2023  -3.1966  -3.1966
    -3.1439  -3.1439  -3.0877  -3.0877  -3.0190  -3.0189  -2.8525  -2.8525
    -2.7519  -2.7519  -2.7306  -2.7305  -2.7199  -2.7199  -2.6556  -2.6556
    -2.6384  -2.6384  -2.6138  -2.6138  -2.5674  -2.5674  -2.5324  -2.5324
    -2.5084  -2.5084  -2.5083  -2.5083  -2.4958  -2.4958  -2.4794  -2.4794
    -2.4311  -2.4311  -2.4133  -2.4133  -2.3956  -2.3956  -2.3522  -2.3522
    -2.3388  -2.3388  -2.3233  -2.3233  -2.2300  -2.2299  -2.2218  -2.2218
    -2.2101  -2.2101  -2.1834  -2.1834  -2.1262  -2.1262  -2.0962  -2.0962
    -2.0687  -2.0687  -2.0551  -2.0551  -2.0205  -2.0204  -2.0189  -2.0189
    -1.9366  -1.9366  -1.9201  -1.9201  -1.8475  -1.8474  -1.8319  -1.8318
    -1.8018  -1.8018  -1.7575  -1.7575  -1.7546  -1.7546  -1.7515  -1.7515
    -1.6588  -1.6588  -1.5974  -1.5974  -1.5852  -1.5852  -1.5851  -1.5851
    -1.5808  -1.5808  -1.5662  -1.5662  -1.5409  -1.5409  -1.5200  -1.5200
    -1.4363  -1.4363  -1.4349  -1.4349  -1.4164  -1.4164  -1.4089  -1.4089
    -1.3552  -1.3552  -1.3294  -1.3294  -1.3282  -1.3282  -1.2937  -1.2936
    -1.2401  -1.2401  -1.2037  -1.2036  -1.1461  -1.1461  -1.1309  -1.1309
    -1.0949  -1.0949  -1.0632  -1.0631  -1.0500  -1.0500  -1.0476  -1.0476
    -0.9520  -0.9520  -0.9339  -0.9339  -0.9266  -0.9266  -0.8905  -0.8904
    -0.8377  -0.8377  -0.7714  -0.7714  -0.7501  -0.7501  -0.7425  -0.7425
    -0.7070  -0.7070  -0.6478  -0.6478  -0.5949  -0.5949  -0.5932  -0.5932
    -0.5476  -0.5476  -0.5031  -0.5031  -0.4294  -0.4293  -0.1762  -0.1761
    -0.0538  -0.0538   0.0640   0.0640   0.1201   0.1201   0.3392   0.3393
     0.7190   0.7190   1.2317   1.2317   1.3787   1.3787   1.4511   1.4511
     1.4530   1.4531   1.5684   1.5685   1.5844   1.5844   2.1047   2.1048
     2.1308   2.1308   2.2674   2.2675   2.3156   2.3156   2.3380   2.3381
     2.4327   2.4328   2.4670   2.4671   2.5556   2.5556   2.6139   2.6139
     2.6543   2.6543   2.6804   2.6805   2.6911   2.6912   2.7287   2.7287
     2.7924   2.7925   2.8122   2.8123   2.9144   2.9144   3.0002   3.0002
     3.0257   3.0257   3.0572   3.0572   3.0676   3.0677   3.1029   3.1029
     3.1099   3.1100   3.2279   3.2279   3.2280   3.2281   3.2679   3.2679
     3.2938   3.2938   3.3944   3.3944   3.4215   3.4215   3.4402   3.4402
     3.4629   3.4629   3.4992   3.4993   3.5229   3.5229   3.5805   3.5805
     3.6638   3.6638   3.6938   3.6938   3.7282   3.7282   3.7594   3.7594
     3.7637   3.7637   3.7804   3.7805   3.8548   3.8549   3.8976   3.8976
     3.9058   3.9059   3.9298   3.9298   3.9535   3.9536   3.9733   3.9734
     4.0095   4.0095   4.0147   4.0148   4.0221   4.0221   4.0506   4.0506
     4.0596   4.0597   4.0732   4.0732   4.0777   4.0778   4.0896   4.0896
     4.0912   4.0913   4.1236   4.1237   4.1554   4.1554   4.1616   4.1621
     4.1813   4.1814   4.1928   4.1928   4.2095   4.2095   4.2112   4.2113
     4.2595   4.2595   4.2655   4.2656   4.2866   4.2871   4.3109   4.3109
     4.3911   4.3912   4.3915   4.3918   4.3955   4.3956   4.4044   4.4044
     4.4327   4.4328   4.4510   4.4511   4.4827   4.4828   4.4857   4.4858
     4.5166   4.5167   4.5564   4.5565   4.5766   4.5767   4.5823   4.5826
     4.5905   4.5905   4.5979   4.5979   4.6310   4.6311   4.6523   4.6523
     4.6899   4.6900   4.6925   4.6925   4.7244   4.7245   4.7246   4.7246
     4.7320   4.7321   4.7900   4.7904   4.7917   4.7919   4.7986   4.7988
     4.8152   4.8153   4.8250   4.8251   4.8404   4.8408   4.8411   4.8413
     4.8421   4.8422

     occupation numbers 
     1.0000   1.0000   1.0000   1.0000   1.0000   1.0000   1.0000   1.0000
     1.0000   1.0000   1.0000   1.0000   1.0000   1.0000   1.0000   1.0000
     1.0000   1.0000   1.0000   1.0000   1.0000   1.0000   1.0000   1.0000
     1.0000   1.0000   1.0000   1.0000   1.0000   1.0000   1.0000   1.0000
     1.0000   1.0000   1.0000   1.0000   1.0000   1.0000   1.0000   1.0000
     1.0000   1.0000   1.0000   1.0000   1.0000   1.0000   1.0000   1.0000
     1.0000   1.0000   1.0000   1.0000   1.0000   1.0000   1.0000   1.0000
     1.0000   1.0000   1.0000   1.0000   1.0000   1.0000   1.0000   1.0000
     1.0000   1.0000   1.0000   1.0000   1.0000   1.0000   1.0000   1.0000
     1.0000   1.0000   1.0000   1.0000   1.0000   1.0000   1.0000   1.0000
     1.0000   1.0000   1.0000   1.0000   1.0000   1.0000   1.0000   1.0000
     1.0000   1.0000   1.0000   1.0000   1.0000   1.0000   1.0000   1.0000
     1.0000   1.0000   1.0000   1.0000   1.0000   1.0000   1.0000   1.0000
     1.0000   1.0000   1.0000   1.0000   1.0000   1.0000   1.0000   1.0000
     1.0000   1.0000   1.0000   1.0000   1.0000   1.0000   1.0000   1.0000
     1.0000   1.0000   1.0000   1.0000   1.0000   1.0000   1.0000   1.0000
     1.0000   1.0000   1.0000   1.0000   1.0000   1.0000   1.0000   1.0000
     1.0000   1.0000   1.0000   1.0000   1.0000   1.0000   1.0000   1.0000
     1.0000   1.0000   1.0000   1.0000   1.0000   1.0000   1.0000   1.0000
     1.0000   1.0000   1.0000   1.0000   1.0000   1.0000   1.0000   1.0000
     1.0000   1.0000   1.0000   1.0000   1.0000   1.0000   1.0000   1.0000
     1.0000   1.0000   1.0000   1.0000   1.0000   1.0000   1.0000   1.0000
     1.0000   1.0000   1.0000   1.0000   1.0000   1.0000   1.0000   1.0000
     1.0000   1.0000   1.0000   1.0000   1.0000   1.0000   1.0000   1.0000
     1.0000   1.0000   1.0000   1.0000   1.0000   1.0000   1.0000   1.0000
     1.0000   1.0000   1.0000   1.0000   1.0000   1.0000   1.0000   1.0000
     1.0000   1.0000   1.0000   1.0000   1.0000   1.0000   1.0000   1.0000
     1.0000   1.0000   1.0000   1.0000   1.0000   1.0000   1.0000   1.0000
     1.0000   1.0000   1.0000   1.0000   1.0000   1.0000   1.0000   1.0000
     1.0000   1.0000   1.0000   1.0000   1.0000   1.0000   1.0000   1.0000
     1.0000   1.0000   1.0000   1.0000   1.0000   1.0000   1.0000   1.0000
     1.0000   1.0000   1.0000   1.0000   1.0000   1.0000   1.0000   1.0000
     1.0000   1.0000   1.0000   1.0000   1.0000   1.0000   1.0000   1.0000
     1.0000   1.0000   1.0000   1.0000   1.0000   1.0000   1.0000   1.0000
     1.0000   1.0000   1.0000   1.0000   1.0000   1.0000   1.0000   1.0000
     1.0000   1.0000   1.0000   1.0000   1.0000   1.0000   1.0000   1.0000
     1.0000   1.0000   1.0000   1.0000   1.0000   1.0000   1.0000   1.0000
     1.0000   1.0000   1.0000   1.0000   1.0000   1.0000   1.0000   1.0000
     1.0000   1.0000   1.0000   1.0000   1.0000   1.0000   1.0000   1.0000
     1.0000   1.0000   1.0000   1.0000   1.0000   1.0000   1.0000   1.0000
     1.0000   1.0000   1.0000   1.0000   1.0000   1.0000   1.0000   1.0000
     1.0000   1.0000   1.0000   1.0000   1.0000   1.0000   1.0000   1.0000
     1.0000   1.0000   1.0000   1.0000   1.0000   1.0000   1.0000   1.0000
     1.0000   1.0000   1.0000   1.0000   1.0000   1.0000   1.0000   1.0000
     1.0000   1.0000   1.0000   1.0000   1.0000   1.0000   1.0000   1.0000
     1.0000   1.0000   1.0000   1.0000   1.0000   1.0000   1.0000   1.0000
     1.0000   1.0000   1.0000   1.0000   1.0000   1.0000   1.0000   1.0000
     1.0000   1.0000   1.0000   1.0000   1.0000   1.0000   1.0000   1.0000
     1.0000   1.0000   1.0000   1.0000   1.0000   1.0000   1.0000   1.0000
     1.0000   1.0000   1.0000   1.0000   1.0000   1.0000   1.0000   1.0000
     1.0000   1.0000   1.0000   1.0000   1.0000   1.0000   1.0000   1.0000
     1.0000   1.0000   1.0000   1.0000   1.0000   1.0000   1.0000   1.0000
     1.0000   1.0000   1.0000   1.0000   1.0000   1.0000   1.0000   1.0000
     1.0000   1.0000   1.0000   1.0000   1.0000   1.0000   1.0000   1.0000
     1.0000   1.0000   1.0000   1.0000   1.0000   1.0000   1.0000   1.0000
     1.0000   1.0000   1.0000   1.0000   1.0000   1.0000   1.0000   1.0000
     1.0000   1.0000   1.0000   1.0000   1.0000   1.0000   1.0000   1.0000
     1.0000   1.0000   1.0000   1.0000   1.0000   1.0000   1.0000   1.0000
     1.0000   1.0000   1.0000   1.0000   1.0000   1.0000   1.0000   1.0000
     1.0000   1.0000   1.0000   1.0000   1.0000   1.0000   1.0000   1.0000
     1.0000   1.0000   1.0000   1.0000   1.0000   1.0000   1.0000   1.0000
     1.0000   1.0000   1.0000   1.0000   1.0000   1.0000   1.0000   1.0000
     1.0000   1.0000   1.0000   1.0000   1.0000   1.0000   1.0000   1.0000
     1.0000   1.0000   1.0000   1.0000   1.0000   1.0000   1.0000   1.0000
     1.0000   1.0000   1.0000   1.0000   1.0000   1.0000   1.0000   1.0000
     1.0000   1.0000   1.0000   1.0000   1.0000   1.0000   1.0000   1.0000
     1.0000   1.0000   1.0000   1.0000   1.0000   1.0000   1.0000   1.0000
     1.0000   1.0000   1.0000   1.0000   1.0000   1.0000   1.0000   1.0000
     1.0000   1.0000   1.0000   1.0000   1.0000   1.0000   1.0000   1.0000
     1.0000   1.0000   1.0000   1.0000   1.0000   1.0000   1.0000   1.0000
     1.0000   1.0000   1.0000   1.0000   1.0000   1.0000   1.0000   1.0000
     1.0000   1.0000   1.0000   1.0000   1.0000   1.0000   1.0000   1.0000
     1.0000   1.0000   1.0000   1.0000   1.0000   1.0000   1.0000   1.0000
     1.0000   1.0000   1.0000   1.0000   1.0000   1.0000   1.0000   1.0000
     1.0000   1.0000   1.0000   1.0000   1.0000   1.0000   1.0000   1.0000
     1.0000   1.0000   1.0000   1.0000   1.0000   1.0000   1.0000   1.0000
     1.0000   1.0000   1.0000   1.0000   1.0000   1.0000   1.0001   1.0001
     1.0004   1.0004   1.0007   1.0007   1.0057   1.0057   1.0222   1.0222
     1.0308   1.0308   1.0436   1.0436   1.0483   1.0483   1.0644   1.0644
     1.0675   1.0675   1.0599   1.0599   1.0599   1.0598   1.0073   1.0072
     0.9545   0.9544   0.6361   0.6360   0.5363   0.5363   0.4688   0.4686
     0.3906   0.3905   0.2790   0.2789   0.2175   0.2174   0.1072   0.1071
     0.0296   0.0296   0.0172   0.0172   0.0088   0.0088   0.0046   0.0046
     0.0042   0.0042   0.0029   0.0029   0.0005   0.0005   0.0001   0.0001
     0.0001   0.0001   0.0001   0.0001   0.0000   0.0000   0.0000   0.0000
     0.0000   0.0000   0.0000   0.0000   0.0000   0.0000   0.0000   0.0000
     0.0000   0.0000   0.0000   0.0000   0.0000   0.0000   0.0000   0.0000
     0.0000   0.0000   0.0000   0.0000   0.0000   0.0000   0.0000   0.0000
     0.0000   0.0000   0.0000   0.0000   0.0000   0.0000   0.0000   0.0000
     0.0000   0.0000   0.0000   0.0000   0.0000   0.0000   0.0000   0.0000
     0.0000   0.0000   0.0000   0.0000   0.0000   0.0000   0.0000   0.0000
     0.0000   0.0000   0.0000   0.0000   0.0000   0.0000   0.0000   0.0000
     0.0000   0.0000   0.0000   0.0000   0.0000   0.0000   0.0000   0.0000
     0.0000   0.0000   0.0000   0.0000   0.0000   0.0000   0.0000   0.0000
     0.0000   0.0000   0.0000   0.0000   0.0000   0.0000   0.0000   0.0000
     0.0000   0.0000   0.0000   0.0000   0.0000   0.0000   0.0000   0.0000
     0.0000   0.0000   0.0000   0.0000   0.0000   0.0000   0.0000   0.0000
     0.0000   0.0000

          k = 0.2500 0.2500 0.0000 (207966 PWs)   bands (ev):

   -61.8746 -61.8647 -61.8646 -61.8568 -61.8482 -61.8481 -61.8440 -61.8439
   -61.8378 -61.8329 -61.8308 -61.8307 -61.8304 -61.8303 -61.8213 -61.8168
   -61.8167 -61.8096 -61.8036 -61.7972 -61.7970 -61.7958 -61.7937 -61.7885
   -61.7882 -61.7882 -61.7880 -61.7872 -61.7868 -61.7867 -61.7847 -61.7810
   -61.7807 -61.7782 -61.7782 -61.7779 -61.7732 -61.7688 -61.7688 -61.7683
   -61.7681 -61.7634 -61.7633 -61.7618 -61.7553 -61.7495 -61.7489 -61.7488
   -61.7482 -61.7482 -61.7382 -61.7341 -61.7339 -61.7269 -61.6904 -61.6892
   -61.6888 -61.6885 -61.6884 -61.6879 -61.6871 -61.6869 -61.6849 -61.6848
   -61.6830 -61.6828 -61.6786 -61.6784 -61.6760 -61.6704 -61.6702 -61.6640
   -35.9815 -35.9706 -35.9646 -35.9558 -35.9459 -35.9458 -35.9410 -35.9303
   -35.9237 -35.9237 -35.9228 -35.9166 -35.9165 -35.9115 -35.9114 -35.9086
   -35.8996 -35.8996 -35.8877 -35.8877 -35.8808 -35.8776 -35.8775 -35.8683
   -35.8674 -35.8628 -35.8624 -35.8568 -35.8567 -35.8562 -35.8560 -35.8550
   -35.8528 -35.8511 -35.8511 -35.8480 -35.8469 -35.8444 -35.8422 -35.8422
   -35.8371 -35.8371 -35.8357 -35.8319 -35.8319 -35.8277 -35.8276 -35.8248
   -35.8247 -35.8204 -35.8203 -35.8186 -35.8185 -35.7970 -35.7969 -35.7952
   -35.7952 -35.7833 -35.7833 -35.7741 -35.7678 -35.7678 -35.7564 -35.7563
   -35.7537 -35.7531 -35.7531 -35.7419 -35.7417 -35.7394 -35.7375 -35.7375
   -35.7245 -35.7245 -35.7110 -35.7109 -35.7106 -35.6948 -35.6947 -35.6928
   -35.6928 -35.6909 -35.6907 -35.6814 -35.6814 -35.6792 -35.6704 -35.6697
   -35.6696 -35.6649 -35.6647 -35.6633 -35.6622 -35.6621 -35.6558 -35.6558
   -35.6556 -35.6555 -35.6547 -35.6471 -35.6424 -35.6422 -35.6420 -35.6404
   -35.6378 -35.6378 -35.6375 -35.6362 -35.6362 -35.6359 -35.6358 -35.6357
   -35.6335 -35.6324 -35.6310 -35.6242 -35.6242 -35.6185 -35.6168 -35.6167
   -35.6101 -35.6101 -35.6100 -35.6034 -35.6012 -35.5986 -35.5984 -35.5956
   -35.5954 -35.5951 -35.5950 -35.5950 -35.5891 -35.5890 -35.5877 -35.5801
   -35.5780 -35.5778 -35.5721 -35.5700 -35.5673 -35.5659 -35.5658 -35.5647
   -35.5643 -35.5642 -35.5633 -35.5629 -35.5627 -35.5627 -35.5606 -35.5604
   -35.5581 -35.5580 -35.5575 -35.5573 -35.5572 -35.5536 -35.5534 -35.5531
   -35.5530 -35.5474 -35.5472 -35.5459 -35.5429 -35.5370 -35.5369 -35.5349
   -35.5315 -35.5314 -35.5299 -35.5229 -35.5154 -35.5144 -35.5144 -35.5132
   -35.5132 -35.5104 -35.5055 -35.4989 -35.4989 -35.4988 -35.4987 -35.4970
   -35.4961 -35.4914 -35.4913 -35.4861 -35.4860 -35.4860 -35.4792 -35.4791
   -35.4759 -35.4664 -35.4663 -35.4659 -35.4653 -35.4571 -35.4525 -35.4418
   -35.4416 -35.4342 -35.4142 -35.4127 -35.4126 -35.4066 -35.4063 -35.4059
   -35.3937 -35.3935 -35.3889 -35.3850 -35.3837 -35.3835 -35.3806 -35.3805
   -14.2063 -13.8584 -13.8583 -13.5237 -13.3391 -13.3193 -13.3193 -13.0381
   -13.0381 -13.0143 -13.0143 -12.8718 -12.8718 -12.7930 -12.7573 -12.7304
   -12.7303 -12.6226 -12.6226 -12.6222 -12.6222 -12.5827 -12.5806 -12.5792
   -12.4940 -12.4732 -12.4731 -12.4041 -12.4041 -12.3935 -12.3935 -12.3723
   -12.3709 -12.3302 -12.2619 -12.2619 -12.2370 -12.2369 -12.1620 -12.1596
   -12.0573 -12.0573 -11.9961 -11.8941 -11.8940 -11.8073 -11.7970 -11.7110
   -11.7110 -11.6921 -11.6920 -11.6842 -11.6841 -11.6686 -11.6686 -11.5875
   -11.5228 -11.5227 -11.5006 -11.4416 -11.4416 -11.4316 -11.4185 -11.4185
   -11.4145 -11.4145 -11.3633 -11.2981 -11.2477 -11.2477 -11.1677 -11.0932
    -5.0707  -4.9797  -4.8422  -4.7748  -4.5954  -4.5953  -4.3998  -4.3998
    -4.3628  -4.3628  -4.2249  -4.2249  -4.2176  -4.1016  -4.1016  -4.0681
    -4.0192  -3.8738  -3.8420  -3.8420  -3.8372  -3.8372  -3.8257  -3.8071
    -3.8071  -3.7585  -3.6347  -3.6346  -3.6290  -3.6009  -3.6009  -3.5820
    -3.5751  -3.5751  -3.5362  -3.5273  -3.5273  -3.4055  -3.3800  -3.3800
    -3.3015  -3.3014  -3.2692  -3.2550  -3.2482  -3.2482  -3.1728  -3.1401
    -3.1401  -3.1034  -3.1034  -2.9602  -2.9602  -2.9395  -2.9395  -2.9139
    -2.9139  -2.8961  -2.8961  -2.7752  -2.7557  -2.6912  -2.6752  -2.6376
    -2.6376  -2.6086  -2.6028  -2.6028  -2.5899  -2.5883  -2.5631  -2.5545
    -2.5536  -2.5064  -2.4969  -2.4968  -2.4726  -2.4666  -2.4665  -2.4495
    -2.4495  -2.4391  -2.4391  -2.3537  -2.3537  -2.3426  -2.3334  -2.3334
    -2.3222  -2.2721  -2.2721  -2.2629  -2.2550  -2.2550  -2.1468  -2.1467
    -2.1411  -2.1411  -2.1395  -2.1068  -2.1068  -2.0931  -2.0930  -2.0896
    -2.0896  -2.0741  -2.0740  -2.0471  -2.0125  -2.0125  -1.9843  -1.9618
    -1.9617  -1.9365  -1.9365  -1.9351  -1.9350  -1.9134  -1.8894  -1.8893
    -1.8689  -1.8479  -1.8325  -1.8104  -1.8104  -1.8078  -1.7533  -1.7205
    -1.6860  -1.6860  -1.6515  -1.6515  -1.6040  -1.5979  -1.5975  -1.5975
    -1.5912  -1.5843  -1.5715  -1.5710  -1.5526  -1.5490  -1.5489  -1.5000
    -1.4999  -1.4559  -1.4559  -1.4354  -1.4110  -1.4110  -1.4021  -1.4020
    -1.3985  -1.3134  -1.3134  -1.2909  -1.2909  -1.2614  -1.2605  -1.2605
    -1.2333  -1.2333  -1.2273  -1.2273  -1.1742  -1.1633  -1.1521  -1.0995
    -1.0995  -1.0841  -1.0841  -1.0417  -1.0397  -1.0211  -1.0210  -1.0092
    -1.0092  -1.0040  -1.0040  -0.9883  -0.9697  -0.8916  -0.8861  -0.8861
    -0.8844  -0.8844  -0.7781  -0.7781  -0.7699  -0.7698  -0.7142  -0.7090
    -0.7089  -0.7034  -0.6603  -0.5972  -0.5713  -0.5713  -0.5612  -0.5612
    -0.5464  -0.5463  -0.4840  -0.4108  -0.4107  -0.2918  -0.2214  -0.2213
    -0.1757  -0.1015  -0.1015   0.0050   0.0924   0.3483   0.5129   0.7551
     0.8152   0.8464   0.9602   0.9602   0.9786   1.1881   1.2593   1.2594
     1.7126   1.7127   1.8176   1.8741   1.8914   1.8914   2.0176   2.0176
     2.0946   2.0947   2.1024   2.1492   2.1492   2.2215   2.2651   2.2651
     2.3968   2.4654   2.4660   2.4660   2.5059   2.5169   2.5682   2.5682
     2.5840   2.6425   2.6974   2.6975   2.7893   2.7944   2.7945   2.8069
     2.8795   2.8795   2.9579   2.9580   2.9657   2.9657   3.0006   3.0006
     3.0253   3.0411   3.0412   3.0839   3.0893   3.1050   3.1353   3.1684
     3.1685   3.1923   3.1924   3.2677   3.2678   3.2806   3.3012   3.3076
     3.3076   3.3340   3.3717   3.3717   3.3724   3.3724   3.3743   3.3942
     3.3943   3.4680   3.5486   3.5486   3.5580   3.5581   3.5761   3.5883
     3.5884   3.5999   3.6000   3.6467   3.6468   3.6806   3.7205   3.7205
     3.7233   3.7233   3.7316   3.7534   3.7535   3.7834   3.8093   3.8125
     3.8500   3.8501   3.8567   3.9016   3.9335   3.9335   3.9361   3.9363
     3.9428   4.0251   4.0254   4.0254   4.0310   4.0311   4.0465   4.0577
     4.0625   4.0695   4.0698   4.1050   4.1052   4.1119   4.1122   4.1123
     4.1441   4.1441   4.1851   4.1903   4.1905   4.1910   4.1912   4.2022
     4.2024   4.2030   4.2031   4.2235   4.2236   4.2394   4.2463   4.2564
     4.2596   4.2597   4.2727   4.2728   4.2729   4.2813   4.2813   4.3047
     4.3101   4.3289   4.3290   4.3525   4.3525   4.3581   4.3681   4.3838
     4.3839   4.3923   4.4016   4.4017   4.4441   4.4608   4.4611   4.4785
     4.4786   4.5165   4.5190   4.5191   4.5620   4.5811   4.5898   4.6072
     4.6074   4.6177   4.6513   4.6516   4.6576   4.6577   4.6892   4.6898
     4.6901   4.7073   4.7075   4.7124   4.7130   4.7185   4.7186   4.7249
     4.7251   4.7386   4.7386   4.7498   4.7565   4.7805   4.8143   4.8300
     4.8302   4.8373   4.8375   4.8385   4.8389   4.8390   4.8430   4.8432
     4.8525   4.8683

     occupation numbers 
     1.0000   1.0000   1.0000   1.0000   1.0000   1.0000   1.0000   1.0000
     1.0000   1.0000   1.0000   1.0000   1.0000   1.0000   1.0000   1.0000
     1.0000   1.0000   1.0000   1.0000   1.0000   1.0000   1.0000   1.0000
     1.0000   1.0000   1.0000   1.0000   1.0000   1.0000   1.0000   1.0000
     1.0000   1.0000   1.0000   1.0000   1.0000   1.0000   1.0000   1.0000
     1.0000   1.0000   1.0000   1.0000   1.0000   1.0000   1.0000   1.0000
     1.0000   1.0000   1.0000   1.0000   1.0000   1.0000   1.0000   1.0000
     1.0000   1.0000   1.0000   1.0000   1.0000   1.0000   1.0000   1.0000
     1.0000   1.0000   1.0000   1.0000   1.0000   1.0000   1.0000   1.0000
     1.0000   1.0000   1.0000   1.0000   1.0000   1.0000   1.0000   1.0000
     1.0000   1.0000   1.0000   1.0000   1.0000   1.0000   1.0000   1.0000
     1.0000   1.0000   1.0000   1.0000   1.0000   1.0000   1.0000   1.0000
     1.0000   1.0000   1.0000   1.0000   1.0000   1.0000   1.0000   1.0000
     1.0000   1.0000   1.0000   1.0000   1.0000   1.0000   1.0000   1.0000
     1.0000   1.0000   1.0000   1.0000   1.0000   1.0000   1.0000   1.0000
     1.0000   1.0000   1.0000   1.0000   1.0000   1.0000   1.0000   1.0000
     1.0000   1.0000   1.0000   1.0000   1.0000   1.0000   1.0000   1.0000
     1.0000   1.0000   1.0000   1.0000   1.0000   1.0000   1.0000   1.0000
     1.0000   1.0000   1.0000   1.0000   1.0000   1.0000   1.0000   1.0000
     1.0000   1.0000   1.0000   1.0000   1.0000   1.0000   1.0000   1.0000
     1.0000   1.0000   1.0000   1.0000   1.0000   1.0000   1.0000   1.0000
     1.0000   1.0000   1.0000   1.0000   1.0000   1.0000   1.0000   1.0000
     1.0000   1.0000   1.0000   1.0000   1.0000   1.0000   1.0000   1.0000
     1.0000   1.0000   1.0000   1.0000   1.0000   1.0000   1.0000   1.0000
     1.0000   1.0000   1.0000   1.0000   1.0000   1.0000   1.0000   1.0000
     1.0000   1.0000   1.0000   1.0000   1.0000   1.0000   1.0000   1.0000
     1.0000   1.0000   1.0000   1.0000   1.0000   1.0000   1.0000   1.0000
     1.0000   1.0000   1.0000   1.0000   1.0000   1.0000   1.0000   1.0000
     1.0000   1.0000   1.0000   1.0000   1.0000   1.0000   1.0000   1.0000
     1.0000   1.0000   1.0000   1.0000   1.0000   1.0000   1.0000   1.0000
     1.0000   1.0000   1.0000   1.0000   1.0000   1.0000   1.0000   1.0000
     1.0000   1.0000   1.0000   1.0000   1.0000   1.0000   1.0000   1.0000
     1.0000   1.0000   1.0000   1.0000   1.0000   1.0000   1.0000   1.0000
     1.0000   1.0000   1.0000   1.0000   1.0000   1.0000   1.0000   1.0000
     1.0000   1.0000   1.0000   1.0000   1.0000   1.0000   1.0000   1.0000
     1.0000   1.0000   1.0000   1.0000   1.0000   1.0000   1.0000   1.0000
     1.0000   1.0000   1.0000   1.0000   1.0000   1.0000   1.0000   1.0000
     1.0000   1.0000   1.0000   1.0000   1.0000   1.0000   1.0000   1.0000
     1.0000   1.0000   1.0000   1.0000   1.0000   1.0000   1.0000   1.0000
     1.0000   1.0000   1.0000   1.0000   1.0000   1.0000   1.0000   1.0000
     1.0000   1.0000   1.0000   1.0000   1.0000   1.0000   1.0000   1.0000
     1.0000   1.0000   1.0000   1.0000   1.0000   1.0000   1.0000   1.0000
     1.0000   1.0000   1.0000   1.0000   1.0000   1.0000   1.0000   1.0000
     1.0000   1.0000   1.0000   1.0000   1.0000   1.0000   1.0000   1.0000
     1.0000   1.0000   1.0000   1.0000   1.0000   1.0000   1.0000   1.0000
     1.0000   1.0000   1.0000   1.0000   1.0000   1.0000   1.0000   1.0000
     1.0000   1.0000   1.0000   1.0000   1.0000   1.0000   1.0000   1.0000
     1.0000   1.0000   1.0000   1.0000   1.0000   1.0000   1.0000   1.0000
     1.0000   1.0000   1.0000   1.0000   1.0000   1.0000   1.0000   1.0000
     1.0000   1.0000   1.0000   1.0000   1.0000   1.0000   1.0000   1.0000
     1.0000   1.0000   1.0000   1.0000   1.0000   1.0000   1.0000   1.0000
     1.0000   1.0000   1.0000   1.0000   1.0000   1.0000   1.0000   1.0000
     1.0000   1.0000   1.0000   1.0000   1.0000   1.0000   1.0000   1.0000
     1.0000   1.0000   1.0000   1.0000   1.0000   1.0000   1.0000   1.0000
     1.0000   1.0000   1.0000   1.0000   1.0000   1.0000   1.0000   1.0000
     1.0000   1.0000   1.0000   1.0000   1.0000   1.0000   1.0000   1.0000
     1.0000   1.0000   1.0000   1.0000   1.0000   1.0000   1.0000   1.0000
     1.0000   1.0000   1.0000   1.0000   1.0000   1.0000   1.0000   1.0000
     1.0000   1.0000   1.0000   1.0000   1.0000   1.0000   1.0000   1.0000
     1.0000   1.0000   1.0000   1.0000   1.0000   1.0000   1.0000   1.0000
     1.0000   1.0000   1.0000   1.0000   1.0000   1.0000   1.0000   1.0000
     1.0000   1.0000   1.0000   1.0000   1.0000   1.0000   1.0000   1.0000
     1.0000   1.0000   1.0000   1.0000   1.0000   1.0000   1.0000   1.0000
     1.0000   1.0000   1.0000   1.0000   1.0000   1.0000   1.0000   1.0000
     1.0000   1.0000   1.0000   1.0000   1.0000   1.0000   1.0000   1.0000
     1.0000   1.0000   1.0000   1.0000   1.0000   1.0000   1.0000   1.0000
     1.0000   1.0000   1.0000   1.0000   1.0000   1.0000   1.0000   1.0000
     1.0000   1.0000   1.0000   1.0000   1.0000   1.0000   1.0000   1.0000
     1.0000   1.0000   1.0000   1.0000   1.0000   1.0000   1.0000   1.0000
     1.0000   1.0000   1.0000   1.0000   1.0000   1.0000   1.0000   1.0000
     1.0000   1.0000   1.0000   1.0000   1.0000   1.0000   1.0000   1.0000
     1.0000   1.0000   1.0000   1.0000   1.0000   1.0000   1.0000   1.0000
     1.0000   1.0000   1.0000   1.0000   1.0000   1.0000   1.0000   1.0000
     1.0000   1.0000   1.0000   1.0000   1.0000   1.0000   1.0000   1.0000
     1.0000   1.0000   1.0000   1.0000   1.0000   1.0000   1.0000   1.0000
     1.0000   1.0000   1.0000   1.0000   1.0000   1.0000   1.0000   1.0000
     1.0000   1.0000   1.0000   1.0000   1.0004   1.0004   1.0004   1.0006
     1.0029   1.0029   1.0119   1.0119   1.0134   1.0135   1.0223   1.0223
     1.0306   1.0368   1.0368   1.0558   1.0582   1.0653   1.0770   1.0833
     1.0833   1.0805   1.0805   1.0075   1.0074   0.9832   0.9365   0.9204
     0.9203   0.8449   0.7187   0.7185   0.7162   0.7160   0.7094   0.6369
     0.6365   0.3737   0.1616   0.1615   0.1438   0.1436   0.1137   0.0962
     0.0961   0.0816   0.0815   0.0395   0.0395   0.0220   0.0103   0.0103
     0.0097   0.0097   0.0082   0.0052   0.0052   0.0027   0.0015   0.0013
     0.0005   0.0005   0.0004   0.0001   0.0001   0.0001   0.0000   0.0000
     0.0000   0.0000   0.0000   0.0000   0.0000   0.0000   0.0000   0.0000
     0.0000   0.0000   0.0000   0.0000   0.0000   0.0000   0.0000   0.0000
     0.0000   0.0000   0.0000   0.0000   0.0000   0.0000   0.0000   0.0000
     0.0000   0.0000   0.0000   0.0000   0.0000   0.0000   0.0000   0.0000
     0.0000   0.0000   0.0000   0.0000   0.0000   0.0000   0.0000   0.0000
     0.0000   0.0000   0.0000   0.0000   0.0000   0.0000   0.0000   0.0000
     0.0000   0.0000   0.0000   0.0000   0.0000   0.0000   0.0000   0.0000
     0.0000   0.0000   0.0000   0.0000   0.0000   0.0000   0.0000   0.0000
     0.0000   0.0000   0.0000   0.0000   0.0000   0.0000   0.0000   0.0000
     0.0000   0.0000   0.0000   0.0000   0.0000   0.0000   0.0000   0.0000
     0.0000   0.0000   0.0000   0.0000   0.0000   0.0000   0.0000   0.0000
     0.0000   0.0000   0.0000   0.0000   0.0000   0.0000   0.0000   0.0000
     0.0000   0.0000

          k = 0.2500 0.3750 0.0000 (207921 PWs)   bands (ev):

   -61.8730 -61.8680 -61.8634 -61.8594 -61.8475 -61.8453 -61.8436 -61.8405
   -61.8364 -61.8347 -61.8340 -61.8338 -61.8306 -61.8305 -61.8197 -61.8174
   -61.8143 -61.8107 -61.8023 -61.7990 -61.7965 -61.7948 -61.7945 -61.7900
   -61.7884 -61.7881 -61.7867 -61.7864 -61.7858 -61.7854 -61.7854 -61.7828
   -61.7810 -61.7808 -61.7800 -61.7786 -61.7716 -61.7690 -61.7678 -61.7662
   -61.7651 -61.7637 -61.7629 -61.7594 -61.7536 -61.7534 -61.7517 -61.7505
   -61.7487 -61.7484 -61.7367 -61.7346 -61.7315 -61.7280 -61.6901 -61.6893
   -61.6893 -61.6887 -61.6885 -61.6884 -61.6864 -61.6863 -61.6852 -61.6843
   -61.6834 -61.6815 -61.6804 -61.6793 -61.6742 -61.6714 -61.6684 -61.6651
   -35.9833 -35.9778 -35.9673 -35.9628 -35.9416 -35.9352 -35.9308 -35.9278
   -35.9268 -35.9214 -35.9199 -35.9181 -35.9164 -35.9093 -35.9070 -35.9008
   -35.8986 -35.8982 -35.8960 -35.8885 -35.8813 -35.8803 -35.8745 -35.8694
   -35.8683 -35.8678 -35.8630 -35.8616 -35.8595 -35.8573 -35.8559 -35.8549
   -35.8504 -35.8498 -35.8490 -35.8489 -35.8464 -35.8460 -35.8445 -35.8398
   -35.8389 -35.8387 -35.8338 -35.8315 -35.8300 -35.8294 -35.8293 -35.8292
   -35.8290 -35.8281 -35.8265 -35.8094 -35.8090 -35.8049 -35.8039 -35.7981
   -35.7851 -35.7825 -35.7792 -35.7780 -35.7724 -35.7655 -35.7636 -35.7576
   -35.7569 -35.7550 -35.7510 -35.7449 -35.7380 -35.7364 -35.7289 -35.7233
   -35.7221 -35.7213 -35.7203 -35.7110 -35.7070 -35.7001 -35.6965 -35.6873
   -35.6865 -35.6864 -35.6852 -35.6796 -35.6781 -35.6781 -35.6736 -35.6711
   -35.6706 -35.6705 -35.6655 -35.6628 -35.6626 -35.6619 -35.6606 -35.6545
   -35.6518 -35.6512 -35.6495 -35.6455 -35.6453 -35.6448 -35.6426 -35.6416
   -35.6404 -35.6402 -35.6395 -35.6393 -35.6377 -35.6370 -35.6353 -35.6331
   -35.6320 -35.6317 -35.6305 -35.6304 -35.6265 -35.6197 -35.6188 -35.6136
   -35.6109 -35.6108 -35.6092 -35.6087 -35.6063 -35.6059 -35.6049 -35.6001
   -35.5948 -35.5898 -35.5891 -35.5863 -35.5849 -35.5839 -35.5816 -35.5812
   -35.5805 -35.5786 -35.5773 -35.5749 -35.5729 -35.5724 -35.5699 -35.5694
   -35.5646 -35.5641 -35.5637 -35.5621 -35.5617 -35.5606 -35.5595 -35.5572
   -35.5565 -35.5549 -35.5548 -35.5546 -35.5536 -35.5534 -35.5525 -35.5524
   -35.5506 -35.5487 -35.5482 -35.5438 -35.5433 -35.5388 -35.5387 -35.5372
   -35.5308 -35.5306 -35.5242 -35.5167 -35.5164 -35.5156 -35.5120 -35.5118
   -35.5087 -35.5071 -35.5040 -35.4996 -35.4986 -35.4985 -35.4976 -35.4971
   -35.4951 -35.4939 -35.4906 -35.4899 -35.4895 -35.4867 -35.4840 -35.4817
   -35.4805 -35.4711 -35.4621 -35.4619 -35.4607 -35.4568 -35.4535 -35.4497
   -35.4410 -35.4375 -35.4127 -35.4110 -35.4085 -35.4077 -35.4069 -35.3990
   -35.3973 -35.3905 -35.3875 -35.3868 -35.3853 -35.3836 -35.3823 -35.3814
   -14.1486 -13.9721 -13.8026 -13.6328 -13.2881 -13.2679 -13.1869 -13.1347
   -13.1127 -12.9900 -12.9591 -12.8928 -12.8465 -12.8282 -12.7748 -12.7381
   -12.7002 -12.6995 -12.6926 -12.6196 -12.5815 -12.5617 -12.5379 -12.5060
   -12.4879 -12.4635 -12.4544 -12.4498 -12.4269 -12.4028 -12.3764 -12.3751
   -12.3290 -12.3183 -12.3016 -12.2841 -12.2628 -12.1952 -12.1461 -12.1451
   -12.1380 -12.0720 -12.0129 -11.8802 -11.8572 -11.8234 -11.7878 -11.7494
   -11.7364 -11.7210 -11.6871 -11.6614 -11.6290 -11.6227 -11.6222 -11.5839
   -11.5737 -11.5405 -11.5126 -11.4826 -11.4569 -11.4364 -11.3916 -11.3899
   -11.3873 -11.3694 -11.3546 -11.3303 -11.2987 -11.2709 -11.1236 -11.0859
    -5.1105  -5.0640  -4.8797  -4.8459  -4.5992  -4.4795  -4.4438  -4.4071
    -4.3174  -4.2479  -4.1907  -4.1876  -4.0805  -4.0789  -4.0529  -4.0473
    -3.9730  -3.9566  -3.9385  -3.9343  -3.9222  -3.8667  -3.8272  -3.7876
    -3.7405  -3.7212  -3.7133  -3.6926  -3.6673  -3.6561  -3.6312  -3.6076
    -3.5761  -3.5451  -3.5302  -3.4084  -3.4037  -3.3813  -3.3811  -3.3713
    -3.3618  -3.3173  -3.2914  -3.2760  -3.2575  -3.2490  -3.1516  -3.1172
    -3.1072  -3.0964  -3.0724  -3.0385  -3.0335  -3.0113  -2.9795  -2.9638
    -2.9030  -2.8710  -2.7917  -2.7882  -2.7801  -2.7381  -2.7269  -2.7200
    -2.6994  -2.6320  -2.6213  -2.5969  -2.5880  -2.5645  -2.5520  -2.5358
    -2.5204  -2.5189  -2.4882  -2.4604  -2.4604  -2.4562  -2.4390  -2.4317
    -2.4278  -2.4255  -2.4088  -2.4050  -2.3675  -2.3627  -2.3525  -2.3492
    -2.2935  -2.2926  -2.2766  -2.2721  -2.2292  -2.2089  -2.2042  -2.1944
    -2.1934  -2.1727  -2.1649  -2.1547  -2.1461  -2.1211  -2.1090  -2.1029
    -2.0813  -2.0775  -2.0550  -2.0532  -2.0446  -2.0442  -1.9984  -1.9910
    -1.9864  -1.9753  -1.9628  -1.9508  -1.9001  -1.8995  -1.8862  -1.8776
    -1.8374  -1.7602  -1.7400  -1.7390  -1.7081  -1.7066  -1.6777  -1.6679
    -1.6403  -1.6324  -1.6317  -1.6221  -1.5961  -1.5864  -1.5782  -1.5773
    -1.5757  -1.5688  -1.5281  -1.5280  -1.5238  -1.4772  -1.4732  -1.4659
    -1.4606  -1.4567  -1.4347  -1.4251  -1.3886  -1.3872  -1.3739  -1.3563
    -1.3418  -1.3313  -1.3238  -1.3156  -1.3066  -1.3028  -1.2772  -1.2746
    -1.2665  -1.2205  -1.1834  -1.1762  -1.1724  -1.1690  -1.1688  -1.1572
    -1.1161  -1.1136  -1.0981  -1.0922  -1.0792  -1.0023  -1.0013  -1.0007
    -0.9914  -0.9896  -0.9387  -0.9377  -0.9069  -0.9007  -0.8881  -0.8803
    -0.8650  -0.8602  -0.8284  -0.8262  -0.7984  -0.7965  -0.7956  -0.7567
    -0.6650  -0.6457  -0.6184  -0.6098  -0.5953  -0.5936  -0.5611  -0.5436
    -0.5140  -0.4966  -0.4833  -0.4722  -0.4398  -0.3260  -0.3088  -0.2422
    -0.1786  -0.1481  -0.1343   0.0141   0.0687   0.1275   0.3098   0.5254
     0.8874   0.9228   1.0084   1.1708   1.1834   1.3636   1.3763   1.4297
     1.5763   1.5930   1.6650   1.7280   1.8493   1.8879   1.8921   1.9461
     1.9925   2.0016   2.0167   2.1849   2.1988   2.2204   2.2321   2.2361
     2.3357   2.3590   2.3807   2.4624   2.4869   2.5235   2.5328   2.5778
     2.5909   2.6141   2.6198   2.6475   2.7301   2.7587   2.7844   2.7880
     2.8333   2.8472   2.8571   2.8609   2.8691   2.8919   2.9412   2.9752
     2.9832   2.9847   3.0416   3.0586   3.0768   3.1381   3.1398   3.1630
     3.1818   3.2219   3.2297   3.2401   3.2475   3.2922   3.3046   3.3558
     3.3591   3.3730   3.3763   3.3902   3.4246   3.4435   3.4538   3.4957
     3.5022   3.5093   3.5279   3.5371   3.5410   3.6034   3.6104   3.6305
     3.6337   3.6381   3.6739   3.6789   3.7147   3.7165   3.7357   3.7393
     3.7597   3.8016   3.8206   3.8257   3.8278   3.8362   3.8401   3.8717
     3.8721   3.8760   3.9116   3.9255   3.9379   3.9480   3.9581   3.9590
     3.9754   3.9827   4.0070   4.0151   4.0190   4.0521   4.0528   4.0716
     4.0742   4.0808   4.0820   4.0936   4.0966   4.0971   4.1092   4.1116
     4.1344   4.1395   4.1399   4.1410   4.1562   4.1575   4.1576   4.1597
     4.1641   4.1700   4.1852   4.1946   4.2020   4.2091   4.2164   4.2333
     4.2358   4.2398   4.2442   4.2585   4.2666   4.2773   4.2814   4.2879
     4.2975   4.3107   4.3113   4.3160   4.4078   4.4108   4.4244   4.4422
     4.4445   4.4553   4.4626   4.4662   4.4667   4.4872   4.4970   4.5103
     4.5296   4.5359   4.5557   4.5703   4.5812   4.5846   4.6035   4.6048
     4.6167   4.6543   4.6547   4.6562   4.6826   4.6841   4.6874   4.6892
     4.6913   4.6960   4.6989   4.7077   4.7148   4.7324   4.7340   4.7386
     4.7414   4.7473   4.7482   4.7503   4.7510   4.7702   4.7706   4.7739
     4.8077   4.8081   4.8149   4.8151   4.8191   4.8230   4.8278   4.8341
     4.8408   4.8417

     occupation numbers 
     1.0000   1.0000   1.0000   1.0000   1.0000   1.0000   1.0000   1.0000
     1.0000   1.0000   1.0000   1.0000   1.0000   1.0000   1.0000   1.0000
     1.0000   1.0000   1.0000   1.0000   1.0000   1.0000   1.0000   1.0000
     1.0000   1.0000   1.0000   1.0000   1.0000   1.0000   1.0000   1.0000
     1.0000   1.0000   1.0000   1.0000   1.0000   1.0000   1.0000   1.0000
     1.0000   1.0000   1.0000   1.0000   1.0000   1.0000   1.0000   1.0000
     1.0000   1.0000   1.0000   1.0000   1.0000   1.0000   1.0000   1.0000
     1.0000   1.0000   1.0000   1.0000   1.0000   1.0000   1.0000   1.0000
     1.0000   1.0000   1.0000   1.0000   1.0000   1.0000   1.0000   1.0000
     1.0000   1.0000   1.0000   1.0000   1.0000   1.0000   1.0000   1.0000
     1.0000   1.0000   1.0000   1.0000   1.0000   1.0000   1.0000   1.0000
     1.0000   1.0000   1.0000   1.0000   1.0000   1.0000   1.0000   1.0000
     1.0000   1.0000   1.0000   1.0000   1.0000   1.0000   1.0000   1.0000
     1.0000   1.0000   1.0000   1.0000   1.0000   1.0000   1.0000   1.0000
     1.0000   1.0000   1.0000   1.0000   1.0000   1.0000   1.0000   1.0000
     1.0000   1.0000   1.0000   1.0000   1.0000   1.0000   1.0000   1.0000
     1.0000   1.0000   1.0000   1.0000   1.0000   1.0000   1.0000   1.0000
     1.0000   1.0000   1.0000   1.0000   1.0000   1.0000   1.0000   1.0000
     1.0000   1.0000   1.0000   1.0000   1.0000   1.0000   1.0000   1.0000
     1.0000   1.0000   1.0000   1.0000   1.0000   1.0000   1.0000   1.0000
     1.0000   1.0000   1.0000   1.0000   1.0000   1.0000   1.0000   1.0000
     1.0000   1.0000   1.0000   1.0000   1.0000   1.0000   1.0000   1.0000
     1.0000   1.0000   1.0000   1.0000   1.0000   1.0000   1.0000   1.0000
     1.0000   1.0000   1.0000   1.0000   1.0000   1.0000   1.0000   1.0000
     1.0000   1.0000   1.0000   1.0000   1.0000   1.0000   1.0000   1.0000
     1.0000   1.0000   1.0000   1.0000   1.0000   1.0000   1.0000   1.0000
     1.0000   1.0000   1.0000   1.0000   1.0000   1.0000   1.0000   1.0000
     1.0000   1.0000   1.0000   1.0000   1.0000   1.0000   1.0000   1.0000
     1.0000   1.0000   1.0000   1.0000   1.0000   1.0000   1.0000   1.0000
     1.0000   1.0000   1.0000   1.0000   1.0000   1.0000   1.0000   1.0000
     1.0000   1.0000   1.0000   1.0000   1.0000   1.0000   1.0000   1.0000
     1.0000   1.0000   1.0000   1.0000   1.0000   1.0000   1.0000   1.0000
     1.0000   1.0000   1.0000   1.0000   1.0000   1.0000   1.0000   1.0000
     1.0000   1.0000   1.0000   1.0000   1.0000   1.0000   1.0000   1.0000
     1.0000   1.0000   1.0000   1.0000   1.0000   1.0000   1.0000   1.0000
     1.0000   1.0000   1.0000   1.0000   1.0000   1.0000   1.0000   1.0000
     1.0000   1.0000   1.0000   1.0000   1.0000   1.0000   1.0000   1.0000
     1.0000   1.0000   1.0000   1.0000   1.0000   1.0000   1.0000   1.0000
     1.0000   1.0000   1.0000   1.0000   1.0000   1.0000   1.0000   1.0000
     1.0000   1.0000   1.0000   1.0000   1.0000   1.0000   1.0000   1.0000
     1.0000   1.0000   1.0000   1.0000   1.0000   1.0000   1.0000   1.0000
     1.0000   1.0000   1.0000   1.0000   1.0000   1.0000   1.0000   1.0000
     1.0000   1.0000   1.0000   1.0000   1.0000   1.0000   1.0000   1.0000
     1.0000   1.0000   1.0000   1.0000   1.0000   1.0000   1.0000   1.0000
     1.0000   1.0000   1.0000   1.0000   1.0000   1.0000   1.0000   1.0000
     1.0000   1.0000   1.0000   1.0000   1.0000   1.0000   1.0000   1.0000
     1.0000   1.0000   1.0000   1.0000   1.0000   1.0000   1.0000   1.0000
     1.0000   1.0000   1.0000   1.0000   1.0000   1.0000   1.0000   1.0000
     1.0000   1.0000   1.0000   1.0000   1.0000   1.0000   1.0000   1.0000
     1.0000   1.0000   1.0000   1.0000   1.0000   1.0000   1.0000   1.0000
     1.0000   1.0000   1.0000   1.0000   1.0000   1.0000   1.0000   1.0000
     1.0000   1.0000   1.0000   1.0000   1.0000   1.0000   1.0000   1.0000
     1.0000   1.0000   1.0000   1.0000   1.0000   1.0000   1.0000   1.0000
     1.0000   1.0000   1.0000   1.0000   1.0000   1.0000   1.0000   1.0000
     1.0000   1.0000   1.0000   1.0000   1.0000   1.0000   1.0000   1.0000
     1.0000   1.0000   1.0000   1.0000   1.0000   1.0000   1.0000   1.0000
     1.0000   1.0000   1.0000   1.0000   1.0000   1.0000   1.0000   1.0000
     1.0000   1.0000   1.0000   1.0000   1.0000   1.0000   1.0000   1.0000
     1.0000   1.0000   1.0000   1.0000   1.0000   1.0000   1.0000   1.0000
     1.0000   1.0000   1.0000   1.0000   1.0000   1.0000   1.0000   1.0000
     1.0000   1.0000   1.0000   1.0000   1.0000   1.0000   1.0000   1.0000
     1.0000   1.0000   1.0000   1.0000   1.0000   1.0000   1.0000   1.0000
     1.0000   1.0000   1.0000   1.0000   1.0000   1.0000   1.0000   1.0000
     1.0000   1.0000   1.0000   1.0000   1.0000   1.0000   1.0000   1.0000
     1.0000   1.0000   1.0000   1.0000   1.0000   1.0000   1.0000   1.0000
     1.0000   1.0000   1.0000   1.0000   1.0000   1.0000   1.0000   1.0000
     1.0000   1.0000   1.0000   1.0000   1.0000   1.0000   1.0000   1.0000
     1.0000   1.0000   1.0000   1.0000   1.0000   1.0000   1.0000   1.0000
     1.0000   1.0000   1.0000   1.0000   1.0000   1.0000   1.0000   1.0000
     1.0000   1.0000   1.0000   1.0000   1.0000   1.0000   1.0000   1.0000
     1.0000   1.0000   1.0000   1.0000   1.0000   1.0000   1.0000   1.0000
     1.0000   1.0000   1.0000   1.0000   1.0000   1.0000   1.0000   1.0000
     1.0000   1.0000   1.0000   1.0000   1.0000   1.0000   1.0000   1.0000
     1.0000   1.0000   1.0000   1.0000   1.0000   1.0000   1.0000   1.0000
     1.0000   1.0000   1.0000   1.0000   1.0000   1.0000   1.0000   1.0000
     1.0000   1.0000   1.0000   1.0000   1.0000   1.0000   1.0000   1.0000
     1.0000   1.0000   1.0000   1.0000   1.0001   1.0002   1.0003   1.0004
     1.0011   1.0015   1.0018   1.0020   1.0023   1.0037   1.0090   1.0155
     1.0175   1.0179   1.0370   1.0442   1.0525   1.0779   1.0784   1.0829
     1.0826   1.0650   1.0583   1.0474   1.0384   0.9581   0.9280   0.7738
     0.7628   0.7137   0.7021   0.6514   0.5250   0.4570   0.4211   0.2890
     0.2707   0.2518   0.2058   0.1851   0.1769   0.0777   0.0700   0.0514
     0.0489   0.0455   0.0248   0.0227   0.0116   0.0111   0.0076   0.0070
     0.0045   0.0017   0.0011   0.0010   0.0009   0.0007   0.0007   0.0003
     0.0003   0.0003   0.0001   0.0001   0.0000   0.0000   0.0000   0.0000
     0.0000   0.0000   0.0000   0.0000   0.0000   0.0000   0.0000   0.0000
     0.0000   0.0000   0.0000   0.0000   0.0000   0.0000   0.0000   0.0000
     0.0000   0.0000   0.0000   0.0000   0.0000   0.0000   0.0000   0.0000
     0.0000   0.0000   0.0000   0.0000   0.0000   0.0000   0.0000   0.0000
     0.0000   0.0000   0.0000   0.0000   0.0000   0.0000   0.0000   0.0000
     0.0000   0.0000   0.0000   0.0000   0.0000   0.0000   0.0000   0.0000
     0.0000   0.0000   0.0000   0.0000   0.0000   0.0000   0.0000   0.0000
     0.0000   0.0000   0.0000   0.0000   0.0000   0.0000   0.0000   0.0000
     0.0000   0.0000   0.0000   0.0000   0.0000   0.0000   0.0000   0.0000
     0.0000   0.0000   0.0000   0.0000   0.0000   0.0000   0.0000   0.0000
     0.0000   0.0000   0.0000   0.0000   0.0000   0.0000   0.0000   0.0000
     0.0000   0.0000   0.0000   0.0000   0.0000   0.0000   0.0000   0.0000
     0.0000   0.0000

          k = 0.2500-0.5000 0.0000 (207926 PWs)   bands (ev):

   -61.8708 -61.8708 -61.8616 -61.8616 -61.8465 -61.8464 -61.8390 -61.8390
   -61.8372 -61.8371 -61.8351 -61.8351 -61.8305 -61.8305 -61.8184 -61.8184
   -61.8123 -61.8122 -61.8008 -61.8007 -61.7958 -61.7956 -61.7926 -61.7925
   -61.7884 -61.7881 -61.7862 -61.7861 -61.7847 -61.7846 -61.7835 -61.7834
   -61.7834 -61.7833 -61.7793 -61.7791 -61.7703 -61.7701 -61.7667 -61.7665
   -61.7644 -61.7642 -61.7586 -61.7585 -61.7554 -61.7554 -61.7519 -61.7518
   -61.7486 -61.7484 -61.7355 -61.7354 -61.7295 -61.7294 -61.6899 -61.6896
   -61.6892 -61.6891 -61.6886 -61.6884 -61.6858 -61.6857 -61.6854 -61.6853
   -61.6821 -61.6819 -61.6804 -61.6802 -61.6727 -61.6725 -61.6667 -61.6665
   -35.9820 -35.9820 -35.9667 -35.9667 -35.9353 -35.9353 -35.9280 -35.9280
   -35.9236 -35.9236 -35.9167 -35.9167 -35.9141 -35.9141 -35.9082 -35.9082
   -35.8933 -35.8933 -35.8886 -35.8885 -35.8792 -35.8792 -35.8789 -35.8788
   -35.8657 -35.8657 -35.8603 -35.8603 -35.8601 -35.8601 -35.8592 -35.8592
   -35.8569 -35.8568 -35.8450 -35.8449 -35.8433 -35.8433 -35.8403 -35.8403
   -35.8384 -35.8384 -35.8372 -35.8372 -35.8361 -35.8361 -35.8315 -35.8315
   -35.8199 -35.8199 -35.8155 -35.8154 -35.8139 -35.8138 -35.7938 -35.7938
   -35.7901 -35.7901 -35.7754 -35.7753 -35.7688 -35.7688 -35.7615 -35.7614
   -35.7564 -35.7563 -35.7515 -35.7515 -35.7335 -35.7335 -35.7291 -35.7290
   -35.7186 -35.7186 -35.7082 -35.7082 -35.7040 -35.7040 -35.6982 -35.6982
   -35.6861 -35.6860 -35.6807 -35.6807 -35.6740 -35.6740 -35.6725 -35.6725
   -35.6686 -35.6686 -35.6639 -35.6639 -35.6596 -35.6596 -35.6593 -35.6593
   -35.6579 -35.6578 -35.6481 -35.6481 -35.6473 -35.6473 -35.6444 -35.6444
   -35.6412 -35.6411 -35.6382 -35.6382 -35.6327 -35.6327 -35.6318 -35.6317
   -35.6277 -35.6277 -35.6275 -35.6274 -35.6240 -35.6239 -35.6228 -35.6228
   -35.6212 -35.6212 -35.6106 -35.6105 -35.6015 -35.6015 -35.5984 -35.5984
   -35.5978 -35.5978 -35.5844 -35.5842 -35.5815 -35.5815 -35.5794 -35.5794
   -35.5766 -35.5763 -35.5760 -35.5758 -35.5758 -35.5758 -35.5719 -35.5719
   -35.5718 -35.5717 -35.5630 -35.5628 -35.5611 -35.5609 -35.5564 -35.5564
   -35.5558 -35.5557 -35.5543 -35.5542 -35.5529 -35.5527 -35.5515 -35.5514
   -35.5463 -35.5462 -35.5460 -35.5460 -35.5419 -35.5419 -35.5361 -35.5360
   -35.5337 -35.5336 -35.5238 -35.5237 -35.5120 -35.5120 -35.5085 -35.5084
   -35.5030 -35.5029 -35.5024 -35.5024 -35.5021 -35.5021 -35.4985 -35.4985
   -35.4926 -35.4926 -35.4924 -35.4923 -35.4884 -35.4883 -35.4860 -35.4859
   -35.4768 -35.4768 -35.4586 -35.4586 -35.4568 -35.4566 -35.4563 -35.4563
   -35.4397 -35.4396 -35.4109 -35.4107 -35.4093 -35.4092 -35.4018 -35.4017
   -35.3926 -35.3925 -35.3878 -35.3876 -35.3845 -35.3844 -35.3825 -35.3823
   -14.0697 -14.0697 -13.7267 -13.7267 -13.2191 -13.2191 -13.1983 -13.1983
   -13.0653 -13.0653 -12.9252 -12.9252 -12.7840 -12.7840 -12.7701 -12.7700
   -12.7548 -12.7547 -12.6610 -12.6609 -12.5362 -12.5362 -12.5275 -12.5275
   -12.4718 -12.4717 -12.4305 -12.4304 -12.4170 -12.4170 -12.3904 -12.3903
   -12.3411 -12.3411 -12.2848 -12.2848 -12.2217 -12.2216 -12.1394 -12.1393
   -12.1351 -12.1351 -11.9531 -11.9531 -11.8082 -11.8081 -11.7651 -11.7651
   -11.7631 -11.7630 -11.6566 -11.6565 -11.6211 -11.6210 -11.5762 -11.5762
   -11.5742 -11.5742 -11.5125 -11.5125 -11.4602 -11.4601 -11.3636 -11.3636
   -11.3627 -11.3626 -11.3464 -11.3463 -11.3117 -11.3117 -11.0959 -11.0959
    -5.1084  -5.1084  -4.8811  -4.8811  -4.5600  -4.5600  -4.3792  -4.3792
    -4.3041  -4.3040  -4.0964  -4.0964  -4.0409  -4.0409  -4.0321  -4.0321
    -4.0215  -4.0215  -3.9572  -3.9572  -3.8784  -3.8784  -3.7989  -3.7988
    -3.7763  -3.7763  -3.7757  -3.7757  -3.6768  -3.6767  -3.5581  -3.5581
    -3.5314  -3.5314  -3.5208  -3.5207  -3.4387  -3.4387  -3.3277  -3.3277
    -3.3160  -3.3160  -3.2291  -3.2291  -3.2266  -3.2266  -3.1933  -3.1933
    -3.1403  -3.1403  -3.0358  -3.0358  -3.0274  -3.0273  -2.9944  -2.9944
    -2.8615  -2.8615  -2.8266  -2.8266  -2.7679  -2.7679  -2.7264  -2.7264
    -2.6961  -2.6961  -2.5908  -2.5908  -2.5749  -2.5749  -2.5465  -2.5465
    -2.5369  -2.5369  -2.4792  -2.4791  -2.4577  -2.4577  -2.4314  -2.4314
    -2.3733  -2.3733  -2.3693  -2.3693  -2.3559  -2.3559  -2.3450  -2.3450
    -2.3134  -2.3134  -2.2475  -2.2475  -2.2427  -2.2427  -2.2367  -2.2367
    -2.2036  -2.2036  -2.1763  -2.1763  -2.1530  -2.1529  -2.1394  -2.1394
    -2.0762  -2.0762  -2.0736  -2.0736  -2.0495  -2.0495  -2.0309  -2.0309
    -1.9911  -1.9911  -1.9260  -1.9260  -1.8979  -1.8979  -1.8859  -1.8859
    -1.7117  -1.7117  -1.6936  -1.6936  -1.6810  -1.6810  -1.6412  -1.6412
    -1.6374  -1.6374  -1.6326  -1.6325  -1.6314  -1.6314  -1.5270  -1.5270
    -1.5257  -1.5257  -1.5103  -1.5102  -1.4843  -1.4843  -1.4842  -1.4842
    -1.4420  -1.4420  -1.4147  -1.4147  -1.3433  -1.3432  -1.3400  -1.3400
    -1.3199  -1.3199  -1.3192  -1.3192  -1.3082  -1.3082  -1.3025  -1.3025
    -1.2787  -1.2787  -1.2520  -1.2520  -1.1888  -1.1888  -1.1275  -1.1275
    -1.0933  -1.0933  -1.0826  -1.0826  -1.0308  -1.0308  -0.9999  -0.9999
    -0.9984  -0.9984  -0.9962  -0.9962  -0.9768  -0.9767  -0.8381  -0.8380
    -0.8279  -0.8279  -0.7835  -0.7834  -0.7316  -0.7316  -0.7315  -0.7315
    -0.7073  -0.7072  -0.6691  -0.6691  -0.6282  -0.6282  -0.6196  -0.6196
    -0.4571  -0.4570  -0.4250  -0.4249  -0.3892  -0.3892  -0.3255  -0.3254
    -0.1538  -0.1538  -0.0556  -0.0555   0.0736   0.0736   0.2759   0.2759
     0.9005   0.9005   1.2744   1.2744   1.4132   1.4132   1.4462   1.4462
     1.4757   1.4758   1.6246   1.6246   1.6441   1.6441   1.9971   1.9972
     2.0273   2.0273   2.0464   2.0464   2.1660   2.1661   2.2981   2.2981
     2.3074   2.3074   2.4547   2.4548   2.4617   2.4618   2.5074   2.5075
     2.6091   2.6091   2.6990   2.6990   2.7138   2.7138   2.7574   2.7574
     2.7889   2.7890   2.8151   2.8152   2.8179   2.8179   2.9534   2.9535
     3.0289   3.0290   3.0454   3.0454   3.0543   3.0543   3.1632   3.1633
     3.1914   3.1914   3.2209   3.2209   3.2577   3.2578   3.3050   3.3050
     3.4168   3.4169   3.4303   3.4304   3.4351   3.4352   3.4552   3.4552
     3.5313   3.5313   3.6054   3.6054   3.6186   3.6186   3.6473   3.6473
     3.6499   3.6499   3.6694   3.6695   3.7243   3.7243   3.7822   3.7823
     3.8076   3.8076   3.8397   3.8397   3.8720   3.8720   3.8895   3.8896
     3.9072   3.9072   3.9259   3.9260   3.9357   3.9357   3.9486   3.9487
     3.9974   3.9974   4.0019   4.0020   4.0265   4.0265   4.0337   4.0337
     4.0683   4.0684   4.0690   4.0690   4.0893   4.0894   4.0897   4.0898
     4.1147   4.1149   4.1189   4.1189   4.1215   4.1215   4.1296   4.1297
     4.1628   4.1628   4.1813   4.1813   4.1906   4.1907   4.2165   4.2165
     4.2250   4.2251   4.2534   4.2535   4.2770   4.2776   4.2778   4.2779
     4.2929   4.2930   4.4320   4.4322   4.4475   4.4475   4.4502   4.4502
     4.4560   4.4560   4.4686   4.4687   4.4756   4.4756   4.5127   4.5127
     4.5693   4.5693   4.5964   4.5964   4.5993   4.5994   4.6022   4.6022
     4.6102   4.6102   4.6384   4.6386   4.6403   4.6405   4.6934   4.6936
     4.7153   4.7154   4.7193   4.7194   4.7324   4.7325   4.7361   4.7365
     4.7648   4.7648   4.7709   4.7713   4.7750   4.7753   4.7887   4.7889
     4.7892   4.7895   4.7905   4.7907   4.8221   4.8223   4.8373   4.8375
     4.8451   4.8454

     occupation numbers 
     1.0000   1.0000   1.0000   1.0000   1.0000   1.0000   1.0000   1.0000
     1.0000   1.0000   1.0000   1.0000   1.0000   1.0000   1.0000   1.0000
     1.0000   1.0000   1.0000   1.0000   1.0000   1.0000   1.0000   1.0000
     1.0000   1.0000   1.0000   1.0000   1.0000   1.0000   1.0000   1.0000
     1.0000   1.0000   1.0000   1.0000   1.0000   1.0000   1.0000   1.0000
     1.0000   1.0000   1.0000   1.0000   1.0000   1.0000   1.0000   1.0000
     1.0000   1.0000   1.0000   1.0000   1.0000   1.0000   1.0000   1.0000
     1.0000   1.0000   1.0000   1.0000   1.0000   1.0000   1.0000   1.0000
     1.0000   1.0000   1.0000   1.0000   1.0000   1.0000   1.0000   1.0000
     1.0000   1.0000   1.0000   1.0000   1.0000   1.0000   1.0000   1.0000
     1.0000   1.0000   1.0000   1.0000   1.0000   1.0000   1.0000   1.0000
     1.0000   1.0000   1.0000   1.0000   1.0000   1.0000   1.0000   1.0000
     1.0000   1.0000   1.0000   1.0000   1.0000   1.0000   1.0000   1.0000
     1.0000   1.0000   1.0000   1.0000   1.0000   1.0000   1.0000   1.0000
     1.0000   1.0000   1.0000   1.0000   1.0000   1.0000   1.0000   1.0000
     1.0000   1.0000   1.0000   1.0000   1.0000   1.0000   1.0000   1.0000
     1.0000   1.0000   1.0000   1.0000   1.0000   1.0000   1.0000   1.0000
     1.0000   1.0000   1.0000   1.0000   1.0000   1.0000   1.0000   1.0000
     1.0000   1.0000   1.0000   1.0000   1.0000   1.0000   1.0000   1.0000
     1.0000   1.0000   1.0000   1.0000   1.0000   1.0000   1.0000   1.0000
     1.0000   1.0000   1.0000   1.0000   1.0000   1.0000   1.0000   1.0000
     1.0000   1.0000   1.0000   1.0000   1.0000   1.0000   1.0000   1.0000
     1.0000   1.0000   1.0000   1.0000   1.0000   1.0000   1.0000   1.0000
     1.0000   1.0000   1.0000   1.0000   1.0000   1.0000   1.0000   1.0000
     1.0000   1.0000   1.0000   1.0000   1.0000   1.0000   1.0000   1.0000
     1.0000   1.0000   1.0000   1.0000   1.0000   1.0000   1.0000   1.0000
     1.0000   1.0000   1.0000   1.0000   1.0000   1.0000   1.0000   1.0000
     1.0000   1.0000   1.0000   1.0000   1.0000   1.0000   1.0000   1.0000
     1.0000   1.0000   1.0000   1.0000   1.0000   1.0000   1.0000   1.0000
     1.0000   1.0000   1.0000   1.0000   1.0000   1.0000   1.0000   1.0000
     1.0000   1.0000   1.0000   1.0000   1.0000   1.0000   1.0000   1.0000
     1.0000   1.0000   1.0000   1.0000   1.0000   1.0000   1.0000   1.0000
     1.0000   1.0000   1.0000   1.0000   1.0000   1.0000   1.0000   1.0000
     1.0000   1.0000   1.0000   1.0000   1.0000   1.0000   1.0000   1.0000
     1.0000   1.0000   1.0000   1.0000   1.0000   1.0000   1.0000   1.0000
     1.0000   1.0000   1.0000   1.0000   1.0000   1.0000   1.0000   1.0000
     1.0000   1.0000   1.0000   1.0000   1.0000   1.0000   1.0000   1.0000
     1.0000   1.0000   1.0000   1.0000   1.0000   1.0000   1.0000   1.0000
     1.0000   1.0000   1.0000   1.0000   1.0000   1.0000   1.0000   1.0000
     1.0000   1.0000   1.0000   1.0000   1.0000   1.0000   1.0000   1.0000
     1.0000   1.0000   1.0000   1.0000   1.0000   1.0000   1.0000   1.0000
     1.0000   1.0000   1.0000   1.0000   1.0000   1.0000   1.0000   1.0000
     1.0000   1.0000   1.0000   1.0000   1.0000   1.0000   1.0000   1.0000
     1.0000   1.0000   1.0000   1.0000   1.0000   1.0000   1.0000   1.0000
     1.0000   1.0000   1.0000   1.0000   1.0000   1.0000   1.0000   1.0000
     1.0000   1.0000   1.0000   1.0000   1.0000   1.0000   1.0000   1.0000
     1.0000   1.0000   1.0000   1.0000   1.0000   1.0000   1.0000   1.0000
     1.0000   1.0000   1.0000   1.0000   1.0000   1.0000   1.0000   1.0000
     1.0000   1.0000   1.0000   1.0000   1.0000   1.0000   1.0000   1.0000
     1.0000   1.0000   1.0000   1.0000   1.0000   1.0000   1.0000   1.0000
     1.0000   1.0000   1.0000   1.0000   1.0000   1.0000   1.0000   1.0000
     1.0000   1.0000   1.0000   1.0000   1.0000   1.0000   1.0000   1.0000
     1.0000   1.0000   1.0000   1.0000   1.0000   1.0000   1.0000   1.0000
     1.0000   1.0000   1.0000   1.0000   1.0000   1.0000   1.0000   1.0000
     1.0000   1.0000   1.0000   1.0000   1.0000   1.0000   1.0000   1.0000
     1.0000   1.0000   1.0000   1.0000   1.0000   1.0000   1.0000   1.0000
     1.0000   1.0000   1.0000   1.0000   1.0000   1.0000   1.0000   1.0000
     1.0000   1.0000   1.0000   1.0000   1.0000   1.0000   1.0000   1.0000
     1.0000   1.0000   1.0000   1.0000   1.0000   1.0000   1.0000   1.0000
     1.0000   1.0000   1.0000   1.0000   1.0000   1.0000   1.0000   1.0000
     1.0000   1.0000   1.0000   1.0000   1.0000   1.0000   1.0000   1.0000
     1.0000   1.0000   1.0000   1.0000   1.0000   1.0000   1.0000   1.0000
     1.0000   1.0000   1.0000   1.0000   1.0000   1.0000   1.0000   1.0000
     1.0000   1.0000   1.0000   1.0000   1.0000   1.0000   1.0000   1.0000
     1.0000   1.0000   1.0000   1.0000   1.0000   1.0000   1.0000   1.0000
     1.0000   1.0000   1.0000   1.0000   1.0000   1.0000   1.0000   1.0000
     1.0000   1.0000   1.0000   1.0000   1.0000   1.0000   1.0000   1.0000
     1.0000   1.0000   1.0000   1.0000   1.0000   1.0000   1.0000   1.0000
     1.0000   1.0000   1.0000   1.0000   1.0000   1.0000   1.0000   1.0000
     1.0000   1.0000   1.0000   1.0000   1.0000   1.0000   1.0000   1.0000
     1.0000   1.0000   1.0000   1.0000   1.0000   1.0000   1.0000   1.0000
     1.0000   1.0000   1.0000   1.0000   1.0000   1.0000   1.0000   1.0000
     1.0000   1.0000   1.0000   1.0000   1.0000   1.0000   1.0000   1.0000
     1.0000   1.0000   1.0000   1.0000   1.0000   1.0000   1.0000   1.0000
     1.0000   1.0000   1.0000   1.0000   1.0000   1.0000   1.0000   1.0000
     1.0000   1.0000   1.0000   1.0000   1.0000   1.0000   1.0000   1.0000
     1.0000   1.0000   1.0000   1.0000   1.0001   1.0001   1.0002   1.0002
     1.0004   1.0004   1.0007   1.0007   1.0008   1.0008   1.0111   1.0111
     1.0320   1.0320   1.0386   1.0386   1.0423   1.0424   1.0830   1.0830
     1.0808   1.0807   1.0658   1.0658   1.0238   1.0238   0.9271   0.9271
     0.5535   0.5532   0.5040   0.5039   0.4867   0.4866   0.4164   0.4163
     0.1979   0.1979   0.0754   0.0753   0.0619   0.0618   0.0391   0.0391
     0.0375   0.0375   0.0268   0.0268   0.0095   0.0095   0.0027   0.0027
     0.0015   0.0015   0.0007   0.0007   0.0003   0.0003   0.0002   0.0002
     0.0001   0.0001   0.0001   0.0001   0.0000   0.0000   0.0000   0.0000
     0.0000   0.0000   0.0000   0.0000   0.0000   0.0000   0.0000   0.0000
     0.0000   0.0000   0.0000   0.0000   0.0000   0.0000   0.0000   0.0000
     0.0000   0.0000   0.0000   0.0000   0.0000   0.0000   0.0000   0.0000
     0.0000   0.0000   0.0000   0.0000   0.0000   0.0000   0.0000   0.0000
     0.0000   0.0000   0.0000   0.0000   0.0000   0.0000   0.0000   0.0000
     0.0000   0.0000   0.0000   0.0000   0.0000   0.0000   0.0000   0.0000
     0.0000   0.0000   0.0000   0.0000   0.0000   0.0000   0.0000   0.0000
     0.0000   0.0000   0.0000   0.0000   0.0000   0.0000   0.0000   0.0000
     0.0000   0.0000   0.0000   0.0000   0.0000   0.0000   0.0000   0.0000
     0.0000   0.0000   0.0000   0.0000   0.0000   0.0000   0.0000   0.0000
     0.0000   0.0000   0.0000   0.0000   0.0000   0.0000   0.0000   0.0000
     0.0000   0.0000   0.0000   0.0000   0.0000   0.0000   0.0000   0.0000
     0.0000   0.0000

          k = 0.3750 0.3750 0.0000 (207994 PWs)   bands (ev):

   -61.8714 -61.8666 -61.8665 -61.8623 -61.8431 -61.8430 -61.8415 -61.8415
   -61.8355 -61.8345 -61.8344 -61.8344 -61.8340 -61.8340 -61.8178 -61.8151
   -61.8150 -61.8117 -61.8012 -61.7984 -61.7982 -61.7961 -61.7932 -61.7886
   -61.7886 -61.7866 -61.7865 -61.7862 -61.7860 -61.7859 -61.7858 -61.7841
   -61.7823 -61.7820 -61.7812 -61.7810 -61.7698 -61.7672 -61.7669 -61.7639
   -61.7629 -61.7629 -61.7607 -61.7606 -61.7533 -61.7531 -61.7523 -61.7523
   -61.7522 -61.7509 -61.7348 -61.7324 -61.7323 -61.7290 -61.6899 -61.6896
   -61.6894 -61.6891 -61.6890 -61.6887 -61.6855 -61.6853 -61.6842 -61.6839
   -61.6831 -61.6829 -61.6811 -61.6809 -61.6724 -61.6695 -61.6693 -61.6662
   -35.9865 -35.9838 -35.9711 -35.9689 -35.9324 -35.9274 -35.9252 -35.9252
   -35.9235 -35.9235 -35.9105 -35.9088 -35.9087 -35.9036 -35.9036 -35.8972
   -35.8961 -35.8960 -35.8902 -35.8902 -35.8879 -35.8878 -35.8835 -35.8801
   -35.8694 -35.8693 -35.8685 -35.8653 -35.8640 -35.8640 -35.8616 -35.8615
   -35.8612 -35.8570 -35.8499 -35.8491 -35.8490 -35.8471 -35.8438 -35.8437
   -35.8396 -35.8371 -35.8369 -35.8325 -35.8307 -35.8306 -35.8172 -35.8172
   -35.8156 -35.8155 -35.8153 -35.8150 -35.8149 -35.7950 -35.7949 -35.7939
   -35.7939 -35.7889 -35.7888 -35.7859 -35.7859 -35.7705 -35.7705 -35.7615
   -35.7532 -35.7521 -35.7485 -35.7484 -35.7311 -35.7299 -35.7244 -35.7244
   -35.7135 -35.7135 -35.7109 -35.7107 -35.7074 -35.6976 -35.6954 -35.6954
   -35.6847 -35.6820 -35.6819 -35.6786 -35.6785 -35.6753 -35.6751 -35.6698
   -35.6698 -35.6691 -35.6681 -35.6680 -35.6677 -35.6676 -35.6579 -35.6550
   -35.6541 -35.6540 -35.6537 -35.6537 -35.6528 -35.6527 -35.6512 -35.6427
   -35.6396 -35.6369 -35.6369 -35.6342 -35.6331 -35.6330 -35.6322 -35.6301
   -35.6283 -35.6267 -35.6219 -35.6217 -35.6217 -35.6216 -35.6210 -35.6209
   -35.6181 -35.6063 -35.6062 -35.6014 -35.6014 -35.5997 -35.5972 -35.5970
   -35.5968 -35.5944 -35.5942 -35.5895 -35.5878 -35.5877 -35.5872 -35.5871
   -35.5850 -35.5827 -35.5808 -35.5805 -35.5791 -35.5776 -35.5758 -35.5732
   -35.5711 -35.5709 -35.5631 -35.5601 -35.5599 -35.5575 -35.5573 -35.5566
   -35.5564 -35.5557 -35.5556 -35.5553 -35.5544 -35.5543 -35.5522 -35.5442
   -35.5440 -35.5413 -35.5409 -35.5408 -35.5373 -35.5372 -35.5371 -35.5335
   -35.5294 -35.5239 -35.5238 -35.5228 -35.5165 -35.5165 -35.5075 -35.5075
   -35.5064 -35.5047 -35.5024 -35.5024 -35.5018 -35.5017 -35.4970 -35.4970
   -35.4947 -35.4945 -35.4937 -35.4931 -35.4930 -35.4878 -35.4864 -35.4863
   -35.4835 -35.4770 -35.4589 -35.4572 -35.4571 -35.4551 -35.4529 -35.4484
   -35.4481 -35.4423 -35.4125 -35.4104 -35.4046 -35.4045 -35.4006 -35.4004
   -35.3943 -35.3942 -35.3893 -35.3891 -35.3854 -35.3831 -35.3825 -35.3824
   -14.0910 -13.9156 -13.9156 -13.7435 -13.2375 -13.1370 -13.1370 -13.0855
   -13.0854 -12.9872 -12.9872 -12.9384 -12.9132 -12.9132 -12.7768 -12.7768
   -12.7545 -12.7112 -12.7112 -12.6457 -12.5428 -12.5000 -12.5000 -12.4875
   -12.4875 -12.4349 -12.4106 -12.4059 -12.3957 -12.3957 -12.3918 -12.3918
   -12.3464 -12.3098 -12.3098 -12.2758 -12.2757 -12.2382 -12.1497 -12.1377
   -12.1268 -12.1001 -12.1001 -11.9651 -11.7880 -11.7879 -11.7673 -11.7140
   -11.7139 -11.6887 -11.6886 -11.6849 -11.6848 -11.6537 -11.5955 -11.5955
   -11.5462 -11.5462 -11.4637 -11.4359 -11.4359 -11.4233 -11.4233 -11.4151
   -11.4151 -11.3590 -11.3554 -11.3372 -11.3272 -11.3272 -11.0885 -11.0694
    -5.1613  -5.1376  -4.9255  -4.9086  -4.4407  -4.4407  -4.3088  -4.3088
    -4.2490  -4.2490  -4.1718  -4.1718  -4.1492  -4.1492  -4.0933  -4.0553
    -4.0275  -4.0275  -3.9466  -3.9466  -3.9341  -3.8317  -3.8239  -3.8239
    -3.8188  -3.7975  -3.7196  -3.7195  -3.6773  -3.5980  -3.5980  -3.5567
    -3.5439  -3.5439  -3.4992  -3.4991  -3.4281  -3.3891  -3.3415  -3.3414
    -3.2865  -3.2865  -3.2413  -3.2413  -3.2365  -3.1894  -3.1447  -3.1447
    -3.1164  -3.1164  -3.0940  -3.0939  -3.0265  -2.9974  -2.9974  -2.9179
    -2.8860  -2.8860  -2.8835  -2.8835  -2.8406  -2.8406  -2.7944  -2.7811
    -2.7732  -2.6858  -2.5881  -2.5800  -2.5728  -2.5728  -2.5596  -2.5537
    -2.4972  -2.4971  -2.4848  -2.4848  -2.4727  -2.4132  -2.4132  -2.4122
    -2.4122  -2.3975  -2.3900  -2.3900  -2.3859  -2.3546  -2.3545  -2.3300
    -2.3300  -2.3030  -2.2566  -2.2294  -2.2271  -2.2270  -2.2023  -2.2023
    -2.1571  -2.1362  -2.1362  -2.1282  -2.1282  -2.1132  -2.1132  -2.0844
    -2.0843  -2.0800  -2.0800  -2.0686  -2.0686  -2.0326  -2.0326  -2.0216
    -2.0036  -2.0036  -2.0036  -1.9661  -1.9661  -1.9487  -1.8862  -1.8568
    -1.8568  -1.7751  -1.7751  -1.7073  -1.6768  -1.6705  -1.6628  -1.6588
    -1.6567  -1.6136  -1.5692  -1.5692  -1.5677  -1.5465  -1.5465  -1.4833
    -1.4741  -1.4617  -1.4617  -1.4609  -1.4554  -1.4554  -1.4240  -1.4240
    -1.4138  -1.4127  -1.4127  -1.3887  -1.3850  -1.3850  -1.3839  -1.3583
    -1.3582  -1.3364  -1.3364  -1.2848  -1.2756  -1.2600  -1.2371  -1.2371
    -1.2174  -1.1981  -1.1980  -1.1779  -1.1778  -1.1646  -1.1645  -1.1486
    -1.1486  -1.1452  -1.1452  -1.0970  -1.0697  -1.0697  -1.0588  -0.9862
    -0.9861  -0.9738  -0.9738  -0.9669  -0.9366  -0.9249  -0.9248  -0.9015
    -0.9015  -0.8476  -0.8475  -0.8377  -0.7266  -0.6925  -0.6925  -0.6640
    -0.6640  -0.6468  -0.6467  -0.6425  -0.6419  -0.6419  -0.6358  -0.5944
    -0.5370  -0.5370  -0.4328  -0.3992  -0.3684  -0.3212  -0.2766  -0.2765
    -0.2470  -0.2470  -0.0903  -0.0803  -0.0550  -0.0549   0.1439   0.3815
     1.0647   1.1409   1.1409   1.1520   1.2409   1.5153   1.5247   1.5248
     1.5798   1.6480   1.6480   1.7197   1.7197   1.7372   1.7372   1.8041
     1.9656   1.9656   1.9662   1.9663   1.9663   2.1186   2.1419   2.1420
     2.2653   2.3376   2.3376   2.4662   2.5358   2.5423   2.6052   2.6053
     2.6095   2.6096   2.6149   2.6220   2.6270   2.6795   2.7997   2.7997
     2.8005   2.8005   2.8247   2.8247   2.8316   2.8494   2.8643   2.8643
     2.9145   2.9145   2.9252   2.9648   2.9648   3.0117   3.1030   3.1031
     3.2100   3.3217   3.3217   3.3901   3.4080   3.4080   3.4281   3.4404
     3.4405   3.4821   3.4822   3.4946   3.4946   3.4986   3.4987   3.5045
     3.5073   3.5289   3.5316   3.5317   3.5342   3.6190   3.6190   3.6204
     3.7016   3.7017   3.7036   3.7037   3.7669   3.7958   3.7959   3.8091
     3.8091   3.8131   3.8132   3.8293   3.8293   3.8484   3.8550   3.8676
     3.8859   3.8859   3.9086   3.9504   3.9505   3.9604   3.9605   3.9611
     3.9611   3.9899   3.9900   4.0147   4.0150   4.0177   4.0301   4.0304
     4.0532   4.0533   4.0819   4.0902   4.0903   4.0949   4.0982   4.0983
     4.1108   4.1108   4.1152   4.1153   4.1213   4.1318   4.1320   4.1329
     4.1516   4.1517   4.1527   4.1837   4.1849   4.1853   4.1985   4.2000
     4.2039   4.2039   4.2066   4.2315   4.2316   4.2522   4.2775   4.2803
     4.3121   4.3121   4.3678   4.3679   4.4531   4.4599   4.4763   4.4764
     4.4878   4.5126   4.5127   4.5167   4.5169   4.5171   4.5173   4.5478
     4.5478   4.5672   4.5757   4.5758   4.5894   4.5895   4.6002   4.6534
     4.6667   4.6669   4.6704   4.6968   4.6970   4.6975   4.7002   4.7003
     4.7202   4.7279   4.7282   4.7284   4.7288   4.7314   4.7316   4.7358
     4.7361   4.7428   4.7458   4.7468   4.7468   4.7470   4.7546   4.7548
     4.7692   4.7705   4.7706   4.7758   4.8149   4.8295   4.8431   4.8432
     4.8499   4.8754

     occupation numbers 
     1.0000   1.0000   1.0000   1.0000   1.0000   1.0000   1.0000   1.0000
     1.0000   1.0000   1.0000   1.0000   1.0000   1.0000   1.0000   1.0000
     1.0000   1.0000   1.0000   1.0000   1.0000   1.0000   1.0000   1.0000
     1.0000   1.0000   1.0000   1.0000   1.0000   1.0000   1.0000   1.0000
     1.0000   1.0000   1.0000   1.0000   1.0000   1.0000   1.0000   1.0000
     1.0000   1.0000   1.0000   1.0000   1.0000   1.0000   1.0000   1.0000
     1.0000   1.0000   1.0000   1.0000   1.0000   1.0000   1.0000   1.0000
     1.0000   1.0000   1.0000   1.0000   1.0000   1.0000   1.0000   1.0000
     1.0000   1.0000   1.0000   1.0000   1.0000   1.0000   1.0000   1.0000
     1.0000   1.0000   1.0000   1.0000   1.0000   1.0000   1.0000   1.0000
     1.0000   1.0000   1.0000   1.0000   1.0000   1.0000   1.0000   1.0000
     1.0000   1.0000   1.0000   1.0000   1.0000   1.0000   1.0000   1.0000
     1.0000   1.0000   1.0000   1.0000   1.0000   1.0000   1.0000   1.0000
     1.0000   1.0000   1.0000   1.0000   1.0000   1.0000   1.0000   1.0000
     1.0000   1.0000   1.0000   1.0000   1.0000   1.0000   1.0000   1.0000
     1.0000   1.0000   1.0000   1.0000   1.0000   1.0000   1.0000   1.0000
     1.0000   1.0000   1.0000   1.0000   1.0000   1.0000   1.0000   1.0000
     1.0000   1.0000   1.0000   1.0000   1.0000   1.0000   1.0000   1.0000
     1.0000   1.0000   1.0000   1.0000   1.0000   1.0000   1.0000   1.0000
     1.0000   1.0000   1.0000   1.0000   1.0000   1.0000   1.0000   1.0000
     1.0000   1.0000   1.0000   1.0000   1.0000   1.0000   1.0000   1.0000
     1.0000   1.0000   1.0000   1.0000   1.0000   1.0000   1.0000   1.0000
     1.0000   1.0000   1.0000   1.0000   1.0000   1.0000   1.0000   1.0000
     1.0000   1.0000   1.0000   1.0000   1.0000   1.0000   1.0000   1.0000
     1.0000   1.0000   1.0000   1.0000   1.0000   1.0000   1.0000   1.0000
     1.0000   1.0000   1.0000   1.0000   1.0000   1.0000   1.0000   1.0000
     1.0000   1.0000   1.0000   1.0000   1.0000   1.0000   1.0000   1.0000
     1.0000   1.0000   1.0000   1.0000   1.0000   1.0000   1.0000   1.0000
     1.0000   1.0000   1.0000   1.0000   1.0000   1.0000   1.0000   1.0000
     1.0000   1.0000   1.0000   1.0000   1.0000   1.0000   1.0000   1.0000
     1.0000   1.0000   1.0000   1.0000   1.0000   1.0000   1.0000   1.0000
     1.0000   1.0000   1.0000   1.0000   1.0000   1.0000   1.0000   1.0000
     1.0000   1.0000   1.0000   1.0000   1.0000   1.0000   1.0000   1.0000
     1.0000   1.0000   1.0000   1.0000   1.0000   1.0000   1.0000   1.0000
     1.0000   1.0000   1.0000   1.0000   1.0000   1.0000   1.0000   1.0000
     1.0000   1.0000   1.0000   1.0000   1.0000   1.0000   1.0000   1.0000
     1.0000   1.0000   1.0000   1.0000   1.0000   1.0000   1.0000   1.0000
     1.0000   1.0000   1.0000   1.0000   1.0000   1.0000   1.0000   1.0000
     1.0000   1.0000   1.0000   1.0000   1.0000   1.0000   1.0000   1.0000
     1.0000   1.0000   1.0000   1.0000   1.0000   1.0000   1.0000   1.0000
     1.0000   1.0000   1.0000   1.0000   1.0000   1.0000   1.0000   1.0000
     1.0000   1.0000   1.0000   1.0000   1.0000   1.0000   1.0000   1.0000
     1.0000   1.0000   1.0000   1.0000   1.0000   1.0000   1.0000   1.0000
     1.0000   1.0000   1.0000   1.0000   1.0000   1.0000   1.0000   1.0000
     1.0000   1.0000   1.0000   1.0000   1.0000   1.0000   1.0000   1.0000
     1.0000   1.0000   1.0000   1.0000   1.0000   1.0000   1.0000   1.0000
     1.0000   1.0000   1.0000   1.0000   1.0000   1.0000   1.0000   1.0000
     1.0000   1.0000   1.0000   1.0000   1.0000   1.0000   1.0000   1.0000
     1.0000   1.0000   1.0000   1.0000   1.0000   1.0000   1.0000   1.0000
     1.0000   1.0000   1.0000   1.0000   1.0000   1.0000   1.0000   1.0000
     1.0000   1.0000   1.0000   1.0000   1.0000   1.0000   1.0000   1.0000
     1.0000   1.0000   1.0000   1.0000   1.0000   1.0000   1.0000   1.0000
     1.0000   1.0000   1.0000   1.0000   1.0000   1.0000   1.0000   1.0000
     1.0000   1.0000   1.0000   1.0000   1.0000   1.0000   1.0000   1.0000
     1.0000   1.0000   1.0000   1.0000   1.0000   1.0000   1.0000   1.0000
     1.0000   1.0000   1.0000   1.0000   1.0000   1.0000   1.0000   1.0000
     1.0000   1.0000   1.0000   1.0000   1.0000   1.0000   1.0000   1.0000
     1.0000   1.0000   1.0000   1.0000   1.0000   1.0000   1.0000   1.0000
     1.0000   1.0000   1.0000   1.0000   1.0000   1.0000   1.0000   1.0000
     1.0000   1.0000   1.0000   1.0000   1.0000   1.0000   1.0000   1.0000
     1.0000   1.0000   1.0000   1.0000   1.0000   1.0000   1.0000   1.0000
     1.0000   1.0000   1.0000   1.0000   1.0000   1.0000   1.0000   1.0000
     1.0000   1.0000   1.0000   1.0000   1.0000   1.0000   1.0000   1.0000
     1.0000   1.0000   1.0000   1.0000   1.0000   1.0000   1.0000   1.0000
     1.0000   1.0000   1.0000   1.0000   1.0000   1.0000   1.0000   1.0000
     1.0000   1.0000   1.0000   1.0000   1.0000   1.0000   1.0000   1.0000
     1.0000   1.0000   1.0000   1.0000   1.0000   1.0000   1.0000   1.0000
     1.0000   1.0000   1.0000   1.0000   1.0000   1.0000   1.0000   1.0000
     1.0000   1.0000   1.0000   1.0000   1.0000   1.0000   1.0000   1.0000
     1.0000   1.0000   1.0000   1.0000   1.0000   1.0000   1.0000   1.0000
     1.0000   1.0000   1.0000   1.0000   1.0000   1.0000   1.0000   1.0000
     1.0000   1.0000   1.0000   1.0000   1.0000   1.0000   1.0000   1.0000
     1.0000   1.0000   1.0000   1.0000   1.0000   1.0000   1.0000   1.0000
     1.0000   1.0000   1.0000   1.0000   1.0000   1.0000   1.0000   1.0000
     1.0000   1.0000   1.0000   1.0000   1.0000   1.0000   1.0000   1.0000
     1.0000   1.0000   1.0000   1.0000   1.0000   1.0000   1.0000   1.0000
     1.0000   1.0000   1.0000   1.0000   1.0000   1.0000   1.0005   1.0005
     1.0005   1.0005   1.0009   1.0009   1.0010   1.0015   1.0021   1.0021
     1.0057   1.0057   1.0069   1.0133   1.0133   1.0259   1.0644   1.0645
     1.0730   0.8817   0.8816   0.6518   0.5859   0.5858   0.5120   0.4678
     0.4677   0.3294   0.3288   0.2921   0.2920   0.2807   0.2804   0.2645
     0.2570   0.2034   0.1973   0.1972   0.1915   0.0615   0.0614   0.0602
     0.0149   0.0149   0.0143   0.0143   0.0039   0.0020   0.0020   0.0015
     0.0015   0.0013   0.0013   0.0009   0.0009   0.0005   0.0005   0.0003
     0.0002   0.0002   0.0001   0.0000   0.0000   0.0000   0.0000   0.0000
     0.0000   0.0000   0.0000   0.0000   0.0000   0.0000   0.0000   0.0000
     0.0000   0.0000   0.0000   0.0000   0.0000   0.0000   0.0000   0.0000
     0.0000   0.0000   0.0000   0.0000   0.0000   0.0000   0.0000   0.0000
     0.0000   0.0000   0.0000   0.0000   0.0000   0.0000   0.0000   0.0000
     0.0000   0.0000   0.0000   0.0000   0.0000   0.0000   0.0000   0.0000
     0.0000   0.0000   0.0000   0.0000   0.0000   0.0000   0.0000   0.0000
     0.0000   0.0000   0.0000   0.0000   0.0000   0.0000   0.0000   0.0000
     0.0000   0.0000   0.0000   0.0000   0.0000   0.0000   0.0000   0.0000
     0.0000   0.0000   0.0000   0.0000   0.0000   0.0000   0.0000   0.0000
     0.0000   0.0000   0.0000   0.0000   0.0000   0.0000   0.0000   0.0000
     0.0000   0.0000   0.0000   0.0000   0.0000   0.0000   0.0000   0.0000
     0.0000   0.0000   0.0000   0.0000   0.0000   0.0000   0.0000   0.0000
     0.0000   0.0000

          k = 0.3750-0.5000 0.0000 (207988 PWs)   bands (ev):

   -61.8693 -61.8692 -61.8647 -61.8646 -61.8423 -61.8423 -61.8387 -61.8387
   -61.8377 -61.8377 -61.8349 -61.8348 -61.8343 -61.8343 -61.8163 -61.8162
   -61.8132 -61.8132 -61.8000 -61.7998 -61.7973 -61.7971 -61.7913 -61.7912
   -61.7867 -61.7866 -61.7864 -61.7864 -61.7862 -61.7860 -61.7843 -61.7842
   -61.7836 -61.7835 -61.7816 -61.7815 -61.7684 -61.7683 -61.7654 -61.7652
   -61.7620 -61.7618 -61.7580 -61.7580 -61.7564 -61.7564 -61.7528 -61.7528
   -61.7514 -61.7514 -61.7335 -61.7333 -61.7304 -61.7303 -61.6898 -61.6897
   -61.6894 -61.6894 -61.6890 -61.6889 -61.6848 -61.6846 -61.6844 -61.6843
   -61.6827 -61.6825 -61.6820 -61.6818 -61.6709 -61.6707 -61.6677 -61.6675
   -35.9867 -35.9867 -35.9716 -35.9716 -35.9283 -35.9283 -35.9260 -35.9260
   -35.9178 -35.9178 -35.9071 -35.9071 -35.9036 -35.9036 -35.8980 -35.8980
   -35.8954 -35.8953 -35.8893 -35.8893 -35.8842 -35.8842 -35.8831 -35.8831
   -35.8789 -35.8789 -35.8698 -35.8698 -35.8661 -35.8661 -35.8647 -35.8647
   -35.8595 -35.8595 -35.8572 -35.8572 -35.8476 -35.8475 -35.8463 -35.8463
   -35.8337 -35.8337 -35.8313 -35.8313 -35.8268 -35.8268 -35.8251 -35.8251
   -35.8066 -35.8066 -35.8050 -35.8050 -35.8016 -35.8016 -35.8014 -35.8014
   -35.8007 -35.8007 -35.7824 -35.7824 -35.7815 -35.7815 -35.7735 -35.7735
   -35.7512 -35.7512 -35.7399 -35.7399 -35.7387 -35.7387 -35.7211 -35.7211
   -35.7105 -35.7105 -35.7049 -35.7049 -35.6985 -35.6985 -35.6961 -35.6961
   -35.6929 -35.6929 -35.6805 -35.6804 -35.6721 -35.6721 -35.6719 -35.6719
   -35.6687 -35.6687 -35.6683 -35.6683 -35.6639 -35.6639 -35.6623 -35.6622
   -35.6600 -35.6600 -35.6553 -35.6553 -35.6540 -35.6540 -35.6479 -35.6479
   -35.6386 -35.6385 -35.6337 -35.6337 -35.6299 -35.6298 -35.6291 -35.6291
   -35.6275 -35.6275 -35.6219 -35.6218 -35.6185 -35.6185 -35.6158 -35.6158
   -35.6095 -35.6095 -35.6083 -35.6083 -35.6051 -35.6051 -35.5972 -35.5972
   -35.5944 -35.5944 -35.5942 -35.5942 -35.5872 -35.5871 -35.5833 -35.5831
   -35.5831 -35.5831 -35.5821 -35.5821 -35.5796 -35.5795 -35.5795 -35.5793
   -35.5781 -35.5779 -35.5605 -35.5604 -35.5587 -35.5585 -35.5570 -35.5570
   -35.5560 -35.5559 -35.5553 -35.5552 -35.5551 -35.5550 -35.5445 -35.5445
   -35.5415 -35.5415 -35.5394 -35.5394 -35.5323 -35.5322 -35.5303 -35.5303
   -35.5299 -35.5298 -35.5281 -35.5280 -35.5101 -35.5101 -35.5085 -35.5084
   -35.5055 -35.5054 -35.5025 -35.5025 -35.5025 -35.5025 -35.5006 -35.5006
   -35.4965 -35.4964 -35.4914 -35.4913 -35.4902 -35.4901 -35.4879 -35.4878
   -35.4822 -35.4822 -35.4552 -35.4552 -35.4544 -35.4542 -35.4541 -35.4541
   -35.4459 -35.4457 -35.4118 -35.4117 -35.4025 -35.4023 -35.3990 -35.3989
   -35.3943 -35.3942 -35.3916 -35.3914 -35.3841 -35.3839 -35.3828 -35.3827
   -14.0127 -14.0127 -13.8387 -13.8387 -13.1691 -13.1691 -13.0697 -13.0696
   -13.0192 -13.0192 -13.0173 -13.0173 -12.8737 -12.8737 -12.8515 -12.8515
   -12.7316 -12.7315 -12.6786 -12.6786 -12.5177 -12.5177 -12.4635 -12.4635
   -12.4503 -12.4502 -12.4371 -12.4371 -12.3596 -12.3596 -12.3555 -12.3555
   -12.3471 -12.3470 -12.3398 -12.3398 -12.2188 -12.2187 -12.1762 -12.1761
   -12.1295 -12.1294 -12.0394 -12.0393 -11.7419 -11.7418 -11.7410 -11.7409
   -11.7312 -11.7312 -11.6855 -11.6854 -11.6460 -11.6459 -11.6329 -11.6329
   -11.4960 -11.4959 -11.4767 -11.4767 -11.4404 -11.4403 -11.3885 -11.3884
   -11.3792 -11.3792 -11.3733 -11.3733 -11.3373 -11.3373 -11.0701 -11.0701
    -5.1706  -5.1706  -4.9354  -4.9354  -4.3947  -4.3946  -4.2944  -4.2944
    -4.2155  -4.2155  -4.1544  -4.1543  -4.1160  -4.1159  -4.0964  -4.0964
    -4.0918  -4.0918  -3.9812  -3.9812  -3.9015  -3.9015  -3.8357  -3.8357
    -3.8067  -3.8067  -3.6885  -3.6885  -3.6309  -3.6308  -3.5739  -3.5739
    -3.5658  -3.5657  -3.4555  -3.4554  -3.4173  -3.4173  -3.4104  -3.4104
    -3.2684  -3.2684  -3.2017  -3.2017  -3.1943  -3.1943  -3.1562  -3.1562
    -3.1134  -3.1133  -3.0193  -3.0193  -3.0122  -3.0121  -2.9751  -2.9751
    -2.9598  -2.9598  -2.9327  -2.9327  -2.8278  -2.8278  -2.7924  -2.7923
    -2.7678  -2.7678  -2.5800  -2.5800  -2.5704  -2.5704  -2.5418  -2.5418
    -2.5255  -2.5255  -2.4525  -2.4525  -2.4393  -2.4393  -2.4291  -2.4291
    -2.4033  -2.4032  -2.4011  -2.4011  -2.3698  -2.3698  -2.3335  -2.3335
    -2.2907  -2.2907  -2.2888  -2.2887  -2.1726  -2.1725  -2.1655  -2.1655
    -2.1464  -2.1464  -2.1381  -2.1381  -2.1065  -2.1065  -2.0936  -2.0935
    -2.0923  -2.0923  -2.0916  -2.0916  -2.0597  -2.0597  -2.0383  -2.0383
    -2.0232  -2.0231  -2.0125  -2.0125  -1.9819  -1.9818  -1.8576  -1.8576
    -1.8188  -1.8188  -1.6946  -1.6946  -1.6754  -1.6754  -1.6714  -1.6714
    -1.6514  -1.6514  -1.5861  -1.5861  -1.5242  -1.5242  -1.4946  -1.4946
    -1.4370  -1.4369  -1.4321  -1.4320  -1.4318  -1.4317  -1.4248  -1.4248
    -1.3961  -1.3960  -1.3795  -1.3795  -1.3369  -1.3368  -1.3340  -1.3339
    -1.3050  -1.3050  -1.3000  -1.2999  -1.2822  -1.2821  -1.2493  -1.2493
    -1.2036  -1.2035  -1.1923  -1.1923  -1.1837  -1.1836  -1.1739  -1.1739
    -1.1349  -1.1349  -1.1106  -1.1105  -1.1097  -1.1097  -1.0939  -1.0939
    -1.0496  -1.0496  -0.9622  -0.9622  -0.8828  -0.8828  -0.8070  -0.8070
    -0.8018  -0.8018  -0.7955  -0.7955  -0.7828  -0.7828  -0.7538  -0.7538
    -0.7339  -0.7339  -0.6904  -0.6903  -0.6365  -0.6365  -0.5227  -0.5226
    -0.4742  -0.4742  -0.4472  -0.4472  -0.3462  -0.3462  -0.3235  -0.3234
    -0.1993  -0.1993  -0.1710  -0.1710  -0.0635  -0.0634   0.1653   0.1656
     1.1189   1.1189   1.3755   1.3755   1.3789   1.3790   1.4505   1.4505
     1.6281   1.6281   1.7228   1.7228   1.7286   1.7286   1.7298   1.7299
     1.7782   1.7783   1.9239   1.9239   2.0509   2.0510   2.0921   2.0922
     2.2687   2.2688   2.4774   2.4774   2.5235   2.5236   2.5796   2.5797
     2.6289   2.6290   2.6537   2.6538   2.6957   2.6957   2.7145   2.7146
     2.7176   2.7177   2.7946   2.7946   2.8621   2.8621   2.8692   2.8692
     2.8791   2.8791   2.8896   2.8897   2.9959   2.9959   3.0407   3.0407
     3.2731   3.2731   3.4030   3.4030   3.4286   3.4287   3.4441   3.4441
     3.4738   3.4738   3.5021   3.5021   3.5027   3.5027   3.5165   3.5165
     3.5529   3.5529   3.6018   3.6018   3.6711   3.6711   3.6827   3.6828
     3.6874   3.6874   3.7523   3.7523   3.7562   3.7562   3.7983   3.7984
     3.8172   3.8172   3.8472   3.8473   3.8597   3.8597   3.8608   3.8608
     3.9033   3.9033   3.9070   3.9071   3.9088   3.9089   3.9149   3.9149
     3.9885   3.9886   4.0155   4.0156   4.0193   4.0193   4.0371   4.0372
     4.0478   4.0479   4.0563   4.0563   4.0588   4.0588   4.0950   4.0951
     4.0955   4.0955   4.1096   4.1103   4.1160   4.1161   4.1236   4.1236
     4.1243   4.1245   4.1402   4.1403   4.1732   4.1732   4.1750   4.1751
     4.2112   4.2134   4.2239   4.2240   4.2553   4.2557   4.2569   4.2576
     4.3322   4.3322   4.4425   4.4425   4.4468   4.4468   4.4776   4.4822
     4.4938   4.4939   4.5238   4.5249   4.5437   4.5472   4.5472   4.5496
     4.6021   4.6022   4.6022   4.6025   4.6181   4.6182   4.6292   4.6293
     4.6338   4.6339   4.6374   4.6376   4.6802   4.6804   4.7103   4.7105
     4.7183   4.7183   4.7300   4.7301   4.7339   4.7340   4.7390   4.7391
     4.7397   4.7401   4.7405   4.7405   4.7429   4.7430   4.7501   4.7502
     4.7894   4.7896   4.8108   4.8126   4.8226   4.8230   4.8339   4.8342
     4.8454   4.8455

     occupation numbers 
     1.0000   1.0000   1.0000   1.0000   1.0000   1.0000   1.0000   1.0000
     1.0000   1.0000   1.0000   1.0000   1.0000   1.0000   1.0000   1.0000
     1.0000   1.0000   1.0000   1.0000   1.0000   1.0000   1.0000   1.0000
     1.0000   1.0000   1.0000   1.0000   1.0000   1.0000   1.0000   1.0000
     1.0000   1.0000   1.0000   1.0000   1.0000   1.0000   1.0000   1.0000
     1.0000   1.0000   1.0000   1.0000   1.0000   1.0000   1.0000   1.0000
     1.0000   1.0000   1.0000   1.0000   1.0000   1.0000   1.0000   1.0000
     1.0000   1.0000   1.0000   1.0000   1.0000   1.0000   1.0000   1.0000
     1.0000   1.0000   1.0000   1.0000   1.0000   1.0000   1.0000   1.0000
     1.0000   1.0000   1.0000   1.0000   1.0000   1.0000   1.0000   1.0000
     1.0000   1.0000   1.0000   1.0000   1.0000   1.0000   1.0000   1.0000
     1.0000   1.0000   1.0000   1.0000   1.0000   1.0000   1.0000   1.0000
     1.0000   1.0000   1.0000   1.0000   1.0000   1.0000   1.0000   1.0000
     1.0000   1.0000   1.0000   1.0000   1.0000   1.0000   1.0000   1.0000
     1.0000   1.0000   1.0000   1.0000   1.0000   1.0000   1.0000   1.0000
     1.0000   1.0000   1.0000   1.0000   1.0000   1.0000   1.0000   1.0000
     1.0000   1.0000   1.0000   1.0000   1.0000   1.0000   1.0000   1.0000
     1.0000   1.0000   1.0000   1.0000   1.0000   1.0000   1.0000   1.0000
     1.0000   1.0000   1.0000   1.0000   1.0000   1.0000   1.0000   1.0000
     1.0000   1.0000   1.0000   1.0000   1.0000   1.0000   1.0000   1.0000
     1.0000   1.0000   1.0000   1.0000   1.0000   1.0000   1.0000   1.0000
     1.0000   1.0000   1.0000   1.0000   1.0000   1.0000   1.0000   1.0000
     1.0000   1.0000   1.0000   1.0000   1.0000   1.0000   1.0000   1.0000
     1.0000   1.0000   1.0000   1.0000   1.0000   1.0000   1.0000   1.0000
     1.0000   1.0000   1.0000   1.0000   1.0000   1.0000   1.0000   1.0000
     1.0000   1.0000   1.0000   1.0000   1.0000   1.0000   1.0000   1.0000
     1.0000   1.0000   1.0000   1.0000   1.0000   1.0000   1.0000   1.0000
     1.0000   1.0000   1.0000   1.0000   1.0000   1.0000   1.0000   1.0000
     1.0000   1.0000   1.0000   1.0000   1.0000   1.0000   1.0000   1.0000
     1.0000   1.0000   1.0000   1.0000   1.0000   1.0000   1.0000   1.0000
     1.0000   1.0000   1.0000   1.0000   1.0000   1.0000   1.0000   1.0000
     1.0000   1.0000   1.0000   1.0000   1.0000   1.0000   1.0000   1.0000
     1.0000   1.0000   1.0000   1.0000   1.0000   1.0000   1.0000   1.0000
     1.0000   1.0000   1.0000   1.0000   1.0000   1.0000   1.0000   1.0000
     1.0000   1.0000   1.0000   1.0000   1.0000   1.0000   1.0000   1.0000
     1.0000   1.0000   1.0000   1.0000   1.0000   1.0000   1.0000   1.0000
     1.0000   1.0000   1.0000   1.0000   1.0000   1.0000   1.0000   1.0000
     1.0000   1.0000   1.0000   1.0000   1.0000   1.0000   1.0000   1.0000
     1.0000   1.0000   1.0000   1.0000   1.0000   1.0000   1.0000   1.0000
     1.0000   1.0000   1.0000   1.0000   1.0000   1.0000   1.0000   1.0000
     1.0000   1.0000   1.0000   1.0000   1.0000   1.0000   1.0000   1.0000
     1.0000   1.0000   1.0000   1.0000   1.0000   1.0000   1.0000   1.0000
     1.0000   1.0000   1.0000   1.0000   1.0000   1.0000   1.0000   1.0000
     1.0000   1.0000   1.0000   1.0000   1.0000   1.0000   1.0000   1.0000
     1.0000   1.0000   1.0000   1.0000   1.0000   1.0000   1.0000   1.0000
     1.0000   1.0000   1.0000   1.0000   1.0000   1.0000   1.0000   1.0000
     1.0000   1.0000   1.0000   1.0000   1.0000   1.0000   1.0000   1.0000
     1.0000   1.0000   1.0000   1.0000   1.0000   1.0000   1.0000   1.0000
     1.0000   1.0000   1.0000   1.0000   1.0000   1.0000   1.0000   1.0000
     1.0000   1.0000   1.0000   1.0000   1.0000   1.0000   1.0000   1.0000
     1.0000   1.0000   1.0000   1.0000   1.0000   1.0000   1.0000   1.0000
     1.0000   1.0000   1.0000   1.0000   1.0000   1.0000   1.0000   1.0000
     1.0000   1.0000   1.0000   1.0000   1.0000   1.0000   1.0000   1.0000
     1.0000   1.0000   1.0000   1.0000   1.0000   1.0000   1.0000   1.0000
     1.0000   1.0000   1.0000   1.0000   1.0000   1.0000   1.0000   1.0000
     1.0000   1.0000   1.0000   1.0000   1.0000   1.0000   1.0000   1.0000
     1.0000   1.0000   1.0000   1.0000   1.0000   1.0000   1.0000   1.0000
     1.0000   1.0000   1.0000   1.0000   1.0000   1.0000   1.0000   1.0000
     1.0000   1.0000   1.0000   1.0000   1.0000   1.0000   1.0000   1.0000
     1.0000   1.0000   1.0000   1.0000   1.0000   1.0000   1.0000   1.0000
     1.0000   1.0000   1.0000   1.0000   1.0000   1.0000   1.0000   1.0000
     1.0000   1.0000   1.0000   1.0000   1.0000   1.0000   1.0000   1.0000
     1.0000   1.0000   1.0000   1.0000   1.0000   1.0000   1.0000   1.0000
     1.0000   1.0000   1.0000   1.0000   1.0000   1.0000   1.0000   1.0000
     1.0000   1.0000   1.0000   1.0000   1.0000   1.0000   1.0000   1.0000
     1.0000   1.0000   1.0000   1.0000   1.0000   1.0000   1.0000   1.0000
     1.0000   1.0000   1.0000   1.0000   1.0000   1.0000   1.0000   1.0000
     1.0000   1.0000   1.0000   1.0000   1.0000   1.0000   1.0000   1.0000
     1.0000   1.0000   1.0000   1.0000   1.0000   1.0000   1.0000   1.0000
     1.0000   1.0000   1.0000   1.0000   1.0000   1.0000   1.0000   1.0000
     1.0000   1.0000   1.0000   1.0000   1.0000   1.0000   1.0000   1.0000
     1.0000   1.0000   1.0000   1.0000   1.0000   1.0000   1.0000   1.0000
     1.0000   1.0000   1.0000   1.0000   1.0000   1.0000   1.0000   1.0000
     1.0000   1.0000   1.0000   1.0000   1.0000   1.0000   1.0000   1.0000
     1.0000   1.0000   1.0000   1.0000   1.0000   1.0000   1.0000   1.0000
     1.0000   1.0000   1.0000   1.0000   1.0000   1.0000   1.0000   1.0000
     1.0000   1.0000   1.0000   1.0000   1.0000   1.0000   1.0001   1.0001
     1.0001   1.0001   1.0004   1.0004   1.0020   1.0020   1.0023   1.0023
     1.0029   1.0029   1.0035   1.0035   1.0209   1.0209   1.0366   1.0366
     0.9978   0.9977   0.6045   0.6044   0.5105   0.5099   0.4547   0.4547
     0.3552   0.3550   0.2710   0.2710   0.2694   0.2693   0.2333   0.2332
     0.1533   0.1532   0.0795   0.0794   0.0261   0.0260   0.0212   0.0211
     0.0194   0.0194   0.0053   0.0053   0.0049   0.0049   0.0019   0.0019
     0.0012   0.0012   0.0006   0.0006   0.0004   0.0004   0.0004   0.0004
     0.0001   0.0001   0.0001   0.0001   0.0001   0.0001   0.0001   0.0001
     0.0000   0.0000   0.0000   0.0000   0.0000   0.0000   0.0000   0.0000
     0.0000   0.0000   0.0000   0.0000   0.0000   0.0000   0.0000   0.0000
     0.0000   0.0000   0.0000   0.0000   0.0000   0.0000   0.0000   0.0000
     0.0000   0.0000   0.0000   0.0000   0.0000   0.0000   0.0000   0.0000
     0.0000   0.0000   0.0000   0.0000   0.0000   0.0000   0.0000   0.0000
     0.0000   0.0000   0.0000   0.0000   0.0000   0.0000   0.0000   0.0000
     0.0000   0.0000   0.0000   0.0000   0.0000   0.0000   0.0000   0.0000
     0.0000   0.0000   0.0000   0.0000   0.0000   0.0000   0.0000   0.0000
     0.0000   0.0000   0.0000   0.0000   0.0000   0.0000   0.0000   0.0000
     0.0000   0.0000   0.0000   0.0000   0.0000   0.0000   0.0000   0.0000
     0.0000   0.0000   0.0000   0.0000   0.0000   0.0000   0.0000   0.0000
     0.0000   0.0000   0.0000   0.0000   0.0000   0.0000   0.0000   0.0000
     0.0000   0.0000

          k =-0.5000-0.5000 0.0000 (207976 PWs)   bands (ev):

   -61.8673 -61.8673 -61.8672 -61.8671 -61.8384 -61.8384 -61.8382 -61.8382
   -61.8382 -61.8382 -61.8382 -61.8381 -61.8347 -61.8347 -61.8146 -61.8146
   -61.8145 -61.8145 -61.7987 -61.7987 -61.7987 -61.7983 -61.7893 -61.7893
   -61.7893 -61.7892 -61.7865 -61.7864 -61.7843 -61.7840 -61.7840 -61.7840
   -61.7837 -61.7837 -61.7837 -61.7836 -61.7668 -61.7668 -61.7668 -61.7663
   -61.7574 -61.7574 -61.7573 -61.7573 -61.7573 -61.7572 -61.7571 -61.7570
   -61.7513 -61.7513 -61.7318 -61.7317 -61.7317 -61.7316 -61.6899 -61.6898
   -61.6894 -61.6892 -61.6892 -61.6892 -61.6838 -61.6837 -61.6834 -61.6834
   -61.6834 -61.6832 -61.6831 -61.6830 -61.6694 -61.6690 -61.6690 -61.6690
   -35.9883 -35.9883 -35.9733 -35.9733 -35.9277 -35.9277 -35.9276 -35.9276
   -35.8991 -35.8991 -35.8991 -35.8991 -35.8989 -35.8988 -35.8988 -35.8988
   -35.8988 -35.8987 -35.8987 -35.8987 -35.8845 -35.8845 -35.8780 -35.8780
   -35.8779 -35.8779 -35.8779 -35.8778 -35.8778 -35.8778 -35.8663 -35.8662
   -35.8635 -35.8635 -35.8633 -35.8633 -35.8479 -35.8478 -35.8478 -35.8478
   -35.8318 -35.8318 -35.8317 -35.8316 -35.8135 -35.8135 -35.8134 -35.8133
   -35.8133 -35.8133 -35.8133 -35.8133 -35.7937 -35.7937 -35.7936 -35.7936
   -35.7936 -35.7936 -35.7935 -35.7935 -35.7870 -35.7869 -35.7869 -35.7869
   -35.7457 -35.7457 -35.7456 -35.7456 -35.7246 -35.7246 -35.7246 -35.7245
   -35.7106 -35.7106 -35.7104 -35.7104 -35.6884 -35.6883 -35.6882 -35.6882
   -35.6882 -35.6882 -35.6882 -35.6882 -35.6789 -35.6789 -35.6789 -35.6789
   -35.6638 -35.6637 -35.6636 -35.6636 -35.6636 -35.6635 -35.6635 -35.6635
   -35.6634 -35.6634 -35.6634 -35.6634 -35.6510 -35.6510 -35.6509 -35.6509
   -35.6359 -35.6359 -35.6358 -35.6358 -35.6288 -35.6287 -35.6286 -35.6286
   -35.6277 -35.6277 -35.6124 -35.6124 -35.6122 -35.6122 -35.6121 -35.6121
   -35.6121 -35.6121 -35.6045 -35.6045 -35.6043 -35.6043 -35.5958 -35.5958
   -35.5956 -35.5956 -35.5954 -35.5954 -35.5953 -35.5953 -35.5952 -35.5952
   -35.5822 -35.5822 -35.5822 -35.5822 -35.5817 -35.5817 -35.5817 -35.5813
   -35.5789 -35.5787 -35.5589 -35.5589 -35.5589 -35.5586 -35.5564 -35.5562
   -35.5562 -35.5561 -35.5560 -35.5559 -35.5559 -35.5559 -35.5394 -35.5394
   -35.5392 -35.5392 -35.5370 -35.5370 -35.5370 -35.5368 -35.5292 -35.5292
   -35.5193 -35.5193 -35.5191 -35.5191 -35.5190 -35.5190 -35.5189 -35.5188
   -35.5019 -35.5019 -35.5019 -35.5018 -35.5018 -35.5018 -35.5017 -35.5017
   -35.4975 -35.4975 -35.4918 -35.4918 -35.4896 -35.4896 -35.4868 -35.4868
   -35.4867 -35.4867 -35.4538 -35.4538 -35.4537 -35.4537 -35.4510 -35.4507
   -35.4506 -35.4506 -35.4122 -35.4120 -35.3967 -35.3965 -35.3964 -35.3964
   -35.3964 -35.3963 -35.3962 -35.3962 -35.3835 -35.3833 -35.3833 -35.3832
   -13.9350 -13.9350 -13.9350 -13.9350 -13.1016 -13.1016 -13.1016 -13.1015
   -12.9526 -12.9526 -12.9526 -12.9526 -12.9526 -12.9526 -12.9526 -12.9525
   -12.7044 -12.7043 -12.7043 -12.7042 -12.4931 -12.4931 -12.4931 -12.4930
   -12.3921 -12.3920 -12.3920 -12.3920 -12.3920 -12.3920 -12.3920 -12.3920
   -12.3380 -12.3380 -12.2890 -12.2890 -12.2890 -12.2889 -12.1294 -12.1294
   -12.1147 -12.1146 -12.1146 -12.1146 -11.7151 -11.7151 -11.7151 -11.7149
   -11.6863 -11.6863 -11.6863 -11.6863 -11.6862 -11.6862 -11.6862 -11.6862
   -11.4296 -11.4295 -11.4295 -11.4295 -11.4294 -11.4293 -11.4293 -11.4293
   -11.4155 -11.4155 -11.4155 -11.4154 -11.3283 -11.3283 -11.0613 -11.0612
    -5.1918  -5.1918  -4.9537  -4.9537  -4.2429  -4.2429  -4.2429  -4.2429
    -4.2428  -4.2428  -4.2428  -4.2428  -4.1187  -4.1187  -4.0527  -4.0527
    -4.0527  -4.0527  -4.0526  -4.0526  -4.0526  -4.0526  -3.8567  -3.8567
    -3.6599  -3.6599  -3.6599  -3.6599  -3.5976  -3.5976  -3.5975  -3.5975
    -3.5838  -3.5837  -3.5837  -3.5836  -3.3306  -3.3306  -3.3306  -3.3306
    -3.3306  -3.3306  -3.3306  -3.3306  -3.0771  -3.0770  -3.0770  -3.0770
    -3.0590  -3.0590  -3.0590  -3.0590  -3.0590  -3.0589  -3.0589  -3.0589
    -2.8982  -2.8982  -2.8982  -2.8982  -2.8752  -2.8752  -2.8752  -2.8752
    -2.8008  -2.8007  -2.5887  -2.5887  -2.5697  -2.5697  -2.4932  -2.4931
    -2.4931  -2.4931  -2.4931  -2.4931  -2.4931  -2.4931  -2.4162  -2.4162
    -2.3691  -2.3691  -2.3691  -2.3691  -2.3447  -2.3447  -2.3447  -2.3447
    -2.3446  -2.3446  -2.3446  -2.3446  -2.1151  -2.1151  -2.1151  -2.1151
    -2.1151  -2.1151  -2.1150  -2.1150  -2.0962  -2.0962  -2.0962  -2.0962
    -2.0962  -2.0962  -2.0962  -2.0961  -2.0510  -2.0510  -2.0510  -2.0510
    -2.0338  -2.0338  -2.0223  -2.0223  -2.0223  -2.0222  -1.8341  -1.8341
    -1.8341  -1.8341  -1.7327  -1.7327  -1.7324  -1.7323  -1.6993  -1.6993
    -1.6826  -1.6826  -1.4838  -1.4838  -1.4838  -1.4838  -1.4496  -1.4496
    -1.4496  -1.4496  -1.4496  -1.4496  -1.4496  -1.4496  -1.3674  -1.3674
    -1.3674  -1.3674  -1.2924  -1.2924  -1.2840  -1.2840  -1.2840  -1.2840
    -1.2840  -1.2839  -1.2839  -1.2839  -1.2606  -1.2606  -1.2606  -1.2605
    -1.2509  -1.2508  -1.2508  -1.2507  -1.2505  -1.2504  -1.2504  -1.2504
    -1.0827  -1.0827  -1.0826  -1.0826  -1.0826  -1.0826  -1.0825  -1.0825
    -0.9671  -0.9671  -0.9671  -0.9671  -0.9335  -0.9335  -0.9335  -0.9335
    -0.7843  -0.7843  -0.7843  -0.7843  -0.7842  -0.7842  -0.7842  -0.7842
    -0.6222  -0.6221  -0.6221  -0.6220  -0.6179  -0.6179  -0.6179  -0.6179
    -0.5094  -0.5094  -0.5094  -0.5094  -0.2649  -0.2648  -0.2648  -0.2648
    -0.2517  -0.2517  -0.2517  -0.2516  -0.0021  -0.0021  -0.0020  -0.0020
     1.3088   1.3088   1.3088   1.3089   1.5163   1.5163   1.5163   1.5163
     1.5478   1.5478   1.5478   1.5478   1.8238   1.8238   1.8238   1.8238
     1.8240   1.8240   1.8240   1.8240   1.8841   1.8841   1.8841   1.8841
     2.4002   2.4002   2.4003   2.4004   2.5929   2.5929   2.5929   2.5929
     2.6664   2.6664   2.6665   2.6665   2.6715   2.6715   2.6715   2.6715
     2.7535   2.7535   2.7535   2.7535   2.7589   2.7589   2.7589   2.7590
     2.9378   2.9378   2.9379   2.9379   2.9379   2.9379   2.9379   2.9380
     3.3518   3.3518   3.3518   3.3518   3.4430   3.4431   3.4432   3.4432
     3.5531   3.5531   3.5531   3.5532   3.5532   3.5532   3.5532   3.5532
     3.6550   3.6550   3.7091   3.7091   3.7092   3.7092   3.7092   3.7093
     3.7093   3.7093   3.7185   3.7185   3.7343   3.7343   3.7471   3.7471
     3.8418   3.8418   3.8418   3.8419   3.8419   3.8419   3.8419   3.8420
     3.8994   3.8995   3.8995   3.8995   3.8995   3.8995   3.8996   3.8996
     3.9568   3.9568   3.9569   3.9569   4.0513   4.0514   4.0514   4.0514
     4.0515   4.0515   4.0515   4.0516   4.0667   4.0667   4.0834   4.0835
     4.0835   4.0835   4.0836   4.0836   4.0836   4.0837   4.1104   4.1104
     4.1105   4.1106   4.1346   4.1346   4.1744   4.1745   4.1747   4.1748
     4.1757   4.1758   4.2296   4.2297   4.2298   4.2298   4.2670   4.2672
     4.4415   4.4415   4.4415   4.4415   4.4415   4.4416   4.4416   4.4416
     4.5003   4.5004   4.5004   4.5005   4.5859   4.5860   4.5861   4.5862
     4.6338   4.6338   4.6339   4.6340   4.6340   4.6341   4.6341   4.6342
     4.6422   4.6422   4.6768   4.6768   4.6769   4.6769   4.6769   4.6770
     4.6770   4.6770   4.7123   4.7124   4.7125   4.7127   4.7280   4.7281
     4.7282   4.7283   4.7472   4.7473   4.7475   4.7477   4.7990   4.7992
     4.8023   4.8024   4.8027   4.8030   4.8031   4.8032   4.8035   4.8037
     4.8384   4.8386

     occupation numbers 
     1.0000   1.0000   1.0000   1.0000   1.0000   1.0000   1.0000   1.0000
     1.0000   1.0000   1.0000   1.0000   1.0000   1.0000   1.0000   1.0000
     1.0000   1.0000   1.0000   1.0000   1.0000   1.0000   1.0000   1.0000
     1.0000   1.0000   1.0000   1.0000   1.0000   1.0000   1.0000   1.0000
     1.0000   1.0000   1.0000   1.0000   1.0000   1.0000   1.0000   1.0000
     1.0000   1.0000   1.0000   1.0000   1.0000   1.0000   1.0000   1.0000
     1.0000   1.0000   1.0000   1.0000   1.0000   1.0000   1.0000   1.0000
     1.0000   1.0000   1.0000   1.0000   1.0000   1.0000   1.0000   1.0000
     1.0000   1.0000   1.0000   1.0000   1.0000   1.0000   1.0000   1.0000
     1.0000   1.0000   1.0000   1.0000   1.0000   1.0000   1.0000   1.0000
     1.0000   1.0000   1.0000   1.0000   1.0000   1.0000   1.0000   1.0000
     1.0000   1.0000   1.0000   1.0000   1.0000   1.0000   1.0000   1.0000
     1.0000   1.0000   1.0000   1.0000   1.0000   1.0000   1.0000   1.0000
     1.0000   1.0000   1.0000   1.0000   1.0000   1.0000   1.0000   1.0000
     1.0000   1.0000   1.0000   1.0000   1.0000   1.0000   1.0000   1.0000
     1.0000   1.0000   1.0000   1.0000   1.0000   1.0000   1.0000   1.0000
     1.0000   1.0000   1.0000   1.0000   1.0000   1.0000   1.0000   1.0000
     1.0000   1.0000   1.0000   1.0000   1.0000   1.0000   1.0000   1.0000
     1.0000   1.0000   1.0000   1.0000   1.0000   1.0000   1.0000   1.0000
     1.0000   1.0000   1.0000   1.0000   1.0000   1.0000   1.0000   1.0000
     1.0000   1.0000   1.0000   1.0000   1.0000   1.0000   1.0000   1.0000
     1.0000   1.0000   1.0000   1.0000   1.0000   1.0000   1.0000   1.0000
     1.0000   1.0000   1.0000   1.0000   1.0000   1.0000   1.0000   1.0000
     1.0000   1.0000   1.0000   1.0000   1.0000   1.0000   1.0000   1.0000
     1.0000   1.0000   1.0000   1.0000   1.0000   1.0000   1.0000   1.0000
     1.0000   1.0000   1.0000   1.0000   1.0000   1.0000   1.0000   1.0000
     1.0000   1.0000   1.0000   1.0000   1.0000   1.0000   1.0000   1.0000
     1.0000   1.0000   1.0000   1.0000   1.0000   1.0000   1.0000   1.0000
     1.0000   1.0000   1.0000   1.0000   1.0000   1.0000   1.0000   1.0000
     1.0000   1.0000   1.0000   1.0000   1.0000   1.0000   1.0000   1.0000
     1.0000   1.0000   1.0000   1.0000   1.0000   1.0000   1.0000   1.0000
     1.0000   1.0000   1.0000   1.0000   1.0000   1.0000   1.0000   1.0000
     1.0000   1.0000   1.0000   1.0000   1.0000   1.0000   1.0000   1.0000
     1.0000   1.0000   1.0000   1.0000   1.0000   1.0000   1.0000   1.0000
     1.0000   1.0000   1.0000   1.0000   1.0000   1.0000   1.0000   1.0000
     1.0000   1.0000   1.0000   1.0000   1.0000   1.0000   1.0000   1.0000
     1.0000   1.0000   1.0000   1.0000   1.0000   1.0000   1.0000   1.0000
     1.0000   1.0000   1.0000   1.0000   1.0000   1.0000   1.0000   1.0000
     1.0000   1.0000   1.0000   1.0000   1.0000   1.0000   1.0000   1.0000
     1.0000   1.0000   1.0000   1.0000   1.0000   1.0000   1.0000   1.0000
     1.0000   1.0000   1.0000   1.0000   1.0000   1.0000   1.0000   1.0000
     1.0000   1.0000   1.0000   1.0000   1.0000   1.0000   1.0000   1.0000
     1.0000   1.0000   1.0000   1.0000   1.0000   1.0000   1.0000   1.0000
     1.0000   1.0000   1.0000   1.0000   1.0000   1.0000   1.0000   1.0000
     1.0000   1.0000   1.0000   1.0000   1.0000   1.0000   1.0000   1.0000
     1.0000   1.0000   1.0000   1.0000   1.0000   1.0000   1.0000   1.0000
     1.0000   1.0000   1.0000   1.0000   1.0000   1.0000   1.0000   1.0000
     1.0000   1.0000   1.0000   1.0000   1.0000   1.0000   1.0000   1.0000
     1.0000   1.0000   1.0000   1.0000   1.0000   1.0000   1.0000   1.0000
     1.0000   1.0000   1.0000   1.0000   1.0000   1.0000   1.0000   1.0000
     1.0000   1.0000   1.0000   1.0000   1.0000   1.0000   1.0000   1.0000
     1.0000   1.0000   1.0000   1.0000   1.0000   1.0000   1.0000   1.0000
     1.0000   1.0000   1.0000   1.0000   1.0000   1.0000   1.0000   1.0000
     1.0000   1.0000   1.0000   1.0000   1.0000   1.0000   1.0000   1.0000
     1.0000   1.0000   1.0000   1.0000   1.0000   1.0000   1.0000   1.0000
     1.0000   1.0000   1.0000   1.0000   1.0000   1.0000   1.0000   1.0000
     1.0000   1.0000   1.0000   1.0000   1.0000   1.0000   1.0000   1.0000
     1.0000   1.0000   1.0000   1.0000   1.0000   1.0000   1.0000   1.0000
     1.0000   1.0000   1.0000   1.0000   1.0000   1.0000   1.0000   1.0000
     1.0000   1.0000   1.0000   1.0000   1.0000   1.0000   1.0000   1.0000
     1.0000   1.0000   1.0000   1.0000   1.0000   1.0000   1.0000   1.0000
     1.0000   1.0000   1.0000   1.0000   1.0000   1.0000   1.0000   1.0000
     1.0000   1.0000   1.0000   1.0000   1.0000   1.0000   1.0000   1.0000
     1.0000   1.0000   1.0000   1.0000   1.0000   1.0000   1.0000   1.0000
     1.0000   1.0000   1.0000   1.0000   1.0000   1.0000   1.0000   1.0000
     1.0000   1.0000   1.0000   1.0000   1.0000   1.0000   1.0000   1.0000
     1.0000   1.0000   1.0000   1.0000   1.0000   1.0000   1.0000   1.0000
     1.0000   1.0000   1.0000   1.0000   1.0000   1.0000   1.0000   1.0000
     1.0000   1.0000   1.0000   1.0000   1.0000   1.0000   1.0000   1.0000
     1.0000   1.0000   1.0000   1.0000   1.0000   1.0000   1.0000   1.0000
     1.0000   1.0000   1.0000   1.0000   1.0000   1.0000   1.0000   1.0000
     1.0000   1.0000   1.0000   1.0000   1.0000   1.0000   1.0000   1.0000
     1.0000   1.0000   1.0000   1.0000   1.0000   1.0000   1.0000   1.0000
     1.0000   1.0000   1.0000   1.0000   1.0000   1.0000   1.0000   1.0000
     1.0000   1.0000   1.0000   1.0000   1.0000   1.0000   1.0000   1.0000
     1.0000   1.0000   1.0000   1.0000   1.0000   1.0000   1.0000   1.0000
     1.0000   1.0000   1.0000   1.0000   1.0000   1.0000   1.0000   1.0000
     1.0002   1.0002   1.0002   1.0002   1.0002   1.0002   1.0002   1.0002
     1.0085   1.0085   1.0086   1.0086   1.0086   1.0086   1.0086   1.0086
     0.7875   0.7875   0.7874   0.7874   0.4587   0.4585   0.4582   0.4581
     0.1528   0.1528   0.1528   0.1527   0.1527   0.1526   0.1526   0.1526
     0.0344   0.0344   0.0129   0.0129   0.0129   0.0129   0.0128   0.0128
     0.0128   0.0128   0.0107   0.0107   0.0078   0.0078   0.0060   0.0060
     0.0007   0.0006   0.0006   0.0006   0.0006   0.0006   0.0006   0.0006
     0.0001   0.0001   0.0001   0.0001   0.0001   0.0001   0.0001   0.0001
     0.0000   0.0000   0.0000   0.0000   0.0000   0.0000   0.0000   0.0000
     0.0000   0.0000   0.0000   0.0000   0.0000   0.0000   0.0000   0.0000
     0.0000   0.0000   0.0000   0.0000   0.0000   0.0000   0.0000   0.0000
     0.0000   0.0000   0.0000   0.0000   0.0000   0.0000   0.0000   0.0000
     0.0000   0.0000   0.0000   0.0000   0.0000   0.0000   0.0000   0.0000
     0.0000   0.0000   0.0000   0.0000   0.0000   0.0000   0.0000   0.0000
     0.0000   0.0000   0.0000   0.0000   0.0000   0.0000   0.0000   0.0000
     0.0000   0.0000   0.0000   0.0000   0.0000   0.0000   0.0000   0.0000
     0.0000   0.0000   0.0000   0.0000   0.0000   0.0000   0.0000   0.0000
     0.0000   0.0000   0.0000   0.0000   0.0000   0.0000   0.0000   0.0000
     0.0000   0.0000   0.0000   0.0000   0.0000   0.0000   0.0000   0.0000
     0.0000   0.0000   0.0000   0.0000   0.0000   0.0000   0.0000   0.0000
     0.0000   0.0000

     the Fermi energy is     3.4599 ev
     (compare with:     3.4585 eV, computed in scf)

     Writing all to output data dir ./tmp/VN_slab.save/ :
     XML data file, pseudopotentials, collected wavefunctions

     init_run     :      5.19s CPU      5.72s WALL (       1 calls)
     electrons    :   1559.98s CPU   1603.95s WALL (       1 calls)

     Called by init_run:
     wfcinit      :      0.00s CPU      0.00s WALL (       1 calls)
     wfcinit:atom :      0.75s CPU      1.31s WALL (       8 calls)
     wfcinit:wfcr :    149.53s CPU    154.52s WALL (       8 calls)
     potinit      :      1.74s CPU      1.84s WALL (       1 calls)
     hinit0       :      0.87s CPU      0.90s WALL (       1 calls)

     Called by electrons:
     c_bands      :   1559.94s CPU   1603.90s WALL (       1 calls)
     v_of_rho     :      0.40s CPU      0.46s WALL (       1 calls)
     v_h          :      0.03s CPU      0.04s WALL (       1 calls)
     v_xc         :      0.37s CPU      0.42s WALL (       1 calls)
     newd         :      0.76s CPU      1.09s WALL (       1 calls)
     PAW_pot      :      0.67s CPU      0.68s WALL (       1 calls)

     Called by c_bands:
     init_us_2    :      2.17s CPU      2.33s WALL (       8 calls)
     cegterg      :   1268.67s CPU   1305.80s WALL (       8 calls)

     Called by sum_band:

     Called by *egterg:
     cdiaghg      :    473.35s CPU    490.25s WALL (     100 calls)
     cegterg:over :    199.68s CPU    201.51s WALL (      92 calls)
     cegterg:upda :    151.23s CPU    153.93s WALL (      92 calls)
     cegterg:last :     39.41s CPU     39.72s WALL (       8 calls)
     cdiaghg:chol :     32.93s CPU     33.12s WALL (     100 calls)
     cdiaghg:inve :     34.75s CPU     34.95s WALL (     100 calls)
     cdiaghg:para :     92.21s CPU    102.20s WALL (     200 calls)
     h_psi        :    377.27s CPU    394.41s WALL (     108 calls)
     s_psi        :    125.65s CPU    126.54s WALL (     108 calls)
     g_psi        :      1.34s CPU      1.35s WALL (      92 calls)

     Called by h_psi:
     h_psi:calbec :    128.56s CPU    129.96s WALL (     108 calls)
     vloc_psi     :    120.98s CPU    134.14s WALL (     108 calls)
                                        0.00s GPU  (     108 calls)
     add_vuspsi   :    125.41s CPU    126.36s WALL (     108 calls)

     General routines
     calbec       :    128.56s CPU    129.96s WALL (     108 calls)
     fft          :      0.99s CPU      1.05s WALL (      13 calls)
     ffts         :      0.55s CPU      0.55s WALL (       1 calls)
     fftw         :    100.34s CPU    111.90s WALL (   69678 calls)
     interpolate  :      0.58s CPU      0.59s WALL (       1 calls)

     Parallel routines

     PAW routines
     PAW_pot      :      0.67s CPU      0.68s WALL (       1 calls)

     PWSCF        :   1573.84s CPU   1698.83s WALL


   This run was terminated on:   1:38:54  29Apr2026            

=------------------------------------------------------------------------------=
   JOB DONE.
=------------------------------------------------------------------------------=
