
     Program PWSCF v.7.5 starts on 30Mar2026 at 23: 1:10 

     This program is part of the open-source Quantum ESPRESSO suite
     for quantum simulation of materials; please cite
         "P. Giannozzi et al., J. Phys.:Condens. Matter 21 395502 (2009);
         "P. Giannozzi et al., J. Phys.:Condens. Matter 29 465901 (2017);
         "P. Giannozzi et al., J. Chem. Phys. 152 154105 (2020);
          URL http://www.quantum-espresso.org", 
     in publications or presentations arising from this work. More details at
     http://www.quantum-espresso.org/quote

     Parallel version (MPI & OpenMP), running on      16 processor cores
     Number of MPI processes:                16
     Threads/MPI process:                     1

     MPI processes distributed on     1 nodes
     521216 MiB available memory on the printing compute node when the environment starts

     Waiting for input...
     Reading input from standard input

     Current dimensions of program PWSCF are:
     Max number of different atomic species (ntypx) = 10
     Max number of k-points (npk) =  40000
     Max angular momentum in pseudopotentials (lmaxx) =  4
     Found identity + ( -0.5000 -0.5000  0.0000) symmetry
     This is a supercell, fractional translations are disabled
     Message from routine setup:
     using ibrav=0 with symmetry is DISCOURAGED, use correct ibrav instead

     R & G space division:  proc/nbgrp/npool/nimage =      16
     Subspace diagonalization in iterative solution of the eigenvalue problem:
     a serial algorithm will be used


     Parallelization info
     --------------------
     sticks:   dense  smooth     PW     G-vecs:    dense   smooth      PW
     Min         165      66     18                 6426     1624     246
     Max         167      67     19                 6427     1627     249
     Sum        2661    1069    301               102831    26001    3959

     Using Slab Decomposition



     bravais-lattice index     =            0
     lattice parameter (alat)  =       8.6142  a.u.
     unit-cell volume          =     639.2179 (a.u.)^3
     number of atoms/cell      =            8
     number of atomic types    =            2
     number of electrons       =        68.00
     number of Kohn-Sham states=           41
     kinetic-energy cutoff     =      45.0000  Ry
     charge density cutoff     =     450.0000  Ry
     scf convergence threshold =      1.0E-07
     mixing beta               =       0.2000
     number of iterations used =            8  local-TF  mixing
     energy convergence thresh.=      1.0E-04
     force convergence thresh. =      1.0E-03
     press convergence thresh. =      5.0E-01
     Exchange-correlation= SLA  PW   PBE  PBE
                           (   1   4   3   4   0   0   0)
     nstep                     =           50

     Hubbard projectors: atomic
     Hubbard parameters of DFT+U (Dudarev formulation) in eV:
     U(Zr-4d) =  2.1400

     Internal variables: lda_plus_u =T, lda_plus_u_kind = 0

     Internal variables: orbital_resolved =F, hub_pot_fix =F, apply_U = F

     celldm(1)=   8.614227  celldm(2)=   0.000000  celldm(3)=   0.000000
     celldm(4)=   0.000000  celldm(5)=   0.000000  celldm(6)=   0.000000

     crystal axes: (cart. coord. in units of alat)
               a(1) = (   1.000000   0.000000   0.000000 )  
               a(2) = (   0.000000   1.000000   0.000000 )  
               a(3) = (   0.000000   0.000000   1.000000 )  

     reciprocal axes: (cart. coord. in units 2 pi/alat)
               b(1) = (  1.000000  0.000000  0.000000 )  
               b(2) = (  0.000000  1.000000  0.000000 )  
               b(3) = (  0.000000  0.000000  1.000000 )  


     PseudoPot. # 1 for Zr read from file:
     /scratch/anizami/QE_2/USPP/zr_pbe_v1.uspp.F.UPF
     MD5 check sum: 5db81b1e868ab7776c4564c113de050b
     Pseudo is Ultrasoft + core correction, Zval = 12.0
     Generated by new atomic code, or converted to UPF format
     Using radial grid of  887 points,  6 beta functions with: 
                l(1) =   0
                l(2) =   0
                l(3) =   1
                l(4) =   1
                l(5) =   2
                l(6) =   2
     Q(r) pseudized with  6 coefficients,  rinner =    1.200   1.200   1.200
                                                       1.200   1.200

     PseudoPot. # 2 for N  read from file:
     /scratch/anizami/QE_2/USPP/n_pbe_v1.2.uspp.F.UPF
     MD5 check sum: 95339753478d7afb44899504a8723017
     Pseudo is Ultrasoft + core correction, Zval =  5.0
     Generated by new atomic code, or converted to UPF format
     Using radial grid of  729 points,  4 beta functions with: 
                l(1) =   0
                l(2) =   0
                l(3) =   1
                l(4) =   1
     Q(r) pseudized with  8 coefficients,  rinner =    0.900   0.900   0.900


     atomic species   valence    mass     pseudopotential
     Zr               12.00     1.00000     Zr( 1.00)
     N                 5.00     1.00000     N ( 1.00)

     48 Sym. Ops., with inversion, found



   Cartesian axes

     site n.     atom                  positions (alat units)
         1        Zr     tau(   1) = (   0.0000000   0.0000000   0.0000000  )
         2        Zr     tau(   2) = (   0.5000000   0.5000000   0.0000000  )
         3        Zr     tau(   3) = (   0.5000000   0.0000000   0.5000000  )
         4        Zr     tau(   4) = (   0.0000000   0.5000000   0.5000000  )
         5        N      tau(   5) = (   0.0000000   0.0000000   0.5000000  )
         6        N      tau(   6) = (   0.0000000   0.5000000   0.0000000  )
         7        N      tau(   7) = (   0.5000000   0.0000000   0.0000000  )
         8        N      tau(   8) = (   0.5000000   0.5000000   0.5000000  )

     --------------------------------------------
     DFT-D3 Dispersion Correction (3-body terms):
     --------------------------------------------
       Reference C6 values for interpolation: 

         atom   Coordination number   C6
         N          0.000            50.54
         N          0.994            44.25
         N          2.014            39.35
         N          2.990            31.16
         Zr         0.000          3645.44
         Zr         1.935          1137.36
         Zr         3.911           917.38

       Values used:

         atom   Coordination number  R0_AB[au]  C6      C8
         Zr        17.392            3.836    917.38 152111.45
         Zr        17.392            3.836    917.38 152111.45
         Zr        17.392            3.836    917.38 152111.45
         Zr        17.392            3.836    917.38 152111.45
         N          5.970            2.478     31.16    687.49
         N          5.970            2.478     31.16    687.49
         N          5.970            2.478     31.16    687.49
         N          5.970            2.478     31.16    687.49

         Molecular C6 ( Ry / a.u.^6 ) =     20320.73


     number of k points=    10  Marzari-Vanderbilt smearing, width (Ry)=  0.0200
                       cart. coord. in units 2pi/alat
        k(    1) = (   0.0000000   0.0000000   0.0000000), wk =   0.0160000
        k(    2) = (   0.0000000   0.0000000   0.2000000), wk =   0.0960000
        k(    3) = (   0.0000000   0.0000000   0.4000000), wk =   0.0960000
        k(    4) = (   0.0000000   0.2000000   0.2000000), wk =   0.1920000
        k(    5) = (   0.0000000   0.2000000   0.4000000), wk =   0.3840000
        k(    6) = (   0.0000000   0.4000000   0.4000000), wk =   0.1920000
        k(    7) = (   0.2000000   0.2000000   0.2000000), wk =   0.1280000
        k(    8) = (   0.2000000   0.2000000   0.4000000), wk =   0.3840000
        k(    9) = (   0.2000000   0.4000000   0.4000000), wk =   0.3840000
        k(   10) = (   0.4000000   0.4000000   0.4000000), wk =   0.1280000

     Dense  grid:   102831 G-vectors     FFT dimensions: (  60,  60,  60)

     Smooth grid:    26001 G-vectors     FFT dimensions: (  40,  40,  40)

     Estimated max dynamical RAM per process >      32.74 MB

     Estimated total dynamical RAM >     523.87 MB

     Check: negative core charge=   -0.000001

     Initial potential from superposition of free atoms

     starting charge      67.9914, renormalised to      68.0000

     negative rho (up, down):  2.435E-01 0.000E+00

     STARTING HUBBARD OCCUPATIONS:

     =================== HUBBARD OCCUPATIONS ===================
     ------------------------ ATOM    1 ------------------------
     Tr[ns(  1)] =   2.00000
     eigenvalues:
       0.200  0.200  0.200  0.200  0.200
     eigenvectors (columns):
       1.000  0.000  0.000  0.000  0.000
       0.000  1.000  0.000  0.000  0.000
       0.000  0.000  1.000  0.000  0.000
       0.000  0.000  0.000  1.000  0.000
       0.000  0.000  0.000  0.000  1.000
     occupation matrix ns (before diag.):
       0.200  0.000  0.000  0.000  0.000
       0.000  0.200  0.000  0.000  0.000
       0.000  0.000  0.200  0.000  0.000
       0.000  0.000  0.000  0.200  0.000
       0.000  0.000  0.000  0.000  0.200
     ------------------------ ATOM    2 ------------------------
     Tr[ns(  2)] =   2.00000
     eigenvalues:
       0.200  0.200  0.200  0.200  0.200
     eigenvectors (columns):
       1.000  0.000  0.000  0.000  0.000
       0.000  1.000  0.000  0.000  0.000
       0.000  0.000  1.000  0.000  0.000
       0.000  0.000  0.000  1.000  0.000
       0.000  0.000  0.000  0.000  1.000
     occupation matrix ns (before diag.):
       0.200  0.000  0.000  0.000  0.000
       0.000  0.200  0.000  0.000  0.000
       0.000  0.000  0.200  0.000  0.000
       0.000  0.000  0.000  0.200  0.000
       0.000  0.000  0.000  0.000  0.200
     ------------------------ ATOM    3 ------------------------
     Tr[ns(  3)] =   2.00000
     eigenvalues:
       0.200  0.200  0.200  0.200  0.200
     eigenvectors (columns):
       1.000  0.000  0.000  0.000  0.000
       0.000  1.000  0.000  0.000  0.000
       0.000  0.000  1.000  0.000  0.000
       0.000  0.000  0.000  1.000  0.000
       0.000  0.000  0.000  0.000  1.000
     occupation matrix ns (before diag.):
       0.200  0.000  0.000  0.000  0.000
       0.000  0.200  0.000  0.000  0.000
       0.000  0.000  0.200  0.000  0.000
       0.000  0.000  0.000  0.200  0.000
       0.000  0.000  0.000  0.000  0.200
     ------------------------ ATOM    4 ------------------------
     Tr[ns(  4)] =   2.00000
     eigenvalues:
       0.200  0.200  0.200  0.200  0.200
     eigenvectors (columns):
       1.000  0.000  0.000  0.000  0.000
       0.000  1.000  0.000  0.000  0.000
       0.000  0.000  1.000  0.000  0.000
       0.000  0.000  0.000  1.000  0.000
       0.000  0.000  0.000  0.000  1.000
     occupation matrix ns (before diag.):
       0.200  0.000  0.000  0.000  0.000
       0.000  0.200  0.000  0.000  0.000
       0.000  0.000  0.200  0.000  0.000
       0.000  0.000  0.000  0.200  0.000
       0.000  0.000  0.000  0.000  0.200

     Number of occupied Hubbard levels =    8.0000

     Atomic wfc used for Hubbard projectors are NOT orthogonalized

     Starting wfcs are   68 randomized atomic wfcs

     total cpu time spent up to now is        1.0 secs

     per-process dynamical memory:   102.7 Mb

     Self-consistent Calculation

     iteration #  1     ecut=    45.00 Ry     beta= 0.20
     Davidson diagonalization with overlap
     ethr =  1.00E-02,  avg # of iterations =  2.0

     =================== HUBBARD OCCUPATIONS ===================
     ------------------------ ATOM    1 ------------------------
     Tr[ns(  1)] =   4.19054
     eigenvalues:
       0.402  0.402  0.402  0.445  0.445
     eigenvectors (columns):
      -0.000 -0.000 -0.000  0.365 -0.931
      -0.293  0.795 -0.531 -0.000  0.000
      -0.403  0.401  0.823 -0.000  0.000
       0.000 -0.000  0.000 -0.931 -0.365
       0.867  0.455  0.203  0.000 -0.000
     occupation matrix ns (before diag.):
       0.445 -0.000 -0.000  0.000  0.000
      -0.000  0.402 -0.000  0.000  0.000
      -0.000 -0.000  0.402  0.000  0.000
       0.000  0.000  0.000  0.445 -0.000
       0.000  0.000  0.000 -0.000  0.402
     ------------------------ ATOM    2 ------------------------
     Tr[ns(  2)] =   4.19122
     eigenvalues:
       0.402  0.402  0.402  0.445  0.445
     eigenvectors (columns):
       0.000 -0.000  0.000 -1.000  0.000
       0.631 -0.775 -0.000  0.000  0.000
       0.775  0.631 -0.000  0.000  0.000
      -0.000  0.000 -0.000  0.000  1.000
      -0.000 -0.000 -1.000 -0.000 -0.000
     occupation matrix ns (before diag.):
       0.445 -0.000 -0.000  0.000  0.000
      -0.000  0.402 -0.000  0.000  0.000
      -0.000 -0.000  0.402  0.000  0.000
       0.000  0.000  0.000  0.445 -0.000
       0.000  0.000  0.000 -0.000  0.402
     ------------------------ ATOM    3 ------------------------
     Tr[ns(  3)] =   4.19122
     eigenvalues:
       0.402  0.402  0.402  0.445  0.445
     eigenvectors (columns):
      -0.000 -0.000  0.000 -0.500  0.866
      -0.000  0.000  1.000 -0.000 -0.000
      -0.383  0.924 -0.000 -0.000 -0.000
       0.000  0.000 -0.000 -0.866 -0.500
       0.924  0.383  0.000  0.000  0.000
     occupation matrix ns (before diag.):
       0.445 -0.000 -0.000 -0.000  0.000
      -0.000  0.402 -0.000  0.000  0.000
      -0.000 -0.000  0.402  0.000  0.000
      -0.000  0.000  0.000  0.445 -0.000
       0.000  0.000  0.000 -0.000  0.402
     ------------------------ ATOM    4 ------------------------
     Tr[ns(  4)] =   4.19122
     eigenvalues:
       0.402  0.402  0.402  0.445  0.445
     eigenvectors (columns):
      -0.000  0.000  0.000  0.500 -0.866
      -0.259  0.966 -0.000 -0.000  0.000
      -0.000  0.000  1.000 -0.000 -0.000
       0.000 -0.000 -0.000 -0.866 -0.500
       0.966  0.259  0.000  0.000 -0.000
     occupation matrix ns (before diag.):
       0.445 -0.000 -0.000  0.000  0.000
      -0.000  0.402 -0.000  0.000  0.000
      -0.000 -0.000  0.402  0.000  0.000
       0.000  0.000  0.000  0.445 -0.000
       0.000  0.000  0.000 -0.000  0.402

     Number of occupied Hubbard levels =   16.7642

     negative rho (up, down):  2.423E-01 0.000E+00

     total cpu time spent up to now is        1.4 secs

     total energy              =    -477.83270217 Ry
     estimated scf accuracy    <       2.85822301 Ry

     iteration #  2     ecut=    45.00 Ry     beta= 0.20
     Davidson diagonalization with overlap
     ethr =  4.20E-03,  avg # of iterations =  1.0

     negative rho (up, down):  2.415E-01 0.000E+00

     total cpu time spent up to now is        1.6 secs

     total energy              =    -477.44395321 Ry
     estimated scf accuracy    <       1.31388013 Ry

     iteration #  3     ecut=    45.00 Ry     beta= 0.20
     Davidson diagonalization with overlap
     ethr =  1.93E-03,  avg # of iterations =  2.0

     negative rho (up, down):  2.455E-01 0.000E+00

     total cpu time spent up to now is        1.9 secs

     total energy              =    -477.62497628 Ry
     estimated scf accuracy    <       0.07281418 Ry

     iteration #  4     ecut=    45.00 Ry     beta= 0.20
     Davidson diagonalization with overlap
     ethr =  1.07E-04,  avg # of iterations =  5.2

     negative rho (up, down):  2.534E-01 0.000E+00

     total cpu time spent up to now is        2.2 secs

     total energy              =    -477.62847526 Ry
     estimated scf accuracy    <       0.06072569 Ry

     iteration #  5     ecut=    45.00 Ry     beta= 0.20
     Davidson diagonalization with overlap
     ethr =  8.93E-05,  avg # of iterations =  3.3

     negative rho (up, down):  2.530E-01 0.000E+00

     total cpu time spent up to now is        2.5 secs

     total energy              =    -477.64290759 Ry
     estimated scf accuracy    <       0.01844974 Ry

     iteration #  6     ecut=    45.00 Ry     beta= 0.20
     Davidson diagonalization with overlap
     ethr =  2.71E-05,  avg # of iterations =  2.0

     negative rho (up, down):  2.529E-01 0.000E+00

     total cpu time spent up to now is        2.7 secs

     total energy              =    -477.64332969 Ry
     estimated scf accuracy    <       0.00233257 Ry

     iteration #  7     ecut=    45.00 Ry     beta= 0.20
     Davidson diagonalization with overlap
     c_bands:  1 eigenvalues not converged
     ethr =  3.43E-06,  avg # of iterations =  6.4

     negative rho (up, down):  2.539E-01 0.000E+00

     total cpu time spent up to now is        3.0 secs

     total energy              =    -477.64419289 Ry
     estimated scf accuracy    <       0.00119067 Ry

     iteration #  8     ecut=    45.00 Ry     beta= 0.20
     Davidson diagonalization with overlap
     ethr =  1.75E-06,  avg # of iterations =  4.8

     negative rho (up, down):  2.539E-01 0.000E+00

     total cpu time spent up to now is        3.3 secs

     total energy              =    -477.64424050 Ry
     estimated scf accuracy    <       0.00018662 Ry

     iteration #  9     ecut=    45.00 Ry     beta= 0.20
     Davidson diagonalization with overlap
     ethr =  2.74E-07,  avg # of iterations =  2.8

     negative rho (up, down):  2.537E-01 0.000E+00

     total cpu time spent up to now is        3.5 secs

     total energy              =    -477.64426442 Ry
     estimated scf accuracy    <       0.00003078 Ry

     iteration # 10     ecut=    45.00 Ry     beta= 0.20
     Davidson diagonalization with overlap
     ethr =  4.53E-08,  avg # of iterations =  2.0

     negative rho (up, down):  2.536E-01 0.000E+00

     total cpu time spent up to now is        3.7 secs

     total energy              =    -477.64424927 Ry
     estimated scf accuracy    <       0.00003066 Ry

     iteration # 11     ecut=    45.00 Ry     beta= 0.20
     Davidson diagonalization with overlap
     ethr =  4.51E-08,  avg # of iterations =  3.9

     negative rho (up, down):  2.536E-01 0.000E+00

     total cpu time spent up to now is        4.0 secs

     total energy              =    -477.64426148 Ry
     estimated scf accuracy    <       0.00000681 Ry

     iteration # 12     ecut=    45.00 Ry     beta= 0.20
     Davidson diagonalization with overlap
     ethr =  1.00E-08,  avg # of iterations =  1.5

     negative rho (up, down):  2.536E-01 0.000E+00

     total cpu time spent up to now is        4.2 secs

     total energy              =    -477.64425930 Ry
     estimated scf accuracy    <       0.00000677 Ry

     iteration # 13     ecut=    45.00 Ry     beta= 0.20
     Davidson diagonalization with overlap
     ethr =  9.96E-09,  avg # of iterations =  2.0

     negative rho (up, down):  2.536E-01 0.000E+00

     total cpu time spent up to now is        4.5 secs

     total energy              =    -477.64426022 Ry
     estimated scf accuracy    <       0.00000020 Ry

     iteration # 14     ecut=    45.00 Ry     beta= 0.20
     Davidson diagonalization with overlap
     ethr =  2.98E-10,  avg # of iterations =  4.4

     negative rho (up, down):  2.536E-01 0.000E+00

     total cpu time spent up to now is        4.8 secs

     End of self-consistent calculation

     =================== HUBBARD OCCUPATIONS ===================
     ------------------------ ATOM    1 ------------------------
     Tr[ns(  1)] =   5.08250
     eigenvalues:
       0.489  0.489  0.489  0.537  0.537
     eigenvectors (columns):
      -0.000 -0.000 -0.000  0.804 -0.595
      -0.300  0.794 -0.529 -0.000 -0.000
      -0.409  0.394  0.823 -0.000 -0.000
       0.000 -0.000  0.000 -0.595 -0.804
       0.862  0.463  0.207  0.000  0.000
     occupation matrix ns (before diag.):
       0.537 -0.000 -0.000  0.000  0.000
      -0.000  0.489 -0.000  0.000  0.000
      -0.000 -0.000  0.489  0.000  0.000
       0.000  0.000  0.000  0.537 -0.000
       0.000  0.000  0.000 -0.000  0.489
     ------------------------ ATOM    2 ------------------------
     Tr[ns(  2)] =   5.08251
     eigenvalues:
       0.489  0.489  0.489  0.537  0.537
     eigenvectors (columns):
      -0.000  0.000 -0.000  0.000 -1.000
      -0.000  0.711 -0.703 -0.000  0.000
      -0.000  0.703  0.711 -0.000  0.000
       0.000 -0.000  0.000 -1.000 -0.000
       1.000  0.000  0.000  0.000 -0.000
     occupation matrix ns (before diag.):
       0.537 -0.000 -0.000  0.000  0.000
      -0.000  0.489 -0.000  0.000  0.000
      -0.000 -0.000  0.489  0.000  0.000
       0.000  0.000  0.000  0.537 -0.000
       0.000  0.000  0.000 -0.000  0.489
     ------------------------ ATOM    3 ------------------------
     Tr[ns(  3)] =   5.08251
     eigenvalues:
       0.489  0.489  0.489  0.537  0.537
     eigenvectors (columns):
       0.000 -0.000 -0.000 -0.866 -0.500
       1.000  0.000 -0.000  0.000 -0.000
       0.000 -0.387  0.922  0.000 -0.000
      -0.000  0.000  0.000  0.500 -0.866
      -0.000  0.922  0.387 -0.000  0.000
     occupation matrix ns (before diag.):
       0.537 -0.000 -0.000  0.000  0.000
      -0.000  0.489 -0.000  0.000  0.000
      -0.000 -0.000  0.489  0.000  0.000
       0.000  0.000  0.000  0.537 -0.000
       0.000  0.000  0.000 -0.000  0.489
     ------------------------ ATOM    4 ------------------------
     Tr[ns(  4)] =   5.08251
     eigenvalues:
       0.489  0.489  0.489  0.537  0.537
     eigenvectors (columns):
       0.000 -0.000  0.000 -0.866 -0.500
       0.000 -0.256  0.967  0.000  0.000
       1.000  0.000 -0.000 -0.000  0.000
      -0.000  0.000 -0.000 -0.500  0.866
      -0.000  0.967  0.256 -0.000 -0.000
     occupation matrix ns (before diag.):
       0.537 -0.000 -0.000 -0.000  0.000
      -0.000  0.489 -0.000  0.000  0.000
      -0.000 -0.000  0.489  0.000  0.000
      -0.000  0.000  0.000  0.537 -0.000
       0.000  0.000  0.000 -0.000  0.489

     Number of occupied Hubbard levels =   20.3300

          k = 0.0000 0.0000 0.0000 (  3239 PWs)   bands (ev):

   -31.3806 -31.1854 -31.1854 -31.1854  -9.9665  -9.9665  -9.9665  -9.3648
    -9.3648  -9.3648  -9.3648  -9.3648  -9.3648  -8.9867  -8.9867  -8.9867
     1.8062   2.2236   2.2236   2.2236  13.5929  13.5929  13.5929  14.6473
    14.6473  14.6473  14.9732  14.9732  14.9732  14.9732  14.9732  14.9732
    15.4600  15.4600  15.4600  17.7800  17.7800  17.7800  19.7290  19.7290
    21.2121

          k = 0.0000 0.0000 0.2000 (  3238 PWs)   bands (ev):

   -31.3617 -31.2049 -31.1831 -31.1831  -9.9108  -9.9108  -9.9005  -9.4244
    -9.4244  -9.3921  -9.3921  -9.3292  -9.3292  -9.1125  -9.0233  -9.0233
     2.0683   2.3990   2.4398   2.4398  12.9919  13.5216  13.5216  13.8776
    13.8776  14.0331  14.0408  14.0408  14.8590  14.8833  14.8833  15.1345
    15.1345  16.2750  16.2750  17.3293  18.5723  18.5723  19.8758  20.6884
    21.3584

          k = 0.0000 0.0000 0.4000 (  3282 PWs)   bands (ev):

   -31.3137 -31.2545 -31.1796 -31.1796  -9.7635  -9.7635  -9.7022  -9.5779
    -9.5779  -9.4355  -9.4354  -9.4040  -9.2356  -9.2356  -9.1187  -9.1187
     2.5562   2.6790   2.8198   2.8198  12.1442  12.4172  12.8098  12.8099
    13.4063  13.4063  13.4593  13.4593  14.7432  14.7432  14.7890  14.7890
    15.4691  16.3793  18.1699  18.1699  20.1627  20.1627  20.2641  20.2641
    20.2836

          k = 0.0000 0.2000 0.2000 (  3237 PWs)   bands (ev):

   -31.3440 -31.2005 -31.2005 -31.1831  -9.8855  -9.8855  -9.8570  -9.5792
    -9.3867  -9.3867  -9.3286  -9.3286  -9.3000  -9.2816  -9.0623  -8.9916
     2.3209   2.6175   2.6175   2.6482  12.8604  12.8604  13.0589  13.4592
    13.6631  13.9136  13.9136  13.9765  13.9968  13.9968  14.0952  14.7318
    16.3564  16.3564  16.7832  18.1728  18.2044  19.0473  20.4170  21.9245
    21.9348

          k = 0.0000 0.2000 0.4000 (  3271 PWs)   bands (ev):

   -31.2993 -31.2452 -31.1916 -31.1850  -9.8380  -9.7720  -9.7383  -9.7145
    -9.5492  -9.5351  -9.3103  -9.2875  -9.2817  -9.1884  -9.1636  -9.0537
     2.7932   2.9049   3.0051   3.0153  12.0029  12.2613  12.2702  12.3220
    13.1875  13.2937  13.3677  13.4540  13.7738  13.8136  14.0166  14.2562
    16.7077  17.3954  18.2776  18.5049  19.8737  20.3672  20.3744  20.5191
    20.9737

          k = 0.0000 0.4000 0.4000 (  3253 PWs)   bands (ev):

   -31.2641 -31.2235 -31.2235 -31.2008  -9.8688  -9.8688  -9.8680  -9.7583
    -9.5849  -9.4219  -9.4219  -9.2801  -9.1562  -9.1337  -9.1337  -9.0369
     3.2353   3.3163   3.3163   3.3564  11.5677  11.5928  11.5928  11.7217
    12.8057  12.8133  12.8201  12.8201  13.3352  13.4946  13.4946  13.7219
    18.6376  18.6376  19.2016  19.2779  19.7941  20.5578  21.0993  21.1422
    21.1424

          k = 0.2000 0.2000 0.2000 (  3236 PWs)   bands (ev):

   -31.3276 -31.1984 -31.1984 -31.1984  -9.9021  -9.9021  -9.9021  -9.4480
    -9.4480  -9.4479  -9.4474  -9.2706  -9.2705  -9.2705  -9.0210  -9.0210
     2.5643   2.8283   2.8283   2.8283  12.5805  12.5805  12.5805  13.2111
    13.3217  13.3217  13.3217  13.8747  13.8747  13.8747  13.9202  13.9202
    16.8896  16.8896  16.8896  18.4995  18.8017  18.8017  22.0163  22.0164
    22.0562

          k = 0.2000 0.2000 0.4000 (  3248 PWs)   bands (ev):

   -31.2868 -31.2380 -31.1951 -31.1951  -9.9369  -9.9369  -9.8736  -9.7019
    -9.4744  -9.4744  -9.2409  -9.2409  -9.2337  -9.1935  -9.0981  -9.0699
     3.0216   3.1230   3.2031   3.2031  11.7941  11.9120  11.9120  12.0318
    13.0706  13.0706  13.2125  13.2125  13.2401  13.3546  13.7016  13.7071
    17.2665  17.9332  18.5961  18.5961  20.1212  20.2155  20.6297  20.6297
    21.6409

          k = 0.2000 0.4000 0.4000 (  3273 PWs)   bands (ev):

   -31.2564 -31.2218 -31.2218 -31.2056 -10.0377 -10.0111 -10.0111  -9.9162
    -9.3790  -9.2855  -9.2855  -9.1650  -9.1440  -9.1304  -9.1304  -9.0474
     3.4501   3.5218   3.5218   3.5521  11.2649  11.2890  11.2890  11.4150
    12.6740  12.6740  12.6891  12.7061  12.9774  13.1176  13.1176  13.2210
    18.9336  18.9336  19.3101  19.7849  19.8226  20.7753  21.1252  21.1327
    21.2552

          k = 0.4000 0.4000 0.4000 (  3259 PWs)   bands (ev):

   -31.2385 -31.2193 -31.2193 -31.2193 -10.1647 -10.1647 -10.1647 -10.1142
    -9.1536  -9.1536  -9.1536  -9.1127  -9.1127  -9.1127  -9.0758  -9.0758
     3.8528   3.8955   3.8955   3.8955  10.7318  10.7318  10.7318  10.8127
    12.4815  12.4815  12.4815  12.5246  12.5246  12.5365  12.5365  12.5365
    20.1548  20.1548  20.1548  20.3639  20.8627  20.8627  21.3523  21.3523
    21.3523

     the Fermi energy is    18.3428 ev

!    total energy              =    -477.64426032 Ry
     estimated scf accuracy    <       0.00000005 Ry
     smearing contrib. (-TS)   =      -0.00242635 Ry
     internal energy E=F+TS    =    -477.64183397 Ry

     The total energy is F=E-TS. E is the sum of the following terms:
     one-electron contribution =     -16.18198037 Ry
     hartree contribution      =      51.95543606 Ry
     xc contribution           =     -93.45043879 Ry
     ewald contribution        =    -420.51811308 Ry
     DFT-D3 Dispersion         =      -0.23118981 Ry
     Hubbard energy            =       0.78445202 Ry

     convergence has been achieved in  14 iterations

     negative rho (up, down):  2.536E-01 0.000E+00
     force_hub    :      0.07s CPU      0.07s WALL (       1 calls)
     dndtau       :      0.06s CPU      0.06s WALL (     240 calls)
     dprojdtau    :      0.01s CPU      0.01s WALL (     960 calls)
     matel_dSdtau :      0.05s CPU      0.05s WALL (     240 calls)

     Forces acting on atoms (cartesian axes, Ry/au):

     atom    1 type  1   force =     0.00000000    0.00000000    0.00000000
     atom    2 type  1   force =     0.00000000    0.00000000    0.00000000
     atom    3 type  1   force =     0.00000000    0.00000000    0.00000000
     atom    4 type  1   force =     0.00000000    0.00000000    0.00000000
     atom    5 type  2   force =     0.00000000    0.00000000    0.00000000
     atom    6 type  2   force =     0.00000000    0.00000000    0.00000000
     atom    7 type  2   force =     0.00000000    0.00000000    0.00000000
     atom    8 type  2   force =     0.00000000    0.00000000    0.00000000

     Total force =     0.000000     Total SCF correction =     0.000000


     Computing stress (Cartesian axis) and pressure


     negative rho (up, down):  2.536E-01 0.000E+00
     stres_hub    :      0.17s CPU      0.18s WALL (       1 calls)
     dprojdepsilo :      0.16s CPU      0.16s WALL (      90 calls)
     dprojdeps1   :      0.00s CPU      0.00s WALL (      90 calls)
     dprojdeps2   :      0.01s CPU      0.01s WALL (      90 calls)
     dprojdeps3   :      0.15s CPU      0.15s WALL (      90 calls)
          total   stress  (Ry/bohr**3)                   (kbar)     P=        8.24
   0.00005601   0.00000000   0.00000000            8.24        0.00        0.00
   0.00000000   0.00005601   0.00000000            0.00        8.24        0.00
   0.00000000   0.00000000   0.00005601            0.00        0.00        8.24


     BFGS Geometry Optimization
     Energy error            =      1.5E-04 Ry
     Gradient error          =      0.0E+00 Ry/Bohr
     Cell gradient error     =      8.2E+00 kbar

     number of scf cycles    =   1
     number of bfgs steps    =   0

     enthalpy           new  =    -477.6442603173 Ry

     new trust radius        =       0.0070806027 bohr
     new conv_thr            =       0.0000001000 Ry

     new unit-cell volume =    641.90696 a.u.^3 (    95.12080 Ang^3 )
     density =      0.13966 g/cm^3

CELL_PARAMETERS (angstrom)
   4.564835820   0.000000000   0.000000000
   0.000000000   4.564835820   0.000000000
   0.000000000   0.000000000   4.564835820

ATOMIC_POSITIONS (crystal)
Zr               0.0000000000        0.0000000000        0.0000000000
Zr               0.5000000003        0.5000000003        0.0000000000
Zr               0.5000000003        0.0000000000        0.5000000003
Zr               0.0000000000        0.5000000003        0.5000000003
N                0.0000000000        0.0000000000        0.5000000003
N                0.0000000000        0.5000000003        0.0000000000
N                0.5000000003        0.0000000000        0.0000000000
N                0.5000000003        0.5000000003        0.5000000003



     Writing config-only to output data dir ./tmp/zrn.save/ :
     XML data file
     NEW-OLD atomic charge density approx. for the potential
     New effective cutoffs (rho, wfc):  448.30   44.86

     Check: negative core charge=   -0.000001

     negative rho (up, down):  2.537E-01 0.000E+00

     Atomic wfc used for Hubbard projectors are NOT orthogonalized


     total cpu time spent up to now is        5.9 secs

     per-process dynamical memory:   138.9 Mb

     Self-consistent Calculation

     iteration #  1     ecut=    45.00 Ry     beta= 0.20
     Davidson diagonalization with overlap
     ethr =  1.00E-06,  avg # of iterations =  3.4

     =================== HUBBARD OCCUPATIONS ===================
     ------------------------ ATOM    1 ------------------------
     Tr[ns(  1)] =   5.07298
     eigenvalues:
       0.488  0.488  0.488  0.536  0.536
     eigenvectors (columns):
      -0.000 -0.000 -0.000  0.324 -0.946
      -0.266  0.762 -0.591 -0.000  0.000
      -0.385  0.478  0.789 -0.000  0.000
       0.000 -0.000  0.000 -0.946 -0.324
       0.884  0.438  0.166  0.000 -0.000
     occupation matrix ns (before diag.):
       0.536 -0.000 -0.000  0.000  0.000
      -0.000  0.488 -0.000  0.000  0.000
      -0.000 -0.000  0.488  0.000  0.000
       0.000  0.000  0.000  0.536 -0.000
       0.000  0.000  0.000 -0.000  0.488
     ------------------------ ATOM    2 ------------------------
     Tr[ns(  2)] =   5.07297
     eigenvalues:
       0.488  0.488  0.488  0.536  0.536
     eigenvectors (columns):
       0.000 -0.000  0.000 -1.000  0.000
       0.755 -0.656 -0.000  0.000  0.000
       0.656  0.755 -0.000  0.000  0.000
      -0.000  0.000 -0.000  0.000  1.000
      -0.000 -0.000 -1.000 -0.000 -0.000
     occupation matrix ns (before diag.):
       0.536 -0.000 -0.000  0.000  0.000
      -0.000  0.488 -0.000  0.000  0.000
      -0.000 -0.000  0.488  0.000  0.000
       0.000  0.000  0.000  0.536 -0.000
       0.000  0.000  0.000 -0.000  0.488
     ------------------------ ATOM    3 ------------------------
     Tr[ns(  3)] =   5.07297
     eigenvalues:
       0.488  0.488  0.488  0.536  0.536
     eigenvectors (columns):
      -0.000 -0.000  0.000 -0.500  0.866
      -0.000  0.000  1.000 -0.000 -0.000
      -0.359  0.933 -0.000 -0.000 -0.000
       0.000  0.000 -0.000 -0.866 -0.500
       0.933  0.359  0.000  0.000  0.000
     occupation matrix ns (before diag.):
       0.536 -0.000 -0.000 -0.000  0.000
      -0.000  0.488 -0.000  0.000  0.000
      -0.000 -0.000  0.488  0.000  0.000
      -0.000  0.000  0.000  0.536 -0.000
       0.000  0.000  0.000 -0.000  0.488
     ------------------------ ATOM    4 ------------------------
     Tr[ns(  4)] =   5.07297
     eigenvalues:
       0.488  0.488  0.488  0.536  0.536
     eigenvectors (columns):
      -0.000  0.000  0.000  0.500 -0.866
      -0.240  0.971 -0.000 -0.000  0.000
      -0.000  0.000  1.000 -0.000 -0.000
       0.000 -0.000 -0.000 -0.866 -0.500
       0.971  0.240  0.000  0.000 -0.000
     occupation matrix ns (before diag.):
       0.536 -0.000 -0.000  0.000  0.000
      -0.000  0.488 -0.000  0.000  0.000
      -0.000 -0.000  0.488  0.000  0.000
       0.000  0.000  0.000  0.536 -0.000
       0.000  0.000  0.000 -0.000  0.488

     Number of occupied Hubbard levels =   20.2919

     Threshold (ethr) on eigenvalues was too large:
     Diagonalizing with lowered threshold

     Davidson diagonalization with overlap
     ethr =  1.12E-08,  avg # of iterations =  3.0

     negative rho (up, down):  2.537E-01 0.000E+00

     total cpu time spent up to now is        6.7 secs

     total energy              =    -477.64431184 Ry
     estimated scf accuracy    <       0.00000604 Ry

     iteration #  2     ecut=    45.00 Ry     beta= 0.20
     Davidson diagonalization with overlap
     ethr =  8.88E-09,  avg # of iterations =  2.0

     negative rho (up, down):  2.536E-01 0.000E+00

     total cpu time spent up to now is        6.9 secs

     total energy              =    -477.64431194 Ry
     estimated scf accuracy    <       0.00000213 Ry

     iteration #  3     ecut=    45.00 Ry     beta= 0.20
     Davidson diagonalization with overlap
     ethr =  3.13E-09,  avg # of iterations =  1.7

     negative rho (up, down):  2.536E-01 0.000E+00

     total cpu time spent up to now is        7.1 secs

     total energy              =    -477.64431158 Ry
     estimated scf accuracy    <       0.00000089 Ry

     iteration #  4     ecut=    45.00 Ry     beta= 0.20
     Davidson diagonalization with overlap
     ethr =  1.31E-09,  avg # of iterations =  2.7

     negative rho (up, down):  2.536E-01 0.000E+00

     total cpu time spent up to now is        7.3 secs

     total energy              =    -477.64431171 Ry
     estimated scf accuracy    <       0.00000040 Ry

     iteration #  5     ecut=    45.00 Ry     beta= 0.20
     Davidson diagonalization with overlap
     ethr =  5.91E-10,  avg # of iterations =  1.8

     negative rho (up, down):  2.536E-01 0.000E+00

     total cpu time spent up to now is        7.6 secs

     End of self-consistent calculation

     =================== HUBBARD OCCUPATIONS ===================
     ------------------------ ATOM    1 ------------------------
     Tr[ns(  1)] =   5.07145
     eigenvalues:
       0.488  0.488  0.488  0.536  0.536
     eigenvectors (columns):
      -0.000 -0.000 -0.000  0.210 -0.978
      -0.293  0.798 -0.527 -0.000  0.000
      -0.404  0.396  0.825 -0.000  0.000
       0.000  0.000  0.000 -0.978 -0.210
       0.867  0.455  0.206  0.000 -0.000
     occupation matrix ns (before diag.):
       0.536 -0.000 -0.000  0.000  0.000
      -0.000  0.488 -0.000  0.000  0.000
      -0.000 -0.000  0.488  0.000  0.000
       0.000  0.000  0.000  0.536 -0.000
       0.000  0.000  0.000 -0.000  0.488
     ------------------------ ATOM    2 ------------------------
     Tr[ns(  2)] =   5.07145
     eigenvalues:
       0.488  0.488  0.488  0.536  0.536
     eigenvectors (columns):
      -0.000  0.000 -0.000  0.000 -1.000
      -0.000  0.718 -0.696 -0.000  0.000
      -0.000  0.696  0.718 -0.000  0.000
       0.000 -0.000  0.000 -1.000 -0.000
       1.000  0.000  0.000  0.000 -0.000
     occupation matrix ns (before diag.):
       0.536 -0.000 -0.000  0.000  0.000
      -0.000  0.488 -0.000  0.000  0.000
      -0.000 -0.000  0.488  0.000  0.000
       0.000  0.000  0.000  0.536 -0.000
       0.000  0.000  0.000 -0.000  0.488
     ------------------------ ATOM    3 ------------------------
     Tr[ns(  3)] =   5.07145
     eigenvalues:
       0.488  0.488  0.488  0.536  0.536
     eigenvectors (columns):
       0.000 -0.000 -0.000 -0.866 -0.500
       1.000  0.000 -0.000  0.000 -0.000
       0.000 -0.393  0.919  0.000 -0.000
      -0.000  0.000  0.000  0.500 -0.866
      -0.000  0.919  0.393 -0.000  0.000
     occupation matrix ns (before diag.):
       0.536 -0.000 -0.000  0.000  0.000
      -0.000  0.488 -0.000  0.000  0.000
      -0.000 -0.000  0.488  0.000  0.000
       0.000  0.000  0.000  0.536 -0.000
       0.000  0.000  0.000 -0.000  0.488
     ------------------------ ATOM    4 ------------------------
     Tr[ns(  4)] =   5.07145
     eigenvalues:
       0.488  0.488  0.488  0.536  0.536
     eigenvectors (columns):
       0.000 -0.000  0.000 -0.866 -0.500
       0.000 -0.249  0.968  0.000  0.000
       1.000  0.000 -0.000 -0.000  0.000
      -0.000  0.000 -0.000 -0.500  0.866
      -0.000  0.968  0.249 -0.000 -0.000
     occupation matrix ns (before diag.):
       0.536 -0.000 -0.000 -0.000  0.000
      -0.000  0.488 -0.000  0.000  0.000
      -0.000 -0.000  0.488  0.000  0.000
      -0.000  0.000  0.000  0.536 -0.000
       0.000  0.000  0.000 -0.000  0.488

     Number of occupied Hubbard levels =   20.2858

          k = 0.0000 0.0000 0.0000 (  3239 PWs)   bands (ev):

   -31.4727 -31.2809 -31.2809 -31.2809 -10.0489 -10.0489 -10.0489  -9.4559
    -9.4559  -9.4559  -9.4559  -9.4559  -9.4559  -9.0831  -9.0831  -9.0831
     1.7450   2.1710   2.1710   2.1710  13.5103  13.5103  13.5103  14.5877
    14.5877  14.5877  14.8959  14.8959  14.8959  14.8959  14.8959  14.8959
    15.3869  15.3869  15.3869  17.7034  17.7034  17.7034  19.6410  19.6410
    21.0922

          k = 0.0000 0.0000 0.1997 (  3238 PWs)   bands (ev):

   -31.4541 -31.3001 -31.2788 -31.2788  -9.9939  -9.9939  -9.9836  -9.5145
    -9.5145  -9.4825  -9.4825  -9.4208  -9.4208  -9.2068  -9.1192  -9.1192
     2.0046   2.3431   2.3841   2.3841  12.9147  13.4407  13.4407  13.8097
    13.8097  13.9659  13.9693  13.9693  14.7984  14.8071  14.8071  15.0626
    15.0626  16.2023  16.2023  17.2557  18.4913  18.4913  19.7870  20.5866
    21.2604

          k = 0.0000 0.0000 0.3994 (  3282 PWs)   bands (ev):

   -31.4069 -31.3487 -31.2754 -31.2754  -9.8486  -9.8486  -9.7878  -9.6657
    -9.6657  -9.5247  -9.5247  -9.4938  -9.3284  -9.3284  -9.2132  -9.2132
     2.4892   2.6156   2.7585   2.7585  12.0776  12.3552  12.7466  12.7466
    13.3297  13.3297  13.3875  13.3875  14.6696  14.6696  14.7172  14.7172
    15.4056  16.3111  18.0908  18.0908  20.0727  20.0727  20.1745  20.1745
    20.1924

          k = 0.0000 0.1997 0.1997 (  3237 PWs)   bands (ev):

   -31.4367 -31.2958 -31.2958 -31.2788  -9.9687  -9.9687  -9.9407  -9.6665
    -9.4774  -9.4774  -9.4200  -9.4200  -9.3920  -9.3732  -9.1576  -9.0881
     2.2548   2.5586   2.5587   2.5897  12.7854  12.7854  12.9916  13.3799
    13.5953  13.8452  13.8452  13.9066  13.9260  13.9260  14.0298  14.6618
    16.2844  16.2844  16.7105  18.0943  18.1259  18.9633  20.3213  21.8214
    21.8344

          k = 0.0000 0.1997 0.3994 (  3271 PWs)   bands (ev):

   -31.3928 -31.3396 -31.2872 -31.2807  -9.9215  -9.8565  -9.8230  -9.8002
    -9.6368  -9.6234  -9.4018  -9.3796  -9.3739  -9.2819  -9.2575  -9.1493
     2.7238   2.8389   2.9409   2.9513  11.9376  12.1995  12.2062  12.2565
    13.1189  13.2267  13.2923  13.3828  13.7080  13.7457  13.9477  14.1872
    16.6360  17.3212  18.1983  18.4244  19.7858  20.2771  20.2825  20.4272
    20.8741

          k = 0.0000 0.3994 0.3994 (  3253 PWs)   bands (ev):

   -31.3582 -31.3183 -31.3183 -31.2961  -9.9515  -9.9515  -9.9507  -9.8427
    -9.6725  -9.5119  -9.5119  -9.3722  -9.2505  -9.2282  -9.2282  -9.1328
     3.1623   3.2457   3.2457   3.2868  11.5060  11.5309  11.5309  11.6611
    12.7463  12.7521  12.7588  12.7588  13.2626  13.4248  13.4248  13.6534
    18.5570  18.5570  19.1183  19.1934  19.7061  20.4669  20.7321  21.0035
    21.0467

          k = 0.1997 0.1997 0.1997 (  3236 PWs)   bands (ev):

   -31.4206 -31.2938 -31.2938 -31.2937  -9.9848  -9.9848  -9.9848  -9.5375
    -9.5375  -9.5375  -9.5365  -9.3630  -9.3630  -9.3630  -9.1171  -9.1171
     2.4960   2.7666   2.7666   2.7667  12.5099  12.5099  12.5099  13.1438
    13.2513  13.2513  13.2513  13.8059  13.8059  13.8059  13.8553  13.8553
    16.8168  16.8168  16.8168  18.4181  18.7195  18.7195  21.9143  21.9144
    21.9551

          k = 0.1997 0.1997 0.3994 (  3248 PWs)   bands (ev):

   -31.3805 -31.3326 -31.2905 -31.2905 -10.0188 -10.0188  -9.9564  -9.7871
    -9.5636  -9.5636  -9.3337  -9.3337  -9.3266  -9.2870  -9.1931  -9.1652
     2.9501   3.0545   3.1362   3.1363  11.7301  11.8481  11.8481  11.9702
    13.0014  13.0014  13.1457  13.1457  13.1741  13.2906  13.6368  13.6406
    17.1925  17.8559  18.5152  18.5152  20.0308  20.1248  20.5372  20.5372
    21.5410

          k = 0.1997 0.3994 0.3994 (  3273 PWs)   bands (ev):

   -31.3506 -31.3166 -31.3166 -31.3008 -10.1180 -10.0919 -10.0919  -9.9983
    -9.4697  -9.3776  -9.3776  -9.2589  -9.2384  -9.2249  -9.2249  -9.1432
     3.3750   3.4487   3.4487   3.4798  11.2042  11.2283  11.2283  11.3550
    12.6131  12.6131  12.6304  12.6458  12.9095  13.0522  13.0523  13.1570
    18.8509  18.8509  19.2249  19.6972  19.7345  20.6820  21.0289  21.0355
    21.1574

          k = 0.3994 0.3994 0.3994 (  3259 PWs)   bands (ev):

   -31.3329 -31.3141 -31.3141 -31.3140 -10.2434 -10.2434 -10.2434 -10.1936
    -9.2478  -9.2478  -9.2478  -9.2076  -9.2076  -9.2076  -9.1712  -9.1712
     3.7737   3.8175   3.8175   3.8175  10.6739  10.6739  10.6739  10.7548
    12.4216  12.4216  12.4216  12.4666  12.4666  12.4779  12.4779  12.4779
    20.0646  20.0646  20.0646  20.2723  20.7675  20.7675  21.2540  21.2540
    21.2541

     the Fermi energy is    18.2632 ev

!    total energy              =    -477.64431170 Ry
     estimated scf accuracy    <       0.00000007 Ry
     smearing contrib. (-TS)   =      -0.00245889 Ry
     internal energy E=F+TS    =    -477.64185281 Ry

     The total energy is F=E-TS. E is the sum of the following terms:
     one-electron contribution =     -16.98589862 Ry
     hartree contribution      =      52.13880532 Ry
     xc contribution           =     -93.41892682 Ry
     ewald contribution        =    -419.93009220 Ry
     DFT-D3 Dispersion         =      -0.23027272 Ry
     Hubbard energy            =       0.78453222 Ry

     convergence has been achieved in   5 iterations

     negative rho (up, down):  2.536E-01 0.000E+00
     force_hub    :      0.13s CPU      0.14s WALL (       2 calls)
     dndtau       :      0.12s CPU      0.12s WALL (     480 calls)
     dprojdtau    :      0.01s CPU      0.01s WALL (    1920 calls)
     matel_dSdtau :      0.10s CPU      0.10s WALL (     480 calls)

     Forces acting on atoms (cartesian axes, Ry/au):

     atom    1 type  1   force =     0.00000000    0.00000000    0.00000000
     atom    2 type  1   force =     0.00000000    0.00000000    0.00000000
     atom    3 type  1   force =     0.00000000    0.00000000    0.00000000
     atom    4 type  1   force =     0.00000000    0.00000000    0.00000000
     atom    5 type  2   force =     0.00000000    0.00000000    0.00000000
     atom    6 type  2   force =     0.00000000    0.00000000    0.00000000
     atom    7 type  2   force =     0.00000000    0.00000000    0.00000000
     atom    8 type  2   force =     0.00000000    0.00000000    0.00000000

     Total force =     0.000000     Total SCF correction =     0.000000


     Computing stress (Cartesian axis) and pressure


     negative rho (up, down):  2.536E-01 0.000E+00
     stres_hub    :      0.34s CPU      0.35s WALL (       2 calls)
     dprojdepsilo :      0.31s CPU      0.32s WALL (     180 calls)
     dprojdeps1   :      0.00s CPU      0.00s WALL (     180 calls)
     dprojdeps2   :      0.01s CPU      0.02s WALL (     180 calls)
     dprojdeps3   :      0.29s CPU      0.30s WALL (     180 calls)
          total   stress  (Ry/bohr**3)                   (kbar)     P=       -2.29
  -0.00001554   0.00000000   0.00000000           -2.29        0.00        0.00
   0.00000000  -0.00001554   0.00000000            0.00       -2.29        0.00
   0.00000000   0.00000000  -0.00001554            0.00        0.00       -2.29

     Energy error            =      5.1E-05 Ry
     Gradient error          =      0.0E+00 Ry/Bohr
     Cell gradient error     =      2.3E+00 kbar

     number of scf cycles    =   2
     number of bfgs steps    =   1

     enthalpy           old  =    -477.6442603173 Ry
     enthalpy           new  =    -477.6443117015 Ry

     CASE: enthalpy          _new < enthalpy          _old

     new trust radius        =       0.0015419612 bohr
     new conv_thr            =       0.0000000010 Ry

     new unit-cell volume =    641.32114 a.u.^3 (    95.03399 Ang^3 )
     density =      0.13978 g/cm^3

CELL_PARAMETERS (angstrom)
   4.563446723   0.000000000   0.000000000
   0.000000000   4.563446723   0.000000000
   0.000000000   0.000000000   4.563446723

ATOMIC_POSITIONS (crystal)
Zr               0.0000000000        0.0000000000        0.0000000000
Zr               0.5000000003        0.5000000003        0.0000000000
Zr               0.5000000003        0.0000000000        0.5000000003
Zr               0.0000000000        0.5000000003        0.5000000003
N                0.0000000000        0.0000000000        0.5000000003
N                0.0000000000        0.5000000003        0.0000000000
N                0.5000000003        0.0000000000        0.0000000000
N                0.5000000003        0.5000000003        0.5000000003



     Writing config-only to output data dir ./tmp/zrn.save/ :
     XML data file
     NEW-OLD atomic charge density approx. for the potential
     New effective cutoffs (rho, wfc):  448.57   44.89

     Check: negative core charge=   -0.000001

     negative rho (up, down):  2.536E-01 0.000E+00

     Atomic wfc used for Hubbard projectors are NOT orthogonalized


     total cpu time spent up to now is        8.7 secs

     per-process dynamical memory:   139.0 Mb

     Self-consistent Calculation

     iteration #  1     ecut=    45.00 Ry     beta= 0.20
     Davidson diagonalization with overlap
     ethr =  1.00E-06,  avg # of iterations =  2.0

     =================== HUBBARD OCCUPATIONS ===================
     ------------------------ ATOM    1 ------------------------
     Tr[ns(  1)] =   5.07401
     eigenvalues:
       0.488  0.488  0.488  0.536  0.536
     eigenvectors (columns):
      -0.000 -0.000 -0.000  0.233 -0.973
      -0.288  0.821 -0.493 -0.000  0.000
      -0.384  0.373  0.845 -0.000  0.000
       0.000 -0.000  0.000 -0.973 -0.233
       0.877  0.433  0.207  0.000 -0.000
     occupation matrix ns (before diag.):
       0.536 -0.000 -0.000  0.000  0.000
      -0.000  0.488 -0.000  0.000  0.000
      -0.000 -0.000  0.488  0.000  0.000
       0.000  0.000  0.000  0.536 -0.000
       0.000  0.000  0.000 -0.000  0.488
     ------------------------ ATOM    2 ------------------------
     Tr[ns(  2)] =   5.07401
     eigenvalues:
       0.488  0.488  0.488  0.536  0.536
     eigenvectors (columns):
       0.000 -0.000  0.000 -1.000  0.000
       0.643 -0.766 -0.000  0.000  0.000
       0.766  0.643 -0.000  0.000  0.000
      -0.000  0.000 -0.000  0.000  1.000
      -0.000 -0.000 -1.000 -0.000 -0.000
     occupation matrix ns (before diag.):
       0.536 -0.000 -0.000  0.000  0.000
      -0.000  0.488 -0.000  0.000  0.000
      -0.000 -0.000  0.488  0.000  0.000
       0.000  0.000  0.000  0.536 -0.000
       0.000  0.000  0.000 -0.000  0.488
     ------------------------ ATOM    3 ------------------------
     Tr[ns(  3)] =   5.07401
     eigenvalues:
       0.488  0.488  0.488  0.536  0.536
     eigenvectors (columns):
      -0.000 -0.000  0.000 -0.500  0.866
      -0.000  0.000  1.000 -0.000 -0.000
      -0.404  0.915 -0.000 -0.000 -0.000
       0.000  0.000 -0.000 -0.866 -0.500
       0.915  0.404  0.000  0.000  0.000
     occupation matrix ns (before diag.):
       0.536 -0.000 -0.000 -0.000  0.000
      -0.000  0.488 -0.000  0.000  0.000
      -0.000 -0.000  0.488  0.000  0.000
      -0.000  0.000  0.000  0.536 -0.000
       0.000  0.000  0.000 -0.000  0.488
     ------------------------ ATOM    4 ------------------------
     Tr[ns(  4)] =   5.07401
     eigenvalues:
       0.488  0.488  0.488  0.536  0.536
     eigenvectors (columns):
      -0.000  0.000  0.000  0.500 -0.866
      -0.250  0.968 -0.000 -0.000  0.000
      -0.000  0.000  1.000 -0.000 -0.000
       0.000 -0.000 -0.000 -0.866 -0.500
       0.968  0.250  0.000  0.000 -0.000
     occupation matrix ns (before diag.):
       0.536 -0.000 -0.000  0.000  0.000
      -0.000  0.488 -0.000  0.000  0.000
      -0.000 -0.000  0.488  0.000  0.000
       0.000  0.000  0.000  0.536 -0.000
       0.000  0.000  0.000 -0.000  0.488

     Number of occupied Hubbard levels =   20.2960

     Threshold (ethr) on eigenvalues was too large:
     Diagonalizing with lowered threshold

     Davidson diagonalization with overlap
     ethr =  3.62E-10,  avg # of iterations =  4.0

     negative rho (up, down):  2.536E-01 0.000E+00

     total cpu time spent up to now is        9.5 secs

     total energy              =    -477.64431723 Ry
     estimated scf accuracy    <       0.00000035 Ry

     iteration #  2     ecut=    45.00 Ry     beta= 0.20
     Davidson diagonalization with overlap
     ethr =  5.12E-10,  avg # of iterations =  1.2

     negative rho (up, down):  2.536E-01 0.000E+00

     total cpu time spent up to now is        9.7 secs

     total energy              =    -477.64431733 Ry
     estimated scf accuracy    <       0.00000036 Ry

     iteration #  3     ecut=    45.00 Ry     beta= 0.20
     Davidson diagonalization with overlap
     ethr =  5.12E-10,  avg # of iterations =  1.6

     negative rho (up, down):  2.536E-01 0.000E+00

     total cpu time spent up to now is        9.9 secs

     total energy              =    -477.64431685 Ry
     estimated scf accuracy    <       0.00000077 Ry

     iteration #  4     ecut=    45.00 Ry     beta= 0.20
     Davidson diagonalization with overlap
     ethr =  5.12E-10,  avg # of iterations =  3.6

     negative rho (up, down):  2.536E-01 0.000E+00

     total cpu time spent up to now is       10.2 secs

     total energy              =    -477.64431712 Ry
     estimated scf accuracy    <       0.00000037 Ry

     iteration #  5     ecut=    45.00 Ry     beta= 0.20
     Davidson diagonalization with overlap
     ethr =  5.12E-10,  avg # of iterations =  1.8

     negative rho (up, down):  2.536E-01 0.000E+00

     total cpu time spent up to now is       10.4 secs

     total energy              =    -477.64431712 Ry
     estimated scf accuracy    <       0.00000007 Ry

     iteration #  6     ecut=    45.00 Ry     beta= 0.20
     Davidson diagonalization with overlap
     ethr =  1.06E-10,  avg # of iterations =  2.7

     negative rho (up, down):  2.536E-01 0.000E+00

     total cpu time spent up to now is       10.6 secs

     total energy              =    -477.64431713 Ry
     estimated scf accuracy    <          2.6E-09 Ry

     iteration #  7     ecut=    45.00 Ry     beta= 0.20
     Davidson diagonalization with overlap
     ethr =  3.85E-12,  avg # of iterations =  4.0

     negative rho (up, down):  2.536E-01 0.000E+00

     total cpu time spent up to now is       10.9 secs

     total energy              =    -477.64431713 Ry
     estimated scf accuracy    <          1.4E-09 Ry

     iteration #  8     ecut=    45.00 Ry     beta= 0.20
     Davidson diagonalization with overlap
     ethr =  2.07E-12,  avg # of iterations =  1.0

     negative rho (up, down):  2.536E-01 0.000E+00

     total cpu time spent up to now is       11.1 secs

     End of self-consistent calculation

     =================== HUBBARD OCCUPATIONS ===================
     ------------------------ ATOM    1 ------------------------
     Tr[ns(  1)] =   5.07401
     eigenvalues:
       0.488  0.488  0.488  0.536  0.536
     eigenvectors (columns):
      -0.000 -0.000 -0.000  0.215 -0.977
      -0.282  0.833 -0.477 -0.000  0.000
      -0.395  0.352  0.849 -0.000  0.000
       0.000 -0.000  0.000 -0.977 -0.215
       0.874  0.427  0.230  0.000 -0.000
     occupation matrix ns (before diag.):
       0.536 -0.000 -0.000  0.000  0.000
      -0.000  0.488 -0.000  0.000  0.000
      -0.000 -0.000  0.488  0.000  0.000
       0.000  0.000  0.000  0.536 -0.000
       0.000  0.000  0.000 -0.000  0.488
     ------------------------ ATOM    2 ------------------------
     Tr[ns(  2)] =   5.07401
     eigenvalues:
       0.488  0.488  0.488  0.536  0.536
     eigenvectors (columns):
       0.000 -0.000 -0.000 -1.000 -0.000
       0.802 -0.597  0.000  0.000 -0.000
       0.597  0.802  0.000  0.000 -0.000
      -0.000  0.000  0.000  0.000 -1.000
      -0.000 -0.000  1.000 -0.000  0.000
     occupation matrix ns (before diag.):
       0.536 -0.000 -0.000  0.000  0.000
      -0.000  0.488 -0.000  0.000  0.000
      -0.000 -0.000  0.488  0.000  0.000
       0.000  0.000  0.000  0.536 -0.000
       0.000  0.000  0.000 -0.000  0.488
     ------------------------ ATOM    3 ------------------------
     Tr[ns(  3)] =   5.07401
     eigenvalues:
       0.488  0.488  0.488  0.536  0.536
     eigenvectors (columns):
      -0.000 -0.000  0.000 -0.500  0.866
      -0.000  0.000  1.000 -0.000 -0.000
      -0.384  0.923 -0.000 -0.000 -0.000
       0.000  0.000 -0.000 -0.866 -0.500
       0.923  0.384  0.000  0.000  0.000
     occupation matrix ns (before diag.):
       0.536 -0.000 -0.000 -0.000  0.000
      -0.000  0.488 -0.000  0.000  0.000
      -0.000 -0.000  0.488  0.000  0.000
      -0.000  0.000  0.000  0.536 -0.000
       0.000  0.000  0.000 -0.000  0.488
     ------------------------ ATOM    4 ------------------------
     Tr[ns(  4)] =   5.07401
     eigenvalues:
       0.488  0.488  0.488  0.536  0.536
     eigenvectors (columns):
      -0.000  0.000  0.000  0.500 -0.866
      -0.273  0.962 -0.000 -0.000  0.000
      -0.000  0.000  1.000 -0.000 -0.000
       0.000 -0.000 -0.000 -0.866 -0.500
       0.962  0.273  0.000  0.000 -0.000
     occupation matrix ns (before diag.):
       0.536 -0.000 -0.000  0.000  0.000
      -0.000  0.488 -0.000  0.000  0.000
      -0.000 -0.000  0.488  0.000  0.000
       0.000  0.000  0.000  0.536 -0.000
       0.000  0.000  0.000 -0.000  0.488

     Number of occupied Hubbard levels =   20.2960

          k = 0.0000 0.0000 0.0000 (  3239 PWs)   bands (ev):

   -31.4527 -31.2603 -31.2603 -31.2603 -10.0311 -10.0311 -10.0311  -9.4361
    -9.4361  -9.4361  -9.4361  -9.4361  -9.4361  -9.0622  -9.0622  -9.0622
     1.7586   2.1826   2.1826   2.1826  13.5284  13.5284  13.5284  14.6005
    14.6005  14.6005  14.9130  14.9130  14.9130  14.9130  14.9130  14.9130
    15.4031  15.4031  15.4031  17.7200  17.7200  17.7200  19.6600  19.6600
    21.1183

          k = 0.0000 0.0000 0.1998 (  3238 PWs)   bands (ev):

   -31.4341 -31.2795 -31.2581 -31.2581  -9.9759  -9.9759  -9.9656  -9.4950
    -9.4950  -9.4629  -9.4629  -9.4010  -9.4010  -9.1864  -9.0985  -9.0985
     2.0187   2.3555   2.3964   2.3964  12.9316  13.4585  13.4585  13.8245
    13.8245  13.9807  13.9851  13.9851  14.8115  14.8239  14.8239  15.0784
    15.0784  16.2182  16.2182  17.2716  18.5088  18.5088  19.8063  20.6087
    21.2816

          k = 0.0000 0.0000 0.3996 (  3282 PWs)   bands (ev):

   -31.3868 -31.3283 -31.2547 -31.2547  -9.8302  -9.8302  -9.7693  -9.6467
    -9.6467  -9.5054  -9.5054  -9.4744  -9.3083  -9.3083  -9.1928  -9.1928
     2.5040   2.6296   2.7721   2.7721  12.0922  12.3689  12.7605  12.7605
    13.3465  13.3465  13.4032  13.4032  14.6858  14.6858  14.7330  14.7330
    15.4192  16.3258  18.1080  18.1080  20.0922  20.0922  20.1940  20.1940
    20.2121

          k = 0.0000 0.1998 0.1998 (  3237 PWs)   bands (ev):

   -31.4166 -31.2752 -31.2752 -31.2581  -9.9507  -9.9507  -9.9226  -9.6476
    -9.4577  -9.4577  -9.4002  -9.4002  -9.3721  -9.3534  -9.1370  -9.0672
     2.2694   2.5717   2.5717   2.6026  12.8018  12.8018  13.0063  13.3973
    13.6102  13.8602  13.8602  13.9220  13.9416  13.9416  14.0442  14.6772
    16.3001  16.3001  16.7263  18.1113  18.1430  18.9815  20.3420  21.8437
    21.8562

          k = 0.0000 0.1998 0.3996 (  3271 PWs)   bands (ev):

   -31.3726 -31.3192 -31.2665 -31.2600  -9.9034  -9.8382  -9.8047  -9.7817
    -9.6178  -9.6043  -9.3820  -9.3597  -9.3539  -9.2617  -9.2372  -9.1286
     2.7391   2.8535   2.9551   2.9655  11.9519  12.2131  12.2202  12.2709
    13.1340  13.2414  13.3088  13.3983  13.7225  13.7607  13.9628  14.2023
    16.6516  17.3372  18.2156  18.4419  19.8048  20.2967  20.3024  20.4471
    20.8957

          k = 0.0000 0.3996 0.3996 (  3253 PWs)   bands (ev):

   -31.3378 -31.2978 -31.2978 -31.2755  -9.9336  -9.9336  -9.9328  -9.8244
    -9.6535  -9.4924  -9.4924  -9.3522  -9.2301  -9.2077  -9.2077  -9.1121
     3.1784   3.2613   3.2613   3.3022  11.5195  11.5445  11.5445  11.6744
    12.7594  12.7656  12.7723  12.7723  13.2785  13.4401  13.4401  13.6684
    18.5745  18.5745  19.1364  19.2117  19.7252  20.4867  20.7523  21.0248
    21.0674

          k = 0.1998 0.1998 0.1998 (  3236 PWs)   bands (ev):

   -31.4005 -31.2731 -31.2731 -31.2731  -9.9669  -9.9669  -9.9669  -9.5181
    -9.5181  -9.5181  -9.5172  -9.3430  -9.3430  -9.3430  -9.0963  -9.0963
     2.5110   2.7803   2.7803   2.7803  12.5253  12.5253  12.5253  13.1586
    13.2667  13.2667  13.2667  13.8211  13.8211  13.8211  13.8696  13.8696
    16.8326  16.8326  16.8326  18.4358  18.7373  18.7373  21.9364  21.9365
    21.9770

          k = 0.1998 0.1998 0.3996 (  3248 PWs)   bands (ev):

   -31.3602 -31.3121 -31.2698 -31.2698 -10.0010 -10.0010  -9.9385  -9.7687
    -9.5443  -9.5443  -9.3136  -9.3136  -9.3065  -9.2668  -9.1725  -9.1446
     2.9658   3.0696   3.1510   3.1510  11.7441  11.8620  11.8620  11.9837
    13.0166  13.0166  13.1604  13.1604  13.1886  13.3046  13.6511  13.6553
    17.2086  17.8726  18.5328  18.5328  20.0504  20.1444  20.5573  20.5573
    21.5626

          k = 0.1998 0.3996 0.3996 (  3273 PWs)   bands (ev):

   -31.3302 -31.2961 -31.2961 -31.2802 -10.1006 -10.0744 -10.0744  -9.9805
    -9.4500  -9.3576  -9.3576  -9.2386  -9.2179  -9.2045  -9.2045  -9.1225
     3.3916   3.4648   3.4648   3.4958  11.2174  11.2416  11.2416  11.3681
    12.6265  12.6265  12.6433  12.6591  12.9244  13.0666  13.0666  13.1710
    18.8688  18.8688  19.2434  19.7161  19.7536  20.7023  21.0497  21.0566
    21.1786

          k = 0.3996 0.3996 0.3996 (  3259 PWs)   bands (ev):

   -31.3124 -31.2936 -31.2936 -31.2936 -10.2263 -10.2263 -10.2263 -10.1764
    -9.2274  -9.2274  -9.2274  -9.1871  -9.1871  -9.1871  -9.1506  -9.1506
     3.7911   3.8347   3.8347   3.8347  10.6865  10.6865  10.6865  10.7674
    12.4347  12.4347  12.4347  12.4794  12.4794  12.4908  12.4908  12.4908
    20.0842  20.0842  20.0842  20.2922  20.7881  20.7881  21.2754  21.2754
    21.2754

     the Fermi energy is    18.2805 ev

!    total energy              =    -477.64431713 Ry
     estimated scf accuracy    <          8.6E-10 Ry
     smearing contrib. (-TS)   =      -0.00245191 Ry
     internal energy E=F+TS    =    -477.64186523 Ry

     The total energy is F=E-TS. E is the sum of the following terms:
     one-electron contribution =     -16.81086234 Ry
     hartree contribution      =      52.09838192 Ry
     xc contribution           =     -93.42550993 Ry
     ewald contribution        =    -420.05791743 Ry
     DFT-D3 Dispersion         =      -0.23047201 Ry
     Hubbard energy            =       0.78451457 Ry

     convergence has been achieved in   8 iterations

     negative rho (up, down):  2.536E-01 0.000E+00
     force_hub    :      0.20s CPU      0.21s WALL (       3 calls)
     dndtau       :      0.18s CPU      0.18s WALL (     720 calls)
     dprojdtau    :      0.02s CPU      0.02s WALL (    2880 calls)
     matel_dSdtau :      0.14s CPU      0.15s WALL (     720 calls)

     Forces acting on atoms (cartesian axes, Ry/au):

     atom    1 type  1   force =     0.00000000    0.00000000    0.00000000
     atom    2 type  1   force =     0.00000000    0.00000000    0.00000000
     atom    3 type  1   force =     0.00000000    0.00000000    0.00000000
     atom    4 type  1   force =     0.00000000    0.00000000    0.00000000
     atom    5 type  2   force =     0.00000000    0.00000000    0.00000000
     atom    6 type  2   force =     0.00000000    0.00000000    0.00000000
     atom    7 type  2   force =     0.00000000    0.00000000    0.00000000
     atom    8 type  2   force =     0.00000000    0.00000000    0.00000000

     Total force =     0.000000     Total SCF correction =     0.000000


     Computing stress (Cartesian axis) and pressure


     negative rho (up, down):  2.536E-01 0.000E+00
     stres_hub    :      0.51s CPU      0.53s WALL (       3 calls)
     dprojdepsilo :      0.46s CPU      0.47s WALL (     270 calls)
     dprojdeps1   :      0.00s CPU      0.00s WALL (     270 calls)
     dprojdeps2   :      0.02s CPU      0.02s WALL (     270 calls)
     dprojdeps3   :      0.43s CPU      0.45s WALL (     270 calls)
          total   stress  (Ry/bohr**3)                   (kbar)     P=       -0.17
  -0.00000116   0.00000000   0.00000000           -0.17        0.00        0.00
   0.00000000  -0.00000116   0.00000000            0.00       -0.17        0.00
   0.00000000   0.00000000  -0.00000116            0.00        0.00       -0.17

     Energy error            =      5.4E-06 Ry
     Gradient error          =      0.0E+00 Ry/Bohr
     Cell gradient error     =      1.7E-01 kbar

     bfgs converged in   3 scf cycles and   2 bfgs steps
     (criteria: energy <  1.0E-04 Ry, force <  1.0E-03 Ry/Bohr, cell <  5.0E-01 kbar)

     End of BFGS Geometry Optimization

     Final enthalpy           =    -477.6443171338 Ry

     File ./tmp/zrn.bfgs deleted, as requested
Begin final coordinates
     new unit-cell volume =    641.32114 a.u.^3 (    95.03399 Ang^3 )
     density =      0.13978 g/cm^3

CELL_PARAMETERS (angstrom)
   4.563446723   0.000000000   0.000000000
   0.000000000   4.563446723   0.000000000
   0.000000000   0.000000000   4.563446723

ATOMIC_POSITIONS (crystal)
Zr               0.0000000000        0.0000000000        0.0000000000
Zr               0.5000000003        0.5000000003        0.0000000000
Zr               0.5000000003        0.0000000000        0.5000000003
Zr               0.0000000000        0.5000000003        0.5000000003
N                0.0000000000        0.0000000000        0.5000000003
N                0.0000000000        0.5000000003        0.0000000000
N                0.5000000003        0.0000000000        0.0000000000
N                0.5000000003        0.5000000003        0.5000000003
End final coordinates



     Writing config-only to output data dir ./tmp/zrn.save/ :
     XML data file

     Final scf calculation at the relaxed structure.
     The G-vectors are recalculated for the final unit cell
     Results may differ from those at the preceding step.

     Parallelization info
     --------------------
     sticks:   dense  smooth     PW     G-vecs:    dense   smooth      PW
     Min         166      66     19                 6456     1632     253
     Max         167      67     20                 6459     1635     255
     Sum        2661    1069    305               103311    26145    4067

     Using Slab Decomposition



     bravais-lattice index     =            0
     lattice parameter (alat)  =       8.6142  a.u.
     unit-cell volume          =     641.3211 (a.u.)^3
     number of atoms/cell      =            8
     number of atomic types    =            2
     number of electrons       =        68.00
     number of Kohn-Sham states=           41
     kinetic-energy cutoff     =      45.0000  Ry
     charge density cutoff     =     450.0000  Ry
     scf convergence threshold =      1.0E-09
     mixing beta               =       0.2000
     number of iterations used =            8  local-TF  mixing
     press convergence thresh. =      5.0E-01
     Exchange-correlation= SLA  PW   PBE  PBE
                           (   1   4   3   4   0   0   0)
     Hubbard projectors: atomic
     Hubbard parameters of DFT+U (Dudarev formulation) in eV:
     U(Zr-4d) =  2.1400

     Internal variables: lda_plus_u =T, lda_plus_u_kind = 0

     Internal variables: orbital_resolved =F, hub_pot_fix =F, apply_U = F

     celldm(1)=   8.614227  celldm(2)=   0.000000  celldm(3)=   0.000000
     celldm(4)=   0.000000  celldm(5)=   0.000000  celldm(6)=   0.000000

     crystal axes: (cart. coord. in units of alat)
               a(1) = (   1.001096   0.000000   0.000000 )  
               a(2) = (   0.000000   1.001096   0.000000 )  
               a(3) = (   0.000000   0.000000   1.001096 )  

     reciprocal axes: (cart. coord. in units 2 pi/alat)
               b(1) = (  0.998906  0.000000  0.000000 )  
               b(2) = (  0.000000  0.998906  0.000000 )  
               b(3) = (  0.000000  0.000000  0.998906 )  


     PseudoPot. # 1 for Zr read from file:
     /scratch/anizami/QE_2/USPP/zr_pbe_v1.uspp.F.UPF
     MD5 check sum: 5db81b1e868ab7776c4564c113de050b
     Pseudo is Ultrasoft + core correction, Zval = 12.0
     Generated by new atomic code, or converted to UPF format
     Using radial grid of  887 points,  6 beta functions with: 
                l(1) =   0
                l(2) =   0
                l(3) =   1
                l(4) =   1
                l(5) =   2
                l(6) =   2
     Q(r) pseudized with  6 coefficients,  rinner =    1.200   1.200   1.200
                                                       1.200   1.200

     PseudoPot. # 2 for N  read from file:
     /scratch/anizami/QE_2/USPP/n_pbe_v1.2.uspp.F.UPF
     MD5 check sum: 95339753478d7afb44899504a8723017
     Pseudo is Ultrasoft + core correction, Zval =  5.0
     Generated by new atomic code, or converted to UPF format
     Using radial grid of  729 points,  4 beta functions with: 
                l(1) =   0
                l(2) =   0
                l(3) =   1
                l(4) =   1
     Q(r) pseudized with  8 coefficients,  rinner =    0.900   0.900   0.900


     atomic species   valence    mass     pseudopotential
     Zr               12.00     1.00000     Zr( 1.00)
     N                 5.00     1.00000     N ( 1.00)

     48 Sym. Ops., with inversion, found



   Cartesian axes

     site n.     atom                  positions (alat units)
         1        Zr     tau(   1) = (   0.0000000   0.0000000   0.0000000  )
         2        Zr     tau(   2) = (   0.5005478   0.5005478   0.0000000  )
         3        Zr     tau(   3) = (   0.5005478   0.0000000   0.5005478  )
         4        Zr     tau(   4) = (   0.0000000   0.5005478   0.5005478  )
         5        N      tau(   5) = (   0.0000000   0.0000000   0.5005478  )
         6        N      tau(   6) = (   0.0000000   0.5005478   0.0000000  )
         7        N      tau(   7) = (   0.5005478   0.0000000   0.0000000  )
         8        N      tau(   8) = (   0.5005478   0.5005478   0.5005478  )

     --------------------------------------------
     DFT-D3 Dispersion Correction (3-body terms):
     --------------------------------------------
       Reference C6 values for interpolation: 

         atom   Coordination number   C6
         N          0.000            50.54
         N          0.994            44.25
         N          2.014            39.35
         N          2.990            31.16
         Zr         0.000          3645.44
         Zr         1.935          1137.36
         Zr         3.911           917.38

       Values used:

         atom   Coordination number  R0_AB[au]  C6      C8
         Zr        17.363            3.836    917.38 152111.45
         Zr        17.363            3.836    917.38 152111.45
         Zr        17.363            3.836    917.38 152111.45
         Zr        17.363            3.836    917.38 152111.45
         N          5.965            2.478     31.16    687.49
         N          5.965            2.478     31.16    687.49
         N          5.965            2.478     31.16    687.49
         N          5.965            2.478     31.16    687.49

         Molecular C6 ( Ry / a.u.^6 ) =     20320.73


     number of k points=    10  Marzari-Vanderbilt smearing, width (Ry)=  0.0200
                       cart. coord. in units 2pi/alat
        k(    1) = (   0.0000000   0.0000000   0.0000000), wk =   0.0160000
        k(    2) = (   0.0000000   0.0000000   0.1997811), wk =   0.0960000
        k(    3) = (   0.0000000   0.0000000   0.3995623), wk =   0.0960000
        k(    4) = (   0.0000000   0.1997811   0.1997811), wk =   0.1920000
        k(    5) = (   0.0000000   0.1997811   0.3995623), wk =   0.3840000
        k(    6) = (   0.0000000   0.3995623   0.3995623), wk =   0.1920000
        k(    7) = (   0.1997811   0.1997811   0.1997811), wk =   0.1280000
        k(    8) = (   0.1997811   0.1997811   0.3995623), wk =   0.3840000
        k(    9) = (   0.1997811   0.3995623   0.3995623), wk =   0.3840000
        k(   10) = (   0.3995623   0.3995623   0.3995623), wk =   0.1280000

     Dense  grid:   103311 G-vectors     FFT dimensions: (  60,  60,  60)

     Smooth grid:    26145 G-vectors     FFT dimensions: (  40,  40,  40)

     Estimated max dynamical RAM per process >      32.96 MB

     Estimated total dynamical RAM >     527.43 MB

     Check: negative core charge=   -0.000001

     Initial potential from superposition of free atoms

     starting charge      67.9914, renormalised to      68.0000

     negative rho (up, down):  2.437E-01 0.000E+00

     STARTING HUBBARD OCCUPATIONS:

     =================== HUBBARD OCCUPATIONS ===================
     ------------------------ ATOM    1 ------------------------
     Tr[ns(  1)] =   2.00000
     eigenvalues:
       0.200  0.200  0.200  0.200  0.200
     eigenvectors (columns):
       1.000  0.000  0.000  0.000  0.000
       0.000  1.000  0.000  0.000  0.000
       0.000  0.000  1.000  0.000  0.000
       0.000  0.000  0.000  1.000  0.000
       0.000  0.000  0.000  0.000  1.000
     occupation matrix ns (before diag.):
       0.200  0.000  0.000  0.000  0.000
       0.000  0.200  0.000  0.000  0.000
       0.000  0.000  0.200  0.000  0.000
       0.000  0.000  0.000  0.200  0.000
       0.000  0.000  0.000  0.000  0.200
     ------------------------ ATOM    2 ------------------------
     Tr[ns(  2)] =   2.00000
     eigenvalues:
       0.200  0.200  0.200  0.200  0.200
     eigenvectors (columns):
       1.000  0.000  0.000  0.000  0.000
       0.000  1.000  0.000  0.000  0.000
       0.000  0.000  1.000  0.000  0.000
       0.000  0.000  0.000  1.000  0.000
       0.000  0.000  0.000  0.000  1.000
     occupation matrix ns (before diag.):
       0.200  0.000  0.000  0.000  0.000
       0.000  0.200  0.000  0.000  0.000
       0.000  0.000  0.200  0.000  0.000
       0.000  0.000  0.000  0.200  0.000
       0.000  0.000  0.000  0.000  0.200
     ------------------------ ATOM    3 ------------------------
     Tr[ns(  3)] =   2.00000
     eigenvalues:
       0.200  0.200  0.200  0.200  0.200
     eigenvectors (columns):
       1.000  0.000  0.000  0.000  0.000
       0.000  1.000  0.000  0.000  0.000
       0.000  0.000  1.000  0.000  0.000
       0.000  0.000  0.000  1.000  0.000
       0.000  0.000  0.000  0.000  1.000
     occupation matrix ns (before diag.):
       0.200  0.000  0.000  0.000  0.000
       0.000  0.200  0.000  0.000  0.000
       0.000  0.000  0.200  0.000  0.000
       0.000  0.000  0.000  0.200  0.000
       0.000  0.000  0.000  0.000  0.200
     ------------------------ ATOM    4 ------------------------
     Tr[ns(  4)] =   2.00000
     eigenvalues:
       0.200  0.200  0.200  0.200  0.200
     eigenvectors (columns):
       1.000  0.000  0.000  0.000  0.000
       0.000  1.000  0.000  0.000  0.000
       0.000  0.000  1.000  0.000  0.000
       0.000  0.000  0.000  1.000  0.000
       0.000  0.000  0.000  0.000  1.000
     occupation matrix ns (before diag.):
       0.200  0.000  0.000  0.000  0.000
       0.000  0.200  0.000  0.000  0.000
       0.000  0.000  0.200  0.000  0.000
       0.000  0.000  0.000  0.200  0.000
       0.000  0.000  0.000  0.000  0.200

     Number of occupied Hubbard levels =    8.0000

     Atomic wfc used for Hubbard projectors are NOT orthogonalized

     Starting wfcs are   68 randomized atomic wfcs

     total cpu time spent up to now is       12.4 secs

     per-process dynamical memory:   139.0 Mb

     Self-consistent Calculation

     iteration #  1     ecut=    45.00 Ry     beta= 0.20
     Davidson diagonalization with overlap
     c_bands:  2 eigenvalues not converged
     ethr =  1.00E-06,  avg # of iterations = 13.1

     =================== HUBBARD OCCUPATIONS ===================
     ------------------------ ATOM    1 ------------------------
     Tr[ns(  1)] =   4.36064
     eigenvalues:
       0.417  0.417  0.417  0.464  0.464
     eigenvectors (columns):
      -0.000 -0.000 -0.000  0.464 -0.886
      -0.277  0.716 -0.641 -0.000  0.000
      -0.394  0.524  0.756 -0.000 -0.000
       0.000 -0.000  0.000 -0.886 -0.464
       0.876  0.462  0.137  0.000 -0.000
     occupation matrix ns (before diag.):
       0.464 -0.000 -0.000  0.000  0.000
      -0.000  0.417 -0.000  0.000  0.000
      -0.000 -0.000  0.417  0.000  0.000
       0.000  0.000  0.000  0.464 -0.000
       0.000  0.000  0.000 -0.000  0.417
     ------------------------ ATOM    2 ------------------------
     Tr[ns(  2)] =   4.36053
     eigenvalues:
       0.417  0.417  0.417  0.464  0.464
     eigenvectors (columns):
      -0.000  0.000 -0.000  1.000 -0.000
      -0.000  0.713 -0.702 -0.000 -0.000
      -0.000  0.702  0.713 -0.000 -0.000
       0.000 -0.000  0.000 -0.000 -1.000
       1.000  0.000  0.000  0.000  0.000
     occupation matrix ns (before diag.):
       0.464 -0.000 -0.000  0.000  0.000
      -0.000  0.417 -0.000  0.000  0.000
      -0.000 -0.000  0.417  0.000  0.000
       0.000  0.000  0.000  0.464 -0.000
       0.000  0.000  0.000 -0.000  0.417
     ------------------------ ATOM    3 ------------------------
     Tr[ns(  3)] =   4.36053
     eigenvalues:
       0.417  0.417  0.417  0.464  0.464
     eigenvectors (columns):
       0.000 -0.000 -0.000 -0.500  0.866
       1.000  0.000 -0.000 -0.000 -0.000
       0.000 -0.372  0.928 -0.000 -0.000
      -0.000  0.000  0.000 -0.866 -0.500
      -0.000  0.928  0.372  0.000  0.000
     occupation matrix ns (before diag.):
       0.464 -0.000 -0.000 -0.000  0.000
      -0.000  0.417 -0.000  0.000  0.000
      -0.000 -0.000  0.417  0.000  0.000
      -0.000  0.000  0.000  0.464 -0.000
       0.000  0.000  0.000 -0.000  0.417
     ------------------------ ATOM    4 ------------------------
     Tr[ns(  4)] =   4.36053
     eigenvalues:
       0.417  0.417  0.417  0.464  0.464
     eigenvectors (columns):
       0.000 -0.000  0.000  0.500 -0.866
       0.000 -0.263  0.965 -0.000  0.000
       1.000  0.000 -0.000 -0.000 -0.000
      -0.000  0.000 -0.000 -0.866 -0.500
      -0.000  0.965  0.263  0.000 -0.000
     occupation matrix ns (before diag.):
       0.464 -0.000 -0.000  0.000  0.000
      -0.000  0.417 -0.000  0.000  0.000
      -0.000 -0.000  0.417  0.000  0.000
       0.000  0.000  0.000  0.464 -0.000
       0.000  0.000  0.000 -0.000  0.417

     Number of occupied Hubbard levels =   17.4422

     negative rho (up, down):  2.425E-01 0.000E+00

     total cpu time spent up to now is       13.3 secs

     total energy              =    -477.92334728 Ry
     estimated scf accuracy    <       2.33654162 Ry

     iteration #  2     ecut=    45.00 Ry     beta= 0.20
     Davidson diagonalization with overlap
     ethr =  3.44E-03,  avg # of iterations =  1.0

     negative rho (up, down):  2.413E-01 0.000E+00

     total cpu time spent up to now is       13.5 secs

     total energy              =    -477.30260805 Ry
     estimated scf accuracy    <       1.37100289 Ry

     iteration #  3     ecut=    45.00 Ry     beta= 0.20
     Davidson diagonalization with overlap
     ethr =  2.02E-03,  avg # of iterations =  2.2

     negative rho (up, down):  2.456E-01 0.000E+00

     total cpu time spent up to now is       13.7 secs

     total energy              =    -477.62421942 Ry
     estimated scf accuracy    <       0.09203589 Ry

     iteration #  4     ecut=    45.00 Ry     beta= 0.20
     Davidson diagonalization with overlap
     ethr =  1.35E-04,  avg # of iterations =  2.4

     negative rho (up, down):  2.526E-01 0.000E+00

     total cpu time spent up to now is       14.0 secs

     total energy              =    -477.64883678 Ry
     estimated scf accuracy    <       0.07012178 Ry

     iteration #  5     ecut=    45.00 Ry     beta= 0.20
     Davidson diagonalization with overlap
     ethr =  1.03E-04,  avg # of iterations =  1.0

     negative rho (up, down):  2.527E-01 0.000E+00

     total cpu time spent up to now is       14.2 secs

     total energy              =    -477.63713293 Ry
     estimated scf accuracy    <       0.03377876 Ry

     iteration #  6     ecut=    45.00 Ry     beta= 0.20
     Davidson diagonalization with overlap
     ethr =  4.97E-05,  avg # of iterations =  2.9

     negative rho (up, down):  2.532E-01 0.000E+00

     total cpu time spent up to now is       14.4 secs

     total energy              =    -477.64417373 Ry
     estimated scf accuracy    <       0.00024371 Ry

     iteration #  7     ecut=    45.00 Ry     beta= 0.20
     Davidson diagonalization with overlap
     ethr =  3.58E-07,  avg # of iterations =  7.2

     negative rho (up, down):  2.539E-01 0.000E+00

     total cpu time spent up to now is       14.8 secs

     total energy              =    -477.64435355 Ry
     estimated scf accuracy    <       0.00047534 Ry

     iteration #  8     ecut=    45.00 Ry     beta= 0.20
     Davidson diagonalization with overlap
     ethr =  3.58E-07,  avg # of iterations =  1.0

     negative rho (up, down):  2.540E-01 0.000E+00

     total cpu time spent up to now is       15.0 secs

     total energy              =    -477.64432231 Ry
     estimated scf accuracy    <       0.00022700 Ry

     iteration #  9     ecut=    45.00 Ry     beta= 0.20
     Davidson diagonalization with overlap
     ethr =  3.34E-07,  avg # of iterations =  1.9

     negative rho (up, down):  2.537E-01 0.000E+00

     total cpu time spent up to now is       15.2 secs

     total energy              =    -477.64432170 Ry
     estimated scf accuracy    <       0.00006770 Ry

     iteration # 10     ecut=    45.00 Ry     beta= 0.20
     Davidson diagonalization with overlap
     ethr =  9.96E-08,  avg # of iterations =  1.9

     negative rho (up, down):  2.536E-01 0.000E+00

     total cpu time spent up to now is       15.4 secs

     total energy              =    -477.64431174 Ry
     estimated scf accuracy    <       0.00002692 Ry

     iteration # 11     ecut=    45.00 Ry     beta= 0.20
     Davidson diagonalization with overlap
     ethr =  3.96E-08,  avg # of iterations =  3.5

     negative rho (up, down):  2.536E-01 0.000E+00

     total cpu time spent up to now is       15.7 secs

     total energy              =    -477.64432081 Ry
     estimated scf accuracy    <       0.00000653 Ry

     iteration # 12     ecut=    45.00 Ry     beta= 0.20
     Davidson diagonalization with overlap
     ethr =  9.61E-09,  avg # of iterations =  2.0

     negative rho (up, down):  2.536E-01 0.000E+00

     total cpu time spent up to now is       15.9 secs

     total energy              =    -477.64432184 Ry
     estimated scf accuracy    <       0.00000010 Ry

     iteration # 13     ecut=    45.00 Ry     beta= 0.20
     Davidson diagonalization with overlap
     ethr =  1.49E-10,  avg # of iterations =  5.2

     negative rho (up, down):  2.536E-01 0.000E+00

     total cpu time spent up to now is       16.2 secs

     total energy              =    -477.64432195 Ry
     estimated scf accuracy    <          1.8E-09 Ry

     iteration # 14     ecut=    45.00 Ry     beta= 0.20
     Davidson diagonalization with overlap
     ethr =  2.65E-12,  avg # of iterations =  5.4

     negative rho (up, down):  2.536E-01 0.000E+00

     total cpu time spent up to now is       16.6 secs

     total energy              =    -477.64432193 Ry
     estimated scf accuracy    <       0.00000027 Ry

     iteration # 15     ecut=    45.00 Ry     beta= 0.20
     Davidson diagonalization with overlap
     ethr =  2.65E-12,  avg # of iterations =  5.4

     negative rho (up, down):  2.536E-01 0.000E+00

     total cpu time spent up to now is       16.9 secs

     End of self-consistent calculation

     =================== HUBBARD OCCUPATIONS ===================
     ------------------------ ATOM    1 ------------------------
     Tr[ns(  1)] =   5.07400
     eigenvalues:
       0.488  0.488  0.488  0.536  0.536
     eigenvectors (columns):
      -0.000 -0.000 -0.000  0.258 -0.966
      -0.263  0.647 -0.716 -0.000  0.000
      -0.398  0.603  0.691 -0.000  0.000
       0.000  0.000  0.000 -0.966 -0.258
       0.879  0.467  0.098  0.000 -0.000
     occupation matrix ns (before diag.):
       0.536 -0.000 -0.000  0.000  0.000
      -0.000  0.488 -0.000  0.000  0.000
      -0.000 -0.000  0.488  0.000  0.000
       0.000  0.000  0.000  0.536 -0.000
       0.000  0.000  0.000 -0.000  0.488
     ------------------------ ATOM    2 ------------------------
     Tr[ns(  2)] =   5.07400
     eigenvalues:
       0.488  0.488  0.488  0.536  0.536
     eigenvectors (columns):
      -0.000  0.000 -0.000  0.000 -1.000
      -0.000  0.747 -0.665 -0.000  0.000
      -0.000  0.665  0.747 -0.000  0.000
       0.000 -0.000  0.000 -1.000 -0.000
       1.000  0.000  0.000  0.000 -0.000
     occupation matrix ns (before diag.):
       0.536 -0.000 -0.000  0.000  0.000
      -0.000  0.488 -0.000  0.000  0.000
      -0.000 -0.000  0.488  0.000  0.000
       0.000  0.000  0.000  0.536 -0.000
       0.000  0.000  0.000 -0.000  0.488
     ------------------------ ATOM    3 ------------------------
     Tr[ns(  3)] =   5.07400
     eigenvalues:
       0.488  0.488  0.488  0.536  0.536
     eigenvectors (columns):
       0.000 -0.000 -0.000 -0.866 -0.500
       1.000  0.000 -0.000  0.000 -0.000
       0.000 -0.375  0.927  0.000 -0.000
      -0.000  0.000  0.000  0.500 -0.866
      -0.000  0.927  0.375 -0.000  0.000
     occupation matrix ns (before diag.):
       0.536 -0.000 -0.000  0.000  0.000
      -0.000  0.488 -0.000  0.000  0.000
      -0.000 -0.000  0.488  0.000  0.000
       0.000  0.000  0.000  0.536 -0.000
       0.000  0.000  0.000 -0.000  0.488
     ------------------------ ATOM    4 ------------------------
     Tr[ns(  4)] =   5.07400
     eigenvalues:
       0.488  0.488  0.488  0.536  0.536
     eigenvectors (columns):
       0.000 -0.000  0.000 -0.866 -0.500
       0.000 -0.269  0.963  0.000  0.000
       1.000  0.000 -0.000 -0.000  0.000
      -0.000  0.000 -0.000 -0.500  0.866
      -0.000  0.963  0.269 -0.000 -0.000
     occupation matrix ns (before diag.):
       0.536 -0.000 -0.000 -0.000  0.000
      -0.000  0.488 -0.000  0.000  0.000
      -0.000 -0.000  0.488  0.000  0.000
      -0.000  0.000  0.000  0.536 -0.000
       0.000  0.000  0.000 -0.000  0.488

     Number of occupied Hubbard levels =   20.2960

          k = 0.0000 0.0000 0.0000 (  3239 PWs)   bands (ev):

   -31.4527 -31.2603 -31.2603 -31.2603 -10.0311 -10.0311 -10.0311  -9.4362
    -9.4362  -9.4362  -9.4362  -9.4362  -9.4362  -9.0622  -9.0622  -9.0622
     1.7586   2.1826   2.1826   2.1826  13.5284  13.5284  13.5284  14.6005
    14.6005  14.6005  14.9130  14.9130  14.9130  14.9130  14.9130  14.9130
    15.4031  15.4031  15.4031  17.7199  17.7199  17.7199  19.6600  19.6600
    21.1183

          k = 0.0000 0.0000 0.1998 (  3239 PWs)   bands (ev):

   -31.4341 -31.2795 -31.2581 -31.2581  -9.9759  -9.9759  -9.9656  -9.4950
    -9.4950  -9.4629  -9.4629  -9.4010  -9.4010  -9.1864  -9.0985  -9.0985
     2.0187   2.3555   2.3964   2.3964  12.9316  13.4584  13.4584  13.8245
    13.8245  13.9807  13.9851  13.9851  14.8115  14.8239  14.8239  15.0784
    15.0784  16.2182  16.2182  17.2716  18.5088  18.5088  19.8063  20.6087
    21.2817

          k = 0.0000 0.0000 0.3996 (  3282 PWs)   bands (ev):

   -31.3868 -31.3283 -31.2547 -31.2547  -9.8302  -9.8302  -9.7693  -9.6467
    -9.6467  -9.5054  -9.5054  -9.4744  -9.3083  -9.3083  -9.1928  -9.1928
     2.5040   2.6296   2.7721   2.7721  12.0922  12.3688  12.7605  12.7605
    13.3465  13.3465  13.4032  13.4032  14.6858  14.6858  14.7330  14.7330
    15.4192  16.3258  18.1080  18.1080  20.0922  20.0922  20.1940  20.1940
    20.2121

          k = 0.0000 0.1998 0.1998 (  3261 PWs)   bands (ev):

   -31.4166 -31.2752 -31.2752 -31.2581  -9.9507  -9.9507  -9.9226  -9.6476
    -9.4577  -9.4577  -9.4002  -9.4002  -9.3721  -9.3534  -9.1370  -9.0672
     2.2694   2.5716   2.5717   2.6026  12.8018  12.8018  13.0063  13.3973
    13.6102  13.8601  13.8601  13.9220  13.9415  13.9415  14.0442  14.6772
    16.3001  16.3001  16.7263  18.1112  18.1430  18.9814  20.3420  21.8562
    21.9283

          k = 0.0000 0.1998 0.3996 (  3281 PWs)   bands (ev):

   -31.3726 -31.3192 -31.2665 -31.2600  -9.9034  -9.8382  -9.8047  -9.7817
    -9.6178  -9.6043  -9.3820  -9.3597  -9.3539  -9.2617  -9.2372  -9.1286
     2.7391   2.8535   2.9551   2.9654  11.9519  12.2131  12.2202  12.2709
    13.1340  13.2414  13.3088  13.3983  13.7225  13.7607  13.9628  14.2023
    16.6516  17.3372  18.2156  18.4419  19.8048  20.2967  20.3024  20.4471
    20.8958

          k = 0.0000 0.3996 0.3996 (  3261 PWs)   bands (ev):

   -31.3378 -31.2978 -31.2978 -31.2755  -9.9336  -9.9336  -9.9328  -9.8244
    -9.6535  -9.4924  -9.4924  -9.3522  -9.2301  -9.2077  -9.2077  -9.1121
     3.1784   3.2612   3.2612   3.3022  11.5194  11.5445  11.5445  11.6744
    12.7594  12.7656  12.7723  12.7723  13.2785  13.4401  13.4401  13.6684
    18.5745  18.5745  19.1364  19.2117  19.7252  20.4867  21.0248  21.0674
    21.0674

          k = 0.1998 0.1998 0.1998 (  3254 PWs)   bands (ev):

   -31.4005 -31.2731 -31.2731 -31.2731  -9.9669  -9.9669  -9.9669  -9.5181
    -9.5181  -9.5181  -9.5172  -9.3430  -9.3430  -9.3430  -9.0963  -9.0963
     2.5110   2.7802   2.7802   2.7803  12.5253  12.5253  12.5253  13.1586
    13.2667  13.2667  13.2667  13.8211  13.8211  13.8211  13.8696  13.8696
    16.8326  16.8326  16.8326  18.4358  18.7373  18.7373  21.9366  21.9773
    21.9774

          k = 0.1998 0.1998 0.3996 (  3254 PWs)   bands (ev):

   -31.3602 -31.3121 -31.2698 -31.2698 -10.0010 -10.0010  -9.9385  -9.7687
    -9.5443  -9.5443  -9.3136  -9.3136  -9.3065  -9.2668  -9.1725  -9.1446
     2.9658   3.0696   3.1510   3.1510  11.7441  11.8620  11.8620  11.9837
    13.0166  13.0166  13.1603  13.1603  13.1886  13.3046  13.6511  13.6552
    17.2085  17.8726  18.5328  18.5328  20.0504  20.1444  20.5573  20.5573
    21.5627

          k = 0.1998 0.3996 0.3996 (  3273 PWs)   bands (ev):

   -31.3302 -31.2961 -31.2961 -31.2802 -10.1006 -10.0744 -10.0744  -9.9805
    -9.4500  -9.3576  -9.3576  -9.2386  -9.2179  -9.2045  -9.2045  -9.1225
     3.3916   3.4648   3.4648   3.4958  11.2174  11.2415  11.2415  11.3681
    12.6265  12.6265  12.6433  12.6591  12.9244  13.0666  13.0666  13.1710
    18.8688  18.8688  19.2434  19.7161  19.7536  20.7023  21.0566  21.1784
    21.1786

          k = 0.3996 0.3996 0.3996 (  3277 PWs)   bands (ev):

   -31.3124 -31.2936 -31.2936 -31.2936 -10.2263 -10.2263 -10.2263 -10.1764
    -9.2274  -9.2274  -9.2274  -9.1871  -9.1871  -9.1871  -9.1506  -9.1506
     3.7911   3.8347   3.8347   3.8347  10.6865  10.6865  10.6865  10.7674
    12.4347  12.4347  12.4347  12.4794  12.4794  12.4908  12.4908  12.4908
    20.0842  20.0842  20.0842  20.2922  20.7881  20.7881  21.2754  21.2754
    21.2754

     the Fermi energy is    18.2804 ev

!    total energy              =    -477.64432204 Ry
     estimated scf accuracy    <          5.5E-10 Ry
     smearing contrib. (-TS)   =      -0.00245167 Ry
     internal energy E=F+TS    =    -477.64187037 Ry

     The total energy is F=E-TS. E is the sum of the following terms:
     one-electron contribution =     -16.81086978 Ry
     hartree contribution      =      52.09839359 Ry
     xc contribution           =     -93.42551937 Ry
     ewald contribution        =    -420.05791743 Ry
     DFT-D3 Dispersion         =      -0.23047201 Ry
     Hubbard energy            =       0.78451464 Ry

     convergence has been achieved in  15 iterations

     negative rho (up, down):  2.536E-01 0.000E+00
     force_hub    :      0.26s CPU      0.27s WALL (       4 calls)
     dndtau       :      0.23s CPU      0.24s WALL (     960 calls)
     dprojdtau    :      0.02s CPU      0.03s WALL (    3840 calls)
     matel_dSdtau :      0.19s CPU      0.20s WALL (     960 calls)

     Forces acting on atoms (cartesian axes, Ry/au):

     atom    1 type  1   force =     0.00000000    0.00000000    0.00000000
     atom    2 type  1   force =     0.00000000    0.00000000    0.00000000
     atom    3 type  1   force =     0.00000000    0.00000000    0.00000000
     atom    4 type  1   force =     0.00000000    0.00000000    0.00000000
     atom    5 type  2   force =     0.00000000    0.00000000    0.00000000
     atom    6 type  2   force =     0.00000000    0.00000000    0.00000000
     atom    7 type  2   force =     0.00000000    0.00000000    0.00000000
     atom    8 type  2   force =     0.00000000    0.00000000    0.00000000

     Total force =     0.000000     Total SCF correction =     0.000000


     Computing stress (Cartesian axis) and pressure


     negative rho (up, down):  2.536E-01 0.000E+00
     stres_hub    :      0.68s CPU      0.70s WALL (       4 calls)
     dprojdepsilo :      0.61s CPU      0.63s WALL (     360 calls)
     dprojdeps1   :      0.00s CPU      0.00s WALL (     360 calls)
     dprojdeps2   :      0.03s CPU      0.03s WALL (     360 calls)
     dprojdeps3   :      0.58s CPU      0.60s WALL (     360 calls)
          total   stress  (Ry/bohr**3)                   (kbar)     P=       -0.18
  -0.00000121   0.00000000   0.00000000           -0.18        0.00        0.00
   0.00000000  -0.00000121   0.00000000            0.00       -0.18        0.00
   0.00000000   0.00000000  -0.00000121            0.00        0.00       -0.18


     Writing all to output data dir ./tmp/zrn.save/ :
     XML data file, charge density, pseudopotentials, collected wavefunctions

     init_run     :      0.96s CPU      1.01s WALL (       2 calls)
     electrons    :     11.61s CPU     12.43s WALL (       4 calls)
     update_pot   :      0.02s CPU      0.02s WALL (       2 calls)
     forces       :      1.63s CPU      1.66s WALL (       4 calls)
     force_dftd3  :      1.21s CPU      1.22s WALL (       4 calls)
     stress       :      2.66s CPU      2.71s WALL (       4 calls)
     stres_dftd3  :      1.21s CPU      1.22s WALL (       4 calls)

     Called by init_run:
     wfcinit      :      0.20s CPU      0.22s WALL (       2 calls)
     potinit      :      0.27s CPU      0.28s WALL (       2 calls)
     hinit0       :      0.40s CPU      0.41s WALL (       2 calls)

     Called by electrons:
     c_bands      :      8.26s CPU      8.85s WALL (      44 calls)
     sum_band     :      1.60s CPU      1.70s WALL (      44 calls)
     v_of_rho     :      0.20s CPU      0.23s WALL (      46 calls)
     newd         :      0.55s CPU      0.58s WALL (      46 calls)
     mix_rho      :      0.10s CPU      0.10s WALL (      44 calls)
     energy_dftd3 :      0.91s CPU      0.92s WALL (       4 calls)

     Called by c_bands:
     init_us_2    :      0.07s CPU      0.08s WALL (    1100 calls)
     cegterg      :      8.04s CPU      8.41s WALL (     440 calls)

     Called by *egterg:
     cdiaghg      :      2.50s CPU      2.55s WALL (    1759 calls)
     h_psi        :      4.58s CPU      4.89s WALL (    1819 calls)
     s_psi        :      0.20s CPU      0.21s WALL (    1939 calls)
     g_psi        :      0.01s CPU      0.01s WALL (    1359 calls)

     Called by h_psi:
     h_psi:calbec :      0.37s CPU      0.39s WALL (    1819 calls)
     vloc_psi     :      3.83s CPU      4.09s WALL (    1819 calls)
                                        0.00s GPU  (    1819 calls)
     add_vuspsi   :      0.18s CPU      0.19s WALL (    1819 calls)
     vhpsi        :      0.17s CPU      0.18s WALL (    1819 calls)

     General routines
     calbec       :      1.59s CPU      1.67s WALL (   21118 calls)
     fft          :      0.52s CPU      0.56s WALL (     694 calls)
     ffts         :      0.30s CPU      0.31s WALL (     730 calls)
     fftw         :      4.21s CPU      4.51s WALL (  113158 calls)
     interpolate  :      0.27s CPU      0.28s WALL (      46 calls)

     Parallel routines

     Hubbard U routines
     new_ns       :      0.06s CPU      0.07s WALL (      44 calls)
     vhpsi        :      0.17s CPU      0.18s WALL (    1819 calls)
     force_hub    :      0.26s CPU      0.27s WALL (       4 calls)
     stres_hub    :      0.68s CPU      0.70s WALL (       4 calls)

     PWSCF        :     17.10s CPU     18.16s WALL


   This run was terminated on:  23: 1:28  30Mar2026            

=------------------------------------------------------------------------------=
   JOB DONE.
=------------------------------------------------------------------------------=
