147
Lattice="13.175790690290984 0.0 0.0 0.0 13.175790690290984 0.0 0.0 0.0 26.587889186612337" Properties=species:S:1:pos:R:3:forces:R:3 energy=-136151.13858717616 free_energy=-136151.13858717616 pbc="T T T"
Nb       0.00000000       0.00000000      10.00000000       0.05344115       0.05097855       2.25935125
Nb       2.19596509       0.00000000      12.19596509      -0.11912435       0.24855446      -0.59577602
Nb       0.00000000       2.19596509      12.19596509       0.24270031      -0.12851916      -0.61975259
Nb       2.19596509       2.19596509      10.00000000      -0.06212762      -0.08639009       2.29903211
Nb       0.11092004       0.10533837      14.45006563       0.00297065       0.00790640      -0.00018640
Nb       2.17328947      -0.07625135      16.46133842      -0.00043375      -0.01903979       0.00412559
Nb      -0.07494778       2.16468925      16.46047966      -0.01095830       0.00372090       0.00575002
Nb       2.09837080       2.08980858      14.47911541      -0.00355429      -0.00169153      -0.00336917
Nb       0.00000000       4.39193020      10.00000000       0.07493712       0.04569982       2.27387978
Nb       2.19596509       4.39193020      12.19596509      -0.18234032       0.12459437      -0.58998693
Nb       0.00000000       6.58789529      12.19596509       0.21699751      -0.18190812      -0.46700155
Nb       2.19596509       6.58789529      10.00000000      -0.05453721      -0.07824690       2.38108090
Nb       0.11775788       4.48463085      14.45156486      -0.00453363      -0.00210522      -0.00842576
Nb       2.21046163       4.48975920      16.45341426       0.00982419       0.01397420      -0.00440199
Nb      -0.01974293       6.57562767      16.45361851      -0.00751636      -0.00257984      -0.00609686
Nb       2.14362765       6.48078054      14.45176347      -0.00610766      -0.00651029      -0.00401323
Nb       0.00000000       8.78386040      10.00000000       0.04683342       0.08325206       2.27898728
Nb       2.19596509       8.78386040      12.19596509      -0.20507787       0.16201190      -0.65696597
Nb       0.00000000      10.97982549      12.19596509       0.20614951      -0.16267473      -0.58522190
Nb       2.19596509      10.97982549      10.00000000      -0.08065911      -0.02904909       2.27533939
Nb       0.11405318       8.88553280      14.44788297      -0.00057438      -0.00100376      -0.00016558
Nb       2.19895656       8.81619559      16.45159530       0.00422972       0.00248960      -0.00741378
Nb       0.00746041      10.98805331      16.44995438       0.00426315      -0.00029439      -0.00180183
Nb       2.09611983      10.87158442      14.45033140       0.00092740      -0.00256827       0.00018409
Nb       4.39193020       0.00000000      10.00000000       0.06046026       0.08122063       2.22357460
Nb       6.58789529       0.00000000      12.19596509      -0.19140218       0.19762373      -0.57036144
Nb       4.39193020       2.19596509      12.19596509       0.11808434      -0.07652066      -0.56147571
Nb       6.58789529       2.19596509      10.00000000      -0.06267938      -0.04779244       2.28715978
Nb       4.48343932       0.08781689      14.45276880      -0.00149535       0.00128015      -0.00272177
Nb       6.58516069      -0.00513344      16.45297807      -0.00597679       0.00415645       0.00189902
Nb       4.48107444       2.17806909      16.45221419       0.02073518       0.01126246       0.00330438
Nb       6.49424948       2.09012836      14.43941015      -0.00719060      -0.00775085       0.00984064
Nb       4.39193020       4.39193020      10.00000000       0.04280810       0.00389702       2.35941524
Nb       6.58789529       4.39193020      12.19596509      -0.12713000       0.23769952      -0.53130613
Nb       4.39193020       6.58789529      12.19596509       0.23507905      -0.15601583      -0.02904061
Nb       6.58789529       6.58789529      10.00000000      -0.00721863      -0.04595924       2.34844357
Nb       4.49307625       4.50343585      14.43750050      -0.00353372       0.00294931       0.00855766
Nb       6.55296035       4.36154700      16.44520939      -0.01151751      -0.01211041      -0.01292031
Nb       4.35091078       6.51479345      16.76681719      -0.00824681      -0.00411274       0.03920212
Nb       6.47053727       6.47723570      14.47263823      -0.00342188       0.00074279      -0.00038927
Nb       4.39193020       8.78386040      10.00000000       0.05158918       0.10473337       2.39375952
Nb       6.58789529       8.78386040      12.19596509      -0.14255302       0.11962237      -0.60579021
Nb       4.39193020      10.97982549      12.19596509       0.16246775      -0.23765426      -0.41680513
Nb       6.58789529      10.97982549      10.00000000      -0.03274968      -0.09263685       2.26619141
Nb       4.50899181       8.85692855      14.42893918      -0.00369468      -0.00572302      -0.00364428
Nb       6.58303781       8.87500868      16.43772423      -0.00011776       0.00292412      -0.00307607
Nb       4.41882345      11.02615073      16.45531410      -0.00969717       0.00578652      -0.00859545
Nb       6.48461898      10.86868940      14.44597907      -0.00279787       0.00021854      -0.00197281
Nb       8.78386040       0.00000000      10.00000000       0.09148474       0.05902302       2.27590067
Nb      10.97982549       0.00000000      12.19596509      -0.14667964       0.17659622      -0.58482158
Nb       8.78386040       2.19596509      12.19596509       0.15080780      -0.16983550      -0.63109064
Nb      10.97982549       2.19596509      10.00000000      -0.02257043      -0.07496488       2.26685707
Nb       8.88664587       0.09933889      14.43709957      -0.00221372       0.00065229       0.00034093
Nb      10.98707627       0.01325710      16.44718086       0.00281330       0.00206588      -0.00225486
Nb       8.81798273       2.19359676      16.44950338      -0.00621204       0.00594310       0.00249834
Nb      10.88518836       2.09426359      14.44230164       0.00072659       0.00318200       0.00252765
Nb       8.78386040       4.39193020      10.00000000       0.08967622       0.04528304       2.26617007
Nb      10.97982549       4.39193020      12.19596509      -0.18828985       0.16489616      -0.53860240
Nb       8.78386040       6.58789529      12.19596509       0.00899552      -0.14785283      -0.54303550
Nb      10.97982549       6.58789529      10.00000000      -0.07076370      -0.05543915       2.22363682
Nb       8.88596802       4.49789092      14.44077257       0.00149921       0.00186045      -0.00149278
Nb      10.98616398       4.40635980      16.45110581      -0.00101919      -0.00287989       0.00102356
Nb       8.87778747       6.59177719      16.45524081       0.00420170      -0.00080630       0.00273514
Nb      10.89541171       6.48311256      14.44562144      -0.00367513      -0.00118631       0.00022497
Nb       8.78386040       8.78386040      10.00000000       0.09757182       0.06901612       2.21828610
Nb      10.97982549       8.78386040      12.19596509      -0.16752203       0.18108794      -0.56116332
Nb       8.78386040      10.97982549      12.19596509       0.17860245      -0.18704030      -0.60997134
Nb      10.97982549      10.97982549      10.00000000      -0.07223283      -0.07382743       2.26397023
Nb       8.88499153       8.87421641      14.44676755      -0.00101764       0.00042912       0.00200520
Nb      10.96722161       8.80036283      16.45095188      -0.00364917      -0.00161002       0.00120970
Nb       8.80626666      10.95819581      16.44837964      -0.00363040      -0.00355044       0.00067389
Nb      10.88075824      10.87381037      14.43815243      -0.00170978       0.00106547      -0.00106495
N        0.00000000       2.19596509      10.00000000       0.00750196       0.02661760      -1.42983135
N        2.19596509       0.00000000      10.00000000       0.00056153      -0.00254385      -1.42774618
N        0.00000000       0.00000000      12.19596509      -0.05606599      -0.06241070      -0.20487141
N        2.19596509       2.19596509      12.19596509       0.06580739       0.05988845      -0.27616605
N       -0.09565461       2.29775593      14.40369370       0.00176558       0.00302645       0.00279762
N        2.30006427      -0.10699682      14.40350872       0.00106881       0.00004474       0.00293466
N       -0.00541277      -0.01067925      16.77565493      -0.00624212      -0.00270454      -0.00685045
N        2.18535619       2.18536695      16.70324205       0.00814037       0.00745543       0.00714870
N        0.00000000       6.58789529      10.00000000       0.00546334       0.02110850      -1.39109331
N        2.19596509       4.39193020      10.00000000      -0.00657380      -0.02751723      -1.45302758
N        0.00000000       4.39193020      12.19596509      -0.07090254      -0.04912298      -0.33684485
N        2.19596509       6.58789529      12.19596509       0.04743248       0.03955179      -0.47153081
N       -0.07884689       6.68784270      14.40268267      -0.01064231       0.00787220      -0.00209519
N        2.30929779       4.26812011      14.39723844      -0.00210188      -0.00136243      -0.00466681
N        0.01274857       4.37811344      16.74871630      -0.00958816       0.00164576      -0.00421147
N        2.15790938       6.63735999      16.69889873      -0.00045277      -0.01099738      -0.00304187
N        0.00000000      10.97982549      10.00000000      -0.01714874      -0.00673912      -1.39892309
N        2.19596509       8.78386040      10.00000000       0.02847831      -0.01957381      -1.43883921
N        0.00000000       8.78386040      12.19596509      -0.06115677      -0.05324215      -0.33386366
N        2.19596509      10.97982549      12.19596509       0.04624052       0.05469971      -0.22591332
N       -0.10601499      11.08725584      14.39925213       0.00086646      -0.00209288       0.00017098
N        2.31040040       8.67668630      14.39642795      -0.00384431      -0.00703994       0.00008793
N       -0.00526722       8.78909099      16.74079066       0.00259347      -0.00239215       0.00652340
N        2.21278200      10.96297727      16.78396401      -0.00077982       0.00711527      -0.01656433
N        4.39193020       2.19596509      10.00000000      -0.03218507       0.00001980      -1.42191235
N        6.58789529       0.00000000      10.00000000       0.02906915      -0.01512889      -1.38909685
N        4.39193020       0.00000000      12.19596509      -0.03276588      -0.06014145      -0.31155754
N        6.58789529       2.19596509      12.19596509       0.03966749       0.05883944      -0.27550990
N        4.28685907       2.28666069      14.39723649      -0.00563714      -0.00507099      -0.00330490
N        6.68940917      -0.11450649      14.40378839       0.00637891      -0.00118142       0.00037795
N        4.38603030       0.01777174      16.77925697       0.00143108      -0.01625477      -0.00244975
N        6.63512743       2.18152581      16.76717267      -0.01834765      -0.00195687       0.00329873
N        4.39193020       6.58789529      10.00000000      -0.02808879       0.02702332      -1.53744101
N        6.58789529       4.39193020      10.00000000       0.01624680      -0.01197363      -1.42720497
N        4.39193020       4.39193020      12.19596509      -0.03990301      -0.04009121      -0.46651433
N        6.58789529       6.58789529      12.19596509       0.06379035       0.04363085      -0.29302683
N        4.30763284       6.68811495      14.43532319       0.00259553      -0.00576698      -0.00413536
N        6.69495947       4.28511820      14.39628306      -0.00038207       0.00203709      -0.01351757
N        4.37541361       4.32669705      16.71135641       0.00224226       0.00113386      -0.03426072
N        6.62438241       6.60303942      16.70231671      -0.00166222       0.00219881       0.00145653
N        4.39193020      10.97982549      10.00000000      -0.01390221      -0.00012676      -1.38084978
N        6.58789529       8.78386040      10.00000000       0.00548828      -0.03340300      -1.44471264
N        4.39193020       8.78386040      12.19596509      -0.08654230      -0.07157643      -0.70765475
N        6.58789529      10.97982549      12.19596509       0.05582765       0.05657635      -0.19743707
N        4.28373559      11.06737492      14.40354372      -0.00206691       0.00312260      -0.00594799
N        6.70383055       8.66339479      14.38848316      -0.00032370      -0.00158843       0.00299302
N        4.40575461       8.80725876      16.63818130      -0.00174784       0.00077339       0.00429966
N        6.60697746      11.01194443      16.77623281      -0.00922563      -0.00050574      -0.00308070
N        8.78386040       2.19596509      10.00000000      -0.02286688       0.01522916      -1.39046776
N       10.97982549       0.00000000      10.00000000       0.00192010      -0.02047369      -1.38419375
N        8.78386040       0.00000000      12.19596509      -0.06626453      -0.06387546      -0.36806962
N       10.97982549       2.19596509      12.19596509       0.04006396       0.05002081      -0.22953369
N        8.68656144       2.30117639      14.39868246      -0.00620819      -0.00105981       0.00091428
N       11.08911908      -0.10980537      14.39780803      -0.00484627       0.00330078      -0.00084564
N        8.78993713      -0.00627913      16.73770996      -0.00025711      -0.00061706       0.00584952
N       10.96474789       2.21083515      16.78831798       0.00959767      -0.00211550      -0.01769356
N        8.78386040       6.58789529      10.00000000      -0.02446405       0.01527184      -1.39163144
N       10.97982549       4.39193020      10.00000000       0.02947307      -0.02230458      -1.37607627
N        8.78386040       4.39193020      12.19596509      -0.03829067      -0.07224414      -0.36627704
N       10.97982549       6.58789529      12.19596509       0.02845003       0.04565585      -0.21895566
N        8.68773528       6.68966709      14.40125565       0.00004422       0.00320874      -0.00143750
N       11.09168303       4.28118626      14.39971453      -0.00297477       0.00125778       0.00230114
N        8.78364234       4.39779606      16.74024925      -0.00304984      -0.00189979       0.00449377
N       11.01144588       6.59812371      16.78934470      -0.00441356      -0.00508050      -0.00395204
N        8.78386040      10.97982549      10.00000000      -0.01584417       0.01938663      -1.39189935
N       10.97982549       8.78386040      10.00000000       0.01710452      -0.00040212      -1.38489489
N        8.78386040       8.78386040      12.19596509      -0.03475669      -0.03188502      -0.29633455
N       10.97982549      10.97982549      12.19596509       0.06109790       0.04984881      -0.32612310
N        8.67967295      11.08045751      14.39922579      -0.00235256      -0.00060524       0.00068006
N       11.09251187       8.67452134      14.40100262      -0.00136346       0.00099399       0.00224792
N        8.78271603       8.77761660      16.77528750      -0.00284441      -0.00284544      -0.00232531
N       10.98888134      10.98686739      16.75186903      -0.00012598       0.00020646      -0.00472620
S        4.34474154       6.54344571      19.11513819      -0.00266983      -0.02253752      -0.03203749
Li       6.52103838       6.61846567      18.65439964      -0.01536620       0.00324807       0.00129481
Li       2.25124633       2.24216678      18.57637418       0.01010444       0.00789252       0.00833783
