147
Lattice="13.429296207015998 0.0 0.0 0.0 13.429296207015998 0.0 0.0 0.0 26.714643787988994" Properties=species:S:1:pos:R:3:forces:R:3 energy=-113142.90576054598 free_energy=-113142.90576054598 pbc="T T T"
Sc       0.00000000       0.00000000      10.00000000      -0.01011523      -0.02644097       0.43845768
Sc       2.23821609       0.00000000      12.23821609       0.01837439      -0.13287204      -0.24897123
Sc       0.00000000       2.23821609      12.23821609      -0.09942893       0.01694511      -0.25549489
Sc       2.23821609       2.23821609      10.00000000       0.02261645       0.02065650       0.34096453
Sc      -0.00071781      -0.00496373      14.47963395       0.00741609       0.01225799       0.01066545
Sc       2.23988908      -0.03521502      16.65768272      -0.00099887      -0.01007050      -0.01000853
Sc      -0.03504387       2.24104690      16.65219486      -0.01030755       0.00154729      -0.01005764
Sc       2.24339803       2.24549429      14.44638552      -0.00455497      -0.00958482      -0.02576168
Sc       0.00000000       4.47643218      10.00000000       0.00203529       0.04729364       0.43912077
Sc       2.23821609       4.47643218      12.23821609       0.08803123       0.23240330      -0.23152578
Sc       0.00000000       6.71464827      12.23821609       0.12607096       0.03526268      -0.11358414
Sc       2.23821609       6.71464827      10.00000000       0.03211694       0.02176799       0.47843962
Sc       0.00086281       4.48790225      14.47762241       0.00457502      -0.00922306       0.00741069
Sc       2.23953945       4.53505140      16.65033085       0.00789689       0.01079889      -0.00459996
Sc       0.00381527       6.72515020      16.66171656      -0.00453106       0.00412893      -0.00919195
Sc       2.27113040       6.73092764      14.49092210      -0.00320154      -0.00547234       0.00595365
Sc       0.00000000       8.95286435      10.00000000       0.01080352      -0.02098971       0.44931879
Sc       2.23821609       8.95286435      12.23821609       0.09828427      -0.08110751      -0.17259430
Sc       0.00000000      11.19108044      12.23821609       0.00364840      -0.04565251      -0.16261482
Sc       2.23821609      11.19108044      10.00000000       0.02159778      -0.04273713       0.42216871
Sc       0.00505498       8.94912734      14.47829219      -0.00356586       0.00428166      -0.01178234
Sc       2.23865072       8.95139754      16.69243425      -0.00069086       0.00668307      -0.02435349
Sc      -0.00445871      11.18384902      16.66189971      -0.00301590       0.00491338      -0.00991957
Sc       2.24428067      11.17361711      14.47557464      -0.00303724       0.01703484       0.00601330
Sc       4.47643218       0.00000000      10.00000000       0.01613059      -0.02535879       0.46015496
Sc       6.71464827       0.00000000      12.23821609      -0.00535946      -0.03694984      -0.19841255
Sc       4.47643218       2.23821609      12.23821609       0.10184140       0.12974738      -0.18945354
Sc       6.71464827       2.23821609      10.00000000      -0.00714407       0.01580843       0.39791729
Sc       4.47791011      -0.00708057      14.47855746      -0.00784804       0.00541294       0.00659025
Sc       6.71646689      -0.00537667      16.66206299       0.00862322      -0.00768786      -0.00460382
Sc       4.51588873       2.24673953      16.62829645       0.01125835       0.00237750       0.00091043
Sc       6.72018566       2.24002244      14.46620957      -0.00133517      -0.01068679       0.00870730
Sc       4.47643218       4.47643218      10.00000000       0.01050630       0.05786371       0.50315898
Sc       6.71464827       4.47643218      12.23821609      -0.08048016       0.14019171      -0.17367982
Sc       4.47643218       6.71464827      12.23821609       0.02506286       0.04812925      -0.05346969
Sc       6.71464827       6.71464827      10.00000000      -0.02865572       0.01339545       0.49724827
Sc       4.48006766       4.52325529      14.49582033      -0.00884691      -0.01233487       0.03117334
Sc       6.71213398       4.45987008      16.66830973      -0.00742072      -0.00192781       0.00852578
Sc       4.43879709       6.72333538      17.00500172       0.00429451       0.00301668      -0.00704097
Sc       6.67824031       6.71730954      14.50283708       0.00396541       0.00363297       0.00798636
Sc       4.47643218       8.95286435      10.00000000       0.00269297      -0.03292529       0.51874655
Sc       6.71464827       8.95286435      12.23821609      -0.11746111      -0.09336370      -0.16698158
Sc       4.47643218      11.19108044      12.23821609       0.00245309      -0.17159208      -0.08446871
Sc       6.71464827      11.19108044      10.00000000      -0.01709475      -0.02911492       0.43008925
Sc       4.47411056       8.91559948      14.50300218       0.00268989       0.00493420      -0.01621698
Sc       6.71014901       8.98230372      16.65643200       0.00792311       0.00590788       0.00578627
Sc       4.47604266      11.17738162      16.66467173       0.00520854       0.00614519      -0.01239143
Sc       6.70753704      11.19028403      14.47224197       0.00342908       0.00512215      -0.00342497
Sc       8.95286435       0.00000000      10.00000000      -0.00609223      -0.01650777       0.44344433
Sc      11.19108044       0.00000000      12.23821609      -0.01570250      -0.03210562      -0.17011833
Sc       8.95286435       2.23821609      12.23821609       0.00220549       0.00509130      -0.22465862
Sc      11.19108044       2.23821609      10.00000000      -0.01504172       0.00843090       0.41278213
Sc       8.95131917      -0.00333281      14.47711388       0.00426700       0.00106315      -0.01140696
Sc      11.18582488      -0.00647525      16.66035833       0.00150461       0.00155732      -0.01073898
Sc       8.95358612       2.23825142      16.66396184       0.00644061      -0.00081735      -0.01076598
Sc      11.18193087       2.24012090      14.47199205       0.01217135      -0.00050188       0.01029675
Sc       8.95286435       4.47643218      10.00000000      -0.01325995       0.03556247       0.43813063
Sc      11.19108044       4.47643218      12.23821609      -0.00958996       0.04149581      -0.18099101
Sc       8.95286435       6.71464827      12.23821609      -0.13043746       0.01126992      -0.12414957
Sc      11.19108044       6.71464827      10.00000000      -0.00270506       0.01232767       0.45119724
Sc       8.94916182       4.48175026      14.47544418       0.00679671       0.00343088      -0.00782644
Sc      11.18806080       4.48408372      16.66070191       0.00082095       0.00324010      -0.00477222
Sc       8.97805520       6.71994674      16.62502338      -0.00029285       0.00519903       0.01451388
Sc      11.19943654       6.71770667      14.46899159       0.00041600       0.00014398       0.00150487
Sc       8.95286435       8.95286435      10.00000000      -0.01383896      -0.01919688       0.43629872
Sc      11.19108044       8.95286435      12.23821609       0.01796764      -0.00606086      -0.18234186
Sc       8.95286435      11.19108044      12.23821609      -0.01022862      -0.01178928      -0.17868319
Sc      11.19108044      11.19108044      10.00000000      -0.00424875      -0.02092595       0.44061149
Sc       8.95045293       8.95292945      14.47285647       0.00577573       0.00207899      -0.00943415
Sc      11.19209938       8.95454864      16.66002272      -0.00114620       0.00326890       0.00506533
Sc       8.95376003      11.19009430      16.65955993       0.00456165      -0.00098885       0.00550756
Sc      11.19087068      11.18753484      14.47393977       0.00167585       0.00590428       0.00593951
N        0.00000000       2.23821609      10.00000000       0.02199167      -0.01207416       0.09676732
N        2.23821609       0.00000000      10.00000000      -0.01440101       0.04232730       0.09770860
N        0.00000000       0.00000000      12.23821609       0.02973301       0.04283149      -0.28380274
N        2.23821609       2.23821609      12.23821609      -0.02376471      -0.01401483       0.02463940
N        0.01701431       2.23935982      14.49850319       0.01304398      -0.00073482       0.02477104
N        2.23782118       0.01872621      14.50117817      -0.00453465       0.01330212       0.02432932
N       -0.00127366       0.00260752      16.67923584       0.00684633       0.00983036      -0.01182733
N        2.23772327       2.24427122      16.92993181      -0.01331034      -0.01724979      -0.02612087
N        0.00000000       6.71464827      10.00000000      -0.02860892      -0.01796944       0.00315809
N        2.23821609       4.47643218      10.00000000      -0.02930209      -0.07134734       0.07868038
N        0.00000000       4.47643218      12.23821609       0.01103055      -0.06442259      -0.28892386
N        2.23821609       6.71464827      12.23821609      -0.09756488      -0.04672774      -0.39767664
N       -0.00454470       6.71517993      14.48044723       0.00401632       0.00330310      -0.00210445
N        2.23701088       4.46466020      14.49989897      -0.00481825      -0.01073410       0.00846819
N       -0.00084851       4.47311356      16.68052719       0.00285624      -0.01264134      -0.01226133
N        2.19918638       6.71842407      16.65813028       0.00088035      -0.00666738       0.00634265
N        0.00000000      11.19108044      10.00000000      -0.00213504       0.03070848       0.03836523
N        2.23821609       8.95286435      10.00000000      -0.03008833       0.03053082       0.04894969
N        0.00000000       8.95286435      12.23821609      -0.00968560       0.02563158      -0.32789022
N        2.23821609      11.19108044      12.23821609      -0.02138129       0.07582235      -0.25573606
N        0.00223983      11.19221213      14.48543074       0.00005811       0.00391733      -0.00253974
N        2.23836311       8.95373200      14.49444915       0.00109966       0.00275571       0.00377798
N       -0.00396711       8.95994560      16.67503603       0.00687230       0.00436008       0.00524119
N        2.23250748      11.19872952      16.68282228      -0.00444955       0.02408815      -0.00959021
N        4.47643218       2.23821609      10.00000000      -0.03008936      -0.03612734       0.04820433
N        6.71464827       0.00000000      10.00000000       0.00389059       0.01866544       0.05531214
N        4.47643218       0.00000000      12.23821609      -0.03459291       0.03580467      -0.33139514
N        6.71464827       2.23821609      12.23821609      -0.01787251       0.00372450      -0.23815254
N        4.46174872       2.23287297      14.48815373      -0.01045179      -0.00865870       0.00706925
N        6.71364701       0.00225113      14.48656587       0.00718983       0.00282487      -0.00306835
N        4.47602922       0.00423996      16.68373473      -0.00983010      -0.00035147      -0.01186847
N        6.71801055       2.24006499      16.67151846      -0.00578395      -0.01774241       0.01248039
N        4.47643218       6.71464827      10.00000000      -0.00181751      -0.01909198      -0.10448166
N        6.71464827       4.47643218      10.00000000       0.02177802      -0.04440295       0.05711809
N        4.47643218       4.47643218      12.23821609      -0.02186800      -0.14944486      -0.43340289
N        6.71464827       6.71464827      12.23821609       0.11942414      -0.00805321      -0.29867503
N        4.48650226       6.71457029      14.43627910      -0.00064920       0.00519440      -0.01738554
N        6.71339101       4.48371688      14.49960275       0.00831855      -0.00248086      -0.00359312
N        4.46932198       4.43430827      16.65565388      -0.00958713      -0.01057006      -0.00750325
N        6.78417715       6.72264293      16.75603264       0.00759710       0.01163398       0.00949534
N        4.47643218      11.19108044      10.00000000      -0.00727442       0.05553789      -0.00196484
N        6.71464827       8.95286435      10.00000000       0.03101470       0.02687471       0.04839536
N        4.47643218       8.95286435      12.23821609       0.00077416       0.11299690      -0.45168292
N        6.71464827      11.19108044      12.23821609       0.01313242       0.01724362      -0.29707889
N        4.47411070      11.19795004      14.48368145      -0.00288761       0.00282410      -0.00839028
N        6.71332041       8.94834545      14.49809296       0.00295497       0.00198669       0.00350287
N        4.47059704       8.98937600      16.66664196      -0.00728908       0.00261481       0.00278270
N        6.71767076      11.19641343      16.67379435       0.00718752       0.00342445      -0.00582303
N        8.95286435       2.23821609      10.00000000       0.00838308      -0.00880371       0.06596217
N       11.19108044       0.00000000      10.00000000       0.01068859       0.01803552       0.04355397
N        8.95286435       0.00000000      12.23821609       0.00195430       0.01613727      -0.31956267
N       11.19108044       2.23821609      12.23821609       0.04812025      -0.00502548      -0.25180587
N        8.95255398       2.23905499      14.48554492       0.00163394       0.00037255       0.00722506
N       11.19143528       0.00254375      14.48522123       0.00095825       0.00311798      -0.00213864
N        8.95293834       0.00205284      16.67358425       0.00559523       0.00654423       0.00823164
N       11.19346061       2.23805612      16.67993685       0.02161012      -0.00444030      -0.00461719
N        8.95286435       6.71464827      10.00000000       0.03319191      -0.00973831       0.00513655
N       11.19108044       4.47643218      10.00000000       0.00745131      -0.03033516       0.04624926
N        8.95286435       4.47643218      12.23821609       0.00327301      -0.03307210      -0.30202003
N       11.19108044       6.71464827      12.23821609       0.00078959      -0.01326226      -0.36154801
N        8.95634360       6.71519236      14.47942390       0.00114697       0.00296422       0.00832832
N       11.19211160       4.47420812      14.48580270       0.00144316      -0.00439941      -0.00536975
N        8.95613942       4.47097669      16.67493652       0.01321316      -0.01070016       0.01132931
N       11.19491147       6.71515249      16.67340107       0.00235076       0.00523579      -0.00058878
N        8.95286435      11.19108044      10.00000000       0.00873455       0.01892949       0.03822948
N       11.19108044       8.95286435      10.00000000      -0.00161182       0.01260766       0.03990635
N        8.95286435       8.95286435      12.23821609       0.00241144       0.02028986      -0.30405635
N       11.19108044      11.19108044      12.23821609       0.00618119       0.02120183      -0.32505506
N        8.95153795      11.19147764      14.48327757       0.00541989       0.00327841       0.00208928
N       11.19066037       8.95411688      14.48404095       0.00299971       0.00638122       0.00386334
N        8.95767945       8.96234655      16.67791703       0.00583563       0.00426649      -0.01944937
N       11.19117683      11.19503850      16.67137711       0.00165990       0.00386694       0.02797180
S        4.65027249       6.59417409      19.47241203      -0.08834002      -0.14464229      -0.22079400
Li       6.68215728       6.74396837      18.71427493      -0.05965036      -0.03946695       0.14254170
Li       2.36585727       2.42607202      18.78089020       0.01043302       0.01866595      -0.03054188
