147
Lattice="12.641749285038259 0.0 0.0 0.0 12.641749285038259 0.0 0.0 0.0 26.320880516406753" Properties=species:S:1:pos:R:3:forces:R:3 energy=-137542.34437739974 free_energy=-137542.34437739974 pbc="T T T"
Ti       0.00000000       0.00000000      10.00000000       0.01179596       0.00957170       1.88493409
Ti       2.10695823       0.00000000      12.10695823       0.00028668       0.05165166       0.23356801
Ti       0.00000000       2.10695823      12.10695823       0.07064363       0.02160061       0.22064076
Ti       2.10695823       2.10695823      10.00000000      -0.00995917       0.00083252       1.75742229
Ti      -0.00054687      -0.00101520      14.20211893       0.00704251       0.00812726      -0.00465421
Ti       2.10600180      -0.02966200      16.22131320       0.00321439      -0.02364104       0.02312964
Ti      -0.03017041       2.11000980      16.21971409      -0.02163686       0.00175349       0.02664357
Ti       2.10804990       2.10491125      14.24733791      -0.00065717      -0.00245540       0.01316431
Ti       0.00000000       4.21391647      10.00000000       0.01218754      -0.01254158       1.89580009
Ti       2.10695823       4.21391647      12.10695823       0.02186235      -0.02317155       0.31354989
Ti       0.00000000       6.32087470      12.10695823      -0.02366598      -0.01068139       0.27529419
Ti       2.10695823       6.32087470      10.00000000       0.05871011       0.02129568       1.94842826
Ti      -0.00614812       4.21825096      14.20119970       0.01246471      -0.00779816      -0.00667150
Ti       2.11042418       4.25423425      16.21033978       0.01659210       0.01840601      -0.00299842
Ti      -0.01208468       6.32276051      16.21311321      -0.01428711      -0.00003702      -0.00635525
Ti       2.14751285       6.32755077      14.20095560       0.00426957      -0.01524587      -0.01985946
Ti       0.00000000       8.42783294      10.00000000       0.00602744       0.00364608       1.88694084
Ti       2.10695823       8.42783294      12.10695823       0.02665308      -0.00766112       0.33652835
Ti       0.00000000      10.53479117      12.10695823       0.01940772      -0.00452077       0.24972354
Ti       2.10695823      10.53479117      10.00000000      -0.01217057      -0.02485331       1.87818006
Ti      -0.00357535       8.42757670      14.20658100       0.00006351      -0.00090323      -0.00164088
Ti       2.10953564       8.42918631      16.22666696      -0.00075359       0.00068160      -0.02481269
Ti      -0.00148179      10.53438931      16.21924283       0.00145756      -0.00471437      -0.00112974
Ti       2.10839744      10.53675728      14.20227830       0.00118322       0.00815837       0.00185248
Ti       4.21391647       0.00000000      10.00000000      -0.00958019       0.01602234       1.94049435
Ti       6.32087470       0.00000000      12.10695823      -0.00989181      -0.00002880       0.26512779
Ti       4.21391647       2.10695823      12.10695823      -0.04774436      -0.01384719       0.21470434
Ti       6.32087470       2.10695823      10.00000000       0.02661015      -0.01057135       1.86194174
Ti       4.21534133      -0.00259189      14.19499401      -0.01144141       0.00643573       0.00582921
Ti       6.32478831      -0.00412766      16.21506860      -0.01057983       0.00131306      -0.00032165
Ti       4.24370664       2.09511997      16.20657387       0.03260802       0.01998904       0.01389913
Ti       6.32264861       2.10448165      14.19964737      -0.01430459      -0.00256030       0.00714458
Ti       4.21391647       4.21391647      10.00000000      -0.01328900       0.06900789       1.98154715
Ti       6.32087470       4.21391647      12.10695823      -0.02716833       0.04535426       0.35792147
Ti       4.21391647       6.32087470      12.10695823       0.02837907      -0.01384385      -0.27600690
Ti       6.32087470       6.32087470      10.00000000      -0.07433831       0.00706179       1.88479988
Ti       4.21697071       4.25193023      14.19480461      -0.00848233      -0.00011364       0.01112131
Ti       6.31341968       4.19348818      16.21766822      -0.01966971      -0.00700806      -0.02714185
Ti       4.18220840       6.32240079      16.63142284      -0.00471977      -0.01165944       0.01517131
Ti       6.28635320       6.32361273      14.23510567      -0.00498177      -0.00307375      -0.01667926
Ti       4.21391647       8.42783294      10.00000000      -0.00468635      -0.08541256       1.96650157
Ti       6.32087470       8.42783294      12.10695823      -0.01656999      -0.04226508       0.35321301
Ti       4.21391647      10.53479117      12.10695823      -0.00258833       0.02125222       0.27727651
Ti       6.32087470      10.53479117      10.00000000       0.01570327       0.00497766       1.87694567
Ti       4.21447463       8.39188566      14.20495890       0.00145782      -0.00529981      -0.01479233
Ti       6.30893652       8.45688571      16.21834898      -0.00020569      -0.00128632      -0.01666872
Ti       4.21391345      10.54799515      16.21373907      -0.00048774       0.00902303      -0.00159820
Ti       6.31986296      10.53698208      14.20310304      -0.00324782      -0.00025917       0.00334912
Ti       8.42783294       0.00000000      10.00000000      -0.00253562      -0.00002160       1.87307745
Ti      10.53479117       0.00000000      12.10695823       0.01142495       0.00264875       0.26294184
Ti       8.42783294       2.10695823      12.10695823      -0.01601257       0.03164334       0.25641303
Ti      10.53479117       2.10695823      10.00000000      -0.01835973      -0.00355018       1.87300572
Ti       8.42885614      -0.00092387      14.20740290      -0.00030288      -0.00200752      -0.00228005
Ti      10.53528517      -0.00414458      16.21852879       0.00060318       0.00141745      -0.00225923
Ti       8.43202847       2.10848204      16.21801420      -0.00903717       0.00532707      -0.00277396
Ti      10.53463882       2.10696105      14.20137974       0.01111488       0.00231245       0.00550602
Ti       8.42783294       4.21391647      10.00000000      -0.00606318      -0.00812983       1.87913008
Ti      10.53479117       4.21391647      12.10695823       0.01217032       0.00035918       0.25785157
Ti       8.42783294       6.32087470      12.10695823      -0.01675716      -0.00037564       0.28872949
Ti      10.53479117       6.32087470      10.00000000       0.01467869       0.00868827       1.92412182
Ti       8.43176598       4.21756161      14.20652141      -0.00078779       0.00081273      -0.00170284
Ti      10.53784895       4.21342167      16.21647668      -0.00197409       0.00016532       0.00147736
Ti       8.47010931       6.32150352      16.20938099       0.00477068      -0.00443927       0.00129609
Ti      10.53448127       6.32342079      14.19773660      -0.00001234      -0.00094180       0.00797325
Ti       8.42783294       8.42783294      10.00000000      -0.00791308       0.00817739       1.88481454
Ti      10.53479117       8.42783294      12.10695823       0.00409988       0.00269015       0.25733940
Ti       8.42783294      10.53479117      12.10695823      -0.02159521      -0.02435992       0.25087128
Ti      10.53479117      10.53479117      10.00000000      -0.00635808      -0.00365174       1.89388796
Ti       8.43080696       8.42761168      14.20663538       0.00072428      -0.00071040      -0.00211088
Ti      10.53943453       8.43647854      16.21647948       0.00059470      -0.00230628       0.00205560
Ti       8.43100686      10.53592937      16.21854006      -0.00058158      -0.00359260       0.00152672
Ti      10.53502706      10.53464900      14.20323568       0.00196844      -0.00181906       0.01167487
N        0.00000000       2.10695823      10.00000000       0.03329527       0.00047180      -1.21624210
N        2.10695823       0.00000000      10.00000000      -0.00278656       0.03024620      -1.19185030
N        0.00000000       0.00000000      12.10695823       0.01444986       0.01571535      -0.86719864
N        2.10695823       2.10695823      12.10695823      -0.00996020       0.00382040      -0.75721328
N        0.00007414       2.10849082      14.23068236       0.00401066       0.00228288       0.01806946
N        2.10794153      -0.00051828      14.23044227      -0.00107909       0.00349439       0.01687878
N       -0.00381877      -0.00222806      16.39310133      -0.00528027      -0.00962492      -0.00059058
N        2.11201365       2.11517721      16.45521485       0.00416004       0.00713841       0.00650618
N        0.00000000       6.32087470      10.00000000      -0.01752181       0.01245005      -1.29107791
N        2.10695823       4.21391647      10.00000000      -0.00875409      -0.03446872      -1.20706711
N        0.00000000       4.21391647      12.10695823       0.02605787      -0.01919740      -0.89642977
N        2.10695823       6.32087470      12.10695823       0.03585660       0.00864328      -0.92112805
N        0.01166312       6.32438653      14.22785070      -0.00845662      -0.00290046      -0.00122410
N        2.10629091       4.21727252      14.22714220      -0.00993809      -0.00586803       0.01804837
N        0.00042646       4.22014993      16.39511931      -0.01322010       0.00923926       0.00729808
N        2.08846344       6.32430655      16.33295908       0.00924209       0.01358494       0.00525045
N        0.00000000      10.53479117      10.00000000       0.00621693      -0.01482267      -1.26082862
N        2.10695823       8.42783294      10.00000000      -0.00710062       0.00583049      -1.24391462
N        0.00000000       8.42783294      12.10695823       0.01321650       0.00866359      -0.92791216
N        2.10695823      10.53479117      12.10695823      -0.00930251      -0.00459379      -0.91949334
N        0.00129154      10.53299677      14.22662661      -0.00203297       0.00137554       0.00568137
N        2.10535015       8.43068927      14.23290088      -0.00043143      -0.00068468       0.01078501
N        0.00006578       8.42964401      16.38506276       0.00693761      -0.00255645       0.00042449
N        2.10773857      10.53647222      16.38680888       0.00175838      -0.01305529      -0.00213402
N        4.21391647       2.10695823      10.00000000      -0.02922367      -0.03499271      -1.24753859
N        6.32087470       0.00000000      10.00000000       0.01551815       0.00081813      -1.24151321
N        4.21391647       0.00000000      12.10695823      -0.01585985       0.01250713      -0.91799901
N        6.32087470       2.10695823      12.10695823       0.00966735       0.01460412      -0.92401000
N        4.21556781       2.11543597      14.22831690      -0.00957016      -0.01289897       0.01175380
N        6.32345566      -0.00013829      14.22280867      -0.00260710      -0.00324088       0.00649538
N        4.21846791      -0.00188699      16.39370467       0.00500440      -0.01717471      -0.00369930
N        6.32059941       2.10900160      16.38816289       0.01293753      -0.00062838      -0.00376641
N        4.21391647       6.32087470      10.00000000       0.00817431       0.01900302      -1.41631454
N        6.32087470       4.21391647      10.00000000       0.02565061       0.00891144      -1.20018093
N        4.21391647       4.21391647      12.10695823      -0.00227003       0.03353284      -0.89148734
N        6.32087470       6.32087470      12.10695823      -0.01497385       0.00307838      -0.72989659
N        4.21675585       6.32349424      14.25806735       0.00279890       0.00152055       0.00147607
N        6.32404571       4.21446942      14.23196130       0.01009852       0.00156426       0.00099502
N        4.21361935       4.19910838      16.32369972       0.00522320      -0.00323445      -0.02658855
N        6.34028532       6.32426199      16.43604522      -0.00468455       0.00043349      -0.00759041
N        4.21391647      10.53479117      10.00000000      -0.00076002       0.01497770      -1.28897732
N        6.32087470       8.42783294      10.00000000       0.01121052      -0.01118944      -1.20119137
N        4.21391647       8.42783294      12.10695823       0.00984193      -0.03843234      -0.89076100
N        6.32087470      10.53479117      12.10695823       0.00734616      -0.01647280      -0.92787796
N        4.21371940      10.52430058      14.22803021      -0.00065563       0.00472543       0.00170233
N        6.32174546       8.42914005      14.23306154      -0.00022909       0.00411222       0.00493600
N        4.21186502       8.44521795      16.33318368      -0.00670827      -0.00160231       0.00171030
N        6.32145664      10.53353801      16.38941238      -0.00038412       0.00509747       0.00043760
N        8.42783294       2.10695823      10.00000000      -0.00287218      -0.00332778      -1.26769013
N       10.53479117       0.00000000      10.00000000      -0.01468357       0.00223326      -1.25958267
N        8.42783294       0.00000000      12.10695823       0.00579835      -0.00037281      -0.90752511
N       10.53479117       2.10695823      12.10695823       0.00273463      -0.00307067      -0.89757571
N        8.42829399       2.10702616      14.22685824       0.00105132       0.00029619       0.00139508
N       10.53380700       0.00001660      14.22526849       0.00147247      -0.00235770       0.00447192
N        8.43058778       0.00011116      16.38751973      -0.00608966       0.00329898      -0.00060164
N       10.53650268       2.10579640      16.38872133      -0.00939455       0.00361420      -0.00783492
N        8.42783294       6.32087470      10.00000000      -0.00250168       0.00088677      -1.25260881
N       10.53479117       4.21391647      10.00000000      -0.01147998      -0.00319100      -1.24193076
N        8.42783294       4.21391647      12.10695823      -0.01822578       0.00796091      -0.89507403
N       10.53479117       6.32087470      12.10695823       0.00023423       0.00198721      -0.94200978
N        8.41781531       6.32282362      14.23302866       0.00940535      -0.00578832      -0.00442281
N       10.53376461       4.21555146      14.22297625       0.00408214      -0.00002494       0.00889473
N        8.43110866       4.21410146      16.39578545       0.00412199      -0.00063326       0.00290740
N       10.53600864       6.32380397      16.38920707       0.00356792      -0.00029876      -0.00391476
N        8.42783294      10.53479117      10.00000000      -0.00204248       0.00175144      -1.26686506
N       10.53479117       8.42783294      10.00000000       0.00300099      -0.00022266      -1.25102809
N        8.42783294       8.42783294      12.10695823      -0.01991474      -0.00348719      -0.88545322
N       10.53479117      10.53479117      12.10695823       0.00136860       0.00469329      -0.91301776
N        8.42734878      10.53534046      14.22674988       0.00265492       0.00000463       0.00362166
N       10.53530372       8.42840862      14.22406736       0.00360289       0.00277036       0.00776756
N        8.43115200       8.43121896      16.39464137      -0.00077107      -0.00199055       0.00669927
N       10.53508601      10.53689306      16.39028865       0.00152544      -0.00585157      -0.01623497
S        4.12868438       6.25232580      18.90805115      -0.00209956      -0.03266612      -0.03164462
Li       6.28453629       6.32019879      18.41541852      -0.02347109      -0.00809666      -0.00825298
Li       2.13564733       2.17373757      18.33525813       0.00867182       0.02263548       0.03873315
