147
Lattice="12.259575388456497 0.0 0.0 0.0 12.259575388456497 0.0 0.0 0.0 26.129789272297636" Properties=species:S:1:pos:R:3:forces:R:3 energy=-162743.27374767713 free_energy=-162743.27374767713 pbc="T T T"
V        0.00000000       0.00000000      10.00000000       0.03621039       0.04797447       2.35569562
V        2.04326254       0.00000000      12.04326254      -0.04170998       0.14931476      -0.57572913
V        0.00000000       2.04326254      12.04326254       0.14433865      -0.06983193      -0.56494644
V        2.04326254       2.04326254      10.00000000      -0.02940982      -0.03753374       2.43553146
V        0.07661767       0.07731045      14.15939306       0.00127578       0.00377644       0.01391790
V        2.01936914      -0.10154291      16.01004731      -0.00016995       0.00476297       0.01120924
V       -0.11216792       2.02963591      16.00496782       0.01664044       0.00824116       0.01265677
V        1.98354743       1.98233149      14.19354435       0.00311901      -0.00261635      -0.01330880
V        0.00000000       4.08652507      10.00000000       0.02649342      -0.00061809       2.38568729
V        2.04326254       4.08652507      12.04326254      -0.12211557       0.04351464      -0.50753525
V        0.00000000       6.12978761      12.04326254       0.08197165      -0.03755070      -0.44544208
V        2.04326254       6.12978761      10.00000000      -0.01526413      -0.03249052       2.42741192
V        0.06308521       4.13336959      14.15257902       0.00008022      -0.00480668       0.00374224
V        2.03648709       4.17184328      15.98873762      -0.02861895       0.00576081       0.00382812
V        0.00692034       6.08582002      16.00190163       0.01128997      -0.00766163      -0.00092251
V        2.04790687       6.07199814      14.16872386      -0.00506636      -0.00346070      -0.00661699
V        0.00000000       8.17305015      10.00000000       0.00480951       0.03496058       2.44800671
V        2.04326254       8.17305015      12.04326254      -0.15216997       0.07264781      -0.53828307
V        0.00000000      10.21631269      12.04326254       0.10407800      -0.12190320      -0.40221592
V        2.04326254      10.21631269      10.00000000      -0.03372053      -0.00093511       2.40714186
V        0.08104518       8.25161829      14.14331315       0.00087520       0.00462207      -0.01058317
V        2.04558574       8.24051275      16.00939790       0.00511547      -0.00678360      -0.00058904
V       -0.02340844      10.27102519      16.00033798      -0.00657894      -0.01058343      -0.00046280
V        1.96189988      10.13440113      14.14952060      -0.00296757      -0.00483702      -0.00779173
V        4.08652507       0.00000000      10.00000000       0.00991392       0.04552061       2.34854461
V        6.12978761       0.00000000      12.04326254      -0.08368144       0.05638609      -0.57476368
V        4.08652507       2.04326254      12.04326254       0.01866055      -0.04908570      -0.46858047
V        6.12978761       2.04326254      10.00000000      -0.02465971      -0.02373694       2.39598790
V        4.12958663       0.05052032      14.16843730       0.00205534      -0.00453748       0.00095774
V        6.11036138       0.00471992      16.00864492       0.00142259      -0.00773336      -0.00312775
V        4.20259209       2.03458942      15.99078034      -0.02194976      -0.00987561       0.00587857
V        6.07598016       1.98202345      14.15305769      -0.00065820       0.00376358      -0.00496480
V        4.08652507       4.08652507      10.00000000       0.01135348      -0.01899917       2.43843630
V        6.12978761       4.08652507      12.04326254      -0.02777794       0.13060638      -0.43935654
V        4.08652507       6.12978761      12.04326254       0.13769029      -0.02740179      -0.01266088
V        6.12978761       6.12978761      10.00000000      -0.01647126      -0.01342990       2.45336129
V        4.13217050       4.18238275      14.14178122       0.00113900       0.01355306      -0.02622011
V        6.12855017       3.98987856      15.99035925       0.01225773       0.01776684      -0.00301205
V        3.92033248       6.05705834      16.39942447       0.00382452       0.00384534       0.00486298
V        6.02073636       6.08253702      14.20562570      -0.00124004      -0.00114131       0.00230114
V        4.08652507       8.17305015      10.00000000       0.03966852       0.03531873       2.45431209
V        6.12978761       8.17305015      12.04326254      -0.07932059       0.02255963      -0.54367673
V        4.08652507      10.21631269      12.04326254       0.07804481      -0.11561531      -0.36750937
V        6.12978761      10.21631269      10.00000000      -0.01043457      -0.01657410       2.39900509
V        4.16675187       8.18391293      14.15122742       0.00253845       0.01214461       0.00128298
V        6.13754820       8.28254852      15.99437275      -0.01782340      -0.00325116       0.00384637
V        4.11803466      10.26307906      16.00559986      -0.00340003      -0.00976685      -0.00308224
V        6.05632091      10.16065853      14.15857285      -0.00107652      -0.00254334      -0.00248471
V        8.17305015       0.00000000      10.00000000       0.02143066       0.01016511       2.46503487
V       10.21631269       0.00000000      12.04326254      -0.10809303       0.08714240      -0.43090763
V        8.17305015       2.04326254      12.04326254       0.07168158      -0.11095313      -0.50551719
V       10.21631269       2.04326254      10.00000000      -0.01075750      -0.01775167       2.39415007
V        8.24474588       0.07009124      14.13508248       0.00643676      -0.00186148      -0.00382940
V       10.25683486      -0.01006436      15.99921856       0.00461153      -0.00619379       0.00531498
V        8.17162379       2.08828476      16.00509093      -0.00844916      -0.00214559      -0.00050522
V       10.14494850       1.96941233      14.14372027      -0.00150230      -0.00252817      -0.00167122
V        8.17305015       4.08652507      10.00000000       0.03945949       0.03908360       2.37485831
V       10.21631269       4.08652507      12.04326254      -0.06930486       0.11359031      -0.49097709
V        8.17305015       6.12978761      12.04326254      -0.02666208      -0.06688828      -0.47638016
V       10.21631269       6.12978761      10.00000000      -0.00333421      -0.02614349       2.37976938
V        8.23659775       4.16960703      14.15733383       0.00789252      -0.00216050      -0.01319902
V       10.20929686       4.09977460      16.00321767       0.02153325       0.00560372      -0.00548828
V        8.29305432       6.14592598      16.00166346      -0.00714304      -0.00585132       0.00313443
V       10.14724524       6.06603605      14.15749663      -0.00011878       0.00290072       0.00187151
V        8.17305015       8.17305015      10.00000000       0.03728948       0.01989494       2.36218072
V       10.21631269       8.17305015      12.04326254      -0.06945784       0.08191895      -0.50300625
V        8.17305015      10.21631269      12.04326254       0.10297088      -0.06491778      -0.49824405
V       10.21631269      10.21631269      10.00000000      -0.03794768      -0.03508605       2.38169693
V        8.23881455       8.22070085      14.16888413      -0.00149972      -0.00025248       0.00655683
V       10.18138857       8.19003143      16.00415280      -0.00166093      -0.00211473      -0.00338717
V        8.17361724      10.16099719      16.00360033       0.01130771       0.00339823      -0.00320077
V       10.14994645      10.14917466      14.14542492       0.00427703       0.00254411      -0.00383274
N        0.00000000       2.04326254      10.00000000      -0.01013477       0.00671804      -1.37486039
N        2.04326254       0.00000000      10.00000000       0.00791257      -0.01009929      -1.38278016
N        0.00000000       0.00000000      12.04326254       0.02679861       0.03123839      -0.48765728
N        2.04326254       2.04326254      12.04326254      -0.00627606      -0.03295254      -0.52792590
N       -0.05094005       2.08780268      14.10827109      -0.00261147       0.00148404       0.01674714
N        2.08770897      -0.05471494      14.11184772      -0.00236593      -0.00874484       0.01492294
N        0.00907179       0.02064217      16.31329964       0.01260303       0.01074207       0.00792440
N        2.04013448       2.03942678      16.25329395       0.00382066       0.00260736       0.02366726
N        0.00000000       6.12978761      10.00000000       0.00615316       0.00871090      -1.37205712
N        2.04326254       4.08652507      10.00000000       0.01105034      -0.00475114      -1.39158645
N        0.00000000       4.08652507      12.04326254       0.01440538       0.00635525      -0.54856440
N        2.04326254       6.12978761      12.04326254       0.01421512       0.00979436      -0.58052810
N       -0.02844806       6.16959033      14.10750463      -0.00176198      -0.00466038       0.00346019
N        2.08537976       4.03427362      14.09807293       0.00291357      -0.00841471      -0.00432202
N        0.00241507       4.05458221      16.28876178       0.01211915      -0.00393713       0.00163445
N        1.97800741       6.17477136      16.25897803      -0.01617687       0.01182168      -0.02053592
N        0.00000000      10.21631269      10.00000000      -0.01226313       0.01381402      -1.37032394
N        2.04326254       8.17305015      10.00000000       0.03291912      -0.02344563      -1.38082278
N        0.00000000       8.17305015      12.04326254      -0.00136834       0.00228417      -0.67420136
N        2.04326254      10.21631269      12.04326254      -0.00984501      -0.02413366      -0.49799466
N       -0.06007278      10.27690951      14.10324735       0.00098602       0.00786115      -0.00071040
N        2.10328377       8.12286638      14.10620958      -0.00085026      -0.00392710      -0.00421764
N       -0.01086767       8.19817153      16.22423663      -0.00284724      -0.00953956      -0.01108865
N        2.04650277      10.20487016      16.28587757       0.00422175      -0.00465215       0.02130493
N        4.08652507       2.04326254      10.00000000      -0.01165918       0.00731530      -1.39280901
N        6.12978761       0.00000000      10.00000000       0.01025407      -0.00970540      -1.38185688
N        4.08652507       0.00000000      12.04326254       0.00112820       0.01310594      -0.50771188
N        6.12978761       2.04326254      12.04326254      -0.01084466      -0.04299964      -0.43028466
N        4.04400624       2.08093446      14.09985539      -0.00315269       0.00642724       0.00522191
N        6.17120420      -0.04322331      14.10830378       0.00046306      -0.00486838      -0.00071554
N        4.06173410       0.02547146      16.30694186      -0.00430223       0.00580941       0.00793314
N        6.17179113       2.01032102      16.31589807      -0.00573485      -0.00139739       0.00641953
N        4.08652507       6.12978761      10.00000000      -0.02183638       0.01244902      -1.49822321
N        6.12978761       4.08652507      10.00000000       0.00599350      -0.00563432      -1.40580593
N        4.08652507       4.08652507      12.04326254      -0.00780998       0.05633467      -0.71665233
N        6.12978761       6.12978761      12.04326254      -0.05670028      -0.00374481      -0.56217968
N        4.04953631       6.17186545      14.16210101      -0.00480076      -0.00465858       0.00232659
N        6.17072575       4.05275610      14.10033444      -0.00479511      -0.00429040      -0.00523245
N        4.08374072       4.05222375      16.21080462       0.01335791      -0.01774498       0.03271240
N        6.14642327       6.11911327      16.21175946      -0.00142439       0.00183448       0.00286318
N        4.08652507      10.21631269      10.00000000      -0.00914876       0.00637736      -1.35551593
N        6.12978761       8.17305015      10.00000000       0.00924132      -0.01492500      -1.39341450
N        4.08652507       8.17305015      12.04326254       0.00373736      -0.05617295      -0.79347869
N        6.12978761      10.21631269      12.04326254      -0.02336001       0.00854686      -0.44965689
N        4.03150497      10.24809487      14.10886054      -0.00244023       0.00258319      -0.00493472
N        6.19090180       8.13115789      14.10056542       0.00247006       0.00103821       0.00380086
N        4.10866193       8.19311727      16.19410638       0.01234798       0.00333626      -0.00788017
N        6.13995069      10.26115132      16.29886607      -0.00551476      -0.00849467       0.00057824
N        8.17305015       2.04326254      10.00000000      -0.01067059       0.02763499      -1.36966959
N       10.21631269       0.00000000      10.00000000       0.01569504      -0.01085623      -1.36456647
N        8.17305015       0.00000000      12.04326254       0.01346178       0.00128375      -0.72155722
N       10.21631269       2.04326254      12.04326254      -0.03729437      -0.01898297      -0.55424834
N        8.12447168       2.10306704      14.10642634       0.00084075      -0.00158663      -0.00004834
N       10.27053859      -0.05600897      14.10323082       0.00819693       0.00212836       0.00411222
N        8.18966085      -0.00170198      16.21189135      -0.00174835      -0.00414976      -0.00471155
N       10.17702541       2.04576727      16.28115331      -0.00507047       0.00271149       0.01024687
N        8.17305015       6.12978761      10.00000000      -0.01622983       0.01295193      -1.36408618
N       10.21631269       4.08652507      10.00000000       0.00475577      -0.02166823      -1.36753403
N        8.17305015       4.08652507      12.04326254       0.03788880       0.02639803      -0.54725777
N       10.21631269       6.12978761      12.04326254       0.01101152      -0.01344121      -0.47538798
N        8.11779361       6.18046118      14.10438120       0.00006222      -0.00057953       0.00440918
N       10.26233794       4.03609681      14.10535009       0.00856692       0.00050702      -0.00852783
N        8.17275966       4.12521165      16.29340711      -0.00536666       0.00894950      -0.01229887
N       10.26808875       6.13865162      16.29290957      -0.00273231      -0.00196407       0.01573515
N        8.17305015      10.21631269      10.00000000      -0.01648077      -0.00673886      -1.36946750
N       10.21631269       8.17305015      10.00000000      -0.00450329      -0.00544380      -1.37149790
N        8.17305015       8.17305015      12.04326254       0.05152079       0.02718890      -0.46975880
N       10.21631269      10.21631269      12.04326254      -0.02972915      -0.02273652      -0.59831602
N        8.12187326      10.25894922      14.10702552       0.00228340       0.00139817      -0.00244075
N       10.27336385       8.12247595      14.10619352       0.00097933       0.00104207      -0.00255362
N        8.15960260       8.14882098      16.32330840      -0.01056595      -0.00242378      -0.00875846
N       10.20656120      10.21774056      16.27120277       0.00423872      -0.00179566       0.00074228
S        3.92349903       6.02222259      18.61352695      -0.00971954      -0.03357012       0.02869917
Li       6.10522953       6.12897588      18.13867734      -0.01119021      -0.00369750      -0.00003111
Li       2.12011563       2.17198003      18.10826036       0.02117175       0.01961597       0.00962518
