147
Lattice="13.691787681916065 0.0 0.0 0.0 13.691787681916065 0.0 0.0 0.0 26.84589886156329" Properties=species:S:1:pos:R:3:forces:R:3 energy=-117846.70843606217 free_energy=-117846.70843606217 pbc="T T T"
Zr       0.00000000       0.00000000      10.00000000       0.04165136       0.03551311       1.56673102
Zr       2.28196466       0.00000000      12.28196466       0.00706153       0.07146176       0.21175477
Zr       0.00000000       2.28196466      12.28196466       0.09048715       0.01948973       0.18385573
Zr       2.28196466       2.28196466      10.00000000      -0.03126410      -0.01416601       1.40930803
Zr       0.00779379       0.00356126      14.55881251      -0.00323162      -0.00363554      -0.00531627
Zr       2.28392833      -0.03093616      16.79078712      -0.00021392       0.00074022      -0.01699679
Zr      -0.02652434       2.28098307      16.79001135      -0.00067389      -0.00060678      -0.01808668
Zr       2.28285403       2.27815320      14.62090249       0.00029902       0.00225306      -0.02200144
Zr       0.00000000       4.56392932      10.00000000       0.02185026      -0.04715018       1.59120870
Zr       2.28196466       4.56392932      12.28196466       0.02385187      -0.05754232       0.30711930
Zr       0.00000000       6.84589398      12.28196466      -0.03328859      -0.02690891       0.26587701
Zr       2.28196466       6.84589398      10.00000000       0.04209796       0.01472676       1.64319152
Zr       0.00234149       4.55992435      14.55647683      -0.00229522       0.00331055       0.00039261
Zr       2.28404269       4.59201706      16.77511376       0.00603618      -0.00729088      -0.00500234
Zr      -0.01104063       6.84655370      16.74963211      -0.00775933      -0.00756753       0.00051448
Zr       2.31316159       6.84515769      14.55198181       0.00317274      -0.00087597       0.00022343
Zr       0.00000000       9.12785864      10.00000000       0.00090811       0.01162087       1.58738264
Zr       2.28196466       9.12785864      12.28196466       0.02284528       0.00022523       0.34985155
Zr       0.00000000      11.40982330      12.28196466       0.02629493       0.00138737       0.24341379
Zr       2.28196466      11.40982330      10.00000000      -0.02776251      -0.00711630       1.55637796
Zr       0.00038318       9.12726882      14.55677355      -0.00090451       0.00117551       0.00379958
Zr       2.28170579       9.13176557      16.76163853      -0.00061681       0.00207128      -0.00003060
Zr      -0.00030311      11.40736759      16.75430252      -0.00764260       0.00756984      -0.00049159
Zr       2.28351549      11.41551596      14.55972627      -0.00204480       0.00243561      -0.00425826
Zr       4.56392932       0.00000000      10.00000000      -0.03147365       0.03191742       1.60196748
Zr       6.84589398       0.00000000      12.28196466      -0.01307175       0.00505787       0.27191267
Zr       4.56392932       2.28196466      12.28196466      -0.06597425      -0.02538553       0.19106433
Zr       6.84589398       2.28196466      10.00000000       0.03218790      -0.01106474       1.53491362
Zr       4.56141911       0.00086326      14.55200142       0.00079781       0.00086672       0.00014295
Zr       6.85276364      -0.00709334      16.74925582      -0.01016126       0.00022549       0.00057310
Zr       4.59566434       2.26808943      16.77282131      -0.00952902       0.00100144      -0.00474549
Zr       6.84557177       2.27995496      14.55885282      -0.00313340       0.00224560       0.00089320
Zr       4.56392932       4.56392932      10.00000000      -0.02492890       0.03529996       1.66909641
Zr       6.84589398       4.56392932      12.28196466      -0.02418457       0.03754531       0.36619862
Zr       4.56392932       6.84589398      12.28196466       0.03364237      -0.03414039      -0.16200264
Zr       6.84589398       6.84589398      10.00000000      -0.04327167       0.01455553       1.54531168
Zr       4.56481013       4.58849784      14.54992662       0.00156272       0.00395796      -0.03194390
Zr       6.84780512       4.53891568      16.75590236      -0.02134838      -0.00102741       0.01053612
Zr       4.54494430       6.85090492      17.10258617      -0.00417264      -0.01542919      -0.01036180
Zr       6.82637311       6.84634460      14.58898307      -0.00617990      -0.00058056       0.00189053
Zr       4.56392932       9.12785864      10.00000000       0.00100376      -0.06439585       1.66946433
Zr       6.84589398       9.12785864      12.28196466      -0.00041523      -0.05262611       0.34989037
Zr       4.56392932      11.40982330      12.28196466      -0.00274722       0.04206865       0.25611838
Zr       6.84589398      11.40982330      10.00000000       0.03582344      -0.00124364       1.54541555
Zr       4.56716121       9.09851997      14.54775092      -0.00345248      -0.00338769       0.00577187
Zr       6.84649492       9.15480076      16.75845805      -0.00878315       0.00708030      -0.00095439
Zr       4.56953587      11.41919849      16.75093691      -0.00447089       0.00970283      -0.00104824
Zr       6.84890682      11.40733735      14.55894294      -0.00203040       0.00247906      -0.00161337
Zr       9.12785864       0.00000000      10.00000000      -0.01444446       0.00241787       1.57617314
Zr      11.40982330       0.00000000      12.28196466       0.02361661       0.00634728       0.28008749
Zr       9.12785864       2.28196466      12.28196466      -0.00347767       0.02052743       0.23783270
Zr      11.40982330       2.28196466      10.00000000      -0.01089016       0.00209802       1.54575185
Zr       9.12943113      -0.00150580      14.55757906      -0.00192087       0.00048671       0.00303390
Zr      11.41181565      -0.00625837      16.75292740       0.00444338      -0.00387645      -0.00227491
Zr       9.13436705       2.28142160      16.75160814       0.00304753       0.00161234       0.00055150
Zr      11.41735319       2.28141845      14.56008498      -0.00011776      -0.00072557      -0.00643521
Zr       9.12785864       4.56392932      10.00000000      -0.00882351      -0.01315196       1.56331145
Zr      11.40982330       4.56392932      12.28196466       0.02817543      -0.00996534       0.26716539
Zr       9.12785864       6.84589398      12.28196466      -0.01110228      -0.00788840       0.22818361
Zr      11.40982330       6.84589398      10.00000000      -0.00012830       0.01528495       1.55070482
Zr       9.13164464       4.56621142      14.55889486      -0.00356406      -0.00198206       0.01027413
Zr      11.41345380       4.56277922      16.75274633       0.00283053      -0.00295086      -0.00207719
Zr       9.17384111       6.84493190      16.76081452       0.00216333      -0.00212784      -0.00004885
Zr      11.40973903       6.84672472      14.55623953      -0.00031933       0.00079678      -0.00140665
Zr       9.12785864       9.12785864      10.00000000      -0.01481855       0.01074310       1.54549962
Zr      11.40982330       9.12785864      12.28196466       0.01370244      -0.00352421       0.25145723
Zr       9.12785864      11.40982330      12.28196466      -0.01214332      -0.01877471       0.22236700
Zr      11.40982330      11.40982330      10.00000000      -0.01680190      -0.01500059       1.56478238
Zr       9.13076698       9.12415560      14.56164986      -0.00111149       0.00340928       0.00186611
Zr      11.41441257       9.13189947      16.75002004       0.00249243       0.00743255       0.00111354
Zr       9.13379232      11.40662716      16.75128981       0.00494552       0.00650412       0.00026097
Zr      11.41217479      11.40742647      14.55758678      -0.00117885       0.00049597      -0.00258910
N        0.00000000       2.28196466      10.00000000       0.03863288       0.00153649      -0.87735553
N        2.28196466       0.00000000      10.00000000      -0.00700137       0.03088281      -0.83275717
N        0.00000000       0.00000000      12.28196466       0.02150676       0.01650083      -0.85923285
N        2.28196466       2.28196466      12.28196466      -0.00568034      -0.00448169      -0.74852244
N        0.00407693       2.28185084      14.60512949       0.00460845      -0.00063172      -0.01457815
N        2.28512863       0.00079536      14.60272589      -0.00269246       0.00591662      -0.01382508
N       -0.01149653      -0.01440457      16.89331847      -0.00135934      -0.00075359      -0.00727391
N        2.29314475       2.29300093      16.94978272      -0.00505890       0.00110789       0.00221732
N        0.00000000       6.84589398      10.00000000      -0.00003008       0.03049508      -0.93078794
N        2.28196466       4.56392932      10.00000000      -0.00694866      -0.02730614      -0.85288506
N        0.00000000       4.56392932      12.28196466       0.02394905      -0.02305020      -0.88844675
N        2.28196466       6.84589398      12.28196466       0.02765556      -0.00796039      -0.98735041
N        0.01564607       6.84542597      14.59267459       0.00162828       0.00489538       0.00373170
N        2.28545435       4.56450278      14.60578203       0.00059598       0.00240835       0.00804704
N       -0.00258242       4.57689569      16.90052306      -0.00242661       0.00413511      -0.01044048
N        2.26772020       6.85092943      16.84609887       0.00236927       0.00159640      -0.00283618
N        0.00000000      11.40982330      10.00000000       0.01633576      -0.03009296      -0.91322319
N        2.28196466       9.12785864      10.00000000      -0.01026847      -0.00370573      -0.91047108
N        0.00000000       9.12785864      12.28196466       0.00147633       0.00765649      -0.95190724
N        2.28196466      11.40982330      12.28196466      -0.00557364       0.00847616      -0.93158832
N        0.00287399      11.40966385      14.58738600      -0.00279119      -0.00427574       0.00171235
N        2.28583307       9.12702676      14.60196386      -0.00281793      -0.00254591       0.00395230
N        0.00606483       9.12596216      16.90517729      -0.00364274       0.00149098      -0.00026997
N        2.28746296      11.40334931      16.90865772      -0.00493446       0.00154061      -0.00007199
N        4.56392932       2.28196466      10.00000000      -0.02655255      -0.02399533      -0.88202388
N        6.84589398       0.00000000      10.00000000       0.03069434       0.00260170      -0.88015675
N        4.56392932       0.00000000      12.28196466      -0.01271925       0.01718731      -0.90777194
N        6.84589398       2.28196466      12.28196466       0.00391450       0.00596187      -0.93199430
N        4.56380570       2.29102312      14.60410553      -0.00234587       0.00211036       0.00399112
N        6.84725212      -0.00232123      14.58104434       0.00385588       0.00589657       0.00255491
N        4.57951086      -0.01314790      16.89707998       0.00008125      -0.00048697      -0.00642030
N        6.85195454       2.28042565      16.90902387      -0.00404949       0.00365945      -0.00090374
N        4.56392932       6.84589398      10.00000000      -0.00265286       0.02980474      -1.05423869
N        6.84589398       4.56392932      10.00000000       0.03900981       0.01124601      -0.84708799
N        4.56392932       4.56392932      12.28196466      -0.00240115       0.01544076      -0.91990394
N        6.84589398       6.84589398      12.28196466      -0.00993963      -0.00868313      -0.81198883
N        4.56655817       6.84594909      14.62099613      -0.00208902       0.00329358       0.00633751
N        6.84757626       4.56441966      14.59318228       0.00135369       0.00185557       0.01888012
N        4.57057131       4.55434746      16.81515425      -0.00092663      -0.01359959      -0.00807018
N        6.86114643       6.84646081      16.92934897       0.00179129      -0.00111303       0.00860368
N        4.56392932      11.40982330      10.00000000      -0.00274028      -0.00396953      -0.91775990
N        6.84589398       9.12785864      10.00000000       0.01503324      -0.01431565      -0.85651880
N        4.56392932       9.12785864      12.28196466       0.01810185      -0.03114583      -0.97619182
N        6.84589398      11.40982330      12.28196466       0.00450072      -0.00562943      -0.94729545
N        4.56547662      11.39669374      14.59408899      -0.00262330      -0.00073456       0.00480976
N        6.84605476       9.12532519      14.59567656      -0.00251634      -0.00170387       0.00245026
N        4.56210887       9.14441813      16.82212602      -0.00458505       0.00685405      -0.00304264
N        6.84892877      11.40569503      16.91157276      -0.00360314       0.00563534      -0.00289275
N        9.12785864       2.28196466      10.00000000      -0.00910762      -0.00525096      -0.94343211
N       11.40982330       0.00000000      10.00000000      -0.02765479       0.00603232      -0.89868874
N        9.12785864       0.00000000      12.28196466       0.00241504      -0.00440096      -0.92307257
N       11.40982330       2.28196466      12.28196466       0.01023916       0.00524042      -0.89745770
N        9.13164752       2.28020396      14.58593773      -0.00518977      -0.00143288      -0.00114543
N       11.41293906      -0.00097835      14.58550534      -0.00573973      -0.00108989       0.00086106
N        9.13381873      -0.00227706      16.90600446      -0.00143545      -0.00065332      -0.00186405
N       11.41058535       2.27746937      16.90943683      -0.00087469      -0.00132823      -0.00072377
N        9.12785864       6.84589398      10.00000000      -0.01863330       0.00216461      -0.88776927
N       11.40982330       4.56392932      10.00000000      -0.01807948      -0.00632337      -0.86386495
N        9.12785864       4.56392932      12.28196466      -0.00718289       0.00287192      -0.90426110
N       11.40982330       6.84589398      12.28196466       0.00373556      -0.00814860      -0.93975337
N        9.11783602       6.84468023      14.59937761      -0.00397724       0.00050574       0.00011596
N       11.41353308       4.56360916      14.58206876      -0.00675840      -0.00091068       0.00325347
N        9.13723904       4.55762899      16.90666964      -0.00105544       0.00005348      -0.00246517
N       11.41550272       6.84656371      16.91582381      -0.00095671      -0.00079576      -0.00080810
N        9.12785864      11.40982330      10.00000000      -0.00621821       0.00127707      -0.93237379
N       11.40982330       9.12785864      10.00000000       0.00808329       0.00081555      -0.88064628
N        9.12785864       9.12785864      12.28196466      -0.00724923      -0.00160591      -0.88509352
N       11.40982330      11.40982330      12.28196466       0.00935367       0.00044223      -0.92919848
N        9.13054194      11.40967351      14.58422987      -0.00034993       0.00213042      -0.00008279
N       11.41333295       9.12702204      14.58078504      -0.00036253       0.00281767       0.00194915
N        9.13745652       9.13209682      16.90932864      -0.00156554       0.00181006      -0.00092637
N       11.41292511      11.40971935      16.90865102      -0.00105467       0.00112794       0.00195661
S        4.63696330       6.81668875      19.51884579      -0.00312595      -0.00284827       0.02097609
Li       6.76693721       6.83007248      18.92926761       0.00121125       0.01032504      -0.00409860
Li       2.27751798       2.25760909      18.86958393      -0.00371216      -0.00686330      -0.00348436
