148
Lattice="12.81773039427736 0.0 0.0 0.0 12.81773039427736 0.0 0.0 0.0 26.40889545827581" Properties=species:S:1:pos:R:3 energy_ry=-10030.29883118 energy_ev=-136469.1666855666 pbc="T T T"
Ti       0.00000000       0.00000000      10.00000000
Ti       2.13628468       0.00000000      12.13628468
Ti       0.00000000       2.13628468      12.13628468
Ti       2.13628468       2.13628468      10.00000000
N        0.00000000       2.13628468      10.00000000
N        2.13628468       0.00000000      10.00000000
N        0.00000000       0.00000000      12.13628468
N        2.13628468       2.13628468      12.13628468
Ti       0.00000000       0.00000000      14.26189293
Ti       2.13628469       0.00000000      16.32297314
Ti       0.00000000       2.13628469      16.32297314
Ti       2.13628482       2.13628482      14.26188402
N        0.00000000       2.13628462      14.28908211
N        2.13628462       0.00000000      14.28908211
N        0.00000000       0.00000000      16.48089878
N        2.13628468       2.13628468      16.48089373
Ti       0.00000000       4.27256936      10.00000000
Ti       2.13628468       4.27256936      12.13628468
Ti       0.00000000       6.40885404      12.13628468
Ti       2.13628468       6.40885404      10.00000000
N        0.00000000       6.40885404      10.00000000
N        2.13628468       4.27256936      10.00000000
N        0.00000000       4.27256936      12.13628468
N        2.13628468       6.40885404      12.13628468
Ti       0.00000000       4.27256945      14.26189325
Ti       2.13628479       4.27256931      16.32297373
Ti       0.00000000       6.40885404      16.32297313
Ti       2.13628456       6.40885404      14.26188405
N        0.00000000       6.40885404      14.28908199
N        2.13628467       4.27256947      14.28908267
N        0.00000000       4.27256945      16.48089899
N        2.13628461       6.40885404      16.48089356
Ti       0.00000000       8.54513873      10.00000000
Ti       2.13628468       8.54513873      12.13628468
Ti       0.00000000      10.68142340      12.13628468
Ti       2.13628468      10.68142340      10.00000000
N        0.00000000      10.68142340      10.00000000
N        2.13628468       8.54513873      10.00000000
N        0.00000000       8.54513873      12.13628468
N        2.13628468      10.68142340      12.13628468
Ti       0.00000000       8.54513864      14.26189325
Ti       2.13628479       8.54513878      16.32297373
Ti       0.00000000      10.68142339      16.32297314
Ti       2.13628482      10.68142326      14.26188402
N        0.00000000      10.68142346      14.28908211
N        2.13628467       8.54513862      14.28908267
N        0.00000000       8.54513864      16.48089899
N        2.13628468      10.68142340      16.48089373
Ti       4.27256936       0.00000000      10.00000000
Ti       6.40885404       0.00000000      12.13628468
Ti       4.27256936       2.13628468      12.13628468
Ti       6.40885404       2.13628468      10.00000000
N        4.27256936       2.13628468      10.00000000
N        6.40885404       0.00000000      10.00000000
N        4.27256936       0.00000000      12.13628468
N        6.40885404       2.13628468      12.13628468
Ti       4.27256945       0.00000000      14.26189325
Ti       6.40885404       0.00000000      16.32297313
Ti       4.27256931       2.13628479      16.32297373
Ti       6.40885404       2.13628456      14.26188405
N        4.27256947       2.13628467      14.28908267
N        6.40885404       0.00000000      14.28908199
N        4.27256945       0.00000000      16.48089899
N        6.40885404       2.13628461      16.48089356
Ti       4.27256936       4.27256936      10.00000000
Ti       6.40885404       4.27256936      12.13628468
Ti       4.27256936       6.40885404      12.13628468
Ti       6.40885404       6.40885404      10.00000000
N        4.27256936       6.40885404      10.00000000
N        6.40885404       4.27256936      10.00000000
N        4.27256936       4.27256936      12.13628468
N        6.40885404       6.40885404      12.13628468
Ti       4.27256943       4.27256943      14.26189364
Ti       6.40885404       4.27256929      16.32297328
Ti       4.27256929       6.40885404      16.32297328
Ti       6.40885404       6.40885404      14.26188356
N        4.27256937       6.40885404      14.28908222
N        6.40885404       4.27256937      14.28908222
N        4.27256935       4.27256935      16.48089945
N        6.40885404       6.40885404      16.48089298
Ti       4.27256936       8.54513873      10.00000000
Ti       6.40885404       8.54513873      12.13628468
Ti       4.27256936      10.68142340      12.13628468
Ti       6.40885404      10.68142340      10.00000000
N        4.27256936      10.68142340      10.00000000
N        6.40885404       8.54513873      10.00000000
N        4.27256936       8.54513873      12.13628468
N        6.40885404      10.68142340      12.13628468
Ti       4.27256943       8.54513866      14.26189364
Ti       6.40885404       8.54513880      16.32297328
Ti       4.27256931      10.68142329      16.32297373
Ti       6.40885404      10.68142352      14.26188405
N        4.27256947      10.68142341      14.28908267
N        6.40885404       8.54513872      14.28908222
N        4.27256935       8.54513874      16.48089945
N        6.40885404      10.68142347      16.48089356
Ti       8.54513873       0.00000000      10.00000000
Ti      10.68142340       0.00000000      12.13628468
Ti       8.54513873       2.13628468      12.13628468
Ti      10.68142340       2.13628468      10.00000000
N        8.54513873       2.13628468      10.00000000
N       10.68142340       0.00000000      10.00000000
N        8.54513873       0.00000000      12.13628468
N       10.68142340       2.13628468      12.13628468
Ti       8.54513864       0.00000000      14.26189325
Ti      10.68142339       0.00000000      16.32297314
Ti       8.54513878       2.13628479      16.32297373
Ti      10.68142326       2.13628482      14.26188402
N        8.54513862       2.13628467      14.28908267
N       10.68142346       0.00000000      14.28908211
N        8.54513864       0.00000000      16.48089899
N       10.68142340       2.13628468      16.48089373
Ti       8.54513873       4.27256936      10.00000000
Ti      10.68142340       4.27256936      12.13628468
Ti       8.54513873       6.40885404      12.13628468
Ti      10.68142340       6.40885404      10.00000000
N        8.54513873       6.40885404      10.00000000
N       10.68142340       4.27256936      10.00000000
N        8.54513873       4.27256936      12.13628468
N       10.68142340       6.40885404      12.13628468
Ti       8.54513866       4.27256943      14.26189364
Ti      10.68142329       4.27256931      16.32297373
Ti       8.54513880       6.40885404      16.32297328
Ti      10.68142352       6.40885404      14.26188405
N        8.54513872       6.40885404      14.28908222
N       10.68142341       4.27256947      14.28908267
N        8.54513874       4.27256935      16.48089945
N       10.68142347       6.40885404      16.48089356
Ti       8.54513873       8.54513873      10.00000000
Ti      10.68142340       8.54513873      12.13628468
Ti       8.54513873      10.68142340      12.13628468
Ti      10.68142340      10.68142340      10.00000000
N        8.54513873      10.68142340      10.00000000
N       10.68142340       8.54513873      10.00000000
N        8.54513873       8.54513873      12.13628468
N       10.68142340      10.68142340      12.13628468
Ti       8.54513866       8.54513866      14.26189364
Ti      10.68142329       8.54513878      16.32297373
Ti       8.54513878      10.68142329      16.32297373
Ti      10.68142326      10.68142326      14.26188402
N        8.54513862      10.68142341      14.28908267
N       10.68142341       8.54513862      14.28908267
N        8.54513874       8.54513874      16.48089945
N       10.68142340      10.68142340      16.48089373
S        6.42077430       4.81400489      19.48198985
S        4.89053989       6.39604007      19.35062042
Li       7.03867871       6.93785356      19.35713637
Li       4.27256935       4.27256935      19.48089945
