150
Lattice="12.528217542377883 0.0 0.0 0.0 12.528217542377883 0.0 0.0 0.0 26.264105142970823" Properties=species:S:1:pos:R:3 energy_ry=-11892.24578432 energy_ev=-161802.24532903236 pbc="T T T"
V        0.00000000       0.00000000      10.00000000
V        2.08803719       0.00000000      12.08803719
V        0.00000000       2.08803719      12.08803719
V        2.08803719       2.08803719      10.00000000
N        0.00000000       2.08803719      10.00000000
N        2.08803719       0.00000000      10.00000000
N        0.00000000       0.00000000      12.08803719
N        2.08803719       2.08803719      12.08803719
V        0.00000000       0.00000000      14.23212786
V        2.08805006       0.00000000      16.36286006
V        0.00000000       2.08805006      16.36286006
V        2.08806128       2.08806128      14.23211073
N        0.00000000       2.08803451      14.29958458
N        2.08803451       0.00000000      14.29958458
N        0.00000000       0.00000000      16.40486955
N        2.08800541       2.08800541      16.40493029
V        0.00000000       4.17607438      10.00000000
V        2.08803719       4.17607438      12.08803719
V        0.00000000       6.26411156      12.08803719
V        2.08803719       6.26411156      10.00000000
N        0.00000000       6.26411156      10.00000000
N        2.08803719       4.17607438      10.00000000
N        0.00000000       4.17607438      12.08803719
N        2.08803719       6.26411156      12.08803719
V        0.00000000       4.17602985      14.23211758
V        2.08805792       4.17605514      16.36299592
V        0.00000000       6.26411156      16.36258371
V        2.08808161       6.26411156      14.23211706
N        0.00000000       6.26411156      14.29949129
N        2.08804288       4.17607003      14.29963814
N        0.00000000       4.17612283      16.40485529
N        2.08798827       6.26411156      16.40485894
V        0.00000000       8.35214875      10.00000000
V        2.08803719       8.35214875      12.08803719
V        0.00000000      10.44018594      12.08803719
V        2.08803719      10.44018594      10.00000000
N        0.00000000      10.44018594      10.00000000
N        2.08803719       8.35214875      10.00000000
N        0.00000000       8.35214875      12.08803719
N        2.08803719      10.44018594      12.08803719
V        0.00000000       8.35219328      14.23211758
V        2.08805792       8.35216799      16.36299592
V        0.00000000      10.44017307      16.36286006
V        2.08806128      10.44016185      14.23211073
N        0.00000000      10.44018862      14.29958458
N        2.08804288       8.35215310      14.29963814
N        0.00000000       8.35210030      16.40485529
N        2.08800541      10.44021772      16.40493029
V        4.17607438       0.00000000      10.00000000
V        6.26411156       0.00000000      12.08803719
V        4.17607438       2.08803719      12.08803719
V        6.26411156       2.08803719      10.00000000
N        4.17607438       2.08803719      10.00000000
N        6.26411156       0.00000000      10.00000000
N        4.17607438       0.00000000      12.08803719
N        6.26411156       2.08803719      12.08803719
V        4.17602985       0.00000000      14.23211758
V        6.26411156       0.00000000      16.36258371
V        4.17605514       2.08805792      16.36299592
V        6.26411156       2.08808161      14.23211706
N        4.17607003       2.08804288      14.29963814
N        6.26411156       0.00000000      14.29949129
N        4.17612283       0.00000000      16.40485529
N        6.26411156       2.08798827      16.40485894
V        4.17607438       4.17607438      10.00000000
V        6.26411156       4.17607438      12.08803719
V        4.17607438       6.26411156      12.08803719
V        6.26411156       6.26411156      10.00000000
N        4.17607438       6.26411156      10.00000000
N        6.26411156       4.17607438      10.00000000
N        4.17607438       4.17607438      12.08803719
N        6.26411156       6.26411156      12.08803719
V        4.17605231       4.17605231      14.23211071
V        6.26411156       4.17606234      16.36286227
V        4.17606234       6.26411156      16.36286227
V        6.26411156       6.26411156      14.23212821
N        4.17607751       6.26411156      14.29958634
N        6.26411156       4.17607751      14.29958634
N        4.17610693       4.17610693      16.40493500
N        6.26411156       6.26411156      16.40487383
V        4.17607438       8.35214875      10.00000000
V        6.26411156       8.35214875      12.08803719
V        4.17607438      10.44018594      12.08803719
V        6.26411156      10.44018594      10.00000000
N        4.17607438      10.44018594      10.00000000
N        6.26411156       8.35214875      10.00000000
N        4.17607438       8.35214875      12.08803719
N        6.26411156      10.44018594      12.08803719
V        4.17605231       8.35217082      14.23211071
V        6.26411156       8.35216079      16.36286227
V        4.17605514      10.44016521      16.36299592
V        6.26411156      10.44014152      14.23211706
N        4.17607003      10.44018025      14.29963814
N        6.26411156       8.35214562      14.29958634
N        4.17610693       8.35211620      16.40493500
N        6.26411156      10.44023486      16.40485894
V        8.35214875       0.00000000      10.00000000
V       10.44018594       0.00000000      12.08803719
V        8.35214875       2.08803719      12.08803719
V       10.44018594       2.08803719      10.00000000
N        8.35214875       2.08803719      10.00000000
N       10.44018594       0.00000000      10.00000000
N        8.35214875       0.00000000      12.08803719
N       10.44018594       2.08803719      12.08803719
V        8.35219328       0.00000000      14.23211758
V       10.44017307       0.00000000      16.36286006
V        8.35216799       2.08805792      16.36299592
V       10.44016185       2.08806128      14.23211073
N        8.35215310       2.08804288      14.29963814
N       10.44018862       0.00000000      14.29958458
N        8.35210030       0.00000000      16.40485529
N       10.44021772       2.08800541      16.40493029
V        8.35214875       4.17607438      10.00000000
V       10.44018594       4.17607438      12.08803719
V        8.35214875       6.26411156      12.08803719
V       10.44018594       6.26411156      10.00000000
N        8.35214875       6.26411156      10.00000000
N       10.44018594       4.17607438      10.00000000
N        8.35214875       4.17607438      12.08803719
N       10.44018594       6.26411156      12.08803719
V        8.35217082       4.17605231      14.23211071
V       10.44016521       4.17605514      16.36299592
V        8.35216079       6.26411156      16.36286227
V       10.44014152       6.26411156      14.23211706
N        8.35214562       6.26411156      14.29958634
N       10.44018025       4.17607003      14.29963814
N        8.35211620       4.17610693      16.40493500
N       10.44023486       6.26411156      16.40485894
V        8.35214875       8.35214875      10.00000000
V       10.44018594       8.35214875      12.08803719
V        8.35214875      10.44018594      12.08803719
V       10.44018594      10.44018594      10.00000000
N        8.35214875      10.44018594      10.00000000
N       10.44018594       8.35214875      10.00000000
N        8.35214875       8.35214875      12.08803719
N       10.44018594      10.44018594      12.08803719
V        8.35217082       8.35217082      14.23211071
V       10.44016521       8.35216799      16.36299592
V        8.35216799      10.44016521      16.36299592
V       10.44016185      10.44016185      14.23211073
N        8.35215310      10.44018025      14.29963814
N       10.44018025       8.35215310      14.29963814
N        8.35211620       8.35211620      16.40493500
N       10.44021772      10.44021772      16.40493029
S        4.03266871       6.46729665      19.84978865
S        6.48415757       3.64905407      19.56092915
S        6.30349538       4.57985644      21.42660247
S        4.29602051       5.24451360      21.52775040
Li       4.17610693       4.17610693      19.40493500
Li       6.32928256       5.98238101      19.50545948
