144
Lattice="13.094844279 0.0 0.0 0.0 13.094844279 0.0 0.0 0.0 26.547422134698557" Properties=species:S:1:pos:R:3:tags:I:1 energy_ry=-552.07495149 energy_ev=-7511.362307931507 pbc="T T F"
Nb       0.00000000       0.00000000      10.00000000        2
Nb       2.18247404       0.00000000      12.18247404        2
Nb       0.00000000       2.18247404      12.18247404        2
Nb       2.18247404       2.18247404      10.00000000        2
N        0.00000000       2.18247404      10.00000000        2
N        2.18247404       0.00000000      10.00000000        2
N        0.00000000       0.00000000      12.18247404        2
N        2.18247404       2.18247404      12.18247404        2
Nb       0.00000000       0.00000000      14.36494809        1
Nb       2.18247404       0.00000000      16.54742213        1
Nb       0.00000000       2.18247404      16.54742213        1
Nb       2.18247404       2.18247404      14.36494809        1
N        0.00000000       2.18247404      14.36494809        1
N        2.18247404       0.00000000      14.36494809        1
N        0.00000000       0.00000000      16.54742213        1
N        2.18247404       2.18247404      16.54742213        1
Nb       0.00000000       4.36494809      10.00000000        2
Nb       2.18247404       4.36494809      12.18247404        2
Nb       0.00000000       6.54742213      12.18247404        2
Nb       2.18247404       6.54742213      10.00000000        2
N        0.00000000       6.54742213      10.00000000        2
N        2.18247404       4.36494809      10.00000000        2
N        0.00000000       4.36494809      12.18247404        2
N        2.18247404       6.54742213      12.18247404        2
Nb       0.00000000       4.36494809      14.36494809        1
Nb       2.18247404       4.36494809      16.54742213        1
Nb       0.00000000       6.54742213      16.54742213        1
Nb       2.18247404       6.54742213      14.36494809        1
N        0.00000000       6.54742213      14.36494809        1
N        2.18247404       4.36494809      14.36494809        1
N        0.00000000       4.36494809      16.54742213        1
N        2.18247404       6.54742213      16.54742213        1
Nb       0.00000000       8.72989619      10.00000000        2
Nb       2.18247404       8.72989619      12.18247404        2
Nb       0.00000000      10.91237023      12.18247404        2
Nb       2.18247404      10.91237023      10.00000000        2
N        0.00000000      10.91237023      10.00000000        2
N        2.18247404       8.72989619      10.00000000        2
N        0.00000000       8.72989619      12.18247404        2
N        2.18247404      10.91237023      12.18247404        2
Nb       0.00000000       8.72989619      14.36494809        1
Nb       2.18247404       8.72989619      16.54742213        1
Nb       0.00000000      10.91237023      16.54742213        1
Nb       2.18247404      10.91237023      14.36494809        1
N        0.00000000      10.91237023      14.36494809        1
N        2.18247404       8.72989619      14.36494809        1
N        0.00000000       8.72989619      16.54742213        1
N        2.18247404      10.91237023      16.54742213        1
Nb       4.36494809       0.00000000      10.00000000        2
Nb       6.54742213       0.00000000      12.18247404        2
Nb       4.36494809       2.18247404      12.18247404        2
Nb       6.54742213       2.18247404      10.00000000        2
N        4.36494809       2.18247404      10.00000000        2
N        6.54742213       0.00000000      10.00000000        2
N        4.36494809       0.00000000      12.18247404        2
N        6.54742213       2.18247404      12.18247404        2
Nb       4.36494809       0.00000000      14.36494809        1
Nb       6.54742213       0.00000000      16.54742213        1
Nb       4.36494809       2.18247404      16.54742213        1
Nb       6.54742213       2.18247404      14.36494809        1
N        4.36494809       2.18247404      14.36494809        1
N        6.54742213       0.00000000      14.36494809        1
N        4.36494809       0.00000000      16.54742213        1
N        6.54742213       2.18247404      16.54742213        1
Nb       4.36494809       4.36494809      10.00000000        2
Nb       6.54742213       4.36494809      12.18247404        2
Nb       4.36494809       6.54742213      12.18247404        2
Nb       6.54742213       6.54742213      10.00000000        2
N        4.36494809       6.54742213      10.00000000        2
N        6.54742213       4.36494809      10.00000000        2
N        4.36494809       4.36494809      12.18247404        2
N        6.54742213       6.54742213      12.18247404        2
Nb       4.36494809       4.36494809      14.36494809        1
Nb       6.54742213       4.36494809      16.54742213        1
Nb       4.36494809       6.54742213      16.54742213        1
Nb       6.54742213       6.54742213      14.36494809        1
N        4.36494809       6.54742213      14.36494809        1
N        6.54742213       4.36494809      14.36494809        1
N        4.36494809       4.36494809      16.54742213        1
N        6.54742213       6.54742213      16.54742213        1
Nb       4.36494809       8.72989619      10.00000000        2
Nb       6.54742213       8.72989619      12.18247404        2
Nb       4.36494809      10.91237023      12.18247404        2
Nb       6.54742213      10.91237023      10.00000000        2
N        4.36494809      10.91237023      10.00000000        2
N        6.54742213       8.72989619      10.00000000        2
N        4.36494809       8.72989619      12.18247404        2
N        6.54742213      10.91237023      12.18247404        2
Nb       4.36494809       8.72989619      14.36494809        1
Nb       6.54742213       8.72989619      16.54742213        1
Nb       4.36494809      10.91237023      16.54742213        1
Nb       6.54742213      10.91237023      14.36494809        1
N        4.36494809      10.91237023      14.36494809        1
N        6.54742213       8.72989619      14.36494809        1
N        4.36494809       8.72989619      16.54742213        1
N        6.54742213      10.91237023      16.54742213        1
Nb       8.72989619       0.00000000      10.00000000        2
Nb      10.91237023       0.00000000      12.18247404        2
Nb       8.72989619       2.18247404      12.18247404        2
Nb      10.91237023       2.18247404      10.00000000        2
N        8.72989619       2.18247404      10.00000000        2
N       10.91237023       0.00000000      10.00000000        2
N        8.72989619       0.00000000      12.18247404        2
N       10.91237023       2.18247404      12.18247404        2
Nb       8.72989619       0.00000000      14.36494809        1
Nb      10.91237023       0.00000000      16.54742213        1
Nb       8.72989619       2.18247404      16.54742213        1
Nb      10.91237023       2.18247404      14.36494809        1
N        8.72989619       2.18247404      14.36494809        1
N       10.91237023       0.00000000      14.36494809        1
N        8.72989619       0.00000000      16.54742213        1
N       10.91237023       2.18247404      16.54742213        1
Nb       8.72989619       4.36494809      10.00000000        2
Nb      10.91237023       4.36494809      12.18247404        2
Nb       8.72989619       6.54742213      12.18247404        2
Nb      10.91237023       6.54742213      10.00000000        2
N        8.72989619       6.54742213      10.00000000        2
N       10.91237023       4.36494809      10.00000000        2
N        8.72989619       4.36494809      12.18247404        2
N       10.91237023       6.54742213      12.18247404        2
Nb       8.72989619       4.36494809      14.36494809        1
Nb      10.91237023       4.36494809      16.54742213        1
Nb       8.72989619       6.54742213      16.54742213        1
Nb      10.91237023       6.54742213      14.36494809        1
N        8.72989619       6.54742213      14.36494809        1
N       10.91237023       4.36494809      14.36494809        1
N        8.72989619       4.36494809      16.54742213        1
N       10.91237023       6.54742213      16.54742213        1
Nb       8.72989619       8.72989619      10.00000000        2
Nb      10.91237023       8.72989619      12.18247404        2
Nb       8.72989619      10.91237023      12.18247404        2
Nb      10.91237023      10.91237023      10.00000000        2
N        8.72989619      10.91237023      10.00000000        2
N       10.91237023       8.72989619      10.00000000        2
N        8.72989619       8.72989619      12.18247404        2
N       10.91237023      10.91237023      12.18247404        2
Nb       8.72989619       8.72989619      14.36494809        1
Nb      10.91237023       8.72989619      16.54742213        1
Nb       8.72989619      10.91237023      16.54742213        1
Nb      10.91237023      10.91237023      14.36494809        1
N        8.72989619      10.91237023      14.36494809        1
N       10.91237023       8.72989619      14.36494809        1
N        8.72989619       8.72989619      16.54742213        1
N       10.91237023      10.91237023      16.54742213        1
