144
Lattice="13.556398652999999 0.0 0.0 0.0 13.556398652999999 0.0 0.0 0.0 26.7781993293" Properties=species:S:1:pos:R:3:tags:I:1 energy_ry=-458.45022267 energy_ev=-6237.532989555712 pbc="T T F"
Sc       0.00000000       0.00000000      10.00000000        2
Sc       2.25939978       0.00000000      12.25939978        2
Sc       0.00000000       2.25939978      12.25939978        2
Sc       2.25939978       2.25939978      10.00000000        2
N        0.00000000       2.25939978      10.00000000        2
N        2.25939978       0.00000000      10.00000000        2
N        0.00000000       0.00000000      12.25939978        2
N        2.25939978       2.25939978      12.25939978        2
Sc       0.00000000       0.00000000      14.51879955        1
Sc       2.25939978       0.00000000      16.77819933        1
Sc       0.00000000       2.25939978      16.77819933        1
Sc       2.25939978       2.25939978      14.51879955        1
N        0.00000000       2.25939978      14.51879955        1
N        2.25939978       0.00000000      14.51879955        1
N        0.00000000       0.00000000      16.77819933        1
N        2.25939978       2.25939978      16.77819933        1
Sc       0.00000000       4.51879955      10.00000000        2
Sc       2.25939978       4.51879955      12.25939978        2
Sc       0.00000000       6.77819933      12.25939978        2
Sc       2.25939978       6.77819933      10.00000000        2
N        0.00000000       6.77819933      10.00000000        2
N        2.25939978       4.51879955      10.00000000        2
N        0.00000000       4.51879955      12.25939978        2
N        2.25939978       6.77819933      12.25939978        2
Sc       0.00000000       4.51879955      14.51879955        1
Sc       2.25939978       4.51879955      16.77819933        1
Sc       0.00000000       6.77819933      16.77819933        1
Sc       2.25939978       6.77819933      14.51879955        1
N        0.00000000       6.77819933      14.51879955        1
N        2.25939978       4.51879955      14.51879955        1
N        0.00000000       4.51879955      16.77819933        1
N        2.25939978       6.77819933      16.77819933        1
Sc       0.00000000       9.03759910      10.00000000        2
Sc       2.25939978       9.03759910      12.25939978        2
Sc       0.00000000      11.29699888      12.25939978        2
Sc       2.25939978      11.29699888      10.00000000        2
N        0.00000000      11.29699888      10.00000000        2
N        2.25939978       9.03759910      10.00000000        2
N        0.00000000       9.03759910      12.25939978        2
N        2.25939978      11.29699888      12.25939978        2
Sc       0.00000000       9.03759910      14.51879955        1
Sc       2.25939978       9.03759910      16.77819933        1
Sc       0.00000000      11.29699888      16.77819933        1
Sc       2.25939978      11.29699888      14.51879955        1
N        0.00000000      11.29699888      14.51879955        1
N        2.25939978       9.03759910      14.51879955        1
N        0.00000000       9.03759910      16.77819933        1
N        2.25939978      11.29699888      16.77819933        1
Sc       4.51879955       0.00000000      10.00000000        2
Sc       6.77819933       0.00000000      12.25939978        2
Sc       4.51879955       2.25939978      12.25939978        2
Sc       6.77819933       2.25939978      10.00000000        2
N        4.51879955       2.25939978      10.00000000        2
N        6.77819933       0.00000000      10.00000000        2
N        4.51879955       0.00000000      12.25939978        2
N        6.77819933       2.25939978      12.25939978        2
Sc       4.51879955       0.00000000      14.51879955        1
Sc       6.77819933       0.00000000      16.77819933        1
Sc       4.51879955       2.25939978      16.77819933        1
Sc       6.77819933       2.25939978      14.51879955        1
N        4.51879955       2.25939978      14.51879955        1
N        6.77819933       0.00000000      14.51879955        1
N        4.51879955       0.00000000      16.77819933        1
N        6.77819933       2.25939978      16.77819933        1
Sc       4.51879955       4.51879955      10.00000000        2
Sc       6.77819933       4.51879955      12.25939978        2
Sc       4.51879955       6.77819933      12.25939978        2
Sc       6.77819933       6.77819933      10.00000000        2
N        4.51879955       6.77819933      10.00000000        2
N        6.77819933       4.51879955      10.00000000        2
N        4.51879955       4.51879955      12.25939978        2
N        6.77819933       6.77819933      12.25939978        2
Sc       4.51879955       4.51879955      14.51879955        1
Sc       6.77819933       4.51879955      16.77819933        1
Sc       4.51879955       6.77819933      16.77819933        1
Sc       6.77819933       6.77819933      14.51879955        1
N        4.51879955       6.77819933      14.51879955        1
N        6.77819933       4.51879955      14.51879955        1
N        4.51879955       4.51879955      16.77819933        1
N        6.77819933       6.77819933      16.77819933        1
Sc       4.51879955       9.03759910      10.00000000        2
Sc       6.77819933       9.03759910      12.25939978        2
Sc       4.51879955      11.29699888      12.25939978        2
Sc       6.77819933      11.29699888      10.00000000        2
N        4.51879955      11.29699888      10.00000000        2
N        6.77819933       9.03759910      10.00000000        2
N        4.51879955       9.03759910      12.25939978        2
N        6.77819933      11.29699888      12.25939978        2
Sc       4.51879955       9.03759910      14.51879955        1
Sc       6.77819933       9.03759910      16.77819933        1
Sc       4.51879955      11.29699888      16.77819933        1
Sc       6.77819933      11.29699888      14.51879955        1
N        4.51879955      11.29699888      14.51879955        1
N        6.77819933       9.03759910      14.51879955        1
N        4.51879955       9.03759910      16.77819933        1
N        6.77819933      11.29699888      16.77819933        1
Sc       9.03759910       0.00000000      10.00000000        2
Sc      11.29699888       0.00000000      12.25939978        2
Sc       9.03759910       2.25939978      12.25939978        2
Sc      11.29699888       2.25939978      10.00000000        2
N        9.03759910       2.25939978      10.00000000        2
N       11.29699888       0.00000000      10.00000000        2
N        9.03759910       0.00000000      12.25939978        2
N       11.29699888       2.25939978      12.25939978        2
Sc       9.03759910       0.00000000      14.51879955        1
Sc      11.29699888       0.00000000      16.77819933        1
Sc       9.03759910       2.25939978      16.77819933        1
Sc      11.29699888       2.25939978      14.51879955        1
N        9.03759910       2.25939978      14.51879955        1
N       11.29699888       0.00000000      14.51879955        1
N        9.03759910       0.00000000      16.77819933        1
N       11.29699888       2.25939978      16.77819933        1
Sc       9.03759910       4.51879955      10.00000000        2
Sc      11.29699888       4.51879955      12.25939978        2
Sc       9.03759910       6.77819933      12.25939978        2
Sc      11.29699888       6.77819933      10.00000000        2
N        9.03759910       6.77819933      10.00000000        2
N       11.29699888       4.51879955      10.00000000        2
N        9.03759910       4.51879955      12.25939978        2
N       11.29699888       6.77819933      12.25939978        2
Sc       9.03759910       4.51879955      14.51879955        1
Sc      11.29699888       4.51879955      16.77819933        1
Sc       9.03759910       6.77819933      16.77819933        1
Sc      11.29699888       6.77819933      14.51879955        1
N        9.03759910       6.77819933      14.51879955        1
N       11.29699888       4.51879955      14.51879955        1
N        9.03759910       4.51879955      16.77819933        1
N       11.29699888       6.77819933      16.77819933        1
Sc       9.03759910       9.03759910      10.00000000        2
Sc      11.29699888       9.03759910      12.25939978        2
Sc       9.03759910      11.29699888      12.25939978        2
Sc      11.29699888      11.29699888      10.00000000        2
N        9.03759910      11.29699888      10.00000000        2
N       11.29699888       9.03759910      10.00000000        2
N        9.03759910       9.03759910      12.25939978        2
N       11.29699888      11.29699888      12.25939978        2
Sc       9.03759910       9.03759910      14.51879955        1
Sc      11.29699888       9.03759910      16.77819933        1
Sc       9.03759910      11.29699888      16.77819933        1
Sc      11.29699888      11.29699888      14.51879955        1
N        9.03759910      11.29699888      14.51879955        1
N       11.29699888       9.03759910      14.51879955        1
N        9.03759910       9.03759910      16.77819933        1
N       11.29699888      11.29699888      16.77819933        1
