144
Lattice="12.807166221 0.0 0.0 0.0 12.807166221 0.0 0.0 0.0 26.4035831061" Properties=species:S:1:pos:R:3:tags:I:1 energy_ry=-557.42740964 energy_ev=-7584.186210363926 pbc="T T F"
Ti       0.00000000       0.00000000      10.00000000        2
Ti       2.13452770       0.00000000      12.13452770        2
Ti       0.00000000       2.13452770      12.13452770        2
Ti       2.13452770       2.13452770      10.00000000        2
N        0.00000000       2.13452770      10.00000000        2
N        2.13452770       0.00000000      10.00000000        2
N        0.00000000       0.00000000      12.13452770        2
N        2.13452770       2.13452770      12.13452770        2
Ti       0.00000000       0.00000000      14.26905541        1
Ti       2.13452770       0.00000000      16.40358311        1
Ti       0.00000000       2.13452770      16.40358311        1
Ti       2.13452770       2.13452770      14.26905541        1
N        0.00000000       2.13452770      14.26905541        1
N        2.13452770       0.00000000      14.26905541        1
N        0.00000000       0.00000000      16.40358311        1
N        2.13452770       2.13452770      16.40358311        1
Ti       0.00000000       4.26905541      10.00000000        2
Ti       2.13452770       4.26905541      12.13452770        2
Ti       0.00000000       6.40358311      12.13452770        2
Ti       2.13452770       6.40358311      10.00000000        2
N        0.00000000       6.40358311      10.00000000        2
N        2.13452770       4.26905541      10.00000000        2
N        0.00000000       4.26905541      12.13452770        2
N        2.13452770       6.40358311      12.13452770        2
Ti       0.00000000       4.26905541      14.26905541        1
Ti       2.13452770       4.26905541      16.40358311        1
Ti       0.00000000       6.40358311      16.40358311        1
Ti       2.13452770       6.40358311      14.26905541        1
N        0.00000000       6.40358311      14.26905541        1
N        2.13452770       4.26905541      14.26905541        1
N        0.00000000       4.26905541      16.40358311        1
N        2.13452770       6.40358311      16.40358311        1
Ti       0.00000000       8.53811081      10.00000000        2
Ti       2.13452770       8.53811081      12.13452770        2
Ti       0.00000000      10.67263851      12.13452770        2
Ti       2.13452770      10.67263851      10.00000000        2
N        0.00000000      10.67263851      10.00000000        2
N        2.13452770       8.53811081      10.00000000        2
N        0.00000000       8.53811081      12.13452770        2
N        2.13452770      10.67263851      12.13452770        2
Ti       0.00000000       8.53811081      14.26905541        1
Ti       2.13452770       8.53811081      16.40358311        1
Ti       0.00000000      10.67263851      16.40358311        1
Ti       2.13452770      10.67263851      14.26905541        1
N        0.00000000      10.67263851      14.26905541        1
N        2.13452770       8.53811081      14.26905541        1
N        0.00000000       8.53811081      16.40358311        1
N        2.13452770      10.67263851      16.40358311        1
Ti       4.26905541       0.00000000      10.00000000        2
Ti       6.40358311       0.00000000      12.13452770        2
Ti       4.26905541       2.13452770      12.13452770        2
Ti       6.40358311       2.13452770      10.00000000        2
N        4.26905541       2.13452770      10.00000000        2
N        6.40358311       0.00000000      10.00000000        2
N        4.26905541       0.00000000      12.13452770        2
N        6.40358311       2.13452770      12.13452770        2
Ti       4.26905541       0.00000000      14.26905541        1
Ti       6.40358311       0.00000000      16.40358311        1
Ti       4.26905541       2.13452770      16.40358311        1
Ti       6.40358311       2.13452770      14.26905541        1
N        4.26905541       2.13452770      14.26905541        1
N        6.40358311       0.00000000      14.26905541        1
N        4.26905541       0.00000000      16.40358311        1
N        6.40358311       2.13452770      16.40358311        1
Ti       4.26905541       4.26905541      10.00000000        2
Ti       6.40358311       4.26905541      12.13452770        2
Ti       4.26905541       6.40358311      12.13452770        2
Ti       6.40358311       6.40358311      10.00000000        2
N        4.26905541       6.40358311      10.00000000        2
N        6.40358311       4.26905541      10.00000000        2
N        4.26905541       4.26905541      12.13452770        2
N        6.40358311       6.40358311      12.13452770        2
Ti       4.26905541       4.26905541      14.26905541        1
Ti       6.40358311       4.26905541      16.40358311        1
Ti       4.26905541       6.40358311      16.40358311        1
Ti       6.40358311       6.40358311      14.26905541        1
N        4.26905541       6.40358311      14.26905541        1
N        6.40358311       4.26905541      14.26905541        1
N        4.26905541       4.26905541      16.40358311        1
N        6.40358311       6.40358311      16.40358311        1
Ti       4.26905541       8.53811081      10.00000000        2
Ti       6.40358311       8.53811081      12.13452770        2
Ti       4.26905541      10.67263851      12.13452770        2
Ti       6.40358311      10.67263851      10.00000000        2
N        4.26905541      10.67263851      10.00000000        2
N        6.40358311       8.53811081      10.00000000        2
N        4.26905541       8.53811081      12.13452770        2
N        6.40358311      10.67263851      12.13452770        2
Ti       4.26905541       8.53811081      14.26905541        1
Ti       6.40358311       8.53811081      16.40358311        1
Ti       4.26905541      10.67263851      16.40358311        1
Ti       6.40358311      10.67263851      14.26905541        1
N        4.26905541      10.67263851      14.26905541        1
N        6.40358311       8.53811081      14.26905541        1
N        4.26905541       8.53811081      16.40358311        1
N        6.40358311      10.67263851      16.40358311        1
Ti       8.53811081       0.00000000      10.00000000        2
Ti      10.67263851       0.00000000      12.13452770        2
Ti       8.53811081       2.13452770      12.13452770        2
Ti      10.67263851       2.13452770      10.00000000        2
N        8.53811081       2.13452770      10.00000000        2
N       10.67263851       0.00000000      10.00000000        2
N        8.53811081       0.00000000      12.13452770        2
N       10.67263851       2.13452770      12.13452770        2
Ti       8.53811081       0.00000000      14.26905541        1
Ti      10.67263851       0.00000000      16.40358311        1
Ti       8.53811081       2.13452770      16.40358311        1
Ti      10.67263851       2.13452770      14.26905541        1
N        8.53811081       2.13452770      14.26905541        1
N       10.67263851       0.00000000      14.26905541        1
N        8.53811081       0.00000000      16.40358311        1
N       10.67263851       2.13452770      16.40358311        1
Ti       8.53811081       4.26905541      10.00000000        2
Ti      10.67263851       4.26905541      12.13452770        2
Ti       8.53811081       6.40358311      12.13452770        2
Ti      10.67263851       6.40358311      10.00000000        2
N        8.53811081       6.40358311      10.00000000        2
N       10.67263851       4.26905541      10.00000000        2
N        8.53811081       4.26905541      12.13452770        2
N       10.67263851       6.40358311      12.13452770        2
Ti       8.53811081       4.26905541      14.26905541        1
Ti      10.67263851       4.26905541      16.40358311        1
Ti       8.53811081       6.40358311      16.40358311        1
Ti      10.67263851       6.40358311      14.26905541        1
N        8.53811081       6.40358311      14.26905541        1
N       10.67263851       4.26905541      14.26905541        1
N        8.53811081       4.26905541      16.40358311        1
N       10.67263851       6.40358311      16.40358311        1
Ti       8.53811081       8.53811081      10.00000000        2
Ti      10.67263851       8.53811081      12.13452770        2
Ti       8.53811081      10.67263851      12.13452770        2
Ti      10.67263851      10.67263851      10.00000000        2
N        8.53811081      10.67263851      10.00000000        2
N       10.67263851       8.53811081      10.00000000        2
N        8.53811081       8.53811081      12.13452770        2
N       10.67263851      10.67263851      12.13452770        2
Ti       8.53811081       8.53811081      14.26905541        1
Ti      10.67263851       8.53811081      16.40358311        1
Ti       8.53811081      10.67263851      16.40358311        1
Ti      10.67263851      10.67263851      14.26905541        1
N        8.53811081      10.67263851      14.26905541        1
N       10.67263851       8.53811081      14.26905541        1
N        8.53811081       8.53811081      16.40358311        1
N       10.67263851      10.67263851      16.40358311        1
