144
Lattice="12.867694737 0.0 0.0 0.0 12.867694737 0.0 0.0 0.0 26.4338473663" Properties=species:S:1:pos:R:3:tags:I:1 energy_ry=-660.15618159 energy_ev=-8981.882344707197 pbc="T T F"
V        0.00000000       0.00000000      10.00000000        2
V        2.14461579       0.00000000      12.14461579        2
V        0.00000000       2.14461579      12.14461579        2
V        2.14461579       2.14461579      10.00000000        2
N        0.00000000       2.14461579      10.00000000        2
N        2.14461579       0.00000000      10.00000000        2
N        0.00000000       0.00000000      12.14461579        2
N        2.14461579       2.14461579      12.14461579        2
V        0.00000000       0.00000000      14.28923158        1
V        2.14461579       0.00000000      16.43384737        1
V        0.00000000       2.14461579      16.43384737        1
V        2.14461579       2.14461579      14.28923158        1
N        0.00000000       2.14461579      14.28923158        1
N        2.14461579       0.00000000      14.28923158        1
N        0.00000000       0.00000000      16.43384737        1
N        2.14461579       2.14461579      16.43384737        1
V        0.00000000       4.28923158      10.00000000        2
V        2.14461579       4.28923158      12.14461579        2
V        0.00000000       6.43384737      12.14461579        2
V        2.14461579       6.43384737      10.00000000        2
N        0.00000000       6.43384737      10.00000000        2
N        2.14461579       4.28923158      10.00000000        2
N        0.00000000       4.28923158      12.14461579        2
N        2.14461579       6.43384737      12.14461579        2
V        0.00000000       4.28923158      14.28923158        1
V        2.14461579       4.28923158      16.43384737        1
V        0.00000000       6.43384737      16.43384737        1
V        2.14461579       6.43384737      14.28923158        1
N        0.00000000       6.43384737      14.28923158        1
N        2.14461579       4.28923158      14.28923158        1
N        0.00000000       4.28923158      16.43384737        1
N        2.14461579       6.43384737      16.43384737        1
V        0.00000000       8.57846316      10.00000000        2
V        2.14461579       8.57846316      12.14461579        2
V        0.00000000      10.72307895      12.14461579        2
V        2.14461579      10.72307895      10.00000000        2
N        0.00000000      10.72307895      10.00000000        2
N        2.14461579       8.57846316      10.00000000        2
N        0.00000000       8.57846316      12.14461579        2
N        2.14461579      10.72307895      12.14461579        2
V        0.00000000       8.57846316      14.28923158        1
V        2.14461579       8.57846316      16.43384737        1
V        0.00000000      10.72307895      16.43384737        1
V        2.14461579      10.72307895      14.28923158        1
N        0.00000000      10.72307895      14.28923158        1
N        2.14461579       8.57846316      14.28923158        1
N        0.00000000       8.57846316      16.43384737        1
N        2.14461579      10.72307895      16.43384737        1
V        4.28923158       0.00000000      10.00000000        2
V        6.43384737       0.00000000      12.14461579        2
V        4.28923158       2.14461579      12.14461579        2
V        6.43384737       2.14461579      10.00000000        2
N        4.28923158       2.14461579      10.00000000        2
N        6.43384737       0.00000000      10.00000000        2
N        4.28923158       0.00000000      12.14461579        2
N        6.43384737       2.14461579      12.14461579        2
V        4.28923158       0.00000000      14.28923158        1
V        6.43384737       0.00000000      16.43384737        1
V        4.28923158       2.14461579      16.43384737        1
V        6.43384737       2.14461579      14.28923158        1
N        4.28923158       2.14461579      14.28923158        1
N        6.43384737       0.00000000      14.28923158        1
N        4.28923158       0.00000000      16.43384737        1
N        6.43384737       2.14461579      16.43384737        1
V        4.28923158       4.28923158      10.00000000        2
V        6.43384737       4.28923158      12.14461579        2
V        4.28923158       6.43384737      12.14461579        2
V        6.43384737       6.43384737      10.00000000        2
N        4.28923158       6.43384737      10.00000000        2
N        6.43384737       4.28923158      10.00000000        2
N        4.28923158       4.28923158      12.14461579        2
N        6.43384737       6.43384737      12.14461579        2
V        4.28923158       4.28923158      14.28923158        1
V        6.43384737       4.28923158      16.43384737        1
V        4.28923158       6.43384737      16.43384737        1
V        6.43384737       6.43384737      14.28923158        1
N        4.28923158       6.43384737      14.28923158        1
N        6.43384737       4.28923158      14.28923158        1
N        4.28923158       4.28923158      16.43384737        1
N        6.43384737       6.43384737      16.43384737        1
V        4.28923158       8.57846316      10.00000000        2
V        6.43384737       8.57846316      12.14461579        2
V        4.28923158      10.72307895      12.14461579        2
V        6.43384737      10.72307895      10.00000000        2
N        4.28923158      10.72307895      10.00000000        2
N        6.43384737       8.57846316      10.00000000        2
N        4.28923158       8.57846316      12.14461579        2
N        6.43384737      10.72307895      12.14461579        2
V        4.28923158       8.57846316      14.28923158        1
V        6.43384737       8.57846316      16.43384737        1
V        4.28923158      10.72307895      16.43384737        1
V        6.43384737      10.72307895      14.28923158        1
N        4.28923158      10.72307895      14.28923158        1
N        6.43384737       8.57846316      14.28923158        1
N        4.28923158       8.57846316      16.43384737        1
N        6.43384737      10.72307895      16.43384737        1
V        8.57846316       0.00000000      10.00000000        2
V       10.72307895       0.00000000      12.14461579        2
V        8.57846316       2.14461579      12.14461579        2
V       10.72307895       2.14461579      10.00000000        2
N        8.57846316       2.14461579      10.00000000        2
N       10.72307895       0.00000000      10.00000000        2
N        8.57846316       0.00000000      12.14461579        2
N       10.72307895       2.14461579      12.14461579        2
V        8.57846316       0.00000000      14.28923158        1
V       10.72307895       0.00000000      16.43384737        1
V        8.57846316       2.14461579      16.43384737        1
V       10.72307895       2.14461579      14.28923158        1
N        8.57846316       2.14461579      14.28923158        1
N       10.72307895       0.00000000      14.28923158        1
N        8.57846316       0.00000000      16.43384737        1
N       10.72307895       2.14461579      16.43384737        1
V        8.57846316       4.28923158      10.00000000        2
V       10.72307895       4.28923158      12.14461579        2
V        8.57846316       6.43384737      12.14461579        2
V       10.72307895       6.43384737      10.00000000        2
N        8.57846316       6.43384737      10.00000000        2
N       10.72307895       4.28923158      10.00000000        2
N        8.57846316       4.28923158      12.14461579        2
N       10.72307895       6.43384737      12.14461579        2
V        8.57846316       4.28923158      14.28923158        1
V       10.72307895       4.28923158      16.43384737        1
V        8.57846316       6.43384737      16.43384737        1
V       10.72307895       6.43384737      14.28923158        1
N        8.57846316       6.43384737      14.28923158        1
N       10.72307895       4.28923158      14.28923158        1
N        8.57846316       4.28923158      16.43384737        1
N       10.72307895       6.43384737      16.43384737        1
V        8.57846316       8.57846316      10.00000000        2
V       10.72307895       8.57846316      12.14461579        2
V        8.57846316      10.72307895      12.14461579        2
V       10.72307895      10.72307895      10.00000000        2
N        8.57846316      10.72307895      10.00000000        2
N       10.72307895       8.57846316      10.00000000        2
N        8.57846316       8.57846316      12.14461579        2
N       10.72307895      10.72307895      12.14461579        2
V        8.57846316       8.57846316      14.28923158        1
V       10.72307895       8.57846316      16.43384737        1
V        8.57846316      10.72307895      16.43384737        1
V       10.72307895      10.72307895      14.28923158        1
N        8.57846316      10.72307895      14.28923158        1
N       10.72307895       8.57846316      14.28923158        1
N        8.57846316       8.57846316      16.43384737        1
N       10.72307895      10.72307895      16.43384737        1
