144
Lattice="13.768489679999998 0.0 0.0 0.0 13.768489679999998 0.0 0.0 0.0 26.8842448411" Properties=species:S:1:pos:R:3:tags:I:1 energy_ry=-477.61532343 energy_ev=-6498.287466982824 pbc="T T F"
Zr       0.00000000       0.00000000      10.00000000        2
Zr       2.29474828       0.00000000      12.29474828        2
Zr       0.00000000       2.29474828      12.29474828        2
Zr       2.29474828       2.29474828      10.00000000        2
N        0.00000000       2.29474828      10.00000000        2
N        2.29474828       0.00000000      10.00000000        2
N        0.00000000       0.00000000      12.29474828        2
N        2.29474828       2.29474828      12.29474828        2
Zr       0.00000000       0.00000000      14.58949656        1
Zr       2.29474828       0.00000000      16.88424484        1
Zr       0.00000000       2.29474828      16.88424484        1
Zr       2.29474828       2.29474828      14.58949656        1
N        0.00000000       2.29474828      14.58949656        1
N        2.29474828       0.00000000      14.58949656        1
N        0.00000000       0.00000000      16.88424484        1
N        2.29474828       2.29474828      16.88424484        1
Zr       0.00000000       4.58949656      10.00000000        2
Zr       2.29474828       4.58949656      12.29474828        2
Zr       0.00000000       6.88424484      12.29474828        2
Zr       2.29474828       6.88424484      10.00000000        2
N        0.00000000       6.88424484      10.00000000        2
N        2.29474828       4.58949656      10.00000000        2
N        0.00000000       4.58949656      12.29474828        2
N        2.29474828       6.88424484      12.29474828        2
Zr       0.00000000       4.58949656      14.58949656        1
Zr       2.29474828       4.58949656      16.88424484        1
Zr       0.00000000       6.88424484      16.88424484        1
Zr       2.29474828       6.88424484      14.58949656        1
N        0.00000000       6.88424484      14.58949656        1
N        2.29474828       4.58949656      14.58949656        1
N        0.00000000       4.58949656      16.88424484        1
N        2.29474828       6.88424484      16.88424484        1
Zr       0.00000000       9.17899312      10.00000000        2
Zr       2.29474828       9.17899312      12.29474828        2
Zr       0.00000000      11.47374140      12.29474828        2
Zr       2.29474828      11.47374140      10.00000000        2
N        0.00000000      11.47374140      10.00000000        2
N        2.29474828       9.17899312      10.00000000        2
N        0.00000000       9.17899312      12.29474828        2
N        2.29474828      11.47374140      12.29474828        2
Zr       0.00000000       9.17899312      14.58949656        1
Zr       2.29474828       9.17899312      16.88424484        1
Zr       0.00000000      11.47374140      16.88424484        1
Zr       2.29474828      11.47374140      14.58949656        1
N        0.00000000      11.47374140      14.58949656        1
N        2.29474828       9.17899312      14.58949656        1
N        0.00000000       9.17899312      16.88424484        1
N        2.29474828      11.47374140      16.88424484        1
Zr       4.58949656       0.00000000      10.00000000        2
Zr       6.88424484       0.00000000      12.29474828        2
Zr       4.58949656       2.29474828      12.29474828        2
Zr       6.88424484       2.29474828      10.00000000        2
N        4.58949656       2.29474828      10.00000000        2
N        6.88424484       0.00000000      10.00000000        2
N        4.58949656       0.00000000      12.29474828        2
N        6.88424484       2.29474828      12.29474828        2
Zr       4.58949656       0.00000000      14.58949656        1
Zr       6.88424484       0.00000000      16.88424484        1
Zr       4.58949656       2.29474828      16.88424484        1
Zr       6.88424484       2.29474828      14.58949656        1
N        4.58949656       2.29474828      14.58949656        1
N        6.88424484       0.00000000      14.58949656        1
N        4.58949656       0.00000000      16.88424484        1
N        6.88424484       2.29474828      16.88424484        1
Zr       4.58949656       4.58949656      10.00000000        2
Zr       6.88424484       4.58949656      12.29474828        2
Zr       4.58949656       6.88424484      12.29474828        2
Zr       6.88424484       6.88424484      10.00000000        2
N        4.58949656       6.88424484      10.00000000        2
N        6.88424484       4.58949656      10.00000000        2
N        4.58949656       4.58949656      12.29474828        2
N        6.88424484       6.88424484      12.29474828        2
Zr       4.58949656       4.58949656      14.58949656        1
Zr       6.88424484       4.58949656      16.88424484        1
Zr       4.58949656       6.88424484      16.88424484        1
Zr       6.88424484       6.88424484      14.58949656        1
N        4.58949656       6.88424484      14.58949656        1
N        6.88424484       4.58949656      14.58949656        1
N        4.58949656       4.58949656      16.88424484        1
N        6.88424484       6.88424484      16.88424484        1
Zr       4.58949656       9.17899312      10.00000000        2
Zr       6.88424484       9.17899312      12.29474828        2
Zr       4.58949656      11.47374140      12.29474828        2
Zr       6.88424484      11.47374140      10.00000000        2
N        4.58949656      11.47374140      10.00000000        2
N        6.88424484       9.17899312      10.00000000        2
N        4.58949656       9.17899312      12.29474828        2
N        6.88424484      11.47374140      12.29474828        2
Zr       4.58949656       9.17899312      14.58949656        1
Zr       6.88424484       9.17899312      16.88424484        1
Zr       4.58949656      11.47374140      16.88424484        1
Zr       6.88424484      11.47374140      14.58949656        1
N        4.58949656      11.47374140      14.58949656        1
N        6.88424484       9.17899312      14.58949656        1
N        4.58949656       9.17899312      16.88424484        1
N        6.88424484      11.47374140      16.88424484        1
Zr       9.17899312       0.00000000      10.00000000        2
Zr      11.47374140       0.00000000      12.29474828        2
Zr       9.17899312       2.29474828      12.29474828        2
Zr      11.47374140       2.29474828      10.00000000        2
N        9.17899312       2.29474828      10.00000000        2
N       11.47374140       0.00000000      10.00000000        2
N        9.17899312       0.00000000      12.29474828        2
N       11.47374140       2.29474828      12.29474828        2
Zr       9.17899312       0.00000000      14.58949656        1
Zr      11.47374140       0.00000000      16.88424484        1
Zr       9.17899312       2.29474828      16.88424484        1
Zr      11.47374140       2.29474828      14.58949656        1
N        9.17899312       2.29474828      14.58949656        1
N       11.47374140       0.00000000      14.58949656        1
N        9.17899312       0.00000000      16.88424484        1
N       11.47374140       2.29474828      16.88424484        1
Zr       9.17899312       4.58949656      10.00000000        2
Zr      11.47374140       4.58949656      12.29474828        2
Zr       9.17899312       6.88424484      12.29474828        2
Zr      11.47374140       6.88424484      10.00000000        2
N        9.17899312       6.88424484      10.00000000        2
N       11.47374140       4.58949656      10.00000000        2
N        9.17899312       4.58949656      12.29474828        2
N       11.47374140       6.88424484      12.29474828        2
Zr       9.17899312       4.58949656      14.58949656        1
Zr      11.47374140       4.58949656      16.88424484        1
Zr       9.17899312       6.88424484      16.88424484        1
Zr      11.47374140       6.88424484      14.58949656        1
N        9.17899312       6.88424484      14.58949656        1
N       11.47374140       4.58949656      14.58949656        1
N        9.17899312       4.58949656      16.88424484        1
N       11.47374140       6.88424484      16.88424484        1
Zr       9.17899312       9.17899312      10.00000000        2
Zr      11.47374140       9.17899312      12.29474828        2
Zr       9.17899312      11.47374140      12.29474828        2
Zr      11.47374140      11.47374140      10.00000000        2
N        9.17899312      11.47374140      10.00000000        2
N       11.47374140       9.17899312      10.00000000        2
N        9.17899312       9.17899312      12.29474828        2
N       11.47374140      11.47374140      12.29474828        2
Zr       9.17899312       9.17899312      14.58949656        1
Zr      11.47374140       9.17899312      16.88424484        1
Zr       9.17899312      11.47374140      16.88424484        1
Zr      11.47374140      11.47374140      14.58949656        1
N        9.17899312      11.47374140      14.58949656        1
N       11.47374140       9.17899312      14.58949656        1
N        9.17899312       9.17899312      16.88424484        1
N       11.47374140      11.47374140      16.88424484        1
