8
Lattice="4.213916472 0.0 0.0 0.0 4.213916472 0.0 0.0 0.0 4.213916472" Properties=species:S:1:pos:R:3:forces:R:3 energy=-7603.333222482327 free_energy=-7603.333222482327 stress="-0.00020933993626547502 -0.0 -0.0 -0.0 -0.00020933993626547502 -0.0 -0.0 -0.0 -0.00020933993626547502" pbc="T T T"
Ti       0.00000000       0.00000000       0.00000000       0.00000000       0.00000000       0.00000000
Ti       2.10695823       2.10695823       0.00000000       0.00000000       0.00000000       0.00000000
Ti       2.10695823       0.00000000       2.10695823       0.00000000       0.00000000       0.00000000
Ti       0.00000000       2.10695823       2.10695823       0.00000000       0.00000000       0.00000000
N        0.00000000       0.00000000       2.10695823       0.00000000       0.00000000       0.00000000
N        0.00000000       2.10695823       0.00000000       0.00000000       0.00000000       0.00000000
N        2.10695823       0.00000000       0.00000000       0.00000000       0.00000000       0.00000000
N        2.10695823       2.10695823       2.10695823       0.00000000       0.00000000       0.00000000
