144
Lattice="13.547707986 0.0 0.0 0.0 13.547707986 0.0 0.0 0.0 26.773853995709544" Properties=species:S:1:pos:R:3:tags:I:1 energy_ry=-458.5944539 energy_ev=-6239.495355393403 pbc="T T F"
Sc       0.00000000       0.00000000      10.00000000        2
Sc       2.25795133       0.00000000      12.25795133        2
Sc       0.00000000       2.25795133      12.25795133        2
Sc       2.25795133       2.25795133      10.00000000        2
N        0.00000000       2.25795133      10.00000000        2
N        2.25795133       0.00000000      10.00000000        2
N        0.00000000       0.00000000      12.25795133        2
N        2.25795133       2.25795133      12.25795133        2
Sc       0.00000000       0.00000000      14.51590266        1
Sc       2.25795133       0.00000000      16.77385400        1
Sc       0.00000000       2.25795133      16.77385400        1
Sc       2.25795133       2.25795133      14.51590266        1
N        0.00000000       2.25795133      14.51590266        1
N        2.25795133       0.00000000      14.51590266        1
N        0.00000000       0.00000000      16.77385400        1
N        2.25795133       2.25795133      16.77385400        1
Sc       0.00000000       4.51590266      10.00000000        2
Sc       2.25795133       4.51590266      12.25795133        2
Sc       0.00000000       6.77385400      12.25795133        2
Sc       2.25795133       6.77385400      10.00000000        2
N        0.00000000       6.77385400      10.00000000        2
N        2.25795133       4.51590266      10.00000000        2
N        0.00000000       4.51590266      12.25795133        2
N        2.25795133       6.77385400      12.25795133        2
Sc       0.00000000       4.51590266      14.51590266        1
Sc       2.25795133       4.51590266      16.77385400        1
Sc       0.00000000       6.77385400      16.77385400        1
Sc       2.25795133       6.77385400      14.51590266        1
N        0.00000000       6.77385400      14.51590266        1
N        2.25795133       4.51590266      14.51590266        1
N        0.00000000       4.51590266      16.77385400        1
N        2.25795133       6.77385400      16.77385400        1
Sc       0.00000000       9.03180532      10.00000000        2
Sc       2.25795133       9.03180532      12.25795133        2
Sc       0.00000000      11.28975666      12.25795133        2
Sc       2.25795133      11.28975666      10.00000000        2
N        0.00000000      11.28975666      10.00000000        2
N        2.25795133       9.03180532      10.00000000        2
N        0.00000000       9.03180532      12.25795133        2
N        2.25795133      11.28975666      12.25795133        2
Sc       0.00000000       9.03180532      14.51590266        1
Sc       2.25795133       9.03180532      16.77385400        1
Sc       0.00000000      11.28975666      16.77385400        1
Sc       2.25795133      11.28975666      14.51590266        1
N        0.00000000      11.28975666      14.51590266        1
N        2.25795133       9.03180532      14.51590266        1
N        0.00000000       9.03180532      16.77385400        1
N        2.25795133      11.28975666      16.77385400        1
Sc       4.51590266       0.00000000      10.00000000        2
Sc       6.77385400       0.00000000      12.25795133        2
Sc       4.51590266       2.25795133      12.25795133        2
Sc       6.77385400       2.25795133      10.00000000        2
N        4.51590266       2.25795133      10.00000000        2
N        6.77385400       0.00000000      10.00000000        2
N        4.51590266       0.00000000      12.25795133        2
N        6.77385400       2.25795133      12.25795133        2
Sc       4.51590266       0.00000000      14.51590266        1
Sc       6.77385400       0.00000000      16.77385400        1
Sc       4.51590266       2.25795133      16.77385400        1
Sc       6.77385400       2.25795133      14.51590266        1
N        4.51590266       2.25795133      14.51590266        1
N        6.77385400       0.00000000      14.51590266        1
N        4.51590266       0.00000000      16.77385400        1
N        6.77385400       2.25795133      16.77385400        1
Sc       4.51590266       4.51590266      10.00000000        2
Sc       6.77385400       4.51590266      12.25795133        2
Sc       4.51590266       6.77385400      12.25795133        2
Sc       6.77385400       6.77385400      10.00000000        2
N        4.51590266       6.77385400      10.00000000        2
N        6.77385400       4.51590266      10.00000000        2
N        4.51590266       4.51590266      12.25795133        2
N        6.77385400       6.77385400      12.25795133        2
Sc       4.51590266       4.51590266      14.51590266        1
Sc       6.77385400       4.51590266      16.77385400        1
Sc       4.51590266       6.77385400      16.77385400        1
Sc       6.77385400       6.77385400      14.51590266        1
N        4.51590266       6.77385400      14.51590266        1
N        6.77385400       4.51590266      14.51590266        1
N        4.51590266       4.51590266      16.77385400        1
N        6.77385400       6.77385400      16.77385400        1
Sc       4.51590266       9.03180532      10.00000000        2
Sc       6.77385400       9.03180532      12.25795133        2
Sc       4.51590266      11.28975666      12.25795133        2
Sc       6.77385400      11.28975666      10.00000000        2
N        4.51590266      11.28975666      10.00000000        2
N        6.77385400       9.03180532      10.00000000        2
N        4.51590266       9.03180532      12.25795133        2
N        6.77385400      11.28975666      12.25795133        2
Sc       4.51590266       9.03180532      14.51590266        1
Sc       6.77385400       9.03180532      16.77385400        1
Sc       4.51590266      11.28975666      16.77385400        1
Sc       6.77385400      11.28975666      14.51590266        1
N        4.51590266      11.28975666      14.51590266        1
N        6.77385400       9.03180532      14.51590266        1
N        4.51590266       9.03180532      16.77385400        1
N        6.77385400      11.28975666      16.77385400        1
Sc       9.03180532       0.00000000      10.00000000        2
Sc      11.28975666       0.00000000      12.25795133        2
Sc       9.03180532       2.25795133      12.25795133        2
Sc      11.28975666       2.25795133      10.00000000        2
N        9.03180532       2.25795133      10.00000000        2
N       11.28975666       0.00000000      10.00000000        2
N        9.03180532       0.00000000      12.25795133        2
N       11.28975666       2.25795133      12.25795133        2
Sc       9.03180532       0.00000000      14.51590266        1
Sc      11.28975666       0.00000000      16.77385400        1
Sc       9.03180532       2.25795133      16.77385400        1
Sc      11.28975666       2.25795133      14.51590266        1
N        9.03180532       2.25795133      14.51590266        1
N       11.28975666       0.00000000      14.51590266        1
N        9.03180532       0.00000000      16.77385400        1
N       11.28975666       2.25795133      16.77385400        1
Sc       9.03180532       4.51590266      10.00000000        2
Sc      11.28975666       4.51590266      12.25795133        2
Sc       9.03180532       6.77385400      12.25795133        2
Sc      11.28975666       6.77385400      10.00000000        2
N        9.03180532       6.77385400      10.00000000        2
N       11.28975666       4.51590266      10.00000000        2
N        9.03180532       4.51590266      12.25795133        2
N       11.28975666       6.77385400      12.25795133        2
Sc       9.03180532       4.51590266      14.51590266        1
Sc      11.28975666       4.51590266      16.77385400        1
Sc       9.03180532       6.77385400      16.77385400        1
Sc      11.28975666       6.77385400      14.51590266        1
N        9.03180532       6.77385400      14.51590266        1
N       11.28975666       4.51590266      14.51590266        1
N        9.03180532       4.51590266      16.77385400        1
N       11.28975666       6.77385400      16.77385400        1
Sc       9.03180532       9.03180532      10.00000000        2
Sc      11.28975666       9.03180532      12.25795133        2
Sc       9.03180532      11.28975666      12.25795133        2
Sc      11.28975666      11.28975666      10.00000000        2
N        9.03180532      11.28975666      10.00000000        2
N       11.28975666       9.03180532      10.00000000        2
N        9.03180532       9.03180532      12.25795133        2
N       11.28975666      11.28975666      12.25795133        2
Sc       9.03180532       9.03180532      14.51590266        1
Sc      11.28975666       9.03180532      16.77385400        1
Sc       9.03180532      11.28975666      16.77385400        1
Sc      11.28975666      11.28975666      14.51590266        1
N        9.03180532      11.28975666      14.51590266        1
N       11.28975666       9.03180532      14.51590266        1
N        9.03180532       9.03180532      16.77385400        1
N       11.28975666      11.28975666      16.77385400        1
