144
Lattice="12.79448214 0.0 0.0 0.0 12.79448214 0.0 0.0 0.0 26.397241067441104" Properties=species:S:1:pos:R:3:tags:I:1 energy_ry=-660.21567552 energy_ev=-8982.691800854676 pbc="T T F"
V        0.00000000       0.00000000      10.00000000        2
V        2.13241369       0.00000000      12.13241369        2
V        0.00000000       2.13241369      12.13241369        2
V        2.13241369       2.13241369      10.00000000        2
N        0.00000000       2.13241369      10.00000000        2
N        2.13241369       0.00000000      10.00000000        2
N        0.00000000       0.00000000      12.13241369        2
N        2.13241369       2.13241369      12.13241369        2
V        0.00000000       0.00000000      14.26482738        1
V        2.13241369       0.00000000      16.39724107        1
V        0.00000000       2.13241369      16.39724107        1
V        2.13241369       2.13241369      14.26482738        1
N        0.00000000       2.13241369      14.26482738        1
N        2.13241369       0.00000000      14.26482738        1
N        0.00000000       0.00000000      16.39724107        1
N        2.13241369       2.13241369      16.39724107        1
V        0.00000000       4.26482738      10.00000000        2
V        2.13241369       4.26482738      12.13241369        2
V        0.00000000       6.39724107      12.13241369        2
V        2.13241369       6.39724107      10.00000000        2
N        0.00000000       6.39724107      10.00000000        2
N        2.13241369       4.26482738      10.00000000        2
N        0.00000000       4.26482738      12.13241369        2
N        2.13241369       6.39724107      12.13241369        2
V        0.00000000       4.26482738      14.26482738        1
V        2.13241369       4.26482738      16.39724107        1
V        0.00000000       6.39724107      16.39724107        1
V        2.13241369       6.39724107      14.26482738        1
N        0.00000000       6.39724107      14.26482738        1
N        2.13241369       4.26482738      14.26482738        1
N        0.00000000       4.26482738      16.39724107        1
N        2.13241369       6.39724107      16.39724107        1
V        0.00000000       8.52965476      10.00000000        2
V        2.13241369       8.52965476      12.13241369        2
V        0.00000000      10.66206845      12.13241369        2
V        2.13241369      10.66206845      10.00000000        2
N        0.00000000      10.66206845      10.00000000        2
N        2.13241369       8.52965476      10.00000000        2
N        0.00000000       8.52965476      12.13241369        2
N        2.13241369      10.66206845      12.13241369        2
V        0.00000000       8.52965476      14.26482738        1
V        2.13241369       8.52965476      16.39724107        1
V        0.00000000      10.66206845      16.39724107        1
V        2.13241369      10.66206845      14.26482738        1
N        0.00000000      10.66206845      14.26482738        1
N        2.13241369       8.52965476      14.26482738        1
N        0.00000000       8.52965476      16.39724107        1
N        2.13241369      10.66206845      16.39724107        1
V        4.26482738       0.00000000      10.00000000        2
V        6.39724107       0.00000000      12.13241369        2
V        4.26482738       2.13241369      12.13241369        2
V        6.39724107       2.13241369      10.00000000        2
N        4.26482738       2.13241369      10.00000000        2
N        6.39724107       0.00000000      10.00000000        2
N        4.26482738       0.00000000      12.13241369        2
N        6.39724107       2.13241369      12.13241369        2
V        4.26482738       0.00000000      14.26482738        1
V        6.39724107       0.00000000      16.39724107        1
V        4.26482738       2.13241369      16.39724107        1
V        6.39724107       2.13241369      14.26482738        1
N        4.26482738       2.13241369      14.26482738        1
N        6.39724107       0.00000000      14.26482738        1
N        4.26482738       0.00000000      16.39724107        1
N        6.39724107       2.13241369      16.39724107        1
V        4.26482738       4.26482738      10.00000000        2
V        6.39724107       4.26482738      12.13241369        2
V        4.26482738       6.39724107      12.13241369        2
V        6.39724107       6.39724107      10.00000000        2
N        4.26482738       6.39724107      10.00000000        2
N        6.39724107       4.26482738      10.00000000        2
N        4.26482738       4.26482738      12.13241369        2
N        6.39724107       6.39724107      12.13241369        2
V        4.26482738       4.26482738      14.26482738        1
V        6.39724107       4.26482738      16.39724107        1
V        4.26482738       6.39724107      16.39724107        1
V        6.39724107       6.39724107      14.26482738        1
N        4.26482738       6.39724107      14.26482738        1
N        6.39724107       4.26482738      14.26482738        1
N        4.26482738       4.26482738      16.39724107        1
N        6.39724107       6.39724107      16.39724107        1
V        4.26482738       8.52965476      10.00000000        2
V        6.39724107       8.52965476      12.13241369        2
V        4.26482738      10.66206845      12.13241369        2
V        6.39724107      10.66206845      10.00000000        2
N        4.26482738      10.66206845      10.00000000        2
N        6.39724107       8.52965476      10.00000000        2
N        4.26482738       8.52965476      12.13241369        2
N        6.39724107      10.66206845      12.13241369        2
V        4.26482738       8.52965476      14.26482738        1
V        6.39724107       8.52965476      16.39724107        1
V        4.26482738      10.66206845      16.39724107        1
V        6.39724107      10.66206845      14.26482738        1
N        4.26482738      10.66206845      14.26482738        1
N        6.39724107       8.52965476      14.26482738        1
N        4.26482738       8.52965476      16.39724107        1
N        6.39724107      10.66206845      16.39724107        1
V        8.52965476       0.00000000      10.00000000        2
V       10.66206845       0.00000000      12.13241369        2
V        8.52965476       2.13241369      12.13241369        2
V       10.66206845       2.13241369      10.00000000        2
N        8.52965476       2.13241369      10.00000000        2
N       10.66206845       0.00000000      10.00000000        2
N        8.52965476       0.00000000      12.13241369        2
N       10.66206845       2.13241369      12.13241369        2
V        8.52965476       0.00000000      14.26482738        1
V       10.66206845       0.00000000      16.39724107        1
V        8.52965476       2.13241369      16.39724107        1
V       10.66206845       2.13241369      14.26482738        1
N        8.52965476       2.13241369      14.26482738        1
N       10.66206845       0.00000000      14.26482738        1
N        8.52965476       0.00000000      16.39724107        1
N       10.66206845       2.13241369      16.39724107        1
V        8.52965476       4.26482738      10.00000000        2
V       10.66206845       4.26482738      12.13241369        2
V        8.52965476       6.39724107      12.13241369        2
V       10.66206845       6.39724107      10.00000000        2
N        8.52965476       6.39724107      10.00000000        2
N       10.66206845       4.26482738      10.00000000        2
N        8.52965476       4.26482738      12.13241369        2
N       10.66206845       6.39724107      12.13241369        2
V        8.52965476       4.26482738      14.26482738        1
V       10.66206845       4.26482738      16.39724107        1
V        8.52965476       6.39724107      16.39724107        1
V       10.66206845       6.39724107      14.26482738        1
N        8.52965476       6.39724107      14.26482738        1
N       10.66206845       4.26482738      14.26482738        1
N        8.52965476       4.26482738      16.39724107        1
N       10.66206845       6.39724107      16.39724107        1
V        8.52965476       8.52965476      10.00000000        2
V       10.66206845       8.52965476      12.13241369        2
V        8.52965476      10.66206845      12.13241369        2
V       10.66206845      10.66206845      10.00000000        2
N        8.52965476      10.66206845      10.00000000        2
N       10.66206845       8.52965476      10.00000000        2
N        8.52965476       8.52965476      12.13241369        2
N       10.66206845      10.66206845      12.13241369        2
V        8.52965476       8.52965476      14.26482738        1
V       10.66206845       8.52965476      16.39724107        1
V        8.52965476      10.66206845      16.39724107        1
V       10.66206845      10.66206845      14.26482738        1
N        8.52965476      10.66206845      14.26482738        1
N       10.66206845       8.52965476      14.26482738        1
N        8.52965476       8.52965476      16.39724107        1
N       10.66206845      10.66206845      16.39724107        1
