144
Lattice="13.690340169 0.0 0.0 0.0 13.690340169 0.0 0.0 0.0 26.845170085869036" Properties=species:S:1:pos:R:3:tags:I:1 energy_ry=-477.64432204 energy_ev=-6498.6820131681725 pbc="T T F"
Zr       0.00000000       0.00000000      10.00000000        2
Zr       2.28172336       0.00000000      12.28172336        2
Zr       0.00000000       2.28172336      12.28172336        2
Zr       2.28172336       2.28172336      10.00000000        2
N        0.00000000       2.28172336      10.00000000        2
N        2.28172336       0.00000000      10.00000000        2
N        0.00000000       0.00000000      12.28172336        2
N        2.28172336       2.28172336      12.28172336        2
Zr       0.00000000       0.00000000      14.56344672        1
Zr       2.28172336       0.00000000      16.84517009        1
Zr       0.00000000       2.28172336      16.84517009        1
Zr       2.28172336       2.28172336      14.56344672        1
N        0.00000000       2.28172336      14.56344672        1
N        2.28172336       0.00000000      14.56344672        1
N        0.00000000       0.00000000      16.84517009        1
N        2.28172336       2.28172336      16.84517009        1
Zr       0.00000000       4.56344672      10.00000000        2
Zr       2.28172336       4.56344672      12.28172336        2
Zr       0.00000000       6.84517009      12.28172336        2
Zr       2.28172336       6.84517009      10.00000000        2
N        0.00000000       6.84517009      10.00000000        2
N        2.28172336       4.56344672      10.00000000        2
N        0.00000000       4.56344672      12.28172336        2
N        2.28172336       6.84517009      12.28172336        2
Zr       0.00000000       4.56344672      14.56344672        1
Zr       2.28172336       4.56344672      16.84517009        1
Zr       0.00000000       6.84517009      16.84517009        1
Zr       2.28172336       6.84517009      14.56344672        1
N        0.00000000       6.84517009      14.56344672        1
N        2.28172336       4.56344672      14.56344672        1
N        0.00000000       4.56344672      16.84517009        1
N        2.28172336       6.84517009      16.84517009        1
Zr       0.00000000       9.12689345      10.00000000        2
Zr       2.28172336       9.12689345      12.28172336        2
Zr       0.00000000      11.40861681      12.28172336        2
Zr       2.28172336      11.40861681      10.00000000        2
N        0.00000000      11.40861681      10.00000000        2
N        2.28172336       9.12689345      10.00000000        2
N        0.00000000       9.12689345      12.28172336        2
N        2.28172336      11.40861681      12.28172336        2
Zr       0.00000000       9.12689345      14.56344672        1
Zr       2.28172336       9.12689345      16.84517009        1
Zr       0.00000000      11.40861681      16.84517009        1
Zr       2.28172336      11.40861681      14.56344672        1
N        0.00000000      11.40861681      14.56344672        1
N        2.28172336       9.12689345      14.56344672        1
N        0.00000000       9.12689345      16.84517009        1
N        2.28172336      11.40861681      16.84517009        1
Zr       4.56344672       0.00000000      10.00000000        2
Zr       6.84517009       0.00000000      12.28172336        2
Zr       4.56344672       2.28172336      12.28172336        2
Zr       6.84517009       2.28172336      10.00000000        2
N        4.56344672       2.28172336      10.00000000        2
N        6.84517009       0.00000000      10.00000000        2
N        4.56344672       0.00000000      12.28172336        2
N        6.84517009       2.28172336      12.28172336        2
Zr       4.56344672       0.00000000      14.56344672        1
Zr       6.84517009       0.00000000      16.84517009        1
Zr       4.56344672       2.28172336      16.84517009        1
Zr       6.84517009       2.28172336      14.56344672        1
N        4.56344672       2.28172336      14.56344672        1
N        6.84517009       0.00000000      14.56344672        1
N        4.56344672       0.00000000      16.84517009        1
N        6.84517009       2.28172336      16.84517009        1
Zr       4.56344672       4.56344672      10.00000000        2
Zr       6.84517009       4.56344672      12.28172336        2
Zr       4.56344672       6.84517009      12.28172336        2
Zr       6.84517009       6.84517009      10.00000000        2
N        4.56344672       6.84517009      10.00000000        2
N        6.84517009       4.56344672      10.00000000        2
N        4.56344672       4.56344672      12.28172336        2
N        6.84517009       6.84517009      12.28172336        2
Zr       4.56344672       4.56344672      14.56344672        1
Zr       6.84517009       4.56344672      16.84517009        1
Zr       4.56344672       6.84517009      16.84517009        1
Zr       6.84517009       6.84517009      14.56344672        1
N        4.56344672       6.84517009      14.56344672        1
N        6.84517009       4.56344672      14.56344672        1
N        4.56344672       4.56344672      16.84517009        1
N        6.84517009       6.84517009      16.84517009        1
Zr       4.56344672       9.12689345      10.00000000        2
Zr       6.84517009       9.12689345      12.28172336        2
Zr       4.56344672      11.40861681      12.28172336        2
Zr       6.84517009      11.40861681      10.00000000        2
N        4.56344672      11.40861681      10.00000000        2
N        6.84517009       9.12689345      10.00000000        2
N        4.56344672       9.12689345      12.28172336        2
N        6.84517009      11.40861681      12.28172336        2
Zr       4.56344672       9.12689345      14.56344672        1
Zr       6.84517009       9.12689345      16.84517009        1
Zr       4.56344672      11.40861681      16.84517009        1
Zr       6.84517009      11.40861681      14.56344672        1
N        4.56344672      11.40861681      14.56344672        1
N        6.84517009       9.12689345      14.56344672        1
N        4.56344672       9.12689345      16.84517009        1
N        6.84517009      11.40861681      16.84517009        1
Zr       9.12689345       0.00000000      10.00000000        2
Zr      11.40861681       0.00000000      12.28172336        2
Zr       9.12689345       2.28172336      12.28172336        2
Zr      11.40861681       2.28172336      10.00000000        2
N        9.12689345       2.28172336      10.00000000        2
N       11.40861681       0.00000000      10.00000000        2
N        9.12689345       0.00000000      12.28172336        2
N       11.40861681       2.28172336      12.28172336        2
Zr       9.12689345       0.00000000      14.56344672        1
Zr      11.40861681       0.00000000      16.84517009        1
Zr       9.12689345       2.28172336      16.84517009        1
Zr      11.40861681       2.28172336      14.56344672        1
N        9.12689345       2.28172336      14.56344672        1
N       11.40861681       0.00000000      14.56344672        1
N        9.12689345       0.00000000      16.84517009        1
N       11.40861681       2.28172336      16.84517009        1
Zr       9.12689345       4.56344672      10.00000000        2
Zr      11.40861681       4.56344672      12.28172336        2
Zr       9.12689345       6.84517009      12.28172336        2
Zr      11.40861681       6.84517009      10.00000000        2
N        9.12689345       6.84517009      10.00000000        2
N       11.40861681       4.56344672      10.00000000        2
N        9.12689345       4.56344672      12.28172336        2
N       11.40861681       6.84517009      12.28172336        2
Zr       9.12689345       4.56344672      14.56344672        1
Zr      11.40861681       4.56344672      16.84517009        1
Zr       9.12689345       6.84517009      16.84517009        1
Zr      11.40861681       6.84517009      14.56344672        1
N        9.12689345       6.84517009      14.56344672        1
N       11.40861681       4.56344672      14.56344672        1
N        9.12689345       4.56344672      16.84517009        1
N       11.40861681       6.84517009      16.84517009        1
Zr       9.12689345       9.12689345      10.00000000        2
Zr      11.40861681       9.12689345      12.28172336        2
Zr       9.12689345      11.40861681      12.28172336        2
Zr      11.40861681      11.40861681      10.00000000        2
N        9.12689345      11.40861681      10.00000000        2
N       11.40861681       9.12689345      10.00000000        2
N        9.12689345       9.12689345      12.28172336        2
N       11.40861681      11.40861681      12.28172336        2
Zr       9.12689345       9.12689345      14.56344672        1
Zr      11.40861681       9.12689345      16.84517009        1
Zr       9.12689345      11.40861681      16.84517009        1
Zr      11.40861681      11.40861681      14.56344672        1
N        9.12689345      11.40861681      14.56344672        1
N       11.40861681       9.12689345      14.56344672        1
N        9.12689345       9.12689345      16.84517009        1
N       11.40861681      11.40861681      16.84517009        1
