145
Lattice="12.794499514733609 0.0 0.0 0.0 12.794499514733609 0.0 0.0 0.0 26.397278741811" Properties=species:S:1:pos:R:3:forces:R:3 bfgs_step=18 force_counter=18 energy_ry=-11906.34215863 energy_ev=-161994.03627043415 energy=-161994.03627043415 free_energy=-161994.03627043415 pbc="T T T"
V        0.00000000       0.00000000      10.00000000       0.00000000       0.00000000       0.59036107
V        2.13241369       0.00000000      12.13241369      -0.03521177       0.00000000      -0.08401029
V        0.00000000       2.13241369      12.13241369       0.00000000      -0.03521177      -0.08401029
V        2.13241369       2.13241369      10.00000000       0.00623621       0.00623621       0.36734228
N        0.00000000       2.13241369      10.00000000       0.00000000       0.02799623       0.10954314
N        2.13241369       0.00000000      10.00000000       0.02799623       0.00000000       0.10954314
N        0.00000000       0.00000000      12.13241369       0.00000000       0.00000000      -0.52986044
N        2.13241369       2.13241369      12.13241369       0.01762826       0.01762826      -0.48204485
V        0.00000000       0.00000000      14.25691156       0.00000000       0.00000000      -0.00646967
V        2.16165180       0.00000000      16.19277528       0.00750762       0.00000000      -0.01992374
V        0.00000000       2.16165180      16.19277528       0.00000000       0.00750762      -0.01992374
V        2.16351379       2.16351379      14.23907082       0.00333601       0.00333601      -0.00410194
N        0.00000000       2.14058927      14.23592013       0.00000000       0.01821472       0.00992137
N        2.14058927       0.00000000      14.23592013       0.01821472       0.00000000       0.00992137
N        0.00000000       0.00000000      16.28443744       0.00000000       0.00000000      -0.00710884
N        2.10731583       2.10731583      16.33032642      -0.00049674      -0.00049674       0.00835223
V        0.00000000       4.26482738      10.00000000       0.00000000       0.03030405       0.29683337
V        2.13241369       4.26482738      12.13241369       0.10532911      -0.07395805       0.08766974
V        0.00000000       6.39724107      12.13241369       0.00000000       0.00000000      -0.17132470
V        2.13241369       6.39724107      10.00000000      -0.03665134       0.00000000       0.27773855
N        0.00000000       6.39724107      10.00000000       0.00000000       0.00000000       0.13898922
N        2.13241369       4.26482738      10.00000000      -0.00309407       0.01798872       0.15599064
N        0.00000000       4.26482738      12.13241369       0.00000000       0.01912130      -0.54381896
N        2.13241369       6.39724107      12.13241369      -0.02806179       0.00000000      -0.55587255
V        0.00000000       4.26103514      14.22640576       0.00000000       0.00097033       0.01764214
V        2.11572226       4.24646414      16.36323110       0.00642622       0.01593107       0.00342882
V        0.00000000       6.39724107      16.21969481       0.00000000       0.00000000      -0.00814397
V        2.12545818       6.39724107      14.21826880       0.02668934       0.00000000       0.03029737
N        0.00000000       6.39724107      14.23965681       0.00000000       0.00000000       0.00803933
N        2.13782752       4.26154751      14.28107372      -0.00241735       0.01094879      -0.00135034
N        0.00000000       4.27285679      16.32669078       0.00000000       0.00266829      -0.00082275
N        2.08566994       6.39724107      16.33869261       0.01578683       0.00000000       0.00828589
V        0.00000000       8.52965476      10.00000000       0.00000000      -0.03030405       0.29683337
V        2.13241369       8.52965476      12.13241369       0.10532911       0.07395805       0.08766974
V        0.00000000      10.66206845      12.13241369       0.00000000       0.03521177      -0.08401029
V        2.13241369      10.66206845      10.00000000       0.00623621      -0.00623621       0.36734228
N        0.00000000      10.66206845      10.00000000       0.00000000      -0.02799623       0.10954314
N        2.13241369       8.52965476      10.00000000      -0.00309407      -0.01798872       0.15599064
N        0.00000000       8.52965476      12.13241369       0.00000000      -0.01912130      -0.54381896
N        2.13241369      10.66206845      12.13241369       0.01762826      -0.01762826      -0.48204485
V        0.00000000       8.53344700      14.22640576       0.00000000      -0.00097033       0.01764214
V        2.11572226       8.54801800      16.36323110       0.00642622      -0.01593107       0.00342882
V        0.00000000      10.63283034      16.19277528       0.00000000      -0.00750762      -0.01992374
V        2.16351379      10.63096835      14.23907082       0.00333601      -0.00333601      -0.00410194
N        0.00000000      10.65389287      14.23592013       0.00000000      -0.01821472       0.00992137
N        2.13782752       8.53293463      14.28107372      -0.00241735      -0.01094879      -0.00135034
N        0.00000000       8.52162535      16.32669078       0.00000000      -0.00266829      -0.00082275
N        2.10731583      10.68716631      16.33032642      -0.00049674       0.00049674       0.00835223
V        4.26482738       0.00000000      10.00000000       0.03030405       0.00000000       0.29683337
V        6.39724107       0.00000000      12.13241369       0.00000000       0.00000000      -0.17132470
V        4.26482738       2.13241369      12.13241369      -0.07395805       0.10532911       0.08766974
V        6.39724107       2.13241369      10.00000000       0.00000000      -0.03665134       0.27773855
N        4.26482738       2.13241369      10.00000000       0.01798872      -0.00309407       0.15599064
N        6.39724107       0.00000000      10.00000000       0.00000000       0.00000000       0.13898922
N        4.26482738       0.00000000      12.13241369       0.01912130       0.00000000      -0.54381896
N        6.39724107       2.13241369      12.13241369       0.00000000      -0.02806179      -0.55587255
V        4.26103514       0.00000000      14.22640576       0.00097033       0.00000000       0.01764214
V        6.39724107       0.00000000      16.21969481       0.00000000       0.00000000      -0.00814397
V        4.24646414       2.11572226      16.36323110       0.01593107       0.00642622       0.00342882
V        6.39724107       2.12545818      14.21826880       0.00000000       0.02668934       0.03029737
N        4.26154751       2.13782752      14.28107372       0.01094879      -0.00241735      -0.00135034
N        6.39724107       0.00000000      14.23965681       0.00000000       0.00000000       0.00803933
N        4.27285679       0.00000000      16.32669078       0.00266829       0.00000000      -0.00082275
N        6.39724107       2.08566994      16.33869261       0.00000000       0.01578683       0.00828589
V        4.26482738       4.26482738      10.00000000       0.01074284       0.01074284       0.41678640
V        6.39724107       4.26482738      12.13241369       0.00000000       0.18378221      -0.08796670
V        4.26482738       6.39724107      12.13241369       0.18378221       0.00000000      -0.08796670
V        6.39724107       6.39724107      10.00000000       0.00000000       0.00000000       0.59492683
N        4.26482738       6.39724107      10.00000000      -0.02248558       0.00000000       0.14456311
N        6.39724107       4.26482738      10.00000000       0.00000000      -0.02248558       0.14456311
N        4.26482738       4.26482738      12.13241369       0.02484200       0.02484200      -0.44728122
N        6.39724107       6.39724107      12.13241369       0.00000000       0.00000000      -0.41642644
V        4.25619294       4.25619294      14.27642720      -0.00172161      -0.00172161      -0.00367308
V        6.39724107       4.14601412      16.21012091       0.00000000      -0.01751230       0.01910895
V        4.14601412       6.39724107      16.21012091      -0.01751230       0.00000000       0.01910895
V        6.39724107       6.39724107      14.33375573       0.00000000       0.00000000       0.00503602
N        4.25781852       6.39724107      14.24789097       0.01393024       0.00000000      -0.01376723
N        6.39724107       4.25781852      14.24789097       0.00000000       0.01393024      -0.01376723
N        4.27118817       4.27118817      16.35329285       0.00202603       0.00202603       0.01414390
N        6.39724107       6.39724107      16.34231325       0.00000000       0.00000000      -0.01827515
V        4.26482738       8.52965476      10.00000000       0.01074284      -0.01074284       0.41678640
V        6.39724107       8.52965476      12.13241369       0.00000000      -0.18378221      -0.08796670
V        4.26482738      10.66206845      12.13241369      -0.07395805      -0.10532911       0.08766974
V        6.39724107      10.66206845      10.00000000       0.00000000       0.03665134       0.27773855
N        4.26482738      10.66206845      10.00000000       0.01798872       0.00309407       0.15599064
N        6.39724107       8.52965476      10.00000000       0.00000000       0.02248558       0.14456311
N        4.26482738       8.52965476      12.13241369       0.02484200      -0.02484200      -0.44728122
N        6.39724107      10.66206845      12.13241369       0.00000000       0.02806179      -0.55587255
V        4.25619294       8.53828920      14.27642720      -0.00172161       0.00172161      -0.00367308
V        6.39724107       8.64846802      16.21012091       0.00000000       0.01751230       0.01910895
V        4.24646414      10.67875988      16.36323110       0.01593107      -0.00642622       0.00342882
V        6.39724107      10.66902396      14.21826880       0.00000000      -0.02668934       0.03029737
N        4.26154751      10.65665462      14.28107372       0.01094879       0.00241735      -0.00135034
N        6.39724107       8.53666362      14.24789097       0.00000000      -0.01393024      -0.01376723
N        4.27118817       8.52329397      16.35329285       0.00202603      -0.00202603       0.01414390
N        6.39724107      10.70881220      16.33869261       0.00000000      -0.01578683       0.00828589
V        8.52965476       0.00000000      10.00000000      -0.03030405       0.00000000       0.29683337
V       10.66206845       0.00000000      12.13241369       0.03521177       0.00000000      -0.08401029
V        8.52965476       2.13241369      12.13241369       0.07395805       0.10532911       0.08766974
V       10.66206845       2.13241369      10.00000000      -0.00623621       0.00623621       0.36734228
N        8.52965476       2.13241369      10.00000000      -0.01798872      -0.00309407       0.15599064
N       10.66206845       0.00000000      10.00000000      -0.02799623       0.00000000       0.10954314
N        8.52965476       0.00000000      12.13241369      -0.01912130       0.00000000      -0.54381896
N       10.66206845       2.13241369      12.13241369      -0.01762826       0.01762826      -0.48204485
V        8.53344700       0.00000000      14.22640576      -0.00097033       0.00000000       0.01764214
V       10.63283034       0.00000000      16.19277528      -0.00750762       0.00000000      -0.01992374
V        8.54801800       2.11572226      16.36323110      -0.01593107       0.00642622       0.00342882
V       10.63096835       2.16351379      14.23907082      -0.00333601       0.00333601      -0.00410194
N        8.53293463       2.13782752      14.28107372      -0.01094879      -0.00241735      -0.00135034
N       10.65389287       0.00000000      14.23592013      -0.01821472       0.00000000       0.00992137
N        8.52162535       0.00000000      16.32669078      -0.00266829       0.00000000      -0.00082275
N       10.68716631       2.10731583      16.33032642       0.00049674      -0.00049674       0.00835223
V        8.52965476       4.26482738      10.00000000      -0.01074284       0.01074284       0.41678640
V       10.66206845       4.26482738      12.13241369      -0.10532911      -0.07395805       0.08766974
V        8.52965476       6.39724107      12.13241369      -0.18378221       0.00000000      -0.08796670
V       10.66206845       6.39724107      10.00000000       0.03665134       0.00000000       0.27773855
N        8.52965476       6.39724107      10.00000000       0.02248558       0.00000000       0.14456311
N       10.66206845       4.26482738      10.00000000       0.00309407       0.01798872       0.15599064
N        8.52965476       4.26482738      12.13241369      -0.02484200       0.02484200      -0.44728122
N       10.66206845       6.39724107      12.13241369       0.02806179       0.00000000      -0.55587255
V        8.53828920       4.25619294      14.27642720       0.00172161      -0.00172161      -0.00367308
V       10.67875988       4.24646414      16.36323110      -0.00642622       0.01593107       0.00342882
V        8.64846802       6.39724107      16.21012091       0.01751230       0.00000000       0.01910895
V       10.66902396       6.39724107      14.21826880      -0.02668934       0.00000000       0.03029737
N        8.53666362       6.39724107      14.24789097      -0.01393024       0.00000000      -0.01376723
N       10.65665462       4.26154751      14.28107372       0.00241735       0.01094879      -0.00135034
N        8.52329397       4.27118817      16.35329285      -0.00202603       0.00202603       0.01414390
N       10.70881220       6.39724107      16.33869261      -0.01578683       0.00000000       0.00828589
V        8.52965476       8.52965476      10.00000000      -0.01074284      -0.01074284       0.41678640
V       10.66206845       8.52965476      12.13241369      -0.10532911       0.07395805       0.08766974
V        8.52965476      10.66206845      12.13241369       0.07395805      -0.10532911       0.08766974
V       10.66206845      10.66206845      10.00000000      -0.00623621      -0.00623621       0.36734228
N        8.52965476      10.66206845      10.00000000      -0.01798872       0.00309407       0.15599064
N       10.66206845       8.52965476      10.00000000       0.00309407      -0.01798872       0.15599064
N        8.52965476       8.52965476      12.13241369      -0.02484200      -0.02484200      -0.44728122
N       10.66206845      10.66206845      12.13241369      -0.01762826      -0.01762826      -0.48204485
V        8.53828920       8.53828920      14.27642720       0.00172161       0.00172161      -0.00367308
V       10.67875988       8.54801800      16.36323110      -0.00642622      -0.01593107       0.00342882
V        8.54801800      10.67875988      16.36323110      -0.01593107      -0.00642622       0.00342882
V       10.63096835      10.63096835      14.23907082      -0.00333601      -0.00333601      -0.00410194
N        8.53293463      10.65665462      14.28107372      -0.01094879       0.00241735      -0.00135034
N       10.65665462       8.53293463      14.28107372       0.00241735      -0.01094879      -0.00135034
N        8.52329397       8.52329397      16.35329285      -0.00202603      -0.00202603       0.01414390
N       10.68716631      10.68716631      16.33032642       0.00049674       0.00049674       0.00835223
Li       6.39724107       6.39724107      18.18390535       0.00000000       0.00000000      -0.02231692
