145
Lattice="12.794499514733609 0.0 0.0 0.0 12.794499514733609 0.0 0.0 0.0 26.397278741811" Properties=species:S:1:pos:R:3:forces:R:3 bfgs_step=18 force_counter=18 energy_ry=-11906.34211493 energy_ev=-161994.03567586537 energy=-161994.03567586537 free_energy=-161994.03567586537 pbc="T T T"
V        0.00000000       0.00000000      10.00000000       0.00596059       0.00596059       0.36935854
V        2.13241369       0.00000000      12.13241369      -0.07536804       0.10358718       0.08625666
V        0.00000000       2.13241369      12.13241369       0.10358718      -0.07536804       0.08625666
V        2.13241369       2.13241369      10.00000000       0.01122981       0.01122981       0.41585283
N        0.00000000       2.13241369      10.00000000      -0.00313289       0.01847981       0.15601481
N        2.13241369       0.00000000      10.00000000       0.01847981      -0.00313289       0.15601481
N        0.00000000       0.00000000      12.13241369       0.01676771       0.01676771      -0.48464193
N        2.13241369       2.13241369      12.13241369       0.02465045       0.02465045      -0.44781550
V        0.03040603       0.03040603      14.23867309       0.00332032       0.00332032      -0.00274157
V        2.11335954      -0.01651153      16.36277368       0.01869578       0.00359517       0.00241118
V       -0.01651153       2.11335954      16.36277368       0.00359517       0.01869578       0.00241118
V        2.12328265       2.12328265      14.27574548      -0.00281742      -0.00281742      -0.00342265
N        0.00485672       2.12875272      14.28045629      -0.00004885       0.01211247       0.00170001
N        2.12875272       0.00485672      14.28045629       0.01211247      -0.00004885       0.00170001
N       -0.02537502      -0.02537502      16.33035885       0.00204300       0.00204300       0.00995763
N        2.13861365       2.13861365      16.35193372       0.00304804       0.00304804       0.01390350
V        0.00000000       4.26482738      10.00000000      -0.03712648       0.00083818       0.27539808
V        2.13241369       4.26482738      12.13241369       0.18669219       0.00077673      -0.08638676
V        0.00000000       6.39724107      12.13241369       0.10424461       0.07502685       0.08677834
V        2.13241369       6.39724107      10.00000000       0.01132571      -0.01130206       0.41734278
N        0.00000000       6.39724107      10.00000000      -0.00333061      -0.01832091       0.15490872
N        2.13241369       4.26482738      10.00000000      -0.02275966      -0.00026842       0.14354007
N        0.00000000       4.26482738      12.13241369      -0.03033671       0.00048182      -0.55875192
N        2.13241369       6.39724107      12.13241369       0.02464994      -0.02534748      -0.44815874
V       -0.00824603       4.26484066      14.21723812       0.02507983      -0.00003085       0.03526243
V        2.01237409       4.26486994      16.20892950      -0.01382945      -0.00001774       0.02116841
V       -0.01658840       6.41640439      16.36295846       0.00385254      -0.01867778       0.00141668
V        2.12344536       6.40612981      14.27591110      -0.00252688       0.00263410      -0.00365148
N        0.00485711       6.40091539      14.28056479       0.00023860      -0.01245854       0.00130046
N        2.12549713       4.26485259      14.24711096       0.01204485      -0.00031522      -0.01007667
N       -0.04691335       4.26487981      16.33821799       0.01788794      -0.00002545       0.00742843
N        2.13850699       6.39117412      16.35225338       0.00332212      -0.00338614       0.01374949
V        0.00000000       8.52965476      10.00000000       0.00654834      -0.00699751       0.36635317
V        2.13241369       8.52965476      12.13241369      -0.07482785      -0.10448887       0.08510866
V        0.00000000      10.66206845      12.13241369      -0.03714293      -0.00061835      -0.08652457
V        2.13241369      10.66206845      10.00000000       0.02998369       0.00004782       0.29829710
N        0.00000000      10.66206845      10.00000000       0.02782808      -0.00004345       0.11039495
N        2.13241369       8.52965476      10.00000000       0.01810931       0.00327404       0.15533347
N        0.00000000       8.52965476      12.13241369       0.01647589      -0.01720480      -0.48407500
N        2.13241369      10.66206845      12.13241369       0.01930230       0.00059238      -0.54414394
V        0.03061000       8.49907381      14.23831790       0.00360443      -0.00324807      -0.00301282
V        2.11349871       8.54638962      16.36249959       0.01890944      -0.00371756       0.00211473
V        0.02914812      10.66196562      16.19357128       0.00800076       0.00015555      -0.02285839
V        2.12780021      10.66213534      14.22650549       0.00256339      -0.00037024       0.01670034
N        0.00806982      10.66205744      14.23589209       0.01737397       0.00022189       0.01340188
N        2.12879209       8.52471964      14.28035202       0.01245262      -0.00021752       0.00176918
N       -0.02535284       8.55505655      16.33029098       0.00198618      -0.00194195       0.00937373
N        2.14038241      10.66210781      16.32706981       0.00363888       0.00019875      -0.00164396
V        4.26482738       0.00000000      10.00000000       0.00083818      -0.03712648       0.27539808
V        6.39724107       0.00000000      12.13241369       0.07502685       0.10424461       0.08677834
V        4.26482738       2.13241369      12.13241369       0.00077673       0.18669219      -0.08638676
V        6.39724107       2.13241369      10.00000000      -0.01130206       0.01132571       0.41734278
N        4.26482738       2.13241369      10.00000000      -0.00026842      -0.02275966       0.14354007
N        6.39724107       0.00000000      10.00000000      -0.01832091      -0.00333061       0.15490872
N        4.26482738       0.00000000      12.13241369       0.00048182      -0.03033671      -0.55875192
N        6.39724107       2.13241369      12.13241369      -0.02534748       0.02464994      -0.44815874
V        4.26484066      -0.00824603      14.21723812      -0.00003085       0.02507983       0.03526243
V        6.41640439      -0.01658840      16.36295846      -0.01867778       0.00385254       0.00141668
V        4.26486994       2.01237409      16.20892950      -0.00001774      -0.01382945       0.02116841
V        6.40612981       2.12344536      14.27591110       0.00263410      -0.00252688      -0.00365148
N        4.26485259       2.12549713      14.24711096      -0.00031522       0.01204485      -0.01007667
N        6.40091539       0.00485711      14.28056479      -0.01245854       0.00023860       0.00130046
N        4.26487981      -0.04691335      16.33821799      -0.00002545       0.01788794       0.00742843
N        6.39117412       2.13850699      16.35225338      -0.00338614       0.00332212       0.01374949
V        4.26482738       4.26482738      10.00000000      -0.00004294      -0.00004294       0.60039274
V        6.39724107       4.26482738      12.13241369      -0.18768515      -0.00044377      -0.08745659
V        4.26482738       6.39724107      12.13241369      -0.00044377      -0.18768515      -0.08745659
V        6.39724107       6.39724107      10.00000000      -0.01135965      -0.01135965       0.41716126
N        4.26482738       6.39724107      10.00000000       0.00022446       0.02268793       0.14448958
N        6.39724107       4.26482738      10.00000000       0.02268793       0.00022446       0.14448958
N        4.26482738       4.26482738      12.13241369      -0.00018640      -0.00018640      -0.41797013
N        6.39724107       6.39724107      12.13241369      -0.02480009      -0.02480009      -0.44855958
V        4.26474408       4.26474408      14.33575110      -0.00009076      -0.00009076      -0.00086029
V        6.51722086       4.26475839      16.20915427       0.01363765       0.00004268       0.02177647
V        4.26475839       6.51722086      16.20915427       0.00004268       0.01363765       0.02177647
V        6.40582443       6.40582443      14.27587504       0.00277525       0.00277525      -0.00313777
N        4.26475983       6.40401395      14.24720967       0.00022523      -0.01232021      -0.01019314
N        6.40401395       4.26475983      14.24720967      -0.01232021       0.00022523      -0.01019314
N        4.26472810       4.26472810      16.34309512       0.00000026       0.00000026      -0.03467390
N        6.39102031       6.39102031      16.35247639      -0.00322853      -0.00322853       0.01400120
V        4.26482738       8.52965476      10.00000000      -0.00044969       0.03752037       0.27733181
V        6.39724107       8.52965476      12.13241369       0.07472192      -0.10384121       0.08539200
V        4.26482738      10.66206845      12.13241369       0.00080116       0.00097419      -0.16843967
V        6.39724107      10.66206845      10.00000000      -0.02996338       0.00017869       0.29717507
N        4.26482738      10.66206845      10.00000000       0.00006633       0.00023628       0.13968187
N        6.39724107       8.52965476      10.00000000      -0.01810622       0.00302850       0.15644084
N        4.26482738       8.52965476      12.13241369       0.00026688       0.02995978      -0.55881209
N        6.39724107      10.66206845      12.13241369      -0.01905213      -0.00015735      -0.54342429
V        4.26486563       8.53727532      14.21725288      -0.00010722      -0.02512636       0.03563369
V        6.41616206       8.54597190      16.36281038      -0.01849935      -0.00361626       0.00265106
V        4.26518952      10.66231030      16.22013174      -0.00019540       0.00009050      -0.00632311
V        6.40200026      10.66169130      14.22666257      -0.00278733       0.00021263       0.01655919
N        4.26486370      10.66195642      14.24021197      -0.00007765      -0.00008433       0.00090194
N        6.40078035       8.52446192      14.28049885      -0.01217675      -0.00004808       0.00178640
N        4.26478000       8.57670817      16.33822946       0.00012367      -0.01795581       0.00782258
N        6.38944503      10.66204145      16.32709210      -0.00369570       0.00013293      -0.00194427
V        8.52965476       0.00000000      10.00000000      -0.00699751       0.00654834       0.36635317
V       10.66206845       0.00000000      12.13241369      -0.00061835      -0.03714293      -0.08652457
V        8.52965476       2.13241369      12.13241369      -0.10448887      -0.07482785       0.08510866
V       10.66206845       2.13241369      10.00000000       0.00004782       0.02998369       0.29829710
N        8.52965476       2.13241369      10.00000000       0.00327404       0.01810931       0.15533347
N       10.66206845       0.00000000      10.00000000      -0.00004345       0.02782808       0.11039495
N        8.52965476       0.00000000      12.13241369      -0.01720480       0.01647589      -0.48407500
N       10.66206845       2.13241369      12.13241369       0.00059238       0.01930230      -0.54414394
V        8.49907381       0.03061000      14.23831790      -0.00324807       0.00360443      -0.00301282
V       10.66196562       0.02914812      16.19357128       0.00015555       0.00800076      -0.02285839
V        8.54638962       2.11349871      16.36249959      -0.00371756       0.01890944       0.00211473
V       10.66213534       2.12780021      14.22650549      -0.00037024       0.00256339       0.01670034
N        8.52471964       2.12879209      14.28035202      -0.00021752       0.01245262       0.00176918
N       10.66205744       0.00806982      14.23589209       0.00022189       0.01737397       0.01340188
N        8.55505655      -0.02535284      16.33029098      -0.00194195       0.00198618       0.00937373
N       10.66210781       2.14038241      16.32706981       0.00019875       0.00363888      -0.00164396
V        8.52965476       4.26482738      10.00000000       0.03752037      -0.00044969       0.27733181
V       10.66206845       4.26482738      12.13241369       0.00097419       0.00080116      -0.16843967
V        8.52965476       6.39724107      12.13241369      -0.10384121       0.07472192       0.08539200
V       10.66206845       6.39724107      10.00000000       0.00017869      -0.02996338       0.29717507
N        8.52965476       6.39724107      10.00000000       0.00302850      -0.01810622       0.15644084
N       10.66206845       4.26482738      10.00000000       0.00023628       0.00006633       0.13968187
N        8.52965476       4.26482738      12.13241369       0.02995978       0.00026688      -0.55881209
N       10.66206845       6.39724107      12.13241369      -0.00015735      -0.01905213      -0.54342429
V        8.53727532       4.26486563      14.21725288      -0.02512636      -0.00010722       0.03563369
V       10.66231030       4.26518952      16.22013174       0.00009050      -0.00019540      -0.00632311
V        8.54597190       6.41616206      16.36281038      -0.00361626      -0.01849935       0.00265106
V       10.66169130       6.40200026      14.22666257       0.00021263      -0.00278733       0.01655919
N        8.52446192       6.40078035      14.28049885      -0.00004808      -0.01217675       0.00178640
N       10.66195642       4.26486370      14.24021197      -0.00008433      -0.00007765       0.00090194
N        8.57670817       4.26478000      16.33822946      -0.01795581       0.00012367       0.00782258
N       10.66204145       6.38944503      16.32709210       0.00013293      -0.00369570      -0.00194427
V        8.52965476       8.52965476      10.00000000      -0.00582355      -0.00582355       0.36648610
V       10.66206845       8.52965476      12.13241369       0.00095157       0.03689173      -0.08582009
V        8.52965476      10.66206845      12.13241369       0.03689173       0.00095157      -0.08582009
V       10.66206845      10.66206845      10.00000000       0.00013550       0.00013550       0.59114037
N        8.52965476      10.66206845      10.00000000      -0.02787436       0.00008279       0.10957168
N       10.66206845       8.52965476      10.00000000       0.00008279      -0.02787436       0.10957168
N        8.52965476       8.52965476      12.13241369      -0.01698651      -0.01698651      -0.48349444
N       10.66206845      10.66206845      12.13241369      -0.00003060      -0.00003060      -0.52687538
V        8.49891203       8.49891203      14.23855436      -0.00319768      -0.00319768      -0.00304830
V       10.66203229       8.50060686      16.19371476       0.00000823      -0.00795114      -0.02359759
V        8.50060686      10.66203229      16.19371476      -0.00795114       0.00000823      -0.02359759
V       10.66215710      10.66215710      14.25803730      -0.00020080      -0.00020080      -0.01309669
N        8.52162040      10.66200725      14.23590100      -0.01747245      -0.00004962       0.01352889
N       10.66200725       8.52162040      14.23590100      -0.00004962      -0.01747245       0.01352889
N        8.55491002       8.55491002      16.33026628      -0.00192987      -0.00192987       0.00965424
N       10.66202182      10.66202182      16.28480820       0.00000309       0.00000309      -0.00543454
Li       4.26480703       4.26480703      18.18250134       0.00002623       0.00002623      -0.01007924
