145
Lattice="12.794499522933824 0.0 0.0 0.0 12.794499522933824 0.0 0.0 0.0 26.39727875872947" Properties=species:S:1:pos:R:3 source_out=VN_slab.out system=VN calculation=slab pbc="T T T"
V        0.00000000       0.00000000      10.00000000
V        2.13241369       0.00000000      12.13241369
V        0.00000000       2.13241369      12.13241369
V        2.13241369       2.13241369      10.00000000
N        0.00000000       2.13241369      10.00000000
N        2.13241369       0.00000000      10.00000000
N        0.00000000       0.00000000      12.13241369
N        2.13241369       2.13241369      12.13241369
V        0.00000000       0.00000000      14.24787990
V        2.13249570      -0.00000000      16.27855436
V        0.00000000       2.13249570      16.27855436
V        2.13224299       2.13224299      14.24791581
N        0.00000000       2.13239165      14.26327446
N        2.13239165      -0.00000000      14.26327446
N        0.00000000       0.00000000      16.32985717
N        2.13249255       2.13249255      16.32974709
V        0.00000000       4.26482738      10.00000000
V        2.13241369       4.26482738      12.13241369
V        0.00000000       6.39724107      12.13241369
V        2.13241369       6.39724107      10.00000000
N        0.00000000       6.39724107      10.00000000
N        2.13241369       4.26482738      10.00000000
N        0.00000000       4.26482738      12.13241369
N        2.13241369       6.39724107      12.13241369
V        0.00000000       4.26451526      14.24791516
V        2.13233202       4.26489529      16.27875539
V        0.00000000       6.39724107      16.27919582
V        2.13273315       6.39724107      14.24791855
N        0.00000000       6.39724107      14.26331310
N        2.13241986       4.26481475      14.26327364
N       -0.00000000       4.26498065      16.32963891
N        2.13225908       6.39724107      16.32965462
V        0.00000000       8.52965476      10.00000000
V        2.13241369       8.52965476      12.13241369
V        0.00000000      10.66206845      12.13241369
V        2.13241369      10.66206845      10.00000000
N        0.00000000      10.66206845      10.00000000
N        2.13241369       8.52965476      10.00000000
N        0.00000000       8.52965476      12.13241369
N        2.13241369      10.66206845      12.13241369
V       -0.00000000       8.52996688      14.24791516
V        2.13233202       8.52958685      16.27875539
V       -0.00000000      10.66198644      16.27855436
V        2.13224299      10.66223915      14.24791581
N        0.00000000      10.66209049      14.26327446
N        2.13241986       8.52966739      14.26327364
N        0.00000000       8.52950149      16.32963891
N        2.13249255      10.66198959      16.32974709
V        4.26482738       0.00000000      10.00000000
V        6.39724107       0.00000000      12.13241369
V        4.26482738       2.13241369      12.13241369
V        6.39724107       2.13241369      10.00000000
N        4.26482738       2.13241369      10.00000000
N        6.39724107       0.00000000      10.00000000
N        4.26482738       0.00000000      12.13241369
N        6.39724107       2.13241369      12.13241369
V        4.26451526       0.00000000      14.24791516
V        6.39724107       0.00000000      16.27919582
V        4.26489529       2.13233202      16.27875539
V        6.39724107       2.13273315      14.24791855
N        4.26481475       2.13241986      14.26327364
N        6.39724107       0.00000000      14.26331310
N        4.26498065      -0.00000000      16.32963891
N        6.39724107       2.13225908      16.32965462
V        4.26482738       4.26482738      10.00000000
V        6.39724107       4.26482738      12.13241369
V        4.26482738       6.39724107      12.13241369
V        6.39724107       6.39724107      10.00000000
N        4.26482738       6.39724107      10.00000000
N        6.39724107       4.26482738      10.00000000
N        4.26482738       4.26482738      12.13241369
N        6.39724107       6.39724107      12.13241369
V        4.26499729       4.26499729      14.24791779
V        6.39724107       4.26476448      16.27855967
V        4.26476448       6.39724107      16.27855967
V        6.39724107       6.39724107      14.24789098
N        4.26486543       6.39724107      14.26327358
N        6.39724107       4.26486543      14.26327358
N        4.26474703       4.26474703      16.32975559
N        6.39724107       6.39724107      16.32983390
V        4.26482738       8.52965476      10.00000000
V        6.39724107       8.52965476      12.13241369
V        4.26482738      10.66206845      12.13241369
V        6.39724107      10.66206845      10.00000000
N        4.26482738      10.66206845      10.00000000
N        6.39724107       8.52965476      10.00000000
N        4.26482738       8.52965476      12.13241369
N        6.39724107      10.66206845      12.13241369
V        4.26499729       8.52948485      14.24791779
V        6.39724107       8.52971766      16.27855967
V        4.26489529      10.66215012      16.27875539
V        6.39724107      10.66174899      14.24791855
N        4.26481475      10.66206228      14.26327364
N        6.39724107       8.52961671      14.26327358
N        4.26474703       8.52973511      16.32975559
N        6.39724107      10.66222306      16.32965462
V        8.52965476       0.00000000      10.00000000
V       10.66206845       0.00000000      12.13241369
V        8.52965476       2.13241369      12.13241369
V       10.66206845       2.13241369      10.00000000
N        8.52965476       2.13241369      10.00000000
N       10.66206845       0.00000000      10.00000000
N        8.52965476       0.00000000      12.13241369
N       10.66206845       2.13241369      12.13241369
V        8.52996688      -0.00000000      14.24791516
V       10.66198644       0.00000000      16.27855436
V        8.52958685       2.13233202      16.27875539
V       10.66223915       2.13224299      14.24791581
N        8.52966739       2.13241986      14.26327364
N       10.66209049       0.00000000      14.26327446
N        8.52950149       0.00000000      16.32963891
N       10.66198959       2.13249255      16.32974709
V        8.52965476       4.26482738      10.00000000
V       10.66206845       4.26482738      12.13241369
V        8.52965476       6.39724107      12.13241369
V       10.66206845       6.39724107      10.00000000
N        8.52965476       6.39724107      10.00000000
N       10.66206845       4.26482738      10.00000000
N        8.52965476       4.26482738      12.13241369
N       10.66206845       6.39724107      12.13241369
V        8.52948485       4.26499729      14.24791779
V       10.66215012       4.26489529      16.27875539
V        8.52971766       6.39724107      16.27855967
V       10.66174899       6.39724107      14.24791855
N        8.52961671       6.39724107      14.26327358
N       10.66206228       4.26481475      14.26327364
N        8.52973511       4.26474703      16.32975559
N       10.66222306       6.39724107      16.32965462
V        8.52965476       8.52965476      10.00000000
V       10.66206845       8.52965476      12.13241369
V        8.52965476      10.66206845      12.13241369
V       10.66206845      10.66206845      10.00000000
N        8.52965476      10.66206845      10.00000000
N       10.66206845       8.52965476      10.00000000
N        8.52965476       8.52965476      12.13241369
N       10.66206845      10.66206845      12.13241369
V        8.52948485       8.52948485      14.24791779
V       10.66215012       8.52958685      16.27875539
V        8.52958685      10.66215012      16.27875539
V       10.66223915      10.66223915      14.24791581
N        8.52966739      10.66206228      14.26327364
N       10.66206228       8.52966739      14.26327364
N        8.52973511       8.52973511      16.32975559
N       10.66198959      10.66198959      16.32974709
Li       6.39724107       6.39724107      18.52985717
