8
Lattice="4.221550208940377 0.0 0.0 0.0 4.221550208940377 0.0 0.0 0.0 4.221550208940377" Properties=species:S:1:pos:R:3:forces:R:3 energy=-7398.901608971595 free_energy=-7398.901608971595 stress="0.012989175782226645 -0.0 -0.0 -0.0 0.012989175782226645 -0.0 -0.0 -0.0 0.012989175782226645" pbc="T T T"
Ti       0.00000000       0.00000000       0.00000000       0.00000000       0.00000000       0.00000000
Ti       2.11077510       2.11077510       0.00000000       0.00000000       0.00000000       0.00000000
Ti       2.11077510       0.00000000       2.11077510       0.00000000       0.00000000       0.00000000
Ti       0.00000000       2.11077510       2.11077510       0.00000000       0.00000000       0.00000000
N        0.00000000       0.00000000       2.11077510       0.00000000       0.00000000       0.00000000
N        0.00000000       2.11077510       0.00000000       0.00000000       0.00000000       0.00000000
N        2.11077510       0.00000000       0.00000000       0.00000000       0.00000000       0.00000000
N        2.11077510       2.11077510       2.11077510       0.00000000       0.00000000       0.00000000
