Ti N  S  Li                             
   1.00000000000000     
    12.6417492850382587    0.0000000000000000    0.0000000000000000
     0.0000000000000000   12.6417492850382587    0.0000000000000000
     0.0000000000000000    0.0000000000000000   26.3208805164067527
   Ti   N    S    Li
    72    72     8     2
Selective dynamics
Direct
  0.0000000000000000  0.0000000000000000  0.3799264995624512   F   F   F
  0.1666666679186264  0.0000000000000000  0.4599754260672739   F   F   F
  0.0000000000000000  0.1666666679186264  0.4599754260672739   F   F   F
  0.1666666679186264  0.1666666679186264  0.3799264995624512   F   F   F
  0.0000546157219148  0.9992254309337127  0.5407208115876685   T   T   T
  0.1666000892655148  0.9989173801674980  0.6167999577664247   T   T   T
  0.9993485602553420  0.1651713342723511  0.6167356377185982   T   T   T
  0.1670557510180757  0.1664100304016216  0.5406984033429652   T   T   T
  0.0000000000000000  0.3333333366282787  0.3799264995624512   F   F   F
  0.1666666679186264  0.3333333366282787  0.4599754260672739   F   F   F
  0.0000000000000000  0.5000000045469051  0.4599754260672739   F   F   F
  0.1666666679186264  0.5000000045469051  0.3799264995624512   F   F   F
  0.0000883608405289  0.3329504104513674  0.5404684952170271   T   T   T
  0.1644583655535214  0.3306353179986914  0.6179881995549366   T   T   T
  0.9974530876498306  0.4992092266150863  0.6174534245653902   T   T   T
  0.1677667029908108  0.4995121715300144  0.5411313533594182   T   T   T
  0.0000000000000000  0.6666666732565645  0.3799264995624512   F   F   F
  0.1666666679186264  0.6666666732565645  0.4599754260672739   F   F   F
  0.0000000000000000  0.8333333411751909  0.4599754260672739   F   F   F
  0.1666666679186264  0.8333333411751909  0.3799264995624512   F   F   F
  0.0006520951196478  0.6659633957559876  0.5406952781417971   T   T   T
  0.1660864423486856  0.6661872026654194  0.6186836519269505   T   T   T
  0.0000816746643650  0.8325628889244783  0.6168757601113768   T   T   T
  0.1668954286648940  0.8315924534001908  0.5408321726698233   T   T   T
  0.3333333366282787  0.0000000000000000  0.3799264995624512   F   F   F
  0.5000000045469051  0.0000000000000000  0.4599754260672739   F   F   F
  0.3333333366282787  0.1666666679186264  0.4599754260672739   F   F   F
  0.5000000045469051  0.1666666679186264  0.3799264995624512   F   F   F
  0.3335349879066811  0.9994467402629539  0.5406340088708674   T   T   T
  0.5001240345954798  0.9986486964386216  0.6169976299712303   T   T   T
  0.3332218046902469  0.1644942554515509  0.6178038075036412   T   T   T
  0.4998551213203370  0.1670332254412301  0.5408132210585777   T   T   T
  0.3333333366282787  0.3333333366282787  0.3799264995624512   F   F   F
  0.5000000045469051  0.3333333366282787  0.4599754260672739   F   F   F
  0.3333333366282787  0.5000000045469051  0.4599754260672739   F   F   F
  0.5000000045469051  0.5000000045469051  0.3799264995624512   F   F   F
  0.3338174794831019  0.3338489588931566  0.5445662967801326   T   T   T
  0.5020209243658940  0.3309727289656408  0.6204111033813788   T   T   T
  0.3325092914973169  0.4997978780731316  0.6202972780584801   T   T   T
  0.4978492097765894  0.4980816723582038  0.5423640162505237   T   T   T
  0.3333333366282787  0.6666666732565645  0.3799264995624512   F   F   F
  0.5000000045469051  0.6666666732565645  0.4599754260672739   F   F   F
  0.3333333366282787  0.8333333411751909  0.4599754260672739   F   F   F
  0.5000000045469051  0.8333333411751909  0.3799264995624512   F   F   F
  0.3325026544607610  0.6642280666347773  0.5418931266344984   T   T   T
  0.5004798138897542  0.6658033098572247  0.6174772989076658   T   T   T
  0.3332373183736053  0.8327833867736558  0.6173756433299076   T   T   T
  0.4997171745953253  0.8323484567853257  0.5407320118125369   T   T   T
  0.6666666732565645  0.0000000000000000  0.3799264995624512   F   F   F
  0.8333333411751909  0.0000000000000000  0.4599754260672739   F   F   F
  0.6666666732565645  0.1666666679186264  0.4599754260672739   F   F   F
  0.8333333411751909  0.1666666679186264  0.3799264995624512   F   F   F
  0.6667151365590342  0.9994806491236545  0.5408480277492060   T   T   T
  0.8333989171111895  0.9990985188857309  0.6169946740681098   T   T   T
  0.6669562751995031  0.1656221598330134  0.6172516065055831   T   T   T
  0.8330015186752817  0.1661897570633144  0.5408234583354954   T   T   T
  0.6666666732565645  0.3333333366282787  0.3799264995624512   F   F   F
  0.8333333411751909  0.3333333366282787  0.4599754260672739   F   F   F
  0.6666666732565645  0.5000000045469051  0.4599754260672739   F   F   F
  0.8333333411751909  0.5000000045469051  0.3799264995624512   F   F   F
  0.6655760178361447  0.3329042158849944  0.5407476335468786   T   T   T
  0.8334723884646635  0.3325512057606161  0.6169495073621292   T   T   T
  0.6665368219215182  0.4991453530889274  0.6174562508412080   T   T   T
  0.8335616351777091  0.4995804668506878  0.5405115556021443   T   T   T
  0.6666666732565645  0.6666666732565645  0.3799264995624512   F   F   F
  0.8333333411751909  0.6666666732565645  0.4599754260672739   F   F   F
  0.6666666732565645  0.8333333411751909  0.4599754260672739   F   F   F
  0.8333333411751909  0.8333333411751909  0.3799264995624512   F   F   F
  0.6663912374169385  0.6656977694843391  0.5409260665663140   T   T   T
  0.8331421194333046  0.6657523221949546  0.6169159284479164   T   T   T
  0.6664159818380497  0.8322536061811832  0.6169862100420502   T   T   T
  0.8333219241232612  0.8326731140651304  0.5408909570197977   T   T   T
  0.0000000000000000  0.1666666679186264  0.3799264995624512   F   F   F
  0.1666666679186264  0.0000000000000000  0.3799264995624512   F   F   F
  0.0000000000000000  0.0000000000000000  0.4599754260672739   F   F   F
  0.1666666679186264  0.1666666679186264  0.4599754260672739   F   F   F
  0.9998579516625270  0.1662813498173890  0.5404640471407092   T   T   T
  0.1669653805959754  0.9989472594177897  0.5405922688252005   T   T   T
  0.0000617092732895  0.9989098741523890  0.6235040478661276   T   T   T
  0.1659630255941806  0.1646697415735900  0.6233531415601306   T   T   T
  0.0000000000000000  0.5000000045469051  0.3799264995624512   F   F   F
  0.1666666679186264  0.3333333366282787  0.3799264995624512   F   F   F
  0.0000000000000000  0.3333333366282787  0.4599754260672739   F   F   F
  0.1666666679186264  0.5000000045469051  0.4599754260672739   F   F   F
  0.0006064570275512  0.4995128243513349  0.5411849380525950   T   T   T
  0.1667739893374574  0.3330278151400137  0.5418615483863150   T   T   T
  0.9994600254830814  0.3316332155265229  0.6231367401799446   T   T   T
  0.1639245628460912  0.4983154809829529  0.6223651088523994   T   T   T
  0.0000000000000000  0.8333333411751909  0.3799264995624512   F   F   F
  0.1666666679186264  0.6666666732565645  0.3799264995624512   F   F   F
  0.0000000000000000  0.6666666732565645  0.4599754260672739   F   F   F
  0.1666666679186264  0.8333333411751909  0.4599754260672739   F   F   F
  0.0002359135959864  0.8323554678422056  0.5404767833389315   T   T   T
  0.1665450875636338  0.6654745967547768  0.5418197183535796   T   T   T
  0.9996085506766619  0.6662127355649758  0.6232376189753737   T   T   T
  0.1666496669473005  0.8326791409762464  0.6234055158723422   T   T   T
  0.3333333366282787  0.1666666679186264  0.3799264995624512   F   F   F
  0.5000000045469051  0.0000000000000000  0.3799264995624512   F   F   F
  0.3333333366282787  0.0000000000000000  0.4599754260672739   F   F   F
  0.5000000045469051  0.1666666679186264  0.4599754260672739   F   F   F
  0.3335705172380230  0.1666228239254082  0.5412621243756846   T   T   T
  0.5000719148968926  0.9993843064795129  0.5407035661963704   T   T   T
  0.3333763922317132  0.9989512466566381  0.6236026919352753   T   T   T
  0.5005404858844216  0.1644446556185386  0.6228708986140958   T   T   T
  0.3333333366282787  0.5000000045469051  0.3799264995624512   F   F   F
  0.5000000045469051  0.3333333366282787  0.3799264995624512   F   F   F
  0.3333333366282787  0.3333333366282787  0.4599754260672739   F   F   F
  0.5000000045469051  0.5000000045469051  0.4599754260672739   F   F   F
  0.3329188337805178  0.4991139300943317  0.5421302533804706   T   T   T
  0.4994769838179138  0.3327132772344470  0.5424559178097610   T   T   T
  0.3313351190491005  0.3315863014973885  0.6300791619615751   T   T   T
  0.5004969992846355  0.4999296166848026  0.6253329653813111   T   T   T
  0.3333333366282787  0.8333333411751909  0.3799264995624512   F   F   F
  0.5000000045469051  0.6666666732565645  0.3799264995624512   F   F   F
  0.3333333366282787  0.6666666732565645  0.4599754260672739   F   F   F
  0.5000000045469051  0.8333333411751909  0.4599754260672739   F   F   F
  0.3332122812384668  0.8318082841663070  0.5409618712359077   T   T   T
  0.4992740431896578  0.6653741899527148  0.5411543253901954   T   T   T
  0.3334740843650579  0.6664906945671305  0.6241505792103936   T   T   T
  0.5001909986054400  0.8324484708989885  0.6235500626464869   T   T   T
  0.6666666732565645  0.1666666679186264  0.3799264995624512   F   F   F
  0.8333333411751909  0.0000000000000000  0.3799264995624512   F   F   F
  0.6666666732565645  0.0000000000000000  0.4599754260672739   F   F   F
  0.8333333411751909  0.1666666679186264  0.4599754260672739   F   F   F
  0.6665315140639407  0.1662512504103262  0.5408766862881222   T   T   T
  0.8333399939026833  0.9995285699125986  0.5405673543478358   T   T   T
  0.6666340930162846  0.9989228415946840  0.6233360236839118   T   T   T
  0.8332334101630394  0.1658785713095696  0.6233684221178990   T   T   T
  0.6666666732565645  0.5000000045469051  0.3799264995624512   F   F   F
  0.8333333411751909  0.3333333366282787  0.3799264995624512   F   F   F
  0.6666666732565645  0.3333333366282787  0.4599754260672739   F   F   F
  0.8333333411751909  0.5000000045469051  0.4599754260672739   F   F   F
  0.6659055100284377  0.4991882837771158  0.5411346212656269   T   T   T
  0.8330948664192377  0.3329779218360187  0.5407183993759617   T   T   T
  0.6679560987490731  0.3323034162780232  0.6224816745456536   T   T   T
  0.8330236097479542  0.4991815116006535  0.6235676958779024   T   T   T
  0.6666666732565645  0.8333333411751909  0.3799264995624512   F   F   F
  0.8333333411751909  0.6666666732565645  0.3799264995624512   F   F   F
  0.6666666732565645  0.6666666732565645  0.4599754260672739   F   F   F
  0.8333333411751909  0.8333333411751909  0.4599754260672739   F   F   F
  0.6664732486754446  0.8326559972143173  0.5406542158101715   T   T   T
  0.8335740929793332  0.6659820251913757  0.5405570476205028   T   T   T
  0.6669455595800926  0.6657135396109481  0.6237535745627056   T   T   T
  0.8332908504189973  0.8322138553972636  0.6234994341181732   T   T   T
  0.2859947311163680  0.5588596935331935  0.7195801358983402   T   T   T
  0.5087606271190168  0.3415643575506380  0.7299152691805446   T   T   T
  0.5480633536389163  0.2761017610358678  0.8024278687916109   T   T   T
  0.6123945524923400  0.3973900281812490  0.8433071760711570   T   T   T
  0.5013387688080044  0.4743130309789265  0.8871200577431964   T   T   T
  0.4280816557707325  0.5945776896218788  0.8420059338409516   T   T   T
  0.2713715398739680  0.5592650867608882  0.8446552941143466   T   T   T
  0.2298095922771708  0.4682522984266413  0.7794389376898181   T   T   T
  0.3298024468966361  0.3569921446783084  0.7067622790397650   T   T   T
  0.4633121114777552  0.5144366048371012  0.7459154196050903   T   T   T
 
  0.00000000E+00  0.00000000E+00  0.00000000E+00
  0.00000000E+00  0.00000000E+00  0.00000000E+00
  0.00000000E+00  0.00000000E+00  0.00000000E+00
  0.00000000E+00  0.00000000E+00  0.00000000E+00
  0.00000000E+00  0.00000000E+00  0.00000000E+00
  0.00000000E+00  0.00000000E+00  0.00000000E+00
  0.00000000E+00  0.00000000E+00  0.00000000E+00
  0.00000000E+00  0.00000000E+00  0.00000000E+00
  0.00000000E+00  0.00000000E+00  0.00000000E+00
  0.00000000E+00  0.00000000E+00  0.00000000E+00
  0.00000000E+00  0.00000000E+00  0.00000000E+00
  0.00000000E+00  0.00000000E+00  0.00000000E+00
  0.00000000E+00  0.00000000E+00  0.00000000E+00
  0.00000000E+00  0.00000000E+00  0.00000000E+00
  0.00000000E+00  0.00000000E+00  0.00000000E+00
  0.00000000E+00  0.00000000E+00  0.00000000E+00
  0.00000000E+00  0.00000000E+00  0.00000000E+00
  0.00000000E+00  0.00000000E+00  0.00000000E+00
  0.00000000E+00  0.00000000E+00  0.00000000E+00
  0.00000000E+00  0.00000000E+00  0.00000000E+00
  0.00000000E+00  0.00000000E+00  0.00000000E+00
  0.00000000E+00  0.00000000E+00  0.00000000E+00
  0.00000000E+00  0.00000000E+00  0.00000000E+00
  0.00000000E+00  0.00000000E+00  0.00000000E+00
  0.00000000E+00  0.00000000E+00  0.00000000E+00
  0.00000000E+00  0.00000000E+00  0.00000000E+00
  0.00000000E+00  0.00000000E+00  0.00000000E+00
  0.00000000E+00  0.00000000E+00  0.00000000E+00
  0.00000000E+00  0.00000000E+00  0.00000000E+00
  0.00000000E+00  0.00000000E+00  0.00000000E+00
  0.00000000E+00  0.00000000E+00  0.00000000E+00
  0.00000000E+00  0.00000000E+00  0.00000000E+00
  0.00000000E+00  0.00000000E+00  0.00000000E+00
  0.00000000E+00  0.00000000E+00  0.00000000E+00
  0.00000000E+00  0.00000000E+00  0.00000000E+00
  0.00000000E+00  0.00000000E+00  0.00000000E+00
  0.00000000E+00  0.00000000E+00  0.00000000E+00
  0.00000000E+00  0.00000000E+00  0.00000000E+00
  0.00000000E+00  0.00000000E+00  0.00000000E+00
  0.00000000E+00  0.00000000E+00  0.00000000E+00
  0.00000000E+00  0.00000000E+00  0.00000000E+00
  0.00000000E+00  0.00000000E+00  0.00000000E+00
  0.00000000E+00  0.00000000E+00  0.00000000E+00
  0.00000000E+00  0.00000000E+00  0.00000000E+00
  0.00000000E+00  0.00000000E+00  0.00000000E+00
  0.00000000E+00  0.00000000E+00  0.00000000E+00
  0.00000000E+00  0.00000000E+00  0.00000000E+00
  0.00000000E+00  0.00000000E+00  0.00000000E+00
  0.00000000E+00  0.00000000E+00  0.00000000E+00
  0.00000000E+00  0.00000000E+00  0.00000000E+00
  0.00000000E+00  0.00000000E+00  0.00000000E+00
  0.00000000E+00  0.00000000E+00  0.00000000E+00
  0.00000000E+00  0.00000000E+00  0.00000000E+00
  0.00000000E+00  0.00000000E+00  0.00000000E+00
  0.00000000E+00  0.00000000E+00  0.00000000E+00
  0.00000000E+00  0.00000000E+00  0.00000000E+00
  0.00000000E+00  0.00000000E+00  0.00000000E+00
  0.00000000E+00  0.00000000E+00  0.00000000E+00
  0.00000000E+00  0.00000000E+00  0.00000000E+00
  0.00000000E+00  0.00000000E+00  0.00000000E+00
  0.00000000E+00  0.00000000E+00  0.00000000E+00
  0.00000000E+00  0.00000000E+00  0.00000000E+00
  0.00000000E+00  0.00000000E+00  0.00000000E+00
  0.00000000E+00  0.00000000E+00  0.00000000E+00
  0.00000000E+00  0.00000000E+00  0.00000000E+00
  0.00000000E+00  0.00000000E+00  0.00000000E+00
  0.00000000E+00  0.00000000E+00  0.00000000E+00
  0.00000000E+00  0.00000000E+00  0.00000000E+00
  0.00000000E+00  0.00000000E+00  0.00000000E+00
  0.00000000E+00  0.00000000E+00  0.00000000E+00
  0.00000000E+00  0.00000000E+00  0.00000000E+00
  0.00000000E+00  0.00000000E+00  0.00000000E+00
  0.00000000E+00  0.00000000E+00  0.00000000E+00
  0.00000000E+00  0.00000000E+00  0.00000000E+00
  0.00000000E+00  0.00000000E+00  0.00000000E+00
  0.00000000E+00  0.00000000E+00  0.00000000E+00
  0.00000000E+00  0.00000000E+00  0.00000000E+00
  0.00000000E+00  0.00000000E+00  0.00000000E+00
  0.00000000E+00  0.00000000E+00  0.00000000E+00
  0.00000000E+00  0.00000000E+00  0.00000000E+00
  0.00000000E+00  0.00000000E+00  0.00000000E+00
  0.00000000E+00  0.00000000E+00  0.00000000E+00
  0.00000000E+00  0.00000000E+00  0.00000000E+00
  0.00000000E+00  0.00000000E+00  0.00000000E+00
  0.00000000E+00  0.00000000E+00  0.00000000E+00
  0.00000000E+00  0.00000000E+00  0.00000000E+00
  0.00000000E+00  0.00000000E+00  0.00000000E+00
  0.00000000E+00  0.00000000E+00  0.00000000E+00
  0.00000000E+00  0.00000000E+00  0.00000000E+00
  0.00000000E+00  0.00000000E+00  0.00000000E+00
  0.00000000E+00  0.00000000E+00  0.00000000E+00
  0.00000000E+00  0.00000000E+00  0.00000000E+00
  0.00000000E+00  0.00000000E+00  0.00000000E+00
  0.00000000E+00  0.00000000E+00  0.00000000E+00
  0.00000000E+00  0.00000000E+00  0.00000000E+00
  0.00000000E+00  0.00000000E+00  0.00000000E+00
  0.00000000E+00  0.00000000E+00  0.00000000E+00
  0.00000000E+00  0.00000000E+00  0.00000000E+00
  0.00000000E+00  0.00000000E+00  0.00000000E+00
  0.00000000E+00  0.00000000E+00  0.00000000E+00
  0.00000000E+00  0.00000000E+00  0.00000000E+00
  0.00000000E+00  0.00000000E+00  0.00000000E+00
  0.00000000E+00  0.00000000E+00  0.00000000E+00
  0.00000000E+00  0.00000000E+00  0.00000000E+00
  0.00000000E+00  0.00000000E+00  0.00000000E+00
  0.00000000E+00  0.00000000E+00  0.00000000E+00
  0.00000000E+00  0.00000000E+00  0.00000000E+00
  0.00000000E+00  0.00000000E+00  0.00000000E+00
  0.00000000E+00  0.00000000E+00  0.00000000E+00
  0.00000000E+00  0.00000000E+00  0.00000000E+00
  0.00000000E+00  0.00000000E+00  0.00000000E+00
  0.00000000E+00  0.00000000E+00  0.00000000E+00
  0.00000000E+00  0.00000000E+00  0.00000000E+00
  0.00000000E+00  0.00000000E+00  0.00000000E+00
  0.00000000E+00  0.00000000E+00  0.00000000E+00
  0.00000000E+00  0.00000000E+00  0.00000000E+00
  0.00000000E+00  0.00000000E+00  0.00000000E+00
  0.00000000E+00  0.00000000E+00  0.00000000E+00
  0.00000000E+00  0.00000000E+00  0.00000000E+00
  0.00000000E+00  0.00000000E+00  0.00000000E+00
  0.00000000E+00  0.00000000E+00  0.00000000E+00
  0.00000000E+00  0.00000000E+00  0.00000000E+00
  0.00000000E+00  0.00000000E+00  0.00000000E+00
  0.00000000E+00  0.00000000E+00  0.00000000E+00
  0.00000000E+00  0.00000000E+00  0.00000000E+00
  0.00000000E+00  0.00000000E+00  0.00000000E+00
  0.00000000E+00  0.00000000E+00  0.00000000E+00
  0.00000000E+00  0.00000000E+00  0.00000000E+00
  0.00000000E+00  0.00000000E+00  0.00000000E+00
  0.00000000E+00  0.00000000E+00  0.00000000E+00
  0.00000000E+00  0.00000000E+00  0.00000000E+00
  0.00000000E+00  0.00000000E+00  0.00000000E+00
  0.00000000E+00  0.00000000E+00  0.00000000E+00
  0.00000000E+00  0.00000000E+00  0.00000000E+00
  0.00000000E+00  0.00000000E+00  0.00000000E+00
  0.00000000E+00  0.00000000E+00  0.00000000E+00
  0.00000000E+00  0.00000000E+00  0.00000000E+00
  0.00000000E+00  0.00000000E+00  0.00000000E+00
  0.00000000E+00  0.00000000E+00  0.00000000E+00
  0.00000000E+00  0.00000000E+00  0.00000000E+00
  0.00000000E+00  0.00000000E+00  0.00000000E+00
  0.00000000E+00  0.00000000E+00  0.00000000E+00
  0.00000000E+00  0.00000000E+00  0.00000000E+00
  0.00000000E+00  0.00000000E+00  0.00000000E+00
  0.00000000E+00  0.00000000E+00  0.00000000E+00
  0.00000000E+00  0.00000000E+00  0.00000000E+00
  0.00000000E+00  0.00000000E+00  0.00000000E+00
  0.00000000E+00  0.00000000E+00  0.00000000E+00
  0.00000000E+00  0.00000000E+00  0.00000000E+00
  0.00000000E+00  0.00000000E+00  0.00000000E+00
  0.00000000E+00  0.00000000E+00  0.00000000E+00
  0.00000000E+00  0.00000000E+00  0.00000000E+00
  0.00000000E+00  0.00000000E+00  0.00000000E+00
  0.00000000E+00  0.00000000E+00  0.00000000E+00
