Ti N  S  Li
 1.0000000000000000
    12.6417492850382587    0.0000000000000000    0.0000000000000000
     0.0000000000000000   12.6417492850382587    0.0000000000000000
     0.0000000000000000    0.0000000000000000   26.3208805164067527
 Ti  N   S   Li 
  72  72   8   2
Selective dynamics
Cartesian
  0.0000000000000000  0.0000000000000000 10.0000000000000000   F   F   F
  2.1069582300000000  0.0000000000000000 12.1069582300000000   F   F   F
  0.0000000000000000  2.1069582300000000 12.1069582300000000   F   F   F
  2.1069582300000000  2.1069582300000000 10.0000000000000000   F   F   F
  0.0003800923044965 -0.0094415454447239 14.2269937700926565   T   T   T
  2.1056265734440842 -0.0135774761604809 16.2353679362754377   T   T   T
 -0.0090875073760536  2.0848647284771382 16.2337665728119305   T   T   T
  2.1120331513326716  2.1027918043329610 14.2278799171167396   T   T   T
  0.0000000000000000  4.2139164700000000 10.0000000000000000   F   F   F
  2.1069582300000000  4.2139164700000000 12.1069582300000000   F   F   F
  0.0000000000000000  6.3208747000000001 12.1069582300000000   F   F   F
  2.1069582300000000  6.3208747000000001 10.0000000000000000   F   F   F
  0.0017664915676723  4.2074598039629274 14.2235723708853321   T   T   T
  2.0765542966942685  4.1838179324994016 16.2686452162017439   T   T   T
 -0.0318261051361985  6.3099813368081321 16.2553644902536938   T   T   T
  2.1181677989568124  6.3141291638344557 14.2340281828649360   T   T   T
  0.0000000000000000  8.4278329400000001 10.0000000000000000   F   F   F
  2.1069582300000000  8.4278329400000001 12.1069582300000000   F   F   F
  0.0000000000000000 10.5347911700000001 12.1069582300000000   F   F   F
  2.1069582300000000 10.5347911700000001 10.0000000000000000   F   F   F
  0.0056364127769253  8.4185558486678165 14.2299301110391276   T   T   T
  2.0985584845287741  8.4191781692316461 16.2903683760819433   T   T   T
 -0.0020613290238522 10.5274582496297153 16.2368590366195313   T   T   T
  2.1095499230026999 10.5147754684650465 14.2320912149320495   T   T   T
  4.2139164700000000  0.0000000000000000 10.0000000000000000   F   F   F
  6.3208747000000001  0.0000000000000000 12.1069582300000000   F   F   F
  4.2139164700000000  2.1069582300000000 12.1069582300000000   F   F   F
  6.3208747000000001  2.1069582300000000 10.0000000000000000   F   F   F
  4.2160989763181282 -0.0060355995643318 14.2263773269094678   T   T   T
  6.3216447903629298 -0.0180701258404288 16.2410052118218573   T   T   T
  4.2123022421567864  2.0775426937059489 16.2626884649678836   T   T   T
  6.3167740612488483  2.1116325426233051 14.2298978925823949   T   T   T
  4.2139164700000000  4.2139164700000000 10.0000000000000000   F   F   F
  6.3208747000000001  4.2139164700000000 12.1069582300000000   F   F   F
  4.2139164700000000  6.3208747000000001 12.1069582300000000   F   F   F
  6.3208747000000001  6.3208747000000001 10.0000000000000000   F   F   F
  4.2203715105389330  4.2181267204365556 14.3356657005549621   T   T   T
  6.3455582251411586  4.1830576668409813 16.3369186103375519   T   T   T
  4.2058095294126279  6.3242489756442666 16.3214052443392070   T   T   T
  6.2975712173251761  6.2978687960986841 14.2702940228269455   T   T   T
  4.2139164700000000  8.4278329400000001 10.0000000000000000   F   F   F
  6.3208747000000001  8.4278329400000001 12.1069582300000000   F   F   F
  4.2139164700000000 10.5347911700000001 12.1069582300000000   F   F   F
  6.3208747000000001 10.5347911700000001 10.0000000000000000   F   F   F
  4.2053460789025969  8.4014997610353035 14.2574730874807045   T   T   T
  6.3300571106892107  8.4211583439639490 16.2508660559177081   T   T   T
  4.2142354608886476 10.5297317449400651 16.2528932881480159   T   T   T
  6.3173605077872175 10.5220179110684278 14.2287064102603953   T   T   T
  8.4278329400000001  0.0000000000000000 10.0000000000000000   F   F   F
 10.5347911700000001  0.0000000000000000 12.1069582300000000   F   F   F
  8.4278329400000001  2.1069582300000000 12.1069582300000000   F   F   F
 10.5347911700000001  2.1069582300000000 10.0000000000000000   F   F   F
  8.4280609020557176 -0.0076196054033586 14.2317355552663436   T   T   T
 10.5347844118928560 -0.0123700693937394 16.2395553049014438   T   T   T
  8.4322919503491836  2.0938735232024133 16.2486558144621860   T   T   T
 10.5310329727025707  2.1004028480852566 14.2302497397511996   T   T   T
  8.4278329400000001  4.2139164700000000 10.0000000000000000   F   F   F
 10.5347911700000001  4.2139164700000000 12.1069582300000000   F   F   F
  8.4278329400000001  6.3208747000000001 12.1069582300000000   F   F   F
 10.5347911700000001  6.3208747000000001 10.0000000000000000   F   F   F
  8.4139932600419769  4.2090559069869933 14.2266488431006124   T   T   T
 10.5367487096390384  4.2005191936517647 16.2399991073610828   T   T   T
  8.4251509598541272  6.3100913093052649 16.2538245468927407   T   T   T
 10.5359236139850037  6.3142350381433161 14.2211963798339891   T   T   T
  8.4278329400000001  8.4278329400000001 10.0000000000000000   F   F   F
 10.5347911700000001  8.4278329400000001 12.1069582300000000   F   F   F
  8.4278329400000001 10.5347911700000001 12.1069582300000000   F   F   F
 10.5347911700000001 10.5347911700000001 10.0000000000000000   F   F   F
  8.4259570010535842  8.4148665943988199 14.2327267068145229   T   T   T
 10.5309673843995544  8.4177540237866069 16.2386906052630167   T   T   T
  8.4269157103919277 10.5198191721836949 16.2401825182383917   T   T   T
 10.5337604489587591 10.5255824417926416 14.2323442416056452   T   T   T
  0.0000000000000000  2.1069582300000000 10.0000000000000000   F   F   F
  2.1069582300000000  0.0000000000000000 10.0000000000000000   F   F   F
  0.0000000000000000  0.0000000000000000 12.1069582300000000   F   F   F
  2.1069582300000000  2.1069582300000000 12.1069582300000000   F   F   F
 -0.0018941188515335  2.1011196013943607 14.2211649406169034   T   T   T
  2.1104616324901166 -0.0130593306202269 14.2237501601761753   T   T   T
 -0.0016549477571191 -0.0144543612864741 16.4065393013046226   T   T   T
  2.0981855555597364  2.0813851463050188 16.4072608394255575   T   T   T
  0.0000000000000000  6.3208747000000001 10.0000000000000000   F   F   F
  2.1069582300000000  4.2139164700000000 10.0000000000000000   F   F   F
  0.0000000000000000  4.2139164700000000 12.1069582300000000   F   F   F
  2.1069582300000000  6.3208747000000001 12.1069582300000000   F   F   F
  0.0064268252530120  6.3130916387324616 14.2401278458205862   T   T   T
  2.1092425701867841  4.2111977791746025 14.2589447232700994   T   T   T
 -0.0074765412109511  4.1926068386195467 16.4029579573955715   T   T   T
  2.0796528532364897  6.3006118920740706 16.3714153379383518   T   T   T
  0.0000000000000000 10.5347911700000001 10.0000000000000000   F   F   F
  2.1069582300000000  8.4278329400000001 10.0000000000000000   F   F   F
  0.0000000000000000  8.4278329400000001 12.1069582300000000   F   F   F
  2.1069582300000000 10.5347911700000001 12.1069582300000000   F   F   F
  0.0022867409063323 10.5230230496398942 14.2214081342637808   T   T   T
  2.1037945521427339  8.4128977725608873 14.2569830052046012   T   T   T
 -0.0068635958524038  8.4203591816178900 16.4037815112052847   T   T   T
  2.1061022461276848 10.5269820017584763 16.4084900698009726   T   T   T
  4.2139164700000000  2.1069582300000000 10.0000000000000000   F   F   F
  6.3208747000000001  0.0000000000000000 10.0000000000000000   F   F   F
  4.2139164700000000  0.0000000000000000 12.1069582300000000   F   F   F
  6.3208747000000001  2.1069582300000000 12.1069582300000000   F   F   F
  4.2164417876265041  2.1066558482778555 14.2445478207622713   T   T   T
  6.3209317839272741 -0.0055356013197055 14.2281677295556790   T   T   T
  4.2146458078755868 -0.0127682868596783 16.4126971912296256   T   T   T
  6.3272878261623031  2.0800257866142497 16.3917872259888533   T   T   T
  4.2139164700000000  6.3208747000000001 10.0000000000000000   F   F   F
  6.3208747000000001  4.2139164700000000 10.0000000000000000   F   F   F
  4.2139164700000000  4.2139164700000000 12.1069582300000000   F   F   F
  6.3208747000000001  6.3208747000000001 12.1069582300000000   F   F   F
  4.2082396772944861  6.3107335943366580 14.2576161385065170   T   T   T
  6.3153237038995726  4.2056171527345771 14.2758626719845267   T   T   T
  4.1891894217973515  4.1975105712353900 16.5717192874511312   T   T   T
  6.3269459617884118  6.3211596307745923 16.4558028614399632   T   T   T
  4.2139164700000000 10.5347911700000001 10.0000000000000000   F   F   F
  6.3208747000000001  8.4278329400000001 10.0000000000000000   F   F   F
  4.2139164700000000  8.4278329400000001 12.1069582300000000   F   F   F
  6.3208747000000001 10.5347911700000001 12.1069582300000000   F   F   F
  4.2125517117080209 10.5172751126402151 14.2355403094962334   T   T   T
  6.3129643191879463  8.4114073353788790 14.2383515640408849   T   T   T
  4.2168254564064602  8.4255362621542869 16.4202729126045490   T   T   T
  6.3238162466607282 10.5237459501034341 16.4109648339438614   T   T   T
  8.4278329400000001  2.1069582300000000 10.0000000000000000   F   F   F
 10.5347911700000001  0.0000000000000000 10.0000000000000000   F   F   F
  8.4278329400000001  0.0000000000000000 12.1069582300000000   F   F   F
 10.5347911700000001  2.1069582300000000 12.1069582300000000   F   F   F
  8.4249714590715250  2.1022328481967452 14.2315163671690481   T   T   T
 10.5346207904885869 -0.0070598919888338 14.2242840498846839   T   T   T
  8.4270995593001068 -0.0135957769546537 16.4046039245032595   T   T   T
 10.5321873394324577  2.0954934834886929 16.4041923618344541   T   T   T
  8.4278329400000001  6.3208747000000001 10.0000000000000000   F   F   F
 10.5347911700000001  4.2139164700000000 10.0000000000000000   F   F   F
  8.4278329400000001  4.2139164700000000 12.1069582300000000   F   F   F
 10.5347911700000001  6.3208747000000001 12.1069582300000000   F   F   F
  8.4177680306643623  6.3095669047110876 14.2376872806364734   T   T   T
 10.5302174900066596  4.2089488900407934 14.2276761666274609   T   T   T
  8.4419399238598523  4.1991678500529854 16.3799477203542168   T   T   T
 10.5267689296385303  6.3083802028881655 16.4137255860624371   T   T   T
  8.4278329400000001 10.5347911700000001 10.0000000000000000   F   F   F
 10.5347911700000001  8.4278329400000001 10.0000000000000000   F   F   F
  8.4278329400000001  8.4278329400000001 12.1069582300000000   F   F   F
 10.5347911700000001 10.5347911700000001 12.1069582300000000   F   F   F
  8.4249948129449503 10.5252501833193755 14.2266009980632422   T   T   T
 10.5382537631197089  8.4177267205918156 14.2235451049781680   T   T   T
  8.4313836257628747  8.4161997516968743 16.4160675029972261   T   T   T
 10.5335275396985324 10.5209362509286173 16.4060091998564701   T   T   T
  3.6254643272809379  7.0786626755660746 18.9132091564408995   T   T   T
  6.4268678725135651  4.3344781640913963 19.2062326575498581   T   T   T
  6.9185218655707486  3.4962967927503477 21.1005820751103315   T   T   T
  7.7423430834684046  5.0225823833472028 22.1791862556135122   T   T   T
  6.3557632931632524  5.9861424379022070 23.3504675108750988   T   T   T
  5.4107612532157168  7.5154024181662287 22.1853207274885627   T   T   T
  3.4340853415187325  7.0559494760665933 22.2141828400981716   T   T   T
  2.9117506522530290  5.9299756725771129 20.4890285741143501   T   T   T
  4.1758928808171918  4.5263805359614198 18.5623421698776205   T   T   T
  5.8484525577995177  6.5170199728393232 19.6313881533034262   T   T   T
