192
Lattice="17.72535722 0.0 0.0 0.0 17.72535722 0.0 0.0 0.0 26.6470089527" Properties=species:S:1:pos:R:3:tags:I:1 pbc="T T F"
Nb       0.00000000       0.00000000      10.00000000        2
Nb       2.21566965       0.00000000      12.21566965        2
Nb       0.00000000       2.21566965      12.21566965        2
Nb       2.21566965       2.21566965      10.00000000        2
Nb       0.00000000       0.00000000      14.43133930        1
Nb       2.21566965       2.21566965      14.43133930        1
Nb       0.00000000       4.43133930      10.00000000        2
Nb       2.21566965       4.43133930      12.21566965        2
Nb       0.00000000       6.64700895      12.21566965        2
Nb       2.21566965       6.64700895      10.00000000        2
Nb       0.00000000       4.43133930      14.43133930        1
Nb       2.21566965       6.64700895      14.43133930        1
Nb       0.00000000       8.86267861      10.00000000        2
Nb       2.21566965       8.86267861      12.21566965        2
Nb       0.00000000      11.07834826      12.21566965        2
Nb       2.21566965      11.07834826      10.00000000        2
Nb       0.00000000       8.86267861      14.43133930        1
Nb       2.21566965      11.07834826      14.43133930        1
Nb       0.00000000      13.29401791      10.00000000        2
Nb       2.21566965      13.29401791      12.21566965        2
Nb       0.00000000      15.50968756      12.21566965        2
Nb       2.21566965      15.50968756      10.00000000        2
Nb       0.00000000      13.29401791      14.43133930        1
Nb       2.21566965      15.50968756      14.43133930        1
Nb       4.43133930       0.00000000      10.00000000        2
Nb       6.64700895       0.00000000      12.21566965        2
Nb       4.43133930       2.21566965      12.21566965        2
Nb       6.64700895       2.21566965      10.00000000        2
Nb       4.43133930       0.00000000      14.43133930        1
Nb       6.64700895       2.21566965      14.43133930        1
Nb       4.43133930       4.43133930      10.00000000        2
Nb       6.64700895       4.43133930      12.21566965        2
Nb       4.43133930       6.64700895      12.21566965        2
Nb       6.64700895       6.64700895      10.00000000        2
Nb       4.43133930       4.43133930      14.43133930        1
Nb       6.64700895       6.64700895      14.43133930        1
Nb       4.43133930       8.86267861      10.00000000        2
Nb       6.64700895       8.86267861      12.21566965        2
Nb       4.43133930      11.07834826      12.21566965        2
Nb       6.64700895      11.07834826      10.00000000        2
Nb       4.43133930       8.86267861      14.43133930        1
Nb       6.64700895      11.07834826      14.43133930        1
Nb       4.43133930      13.29401791      10.00000000        2
Nb       6.64700895      13.29401791      12.21566965        2
Nb       4.43133930      15.50968756      12.21566965        2
Nb       6.64700895      15.50968756      10.00000000        2
Nb       4.43133930      13.29401791      14.43133930        1
Nb       6.64700895      15.50968756      14.43133930        1
Nb       8.86267861       0.00000000      10.00000000        2
Nb      11.07834826       0.00000000      12.21566965        2
Nb       8.86267861       2.21566965      12.21566965        2
Nb      11.07834826       2.21566965      10.00000000        2
Nb       8.86267861       0.00000000      14.43133930        1
Nb      11.07834826       2.21566965      14.43133930        1
Nb       8.86267861       4.43133930      10.00000000        2
Nb      11.07834826       4.43133930      12.21566965        2
Nb       8.86267861       6.64700895      12.21566965        2
Nb      11.07834826       6.64700895      10.00000000        2
Nb       8.86267861       4.43133930      14.43133930        1
Nb      11.07834826       6.64700895      14.43133930        1
Nb       8.86267861       8.86267861      10.00000000        2
Nb      11.07834826       8.86267861      12.21566965        2
Nb       8.86267861      11.07834826      12.21566965        2
Nb      11.07834826      11.07834826      10.00000000        2
Nb       8.86267861       8.86267861      14.43133930        1
Nb      11.07834826      11.07834826      14.43133930        1
Nb       8.86267861      13.29401791      10.00000000        2
Nb      11.07834826      13.29401791      12.21566965        2
Nb       8.86267861      15.50968756      12.21566965        2
Nb      11.07834826      15.50968756      10.00000000        2
Nb       8.86267861      13.29401791      14.43133930        1
Nb      11.07834826      15.50968756      14.43133930        1
Nb      13.29401791       0.00000000      10.00000000        2
Nb      15.50968756       0.00000000      12.21566965        2
Nb      13.29401791       2.21566965      12.21566965        2
Nb      15.50968756       2.21566965      10.00000000        2
Nb      13.29401791       0.00000000      14.43133930        1
Nb      15.50968756       2.21566965      14.43133930        1
Nb      13.29401791       4.43133930      10.00000000        2
Nb      15.50968756       4.43133930      12.21566965        2
Nb      13.29401791       6.64700895      12.21566965        2
Nb      15.50968756       6.64700895      10.00000000        2
Nb      13.29401791       4.43133930      14.43133930        1
Nb      15.50968756       6.64700895      14.43133930        1
Nb      13.29401791       8.86267861      10.00000000        2
Nb      15.50968756       8.86267861      12.21566965        2
Nb      13.29401791      11.07834826      12.21566965        2
Nb      15.50968756      11.07834826      10.00000000        2
Nb      13.29401791       8.86267861      14.43133930        1
Nb      15.50968756      11.07834826      14.43133930        1
Nb      13.29401791      13.29401791      10.00000000        2
Nb      15.50968756      13.29401791      12.21566965        2
Nb      13.29401791      15.50968756      12.21566965        2
Nb      15.50968756      15.50968756      10.00000000        2
Nb      13.29401791      13.29401791      14.43133930        1
Nb      15.50968756      15.50968756      14.43133930        1
N        0.00000000       2.21566965      10.00000000        2
N        2.21566965       0.00000000      10.00000000        2
N        0.00000000       0.00000000      12.21566965        2
N        2.21566965       2.21566965      12.21566965        2
N        0.00000000       2.21566965      14.43133930        1
N        2.21566965       0.00000000      14.43133930        1
N        0.00000000       6.64700895      10.00000000        2
N        2.21566965       4.43133930      10.00000000        2
N        0.00000000       4.43133930      12.21566965        2
N        2.21566965       6.64700895      12.21566965        2
N        0.00000000       6.64700895      14.43133930        1
N        2.21566965       4.43133930      14.43133930        1
N        0.00000000      11.07834826      10.00000000        2
N        2.21566965       8.86267861      10.00000000        2
N        0.00000000       8.86267861      12.21566965        2
N        2.21566965      11.07834826      12.21566965        2
N        0.00000000      11.07834826      14.43133930        1
N        2.21566965       8.86267861      14.43133930        1
N        0.00000000      15.50968756      10.00000000        2
N        2.21566965      13.29401791      10.00000000        2
N        0.00000000      13.29401791      12.21566965        2
N        2.21566965      15.50968756      12.21566965        2
N        0.00000000      15.50968756      14.43133930        1
N        2.21566965      13.29401791      14.43133930        1
N        4.43133930       2.21566965      10.00000000        2
N        6.64700895       0.00000000      10.00000000        2
N        4.43133930       0.00000000      12.21566965        2
N        6.64700895       2.21566965      12.21566965        2
N        4.43133930       2.21566965      14.43133930        1
N        6.64700895       0.00000000      14.43133930        1
N        4.43133930       6.64700895      10.00000000        2
N        6.64700895       4.43133930      10.00000000        2
N        4.43133930       4.43133930      12.21566965        2
N        6.64700895       6.64700895      12.21566965        2
N        4.43133930       6.64700895      14.43133930        1
N        6.64700895       4.43133930      14.43133930        1
N        4.43133930      11.07834826      10.00000000        2
N        6.64700895       8.86267861      10.00000000        2
N        4.43133930       8.86267861      12.21566965        2
N        6.64700895      11.07834826      12.21566965        2
N        4.43133930      11.07834826      14.43133930        1
N        6.64700895       8.86267861      14.43133930        1
N        4.43133930      15.50968756      10.00000000        2
N        6.64700895      13.29401791      10.00000000        2
N        4.43133930      13.29401791      12.21566965        2
N        6.64700895      15.50968756      12.21566965        2
N        4.43133930      15.50968756      14.43133930        1
N        6.64700895      13.29401791      14.43133930        1
N        8.86267861       2.21566965      10.00000000        2
N       11.07834826       0.00000000      10.00000000        2
N        8.86267861       0.00000000      12.21566965        2
N       11.07834826       2.21566965      12.21566965        2
N        8.86267861       2.21566965      14.43133930        1
N       11.07834826       0.00000000      14.43133930        1
N        8.86267861       6.64700895      10.00000000        2
N       11.07834826       4.43133930      10.00000000        2
N        8.86267861       4.43133930      12.21566965        2
N       11.07834826       6.64700895      12.21566965        2
N        8.86267861       6.64700895      14.43133930        1
N       11.07834826       4.43133930      14.43133930        1
N        8.86267861      11.07834826      10.00000000        2
N       11.07834826       8.86267861      10.00000000        2
N        8.86267861       8.86267861      12.21566965        2
N       11.07834826      11.07834826      12.21566965        2
N        8.86267861      11.07834826      14.43133930        1
N       11.07834826       8.86267861      14.43133930        1
N        8.86267861      15.50968756      10.00000000        2
N       11.07834826      13.29401791      10.00000000        2
N        8.86267861      13.29401791      12.21566965        2
N       11.07834826      15.50968756      12.21566965        2
N        8.86267861      15.50968756      14.43133930        1
N       11.07834826      13.29401791      14.43133930        1
N       13.29401791       2.21566965      10.00000000        2
N       15.50968756       0.00000000      10.00000000        2
N       13.29401791       0.00000000      12.21566965        2
N       15.50968756       2.21566965      12.21566965        2
N       13.29401791       2.21566965      14.43133930        1
N       15.50968756       0.00000000      14.43133930        1
N       13.29401791       6.64700895      10.00000000        2
N       15.50968756       4.43133930      10.00000000        2
N       13.29401791       4.43133930      12.21566965        2
N       15.50968756       6.64700895      12.21566965        2
N       13.29401791       6.64700895      14.43133930        1
N       15.50968756       4.43133930      14.43133930        1
N       13.29401791      11.07834826      10.00000000        2
N       15.50968756       8.86267861      10.00000000        2
N       13.29401791       8.86267861      12.21566965        2
N       15.50968756      11.07834826      12.21566965        2
N       13.29401791      11.07834826      14.43133930        1
N       15.50968756       8.86267861      14.43133930        1
N       13.29401791      15.50968756      10.00000000        2
N       15.50968756      13.29401791      10.00000000        2
N       13.29401791      13.29401791      12.21566965        2
N       15.50968756      15.50968756      12.21566965        2
N       13.29401791      15.50968756      14.43133930        1
N       15.50968756      13.29401791      14.43133930        1
