192
Lattice="16.582702984 0.0 0.0 0.0 16.582702984 0.0 0.0 0.0 26.2185136167" Properties=species:S:1:pos:R:3:tags:I:1 pbc="T T F"
V        0.00000000       0.00000000      10.00000000        2
V        2.07283787       0.00000000      12.07283787        2
V        0.00000000       2.07283787      12.07283787        2
V        2.07283787       2.07283787      10.00000000        2
V        0.00000000       0.00000000      14.14567575        1
V        2.07283787       2.07283787      14.14567575        1
V        0.00000000       4.14567575      10.00000000        2
V        2.07283787       4.14567575      12.07283787        2
V        0.00000000       6.21851362      12.07283787        2
V        2.07283787       6.21851362      10.00000000        2
V        0.00000000       4.14567575      14.14567575        1
V        2.07283787       6.21851362      14.14567575        1
V        0.00000000       8.29135149      10.00000000        2
V        2.07283787       8.29135149      12.07283787        2
V        0.00000000      10.36418936      12.07283787        2
V        2.07283787      10.36418936      10.00000000        2
V        0.00000000       8.29135149      14.14567575        1
V        2.07283787      10.36418936      14.14567575        1
V        0.00000000      12.43702724      10.00000000        2
V        2.07283787      12.43702724      12.07283787        2
V        0.00000000      14.50986511      12.07283787        2
V        2.07283787      14.50986511      10.00000000        2
V        0.00000000      12.43702724      14.14567575        1
V        2.07283787      14.50986511      14.14567575        1
V        4.14567575       0.00000000      10.00000000        2
V        6.21851362       0.00000000      12.07283787        2
V        4.14567575       2.07283787      12.07283787        2
V        6.21851362       2.07283787      10.00000000        2
V        4.14567575       0.00000000      14.14567575        1
V        6.21851362       2.07283787      14.14567575        1
V        4.14567575       4.14567575      10.00000000        2
V        6.21851362       4.14567575      12.07283787        2
V        4.14567575       6.21851362      12.07283787        2
V        6.21851362       6.21851362      10.00000000        2
V        4.14567575       4.14567575      14.14567575        1
V        6.21851362       6.21851362      14.14567575        1
V        4.14567575       8.29135149      10.00000000        2
V        6.21851362       8.29135149      12.07283787        2
V        4.14567575      10.36418936      12.07283787        2
V        6.21851362      10.36418936      10.00000000        2
V        4.14567575       8.29135149      14.14567575        1
V        6.21851362      10.36418936      14.14567575        1
V        4.14567575      12.43702724      10.00000000        2
V        6.21851362      12.43702724      12.07283787        2
V        4.14567575      14.50986511      12.07283787        2
V        6.21851362      14.50986511      10.00000000        2
V        4.14567575      12.43702724      14.14567575        1
V        6.21851362      14.50986511      14.14567575        1
V        8.29135149       0.00000000      10.00000000        2
V       10.36418936       0.00000000      12.07283787        2
V        8.29135149       2.07283787      12.07283787        2
V       10.36418936       2.07283787      10.00000000        2
V        8.29135149       0.00000000      14.14567575        1
V       10.36418936       2.07283787      14.14567575        1
V        8.29135149       4.14567575      10.00000000        2
V       10.36418936       4.14567575      12.07283787        2
V        8.29135149       6.21851362      12.07283787        2
V       10.36418936       6.21851362      10.00000000        2
V        8.29135149       4.14567575      14.14567575        1
V       10.36418936       6.21851362      14.14567575        1
V        8.29135149       8.29135149      10.00000000        2
V       10.36418936       8.29135149      12.07283787        2
V        8.29135149      10.36418936      12.07283787        2
V       10.36418936      10.36418936      10.00000000        2
V        8.29135149       8.29135149      14.14567575        1
V       10.36418936      10.36418936      14.14567575        1
V        8.29135149      12.43702724      10.00000000        2
V       10.36418936      12.43702724      12.07283787        2
V        8.29135149      14.50986511      12.07283787        2
V       10.36418936      14.50986511      10.00000000        2
V        8.29135149      12.43702724      14.14567575        1
V       10.36418936      14.50986511      14.14567575        1
V       12.43702724       0.00000000      10.00000000        2
V       14.50986511       0.00000000      12.07283787        2
V       12.43702724       2.07283787      12.07283787        2
V       14.50986511       2.07283787      10.00000000        2
V       12.43702724       0.00000000      14.14567575        1
V       14.50986511       2.07283787      14.14567575        1
V       12.43702724       4.14567575      10.00000000        2
V       14.50986511       4.14567575      12.07283787        2
V       12.43702724       6.21851362      12.07283787        2
V       14.50986511       6.21851362      10.00000000        2
V       12.43702724       4.14567575      14.14567575        1
V       14.50986511       6.21851362      14.14567575        1
V       12.43702724       8.29135149      10.00000000        2
V       14.50986511       8.29135149      12.07283787        2
V       12.43702724      10.36418936      12.07283787        2
V       14.50986511      10.36418936      10.00000000        2
V       12.43702724       8.29135149      14.14567575        1
V       14.50986511      10.36418936      14.14567575        1
V       12.43702724      12.43702724      10.00000000        2
V       14.50986511      12.43702724      12.07283787        2
V       12.43702724      14.50986511      12.07283787        2
V       14.50986511      14.50986511      10.00000000        2
V       12.43702724      12.43702724      14.14567575        1
V       14.50986511      14.50986511      14.14567575        1
N        0.00000000       2.07283787      10.00000000        2
N        2.07283787       0.00000000      10.00000000        2
N        0.00000000       0.00000000      12.07283787        2
N        2.07283787       2.07283787      12.07283787        2
N        0.00000000       2.07283787      14.14567575        1
N        2.07283787       0.00000000      14.14567575        1
N        0.00000000       6.21851362      10.00000000        2
N        2.07283787       4.14567575      10.00000000        2
N        0.00000000       4.14567575      12.07283787        2
N        2.07283787       6.21851362      12.07283787        2
N        0.00000000       6.21851362      14.14567575        1
N        2.07283787       4.14567575      14.14567575        1
N        0.00000000      10.36418936      10.00000000        2
N        2.07283787       8.29135149      10.00000000        2
N        0.00000000       8.29135149      12.07283787        2
N        2.07283787      10.36418936      12.07283787        2
N        0.00000000      10.36418936      14.14567575        1
N        2.07283787       8.29135149      14.14567575        1
N        0.00000000      14.50986511      10.00000000        2
N        2.07283787      12.43702724      10.00000000        2
N        0.00000000      12.43702724      12.07283787        2
N        2.07283787      14.50986511      12.07283787        2
N        0.00000000      14.50986511      14.14567575        1
N        2.07283787      12.43702724      14.14567575        1
N        4.14567575       2.07283787      10.00000000        2
N        6.21851362       0.00000000      10.00000000        2
N        4.14567575       0.00000000      12.07283787        2
N        6.21851362       2.07283787      12.07283787        2
N        4.14567575       2.07283787      14.14567575        1
N        6.21851362       0.00000000      14.14567575        1
N        4.14567575       6.21851362      10.00000000        2
N        6.21851362       4.14567575      10.00000000        2
N        4.14567575       4.14567575      12.07283787        2
N        6.21851362       6.21851362      12.07283787        2
N        4.14567575       6.21851362      14.14567575        1
N        6.21851362       4.14567575      14.14567575        1
N        4.14567575      10.36418936      10.00000000        2
N        6.21851362       8.29135149      10.00000000        2
N        4.14567575       8.29135149      12.07283787        2
N        6.21851362      10.36418936      12.07283787        2
N        4.14567575      10.36418936      14.14567575        1
N        6.21851362       8.29135149      14.14567575        1
N        4.14567575      14.50986511      10.00000000        2
N        6.21851362      12.43702724      10.00000000        2
N        4.14567575      12.43702724      12.07283787        2
N        6.21851362      14.50986511      12.07283787        2
N        4.14567575      14.50986511      14.14567575        1
N        6.21851362      12.43702724      14.14567575        1
N        8.29135149       2.07283787      10.00000000        2
N       10.36418936       0.00000000      10.00000000        2
N        8.29135149       0.00000000      12.07283787        2
N       10.36418936       2.07283787      12.07283787        2
N        8.29135149       2.07283787      14.14567575        1
N       10.36418936       0.00000000      14.14567575        1
N        8.29135149       6.21851362      10.00000000        2
N       10.36418936       4.14567575      10.00000000        2
N        8.29135149       4.14567575      12.07283787        2
N       10.36418936       6.21851362      12.07283787        2
N        8.29135149       6.21851362      14.14567575        1
N       10.36418936       4.14567575      14.14567575        1
N        8.29135149      10.36418936      10.00000000        2
N       10.36418936       8.29135149      10.00000000        2
N        8.29135149       8.29135149      12.07283787        2
N       10.36418936      10.36418936      12.07283787        2
N        8.29135149      10.36418936      14.14567575        1
N       10.36418936       8.29135149      14.14567575        1
N        8.29135149      14.50986511      10.00000000        2
N       10.36418936      12.43702724      10.00000000        2
N        8.29135149      12.43702724      12.07283787        2
N       10.36418936      14.50986511      12.07283787        2
N        8.29135149      14.50986511      14.14567575        1
N       10.36418936      12.43702724      14.14567575        1
N       12.43702724       2.07283787      10.00000000        2
N       14.50986511       0.00000000      10.00000000        2
N       12.43702724       0.00000000      12.07283787        2
N       14.50986511       2.07283787      12.07283787        2
N       12.43702724       2.07283787      14.14567575        1
N       14.50986511       0.00000000      14.14567575        1
N       12.43702724       6.21851362      10.00000000        2
N       14.50986511       4.14567575      10.00000000        2
N       12.43702724       4.14567575      12.07283787        2
N       14.50986511       6.21851362      12.07283787        2
N       12.43702724       6.21851362      14.14567575        1
N       14.50986511       4.14567575      14.14567575        1
N       12.43702724      10.36418936      10.00000000        2
N       14.50986511       8.29135149      10.00000000        2
N       12.43702724       8.29135149      12.07283787        2
N       14.50986511      10.36418936      12.07283787        2
N       12.43702724      10.36418936      14.14567575        1
N       14.50986511       8.29135149      14.14567575        1
N       12.43702724      14.50986511      10.00000000        2
N       14.50986511      12.43702724      10.00000000        2
N       12.43702724      12.43702724      12.07283787        2
N       14.50986511      14.50986511      12.07283787        2
N       12.43702724      14.50986511      14.14567575        1
N       14.50986511      12.43702724      14.14567575        1
