 ANIMSTEPS   5
 CRYSTAL 
 PRIMVEC 
 12.6417492850  0.0000000000  0.0000000000
  0.0000000000 12.6417492850  0.0000000000
  0.0000000000  0.0000000000 26.3208805164
 PRIMCOORD   1
  147  1
Ti    0.0000000000    0.0000000000   10.0000000000   -0.0000000000   -0.0000000000    0.0000000000
Ti    2.1069582300    0.0000000000   12.1069582300    0.0000000000    0.0000000000    0.0000000000
Ti    0.0000000000    2.1069582300   12.1069582300    0.0000000000    0.0000000000    0.0000000000
Ti    2.1069582300    2.1069582300   10.0000000000   -0.0000000000    0.0000000000    0.0000000000
Ti    0.0030561900   -0.0003468800   14.2046400400   -0.0001979877   -0.0000861845   -0.0000441705
Ti    2.1066805100   -0.0018351100   16.2158304800    0.0001425813    0.0000413735    0.0003798045
Ti    0.0045856000    2.1051371300   16.2165616100   -0.0000219697   -0.0001378088    0.0001939983
Ti    2.1101866300    2.1037516100   14.2031487700   -0.0002910717   -0.0002191762    0.0002309563
Ti    0.0000000000    4.2139164700   10.0000000000   -0.0000000000   -0.0000000000    0.0000000000
Ti    2.1069582300    4.2139164700   12.1069582300    0.0000000000    0.0000000000    0.0000000000
Ti    0.0000000000    6.3208747000   12.1069582300   -0.0000000000    0.0000000000    0.0000000000
Ti    2.1069582300    6.3208747000   10.0000000000    0.0000000000    0.0000000000    0.0000000000
Ti   -0.0008067800    4.2162375600   14.2015746000   -0.0002305264   -0.0002475230   -0.0000255677
Ti    2.0766074200    4.2182505600   16.2120728400    0.0001578801    0.0000878681   -0.0001582752
Ti   -0.0019865400    6.3281288100   16.2108469700   -0.0005773697   -0.0002267261    0.0004020606
Ti    2.1420586700    6.3237314500   14.2072036600   -0.0002872985   -0.0002681623   -0.0011016902
Ti    0.0000000000    8.4278329400   10.0000000000    0.0000000000    0.0000000000    0.0000000000
Ti    2.1069582300    8.4278329400   12.1069582300    0.0000000000   -0.0000000000    0.0000000000
Ti    0.0000000000   10.5347911700   12.1069582300    0.0000000000   -0.0000000000    0.0000000000
Ti    2.1069582300   10.5347911700   10.0000000000   -0.0000000000   -0.0000000000    0.0000000000
Ti    0.0006388300    8.4296756800   14.2034481500   -0.0002648768    0.0000339428    0.0000406940
Ti    2.1098458100    8.4323786100   16.2255411200   -0.0007044461    0.0002917553    0.0002869386
Ti    0.0079795200   10.5331980000   16.2180485400   -0.0003177988    0.0000578004    0.0002661481
Ti    2.1097765400   10.5393215400   14.2033033100   -0.0003388981   -0.0000929703    0.0000252682
Ti    4.2139164700    0.0000000000   10.0000000000   -0.0000000000   -0.0000000000    0.0000000000
Ti    6.3208747000    0.0000000000   12.1069582300    0.0000000000    0.0000000000    0.0000000000
Ti    4.2139164700    2.1069582300   12.1069582300    0.0000000000    0.0000000000    0.0000000000
Ti    6.3208747000    2.1069582300   10.0000000000    0.0000000000   -0.0000000000    0.0000000000
Ti    4.2161836900    0.0008439000   14.1959022800   -0.0001218619   -0.0001309659    0.0002062264
Ti    6.3335806000   -0.0020935700   16.2134606000   -0.0004975480    0.0002012176    0.0004937353
Ti    4.2166707800    2.0660387400   16.2082431700   -0.0000943509    0.0001576092    0.0000875790
Ti    6.3232256000    2.1054349700   14.2004844000    0.0001268570   -0.0006186146    0.0002051566
Ti    4.2139164700    4.2139164700   10.0000000000    0.0000000000    0.0000000000    0.0000000000
Ti    6.3208747000    4.2139164700   12.1069582300   -0.0000000000    0.0000000000    0.0000000000
Ti    4.2139164700    6.3208747000   12.1069582300    0.0000000000   -0.0000000000    0.0000000000
Ti    6.3208747000    6.3208747000   10.0000000000   -0.0000000000   -0.0000000000    0.0000000000
Ti    4.2175262100    4.2426938200   14.2414797400   -0.0001051879   -0.0001545363   -0.0004467006
Ti    6.3584158500    4.1833190400   16.2213813300   -0.0002187329   -0.0002647959    0.0000605593
Ti    4.1846215700    6.3571313700   16.4750176500   -0.0006874521    0.0006204632    0.0004390545
Ti    6.2947906400    6.3203658700   14.2409585100    0.0003454552    0.0000019580   -0.0013577128
Ti    4.2139164700    8.4278329400   10.0000000000   -0.0000000000   -0.0000000000    0.0000000000
Ti    6.3208747000    8.4278329400   12.1069582300   -0.0000000000   -0.0000000000    0.0000000000
Ti    4.2139164700   10.5347911700   12.1069582300    0.0000000000    0.0000000000    0.0000000000
Ti    6.3208747000   10.5347911700   10.0000000000    0.0000000000    0.0000000000    0.0000000000
Ti    4.2138773200    8.3961341800   14.2052764800    0.0001499515    0.0002457015   -0.0008993333
Ti    6.3191310300    8.4634868100   16.2082093800    0.0007659614    0.0004654352    0.0003921785
Ti    4.2137161300   10.5436615200   16.2097732700   -0.0001232068    0.0005271298    0.0005723782
Ti    6.3228495500   10.5404115700   14.2004327200    0.0000967559    0.0000974743    0.0000487872
Ti    8.4278329400    0.0000000000   10.0000000000    0.0000000000    0.0000000000    0.0000000000
Ti   10.5347911700    0.0000000000   12.1069582300    0.0000000000    0.0000000000    0.0000000000
Ti    8.4278329400    2.1069582300   12.1069582300   -0.0000000000    0.0000000000    0.0000000000
Ti   10.5347911700    2.1069582300   10.0000000000   -0.0000000000   -0.0000000000    0.0000000000
Ti    8.4337207200   -0.0012224700   14.2046224300   -0.0002302030    0.0000231660   -0.0001232131
Ti   10.5397586800    0.0018601600   16.2183778800   -0.0001548482   -0.0003386666   -0.0001065063
Ti    8.4401763800    2.1018911900   16.2159469100   -0.0001363640   -0.0001431285    0.0002233112
Ti   10.5405165600    2.1060672700   14.2046328900   -0.0002312728   -0.0000215407   -0.0001731063
Ti    8.4278329400    4.2139164700   10.0000000000    0.0000000000   -0.0000000000    0.0000000000
Ti   10.5347911700    4.2139164700   12.1069582300    0.0000000000    0.0000000000    0.0000000000
Ti    8.4278329400    6.3208747000   12.1069582300   -0.0000000000    0.0000000000    0.0000000000
Ti   10.5347911700    6.3208747000   10.0000000000    0.0000000000    0.0000000000    0.0000000000
Ti    8.4335447400    4.2150856800   14.2001986800    0.0005383166   -0.0001361677    0.0000722486
Ti   10.5430012600    4.2089830000   16.2139210100   -0.0002056004   -0.0000052597    0.0003088571
Ti    8.4747565400    6.3246002600   16.2038684600    0.0007131352   -0.0000193098    0.0003729674
Ti   10.5400454100    6.3228455400   14.1949515400   -0.0003221527   -0.0000189901    0.0002992545
Ti    8.4278329400    8.4278329400   10.0000000000   -0.0000000000    0.0000000000    0.0000000000
Ti   10.5347911700    8.4278329400   12.1069582300    0.0000000000    0.0000000000    0.0000000000
Ti    8.4278329400   10.5347911700   12.1069582300   -0.0000000000   -0.0000000000    0.0000000000
Ti   10.5347911700   10.5347911700   10.0000000000    0.0000000000    0.0000000000    0.0000000000
Ti    8.4346093100    8.4295646000   14.2023141500    0.0003655212    0.0000014769    0.0000939684
Ti   10.5426526800    8.4336681200   16.2155298300   -0.0001535591    0.0000789747    0.0002986893
Ti    8.4352206500   10.5354018300   16.2161770400    0.0002297120   -0.0000862545    0.0001583348
Ti   10.5394603400   10.5361710700   14.2052879800   -0.0000735850    0.0000048810   -0.0002454099
 N    0.0000000000    2.1069582300   10.0000000000   -0.0000000000    0.0000000000   -0.0000000000
 N    2.1069582300    0.0000000000   10.0000000000   -0.0000000000   -0.0000000000   -0.0000000000
 N    0.0000000000    0.0000000000   12.1069582300    0.0000000000   -0.0000000000   -0.0000000000
 N    2.1069582300    2.1069582300   12.1069582300    0.0000000000    0.0000000000   -0.0000000000
 N    0.0032103100    2.1080290400   14.2251745300   -0.0002293896   -0.0000901341    0.0002215805
 N    2.1103452900    0.0002988600   14.2237022000   -0.0001706950   -0.0004498627    0.0004223367
 N    0.0039907300    0.0004085600   16.3860640700    0.0000268275   -0.0002388852    0.0000166068
 N    2.1090297800    2.1040952100   16.3946218700   -0.0004674059   -0.0003023295   -0.0000398076
 N    0.0000000000    6.3208747000   10.0000000000   -0.0000000000   -0.0000000000   -0.0000000000
 N    2.1069582300    4.2139164700   10.0000000000    0.0000000000   -0.0000000000   -0.0000000000
 N    0.0000000000    4.2139164700   12.1069582300    0.0000000000    0.0000000000   -0.0000000000
 N    2.1069582300    6.3208747000   12.1069582300    0.0000000000   -0.0000000000   -0.0000000000
 N    0.0115503500    6.3232944700   14.2255807100    0.0001237163   -0.0000545058    0.0001837328
 N    2.1075504800    4.2140939100   14.2286018700    0.0001697703    0.0001404316    0.0001660489
 N    0.0041589400    4.2145878400   16.3857323300   -0.0001326957   -0.0001543439   -0.0001261110
 N    2.0844354400    6.3232415500   16.3369883100    0.0007061984    0.0003273197    0.0007473386
 N    0.0000000000   10.5347911700   10.0000000000    0.0000000000   -0.0000000000   -0.0000000000
 N    2.1069582300    8.4278329400   10.0000000000   -0.0000000000    0.0000000000   -0.0000000000
 N    0.0000000000    8.4278329400   12.1069582300    0.0000000000    0.0000000000   -0.0000000000
 N    2.1069582300   10.5347911700   12.1069582300    0.0000000000   -0.0000000000   -0.0000000000
 N    0.0041498100   10.5352154600   14.2269986200   -0.0001056220   -0.0001038508    0.0001068985
 N    2.1074088000    8.4313331500   14.2319784900    0.0001602581   -0.0001844512   -0.0001769008
 N    0.0043985300    8.4311895300   16.3828811400   -0.0004717660   -0.0000317408    0.0002368068
 N    2.1108460900   10.5375393200   16.3830121800   -0.0003827478    0.0000486166    0.0001981202
 N    4.2139164700    2.1069582300   10.0000000000    0.0000000000    0.0000000000   -0.0000000000
 N    6.3208747000    0.0000000000   10.0000000000    0.0000000000   -0.0000000000   -0.0000000000
 N    4.2139164700    0.0000000000   12.1069582300    0.0000000000    0.0000000000   -0.0000000000
 N    6.3208747000    2.1069582300   12.1069582300   -0.0000000000    0.0000000000   -0.0000000000
 N    4.2165382700    2.1136868000   14.2296244000   -0.0000942450    0.0002198314    0.0004085998
 N    6.3247151100    0.0005418000   14.2223070500   -0.0001192177   -0.0001926043    0.0004383649
 N    4.2193329000   -0.0013961000   16.3882458500   -0.0004526724    0.0000387298   -0.0005592687
 N    6.3305391100    2.1028009700   16.3909203900    0.0001983343   -0.0006065456    0.0003533871
 N    4.2139164700    6.3208747000   10.0000000000    0.0000000000   -0.0000000000   -0.0000000000
 N    6.3208747000    4.2139164700   10.0000000000   -0.0000000000    0.0000000000   -0.0000000000
 N    4.2139164700    4.2139164700   12.1069582300    0.0000000000    0.0000000000   -0.0000000000
 N    6.3208747000    6.3208747000   12.1069582300   -0.0000000000   -0.0000000000   -0.0000000000
 N    4.2182126700    6.3196254300   14.2659472400   -0.0001699859    0.0002283890   -0.0007632337
 N    6.3248795300    4.2129330900   14.2375688000    0.0003116472   -0.0000044028   -0.0004632426
 N    4.2120966100    4.1867893800   16.4198031400   -0.0000534896   -0.0000989045   -0.0001298541
 N    6.3572883100    6.3285540000   16.4084228500   -0.0010518230    0.0003559151    0.0004174604
 N    4.2139164700   10.5347911700   10.0000000000    0.0000000000    0.0000000000   -0.0000000000
 N    6.3208747000    8.4278329400   10.0000000000    0.0000000000   -0.0000000000   -0.0000000000
 N    4.2139164700    8.4278329400   12.1069582300    0.0000000000   -0.0000000000   -0.0000000000
 N    6.3208747000   10.5347911700   12.1069582300    0.0000000000   -0.0000000000   -0.0000000000
 N    4.2159967000   10.5283053600   14.2252246000   -0.0001628528   -0.0004270596    0.0000085808
 N    6.3235444800    8.4311752200   14.2270450100    0.0000344604   -0.0002753380   -0.0002511098
 N    4.2170847100    8.4576807100   16.3324684700   -0.0001685957   -0.0008395002    0.0010136416
 N    6.3264219500   10.5360896700   16.3831937500    0.0000520526    0.0003597000    0.0002164973
 N    8.4278329400    2.1069582300   10.0000000000    0.0000000000   -0.0000000000   -0.0000000000
 N   10.5347911700    0.0000000000   10.0000000000   -0.0000000000   -0.0000000000   -0.0000000000
 N    8.4278329400    0.0000000000   12.1069582300    0.0000000000    0.0000000000   -0.0000000000
 N   10.5347911700    2.1069582300   12.1069582300    0.0000000000   -0.0000000000   -0.0000000000
 N    8.4330441600    2.1060315400   14.2241129100   -0.0001055873   -0.0000374885    0.0001855385
 N   10.5393431000    0.0003521200   14.2264976600   -0.0002643633   -0.0000345741    0.0000544131
 N    8.4362591800   -0.0005638400   16.3869885100   -0.0001434515   -0.0002378384   -0.0000158642
 N   10.5420460500    2.1053084400   16.3872803300   -0.0000246902   -0.0000432272   -0.0000335138
 N    8.4278329400    6.3208747000   10.0000000000   -0.0000000000   -0.0000000000   -0.0000000000
 N   10.5347911700    4.2139164700   10.0000000000    0.0000000000   -0.0000000000   -0.0000000000
 N    8.4278329400    4.2139164700   12.1069582300   -0.0000000000    0.0000000000   -0.0000000000
 N   10.5347911700    6.3208747000   12.1069582300    0.0000000000    0.0000000000   -0.0000000000
 N    8.4251895000    6.3225221700   14.2270029500   -0.0001914520   -0.0000435912    0.0006866687
 N   10.5390725400    4.2146988800   14.2226927700   -0.0001514033   -0.0000540366    0.0002722702
 N    8.4397523200    4.2117476900   16.3913708800   -0.0002013777   -0.0004802448    0.0002170475
 N   10.5422959700    6.3232124700   16.3865974100    0.0001374774    0.0000514907   -0.0003033998
 N    8.4278329400   10.5347911700   10.0000000000   -0.0000000000    0.0000000000   -0.0000000000
 N   10.5347911700    8.4278329400   10.0000000000    0.0000000000    0.0000000000   -0.0000000000
 N    8.4278329400    8.4278329400   12.1069582300   -0.0000000000   -0.0000000000   -0.0000000000
 N   10.5347911700   10.5347911700   12.1069582300    0.0000000000    0.0000000000   -0.0000000000
 N    8.4310783500   10.5361137200   14.2250234300   -0.0000709776    0.0000451115    0.0001552631
 N   10.5391394100    8.4287376900   14.2238420400    0.0001238881    0.0000825616    0.0002769378
 N    8.4361359100    8.4314713000   16.3924062400    0.0001844436    0.0004045182    0.0002986682
 N   10.5408103900   10.5372176500   16.3866950200    0.0000136456   -0.0002255517   -0.0001582115
 S    4.1780401100    6.3978257200   18.9120250900   -0.0005654009    0.0000992718    0.0013370890
Li    6.3128925300    6.3636423100   18.3617862100   -0.0006175252    0.0004959150    0.0004270323
Li    4.1947460200    4.2588797300   18.3813891300   -0.0009957350   -0.0003709370   -0.0010510214
 PRIMCOORD   2
  147  1
Ti    0.0000000000    0.0000000000   10.0000000000   -0.0000000000   -0.0000000000    0.0000000000
Ti    2.1069582300    0.0000000000   12.1069582300   -0.0000000000   -0.0000000000    0.0000000000
Ti    0.0000000000    2.1069582300   12.1069582300    0.0000000000    0.0000000000    0.0000000000
Ti    2.1069582300    2.1069582300   10.0000000000   -0.0000000000    0.0000000000    0.0000000000
Ti   -0.0009831449   -0.0019071732   14.2062868545   -0.0001503964   -0.0001726234   -0.0001099706
Ti    2.1005439588   -0.0037698797   16.2224085669   -0.0002584010   -0.0002083256   -0.0002719713
Ti   -0.0014896992    2.1018178827   16.2210579862   -0.0001682868   -0.0002799487   -0.0002739640
Ti    2.0997944800    2.0948179042   14.2072684116   -0.0000876361   -0.0000869843   -0.0004367359
Ti    0.0000000000    4.2139164700   10.0000000000   -0.0000000000   -0.0000000000    0.0000000000
Ti    2.1069582300    4.2139164700   12.1069582300    0.0000000000   -0.0000000000    0.0000000000
Ti    0.0000000000    6.3208747000   12.1069582300   -0.0000000000    0.0000000000    0.0000000000
Ti    2.1069582300    6.3208747000   10.0000000000    0.0000000000    0.0000000000    0.0000000000
Ti   -0.0155350982    4.2135309478   14.1951717719   -0.0000422261   -0.0000598554    0.0000015109
Ti    2.0456286921    4.2217849371   16.1800016042   -0.0006591855   -0.0009331816   -0.0000183660
Ti   -0.0171890105    6.3270874646   16.2081172338   -0.0000684859   -0.0001894110   -0.0000159049
Ti    2.1349522359    6.3259429413   14.1985524237   -0.0000899341   -0.0002559558    0.0001260713
Ti    0.0000000000    8.4278329400   10.0000000000    0.0000000000    0.0000000000    0.0000000000
Ti    2.1069582300    8.4278329400   12.1069582300    0.0000000000   -0.0000000000    0.0000000000
Ti    0.0000000000   10.5347911700   12.1069582300    0.0000000000   -0.0000000000    0.0000000000
Ti    2.1069582300   10.5347911700   10.0000000000   -0.0000000000   -0.0000000000    0.0000000000
Ti   -0.0059540441    8.4290122305   14.2034047981   -0.0000389159   -0.0001468897    0.0000112415
Ti    2.1025988625    8.4235260262   16.2275464575   -0.0001498048   -0.0001254359    0.0000147859
Ti   -0.0001143785   10.5302747527   16.2200821639   -0.0000797546   -0.0001994083   -0.0000292352
Ti    2.1056734687   10.5361301315   14.2077903913   -0.0000826926   -0.0001768826   -0.0000646172
Ti    4.2139164700    0.0000000000   10.0000000000   -0.0000000000   -0.0000000000    0.0000000000
Ti    6.3208747000    0.0000000000   12.1069582300    0.0000000000   -0.0000000000    0.0000000000
Ti    4.2139164700    2.1069582300   12.1069582300   -0.0000000000   -0.0000000000    0.0000000000
Ti    6.3208747000    2.1069582300   10.0000000000    0.0000000000   -0.0000000000    0.0000000000
Ti    4.2115559428   -0.0131001618   14.1927185258   -0.0000606385   -0.0000126276   -0.0000079362
Ti    6.3264108092   -0.0116563688   16.2144393830   -0.0000915608   -0.0000833639    0.0000025606
Ti    4.2161326220    2.0501477057   16.1875823420   -0.0006303672   -0.0005607907   -0.0000089727
Ti    6.3216704033    2.0993838184   14.1991990342   -0.0001570633   -0.0000345397    0.0000318490
Ti    4.2139164700    4.2139164700   10.0000000000    0.0000000000    0.0000000000    0.0000000000
Ti    6.3208747000    4.2139164700   12.1069582300   -0.0000000000    0.0000000000    0.0000000000
Ti    4.2139164700    6.3208747000   12.1069582300    0.0000000000   -0.0000000000    0.0000000000
Ti    6.3208747000    6.3208747000   10.0000000000   -0.0000000000   -0.0000000000    0.0000000000
Ti    4.2086634499    4.2337244507   14.2196340397   -0.0002039969   -0.0001008769    0.0006484465
Ti    6.3225255036    4.1721879977   16.2252025023    0.0003951177   -0.0001863318    0.0000584256
Ti    4.1500380764    6.2929291540   16.4893908170   -0.0001750565    0.0003946915    0.0003031095
Ti    6.2855916451    6.3144592649   14.2494720768   -0.0000531497   -0.0001185902   -0.0000117557
Ti    4.2139164700    8.4278329400   10.0000000000   -0.0000000000   -0.0000000000    0.0000000000
Ti    6.3208747000    8.4278329400   12.1069582300   -0.0000000000   -0.0000000000    0.0000000000
Ti    4.2139164700   10.5347911700   12.1069582300   -0.0000000000    0.0000000000    0.0000000000
Ti    6.3208747000   10.5347911700   10.0000000000    0.0000000000    0.0000000000    0.0000000000
Ti    4.2100899447    8.3886742377   14.2148045755   -0.0001120839   -0.0001314181    0.0000011348
Ti    6.3059692020    8.4471076043   16.2227623960   -0.0000276598   -0.0000995378   -0.0000659222
Ti    4.2058956175   10.5348612454   16.2165260183   -0.0001514105   -0.0001373217   -0.0000392011
Ti    6.3176035571   10.5301913573   14.2046802227   -0.0000611415   -0.0000522072   -0.0000007570
Ti    8.4278329400    0.0000000000   10.0000000000    0.0000000000    0.0000000000    0.0000000000
Ti   10.5347911700    0.0000000000   12.1069582300   -0.0000000000   -0.0000000000    0.0000000000
Ti    8.4278329400    2.1069582300   12.1069582300   -0.0000000000    0.0000000000    0.0000000000
Ti   10.5347911700    2.1069582300   10.0000000000   -0.0000000000   -0.0000000000    0.0000000000
Ti    8.4286090495   -0.0042220803   14.2045211327   -0.0000502135   -0.0000673093   -0.0000215749
Ti   10.5319619975   -0.0018656139   16.2191613796   -0.0001196374   -0.0001197257   -0.0000320969
Ti    8.4277193532    2.0985667257   16.2180043952   -0.0000805326   -0.0001585814   -0.0000240640
Ti   10.5354827169    2.1039007061   14.2069050611   -0.0001237791   -0.0000483781   -0.0000744793
Ti    8.4278329400    4.2139164700   10.0000000000   -0.0000000000   -0.0000000000    0.0000000000
Ti   10.5347911700    4.2139164700   12.1069582300   -0.0000000000   -0.0000000000    0.0000000000
Ti    8.4278329400    6.3208747000   12.1069582300   -0.0000000000   -0.0000000000    0.0000000000
Ti   10.5347911700    6.3208747000   10.0000000000    0.0000000000    0.0000000000    0.0000000000
Ti    8.4240680148    4.2133767722   14.2069240728   -0.0000334604   -0.0000638717   -0.0000054505
Ti   10.5315947015    4.2067676757   16.2165115093   -0.0000921069   -0.0001725236   -0.0000529457
Ti    8.4547470230    6.3163920429   16.2168969983    0.0000217173   -0.0000478051   -0.0000707978
Ti   10.5265006274    6.3219552464   14.1981905162    0.0000142445   -0.0001190608    0.0000216197
Ti    8.4278329400    8.4278329400   10.0000000000   -0.0000000000    0.0000000000    0.0000000000
Ti   10.5347911700    8.4278329400   12.1069582300   -0.0000000000   -0.0000000000    0.0000000000
Ti    8.4278329400   10.5347911700   12.1069582300   -0.0000000000   -0.0000000000    0.0000000000
Ti   10.5347911700   10.5347911700   10.0000000000    0.0000000000    0.0000000000    0.0000000000
Ti    8.4262588281    8.4234260796   14.2067165389   -0.0000244627   -0.0001133149    0.0000330923
Ti   10.5323904573    8.4311931119   16.2174693766   -0.0000784468   -0.0001773945    0.0000165213
Ti    8.4278154298   10.5305783048   16.2187447912   -0.0000794882   -0.0001689175    0.0000143597
Ti   10.5342657109   10.5340075045   14.2054246595   -0.0000263914   -0.0000855842   -0.0000054852
 N    0.0000000000    2.1069582300   10.0000000000    0.0000000000    0.0000000000   -0.0000000000
 N    2.1069582300    0.0000000000   10.0000000000   -0.0000000000    0.0000000000   -0.0000000000
 N    0.0000000000    0.0000000000   12.1069582300   -0.0000000000   -0.0000000000   -0.0000000000
 N    2.1069582300    2.1069582300   12.1069582300   -0.0000000000    0.0000000000   -0.0000000000
 N   -0.0041421527    2.1057051487   14.2270699739   -0.0001245470   -0.0001552336   -0.0001828029
 N    2.1058773509   -0.0054328191   14.2273078206   -0.0001217130   -0.0001473814   -0.0001813193
 N   -0.0030606484   -0.0023628043   16.3887389188   -0.0001532744   -0.0002279705   -0.0000998967
 N    2.1035424858    2.1066097618   16.4344075441   -0.0006436471   -0.0008472284   -0.0024629837
 N    0.0000000000    6.3208747000   10.0000000000   -0.0000000000    0.0000000000   -0.0000000000
 N    2.1069582300    4.2139164700   10.0000000000    0.0000000000   -0.0000000000   -0.0000000000
 N    0.0000000000    4.2139164700   12.1069582300   -0.0000000000   -0.0000000000   -0.0000000000
 N    2.1069582300    6.3208747000   12.1069582300    0.0000000000   -0.0000000000   -0.0000000000
 N    0.0012215369    6.3225012038   14.2237389158   -0.0000337296   -0.0001174120    0.0000489978
 N    2.0970482254    4.2106308209   14.2119260262   -0.0000992464   -0.0001652741    0.0003472581
 N   -0.0146577739    4.2142166220   16.3811486132   -0.0001169039   -0.0003471000   -0.0000414119
 N    2.0648689602    6.3162883492   16.3273178895   -0.0001080636   -0.0003482016    0.0001781073
 N    0.0000000000   10.5347911700   10.0000000000    0.0000000000   -0.0000000000   -0.0000000000
 N    2.1069582300    8.4278329400   10.0000000000   -0.0000000000    0.0000000000   -0.0000000000
 N    0.0000000000    8.4278329400   12.1069582300    0.0000000000    0.0000000000   -0.0000000000
 N    2.1069582300   10.5347911700   12.1069582300   -0.0000000000   -0.0000000000   -0.0000000000
 N   -0.0006439701   10.5336588453   14.2285946970   -0.0000604126   -0.0001234483   -0.0000181936
 N    2.1026781190    8.4290615528   14.2333155302   -0.0000866512   -0.0001401778    0.0000136967
 N   -0.0065545530    8.4287060550   16.3850702518   -0.0000828615   -0.0001887433    0.0000192307
 N    2.1029783423   10.5324171462   16.3865520987   -0.0001461622   -0.0002700050   -0.0000186616
 N    4.2139164700    2.1069582300   10.0000000000   -0.0000000000    0.0000000000   -0.0000000000
 N    6.3208747000    0.0000000000   10.0000000000    0.0000000000   -0.0000000000   -0.0000000000
 N    4.2139164700    0.0000000000   12.1069582300   -0.0000000000   -0.0000000000   -0.0000000000
 N    6.3208747000    2.1069582300   12.1069582300   -0.0000000000    0.0000000000   -0.0000000000
 N    4.2103696312    2.1039639195   14.2193424692   -0.0000975457   -0.0000447962    0.0002118151
 N    6.3207491759   -0.0069474260   14.2237133263   -0.0000633880   -0.0000688129   -0.0000030988
 N    4.2124991973   -0.0156846986   16.3842945506   -0.0002129632   -0.0001300531    0.0000407116
 N    6.3173911257    2.0919173956   16.3899579805   -0.0000778040   -0.0001689371    0.0001290309
 N    4.2139164700    6.3208747000   10.0000000000    0.0000000000    0.0000000000   -0.0000000000
 N    6.3208747000    4.2139164700   10.0000000000    0.0000000000    0.0000000000   -0.0000000000
 N    4.2139164700    4.2139164700   12.1069582300    0.0000000000    0.0000000000   -0.0000000000
 N    6.3208747000    6.3208747000   12.1069582300   -0.0000000000   -0.0000000000   -0.0000000000
 N    4.2091224871    6.3121823010   14.2678731779   -0.0000781938   -0.0001300292    0.0000345264
 N    6.3165763158    4.2070542875   14.2362387472   -0.0000949426   -0.0001052151    0.0000995550
 N    4.1840678315    4.1518609355   16.3633494268   -0.0003557642   -0.0000415560    0.0019863367
 N    6.3289345221    6.3097140024   16.4571976308    0.0000258552   -0.0001186155   -0.0002818340
 N    4.2139164700   10.5347911700   10.0000000000    0.0000000000    0.0000000000   -0.0000000000
 N    6.3208747000    8.4278329400   10.0000000000    0.0000000000   -0.0000000000   -0.0000000000
 N    4.2139164700    8.4278329400   12.1069582300    0.0000000000   -0.0000000000   -0.0000000000
 N    6.3208747000   10.5347911700   12.1069582300   -0.0000000000   -0.0000000000   -0.0000000000
 N    4.2113782857   10.5181332300   14.2294270335   -0.0000511668   -0.0001152339   -0.0000009439
 N    6.3165098017    8.4225123945   14.2365719174   -0.0000517548   -0.0000558050   -0.0000228219
 N    4.2034203159    8.4281613644   16.3715002485   -0.0000553646   -0.0000101080   -0.0002655928
 N    6.3184843504   10.5249858825   16.3887058201   -0.0000988903   -0.0001253506    0.0000289753
 N    8.4278329400    2.1069582300   10.0000000000    0.0000000000   -0.0000000000   -0.0000000000
 N   10.5347911700    0.0000000000   10.0000000000   -0.0000000000    0.0000000000   -0.0000000000
 N    8.4278329400    0.0000000000   12.1069582300    0.0000000000   -0.0000000000   -0.0000000000
 N   10.5347911700    2.1069582300   12.1069582300   -0.0000000000   -0.0000000000   -0.0000000000
 N    8.4283555105    2.1034441556   14.2262465619   -0.0000880330   -0.0000908298   -0.0000232353
 N   10.5342889040   -0.0018041256   14.2274328396   -0.0000864133   -0.0000760573   -0.0000360803
 N    8.4288445872   -0.0059006623   16.3884637193   -0.0001099100   -0.0001442598    0.0000373065
 N   10.5333393939    2.1023390362   16.3880673809   -0.0002115130   -0.0002062710   -0.0000453721
 N    8.4278329400    6.3208747000   10.0000000000   -0.0000000000    0.0000000000   -0.0000000000
 N   10.5347911700    4.2139164700   10.0000000000    0.0000000000   -0.0000000000   -0.0000000000
 N    8.4278329400    4.2139164700   12.1069582300   -0.0000000000    0.0000000000   -0.0000000000
 N   10.5347911700    6.3208747000   12.1069582300   -0.0000000000    0.0000000000   -0.0000000000
 N    8.4140103801    6.3184801217   14.2349551146   -0.0000414213   -0.0000837108    0.0000330203
 N   10.5277817400    4.2134016138   14.2247090110   -0.0000557699   -0.0000850096    0.0000143862
 N    8.4231560440    4.2041192575   16.3951586328   -0.0001353406   -0.0001424099    0.0000467786
 N   10.5259386068    6.3204368612   16.3882302281   -0.0000749874   -0.0001656489   -0.0000068088
 N    8.4278329400   10.5347911700   10.0000000000    0.0000000000    0.0000000000   -0.0000000000
 N   10.5347911700    8.4278329400   10.0000000000    0.0000000000    0.0000000000   -0.0000000000
 N    8.4278329400    8.4278329400   12.1069582300   -0.0000000000   -0.0000000000   -0.0000000000
 N   10.5347911700   10.5347911700   12.1069582300   -0.0000000000    0.0000000000   -0.0000000000
 N    8.4259433604   10.5318439912   14.2275574621   -0.0000508765   -0.0000732702    0.0000007777
 N   10.5321942707    8.4273704712   14.2259299612   -0.0000373732   -0.0000946277    0.0000334113
 N    8.4253746167    8.4267609056   16.3950454746   -0.0000599927   -0.0001245388   -0.0000034406
 N   10.5331409778   10.5339593505   16.3874729795   -0.0000999168   -0.0001511676    0.0000056135
 S    4.0249853945    5.9755379570   18.9241792474    0.0011366999    0.0079266265    0.0014819473
Li    6.1540161908    6.2554838470   18.4206025693    0.0013002929    0.0005619167   -0.0003624755
Li    3.6822675963    3.8412783480   18.3679480119    0.0155075945    0.0122613424   -0.0023248214
 PRIMCOORD   3
  147  1
Ti    0.0000000000    0.0000000000   10.0000000000    0.0000000000    0.0000000000    0.0000000000
Ti    2.1069582300    0.0000000000   12.1069582300   -0.0000000000    0.0000000000    0.0000000000
Ti    0.0000000000    2.1069582300   12.1069582300    0.0000000000    0.0000000000    0.0000000000
Ti    2.1069582300    2.1069582300   10.0000000000   -0.0000000000    0.0000000000    0.0000000000
Ti    0.0049016053    0.0053598406   14.2093854773   -0.0000243177   -0.0000330353    0.0000120021
Ti    2.1103655936    0.0034825766   16.2335478558   -0.0000723999    0.0002882052   -0.0000741238
Ti    0.0057919732    2.1150448092   16.2321617333    0.0003627557   -0.0000661132   -0.0000463197
Ti    2.1035263853    2.1010861836   14.2266073088   -0.0001181726   -0.0001036293   -0.0006665223
Ti    0.0000000000    4.2139164700   10.0000000000    0.0000000000   -0.0000000000    0.0000000000
Ti    2.1069582300    4.2139164700   12.1069582300   -0.0000000000    0.0000000000    0.0000000000
Ti    0.0000000000    6.3208747000   12.1069582300   -0.0000000000    0.0000000000    0.0000000000
Ti    2.1069582300    6.3208747000   10.0000000000    0.0000000000    0.0000000000    0.0000000000
Ti   -0.0119080630    4.2159584919   14.1966369128   -0.0000806709   -0.0000303337   -0.0000822037
Ti    2.0698546798    4.2570829948   16.1712159096   -0.0007860445   -0.0004877494   -0.0005252254
Ti   -0.0148444110    6.3318276824   16.2068716790    0.0000214531    0.0000051826   -0.0000011043
Ti    2.1358425067    6.3334759802   14.1935393295   -0.0001907296   -0.0000130864    0.0000272691
Ti    0.0000000000    8.4278329400   10.0000000000    0.0000000000    0.0000000000    0.0000000000
Ti    2.1069582300    8.4278329400   12.1069582300    0.0000000000   -0.0000000000    0.0000000000
Ti    0.0000000000   10.5347911700   12.1069582300    0.0000000000    0.0000000000    0.0000000000
Ti    2.1069582300   10.5347911700   10.0000000000   -0.0000000000   -0.0000000000    0.0000000000
Ti   -0.0052592111    8.4324798024   14.2028208490    0.0000039316   -0.0000305589    0.0000113919
Ti    2.1057495941    8.4278240845   16.2254212133   -0.0000933535   -0.0001219891    0.0000613733
Ti    0.0025925467   10.5370715722   16.2208147885    0.0000065684   -0.0000643190    0.0000338291
Ti    2.1074962784   10.5429870774   14.2097152344   -0.0000342085   -0.0000791463    0.0000854210
Ti    4.2139164700    0.0000000000   10.0000000000   -0.0000000000    0.0000000000    0.0000000000
Ti    6.3208747000    0.0000000000   12.1069582300    0.0000000000   -0.0000000000    0.0000000000
Ti    4.2139164700    2.1069582300   12.1069582300   -0.0000000000   -0.0000000000    0.0000000000
Ti    6.3208747000    2.1069582300   10.0000000000    0.0000000000    0.0000000000    0.0000000000
Ti    4.2128017866   -0.0112354747   14.1928037186   -0.0000201942   -0.0001231170   -0.0000440248
Ti    6.3297006509   -0.0089517035   16.2134315481   -0.0000173903   -0.0000475991    0.0000184940
Ti    4.2387332546    2.0700526337   16.1814857654   -0.0004935895   -0.0005249903   -0.0004959007
Ti    6.3269210487    2.1014215859   14.1965631602   -0.0000103334   -0.0000136544   -0.0000066644
Ti    4.2139164700    4.2139164700   10.0000000000   -0.0000000000    0.0000000000    0.0000000000
Ti    6.3208747000    4.2139164700   12.1069582300   -0.0000000000    0.0000000000    0.0000000000
Ti    4.2139164700    6.3208747000   12.1069582300    0.0000000000   -0.0000000000   -0.0000000000
Ti    6.3208747000    6.3208747000   10.0000000000   -0.0000000000   -0.0000000000    0.0000000000
Ti    4.2141836328    4.2359533513   14.1943022318   -0.0000980404   -0.0002892914    0.0000852394
Ti    6.3096052631    4.1797071860   16.2226992277   -0.0000856949   -0.0003371518    0.0002165746
Ti    4.1561406793    6.2816745509   16.4695084642   -0.0005062897   -0.0005868293   -0.0025765028
Ti    6.2894398155    6.3187454901   14.2501438605   -0.0000207755   -0.0001635727    0.0003221240
Ti    4.2139164700    8.4278329400   10.0000000000   -0.0000000000   -0.0000000000    0.0000000000
Ti    6.3208747000    8.4278329400   12.1069582300   -0.0000000000   -0.0000000000    0.0000000000
Ti    4.2139164700   10.5347911700   12.1069582300   -0.0000000000    0.0000000000    0.0000000000
Ti    6.3208747000   10.5347911700   10.0000000000    0.0000000000    0.0000000000    0.0000000000
Ti    4.2128999277    8.3945442533   14.2137506181   -0.0000542819   -0.0000651230    0.0001568898
Ti    6.3077968420    8.4485305537   16.2259868105   -0.0000629936   -0.0001830793    0.0001767638
Ti    4.2100059915   10.5394162981   16.2167617937   -0.0001222551   -0.0002304550    0.0000486816
Ti    6.3198890134   10.5311742801   14.2047243662   -0.0000424906   -0.0001275397    0.0000562203
Ti    8.4278329400    0.0000000000   10.0000000000    0.0000000000    0.0000000000    0.0000000000
Ti   10.5347911700    0.0000000000   12.1069582300    0.0000000000    0.0000000000    0.0000000000
Ti    8.4278329400    2.1069582300   12.1069582300   -0.0000000000    0.0000000000    0.0000000000
Ti   10.5347911700    2.1069582300   10.0000000000   -0.0000000000   -0.0000000000    0.0000000000
Ti    8.4314412557   -0.0014982077   14.2044660375   -0.0000590890   -0.0000064829   -0.0000018020
Ti   10.5370966548    0.0027303928   16.2201193092   -0.0000688413    0.0000241472    0.0000198330
Ti    8.4306937051    2.1055802518   16.2180726576   -0.0001193635   -0.0000938196    0.0000350927
Ti   10.5416665907    2.1068069901   14.2091211117   -0.0000236727   -0.0000075040    0.0000497067
Ti    8.4278329400    4.2139164700   10.0000000000   -0.0000000000   -0.0000000000    0.0000000000
Ti   10.5347911700    4.2139164700   12.1069582300   -0.0000000000   -0.0000000000    0.0000000000
Ti    8.4278329400    6.3208747000   12.1069582300   -0.0000000000   -0.0000000000    0.0000000000
Ti   10.5347911700    6.3208747000   10.0000000000    0.0000000000    0.0000000000    0.0000000000
Ti    8.4273057554    4.2158122358   14.2072335104   -0.0001798373   -0.0000427795    0.0000478526
Ti   10.5367919891    4.2131323107   16.2172243355   -0.0000660086   -0.0000593297    0.0000028253
Ti    8.4535596219    6.3168894427   16.2196915957   -0.0003303481   -0.0001180224    0.0001982667
Ti   10.5268259213    6.3245802843   14.1983804044   -0.0001089746   -0.0000424625    0.0000441528
Ti    8.4278329400    8.4278329400   10.0000000000   -0.0000000000   -0.0000000000    0.0000000000
Ti   10.5347911700    8.4278329400   12.1069582300   -0.0000000000    0.0000000000    0.0000000000
Ti    8.4278329400   10.5347911700   12.1069582300   -0.0000000000   -0.0000000000    0.0000000000
Ti   10.5347911700   10.5347911700   10.0000000000    0.0000000000    0.0000000000    0.0000000000
Ti    8.4275658367    8.4248845164   14.2073589262   -0.0001168447   -0.0001119491    0.0000497460
Ti   10.5349254644    8.4356712148   16.2173337947   -0.0001031566   -0.0001041769    0.0000693779
Ti    8.4312905155   10.5348327491   16.2190402190   -0.0000629301   -0.0000559198    0.0000603475
Ti   10.5363069018   10.5366080743   14.2056260317   -0.0000255229   -0.0000317711    0.0000347129
 N    0.0000000000    2.1069582300   10.0000000000    0.0000000000    0.0000000000   -0.0000000000
 N    2.1069582300    0.0000000000   10.0000000000    0.0000000000    0.0000000000   -0.0000000000
 N    0.0000000000    0.0000000000   12.1069582300    0.0000000000    0.0000000000   -0.0000000000
 N    2.1069582300    2.1069582300   12.1069582300   -0.0000000000    0.0000000000   -0.0000000000
 N    0.0008776257    2.1108882264   14.2338967419   -0.0000858096   -0.0000291116   -0.0001493315
 N    2.1095372505    0.0005435679   14.2339244664   -0.0000371074   -0.0000872482   -0.0001337875
 N    0.0031482317    0.0056614815   16.3929535121    0.0000024599   -0.0000135597   -0.0001013442
 N    2.1288239158    2.1382046183   16.5297338095    0.0001034399    0.0001363279   -0.0004660544
 N    0.0000000000    6.3208747000   10.0000000000   -0.0000000000    0.0000000000   -0.0000000000
 N    2.1069582300    4.2139164700   10.0000000000   -0.0000000000   -0.0000000000   -0.0000000000
 N    0.0000000000    4.2139164700   12.1069582300   -0.0000000000   -0.0000000000   -0.0000000000
 N    2.1069582300    6.3208747000   12.1069582300    0.0000000000    0.0000000000   -0.0000000000
 N    0.0024041067    6.3260497804   14.2229526886   -0.0001156996   -0.0000336075   -0.0000632839
 N    2.1007398639    4.2162535382   14.2060905302   -0.0001060417   -0.0000808699   -0.0000771902
 N   -0.0084186427    4.2267681948   16.3831881900   -0.0001769361   -0.0001136571   -0.0002591451
 N    2.0677265393    6.3303498238   16.3183773534   -0.0002994827   -0.0001807632   -0.0000327038
 N    0.0000000000   10.5347911700   10.0000000000    0.0000000000   -0.0000000000   -0.0000000000
 N    2.1069582300    8.4278329400   10.0000000000   -0.0000000000    0.0000000000   -0.0000000000
 N    0.0000000000    8.4278329400   12.1069582300    0.0000000000    0.0000000000   -0.0000000000
 N    2.1069582300   10.5347911700   12.1069582300   -0.0000000000    0.0000000000   -0.0000000000
 N    0.0014892276   10.5382565389   14.2295968767   -0.0000427556   -0.0000382445    0.0000066363
 N    2.1039912536    8.4347497792   14.2326112916   -0.0000215186   -0.0000341223    0.0000040825
 N   -0.0038317435    8.4353878805   16.3854795219   -0.0000853751   -0.0000338964    0.0000095332
 N    2.1072228946   10.5427519699   16.3883789637   -0.0000859525   -0.0000672726   -0.0000391144
 N    4.2139164700    2.1069582300   10.0000000000   -0.0000000000   -0.0000000000   -0.0000000000
 N    6.3208747000    0.0000000000   10.0000000000    0.0000000000   -0.0000000000   -0.0000000000
 N    4.2139164700    0.0000000000   12.1069582300   -0.0000000000   -0.0000000000   -0.0000000000
 N    6.3208747000    2.1069582300   12.1069582300    0.0000000000    0.0000000000   -0.0000000000
 N    4.2144855901    2.1056114150   14.2153027043   -0.0000609535   -0.0001508431   -0.0000639892
 N    6.3235942578   -0.0047920584   14.2235479735   -0.0000470376   -0.0000718610   -0.0000045207
 N    4.2209320405   -0.0109558422   16.3834752436   -0.0001244819   -0.0001432471   -0.0001510073
 N    6.3217896309    2.0983010280   16.3863790451   -0.0001638207   -0.0002119782    0.0000179662
 N    4.2139164700    6.3208747000   10.0000000000    0.0000000000    0.0000000000   -0.0000000000
 N    6.3208747000    4.2139164700   10.0000000000    0.0000000000    0.0000000000   -0.0000000000
 N    4.2139164700    4.2139164700   12.1069582300    0.0000000000    0.0000000000   -0.0000000000
 N    6.3208747000    6.3208747000   12.1069582300   -0.0000000000    0.0000000000   -0.0000000000
 N    4.2118342902    6.3172306616   14.2645206917   -0.0001152009   -0.0001809509    0.0000720097
 N    6.3212313678    4.2102568241   14.2312965412   -0.0001482035   -0.0000853475    0.0000422723
 N    4.1995827106    4.1549223817   16.2849200941   -0.0003560952   -0.0006883460    0.0000175158
 N    6.3282497985    6.3131507272   16.4715043664   -0.0002250885   -0.0002784504    0.0005711093
 N    4.2139164700   10.5347911700   10.0000000000   -0.0000000000    0.0000000000   -0.0000000000
 N    6.3208747000    8.4278329400   10.0000000000    0.0000000000   -0.0000000000   -0.0000000000
 N    4.2139164700    8.4278329400   12.1069582300    0.0000000000   -0.0000000000   -0.0000000000
 N    6.3208747000   10.5347911700   12.1069582300    0.0000000000   -0.0000000000   -0.0000000000
 N    4.2131475052   10.5217091133   14.2294302320   -0.0000181548   -0.0001123192    0.0000184061
 N    6.3181536381    8.4246520545   14.2388560927   -0.0000928085   -0.0001121066    0.0000784326
 N    4.2046475871    8.4285892318   16.3822885280   -0.0001203790   -0.0003168992    0.0006025929
 N    6.3218328982   10.5281473783   16.3895933333   -0.0000714607   -0.0001527257    0.0000261974
 N    8.4278329400    2.1069582300   10.0000000000   -0.0000000000   -0.0000000000   -0.0000000000
 N   10.5347911700    0.0000000000   10.0000000000   -0.0000000000    0.0000000000   -0.0000000000
 N    8.4278329400    0.0000000000   12.1069582300    0.0000000000   -0.0000000000   -0.0000000000
 N   10.5347911700    2.1069582300   12.1069582300    0.0000000000    0.0000000000   -0.0000000000
 N    8.4325482399    2.1057317440   14.2270772621    0.0000010029   -0.0000238819    0.0000141223
 N   10.5379494429    0.0012573868   14.2285199448   -0.0000336976   -0.0000231487    0.0000053081
 N    8.4331770364   -0.0011152575   16.3891177916   -0.0000505952   -0.0000600050    0.0000232617
 N   10.5421058210    2.1084418725   16.3898295216   -0.0000632823   -0.0000475578   -0.0000344744
 N    8.4278329400    6.3208747000   10.0000000000   -0.0000000000    0.0000000000   -0.0000000000
 N   10.5347911700    4.2139164700   10.0000000000   -0.0000000000   -0.0000000000   -0.0000000000
 N    8.4278329400    4.2139164700   12.1069582300   -0.0000000000    0.0000000000   -0.0000000000
 N   10.5347911700    6.3208747000   12.1069582300   -0.0000000000    0.0000000000   -0.0000000000
 N    8.4154929382    6.3201343525   14.2358977954   -0.0000705696   -0.0000677740    0.0000859487
 N   10.5308174490    4.2159594995   14.2253504176   -0.0001108446    0.0000011893    0.0000518636
 N    8.4288186489    4.2083939131   16.3932310204   -0.0001216163   -0.0001133195   -0.0000219699
 N   10.5277165502    6.3250596022   16.3879293961   -0.0001793858   -0.0000799069    0.0000020947
 N    8.4278329400   10.5347911700   10.0000000000    0.0000000000    0.0000000000   -0.0000000000
 N   10.5347911700    8.4278329400   10.0000000000    0.0000000000   -0.0000000000   -0.0000000000
 N    8.4278329400    8.4278329400   12.1069582300   -0.0000000000   -0.0000000000   -0.0000000000
 N   10.5347911700   10.5347911700   12.1069582300    0.0000000000    0.0000000000   -0.0000000000
 N    8.4280279715   10.5339210188   14.2280830583   -0.0000469897   -0.0000506326    0.0000352363
 N   10.5334017915    8.4298960454   14.2260633231   -0.0000465043   -0.0000459108    0.0000520899
 N    8.4278027714    8.4305529652   16.3940596636   -0.0000858917   -0.0000791928    0.0000002328
 N   10.5361988783   10.5382920062   16.3883781017   -0.0000530058   -0.0000584557    0.0000026615
 S    3.9602833293    5.6721321748   18.8601839557   -0.0022978078   -0.0065699391   -0.0000258364
Li    6.0895390239    6.2249217719   18.4394006627   -0.0028654911   -0.0013612395    0.0003641641
Li    3.0931739458    3.3527699604   18.4547221563    0.0153088668    0.0174793944    0.0024459758
 PRIMCOORD   4
  147  1
Ti    0.0000000000    0.0000000000   10.0000000000    0.0000000000    0.0000000000    0.0000000000
Ti    2.1069582300    0.0000000000   12.1069582300   -0.0000000000    0.0000000000    0.0000000000
Ti    0.0000000000    2.1069582300   12.1069582300    0.0000000000    0.0000000000    0.0000000000
Ti    2.1069582300    2.1069582300   10.0000000000   -0.0000000000    0.0000000000    0.0000000000
Ti    0.0049130190    0.0051663342   14.2079633396    0.0000090944    0.0000041294    0.0000614763
Ti    2.1125928305   -0.0089307684   16.2335863141    0.0000035983    0.0000964876    0.0000785852
Ti   -0.0081443182    2.1173628229   16.2315931968    0.0001288293    0.0000620848    0.0000894115
Ti    2.1087520608    2.1063830159   14.2469269676    0.0000267224    0.0000667123    0.0000131543
Ti    0.0000000000    4.2139164700   10.0000000000    0.0000000000   -0.0000000000    0.0000000000
Ti    2.1069582300    4.2139164700   12.1069582300    0.0000000000   -0.0000000000    0.0000000000
Ti    0.0000000000    6.3208747000   12.1069582300   -0.0000000000    0.0000000000    0.0000000000
Ti    2.1069582300    6.3208747000   10.0000000000    0.0000000000    0.0000000000    0.0000000000
Ti   -0.0078101546    4.2171597266   14.2000192430    0.0000721890   -0.0000095139    0.0000727874
Ti    2.0991027866    4.2739378925   16.1860809282   -0.0000261902   -0.0000136021   -0.0001730922
Ti   -0.0145645567    6.3304124163   16.2085051356    0.0000365684    0.0000050375   -0.0000220010
Ti    2.1428765789    6.3316335257   14.1930218595   -0.0000430941   -0.0000436897    0.0000131693
Ti    0.0000000000    8.4278329400   10.0000000000    0.0000000000   -0.0000000000    0.0000000000
Ti    2.1069582300    8.4278329400   12.1069582300    0.0000000000    0.0000000000    0.0000000000
Ti    0.0000000000   10.5347911700   12.1069582300    0.0000000000    0.0000000000    0.0000000000
Ti    2.1069582300   10.5347911700   10.0000000000   -0.0000000000   -0.0000000000    0.0000000000
Ti   -0.0044241579    8.4317350680   14.2037793951   -0.0000044704    0.0000141682    0.0000014535
Ti    2.1085953890    8.4297426413   16.2242878415   -0.0000651595   -0.0000553644   -0.0000210419
Ti    0.0025755964   10.5372427979   16.2203648101    0.0000038267   -0.0000029146    0.0000085155
Ti    2.1087515423   10.5432089317   14.2069227787   -0.0000219672    0.0000082569    0.0000361442
Ti    4.2139164700    0.0000000000   10.0000000000   -0.0000000000    0.0000000000    0.0000000000
Ti    6.3208747000    0.0000000000   12.1069582300    0.0000000000   -0.0000000000    0.0000000000
Ti    4.2139164700    2.1069582300   12.1069582300   -0.0000000000   -0.0000000000    0.0000000000
Ti    6.3208747000    2.1069582300   10.0000000000    0.0000000000   -0.0000000000    0.0000000000
Ti    4.2138091474   -0.0069236612   14.1941475198   -0.0000180585   -0.0000118433    0.0000381320
Ti    6.3301180028   -0.0067887600   16.2137073639    0.0000426128   -0.0000052733   -0.0000003091
Ti    4.2556253552    2.0867327856   16.1906567457   -0.0001209396   -0.0000508621   -0.0001748059
Ti    6.3261305938    2.1027606361   14.1961652090   -0.0000221981   -0.0000139885    0.0000184059
Ti    4.2139164700    4.2139164700   10.0000000000   -0.0000000000    0.0000000000    0.0000000000
Ti    6.3208747000    4.2139164700   12.1069582300   -0.0000000000    0.0000000000    0.0000000000
Ti    4.2139164700    6.3208747000   12.1069582300    0.0000000000   -0.0000000000   -0.0000000000
Ti    6.3208747000    6.3208747000   10.0000000000   -0.0000000000    0.0000000000    0.0000000000
Ti    4.2165660482    4.2444479137   14.1888908888   -0.0000616079   -0.0000909576   -0.0000954648
Ti    6.3112330470    4.1889338707   16.2161570647    0.0000127741   -0.0000850212   -0.0000190553
Ti    4.1705830086    6.2992659648   16.5481183679   -0.0001503375   -0.0001877545   -0.0011679636
Ti    6.2892233312    6.3228688233   14.2394019797    0.0000006582   -0.0000263938    0.0000329536
Ti    4.2139164700    8.4278329400   10.0000000000   -0.0000000000   -0.0000000000    0.0000000000
Ti    6.3208747000    8.4278329400   12.1069582300   -0.0000000000   -0.0000000000    0.0000000000
Ti    4.2139164700   10.5347911700   12.1069582300   -0.0000000000    0.0000000000    0.0000000000
Ti    6.3208747000   10.5347911700   10.0000000000    0.0000000000    0.0000000000    0.0000000000
Ti    4.2146997199    8.3949848259   14.2080804547   -0.0000232705    0.0000041022   -0.0000015294
Ti    6.3090124172    8.4527891428   16.2223457264    0.0000062340   -0.0000491616    0.0000603805
Ti    4.2133073506   10.5455702148   16.2150232828   -0.0000554258   -0.0000536673   -0.0000017180
Ti    6.3206796425   10.5344448096   14.2040154476    0.0000015968   -0.0000382763    0.0000079515
Ti    8.4278329400    0.0000000000   10.0000000000   -0.0000000000    0.0000000000    0.0000000000
Ti   10.5347911700    0.0000000000   12.1069582300    0.0000000000    0.0000000000    0.0000000000
Ti    8.4278329400    2.1069582300   12.1069582300   -0.0000000000    0.0000000000    0.0000000000
Ti   10.5347911700    2.1069582300   10.0000000000   -0.0000000000   -0.0000000000    0.0000000000
Ti    8.4317152547   -0.0007375181   14.2053561292    0.0000156984   -0.0000163859    0.0000171629
Ti   10.5376891175    0.0015801327   16.2197143252   -0.0000168653    0.0000044708    0.0000028366
Ti    8.4323511301    2.1090240954   16.2174842677   -0.0000433184   -0.0000228885    0.0000049795
Ti   10.5410548598    2.1080097515   14.2067865344    0.0000253410   -0.0000080149    0.0000398283
Ti    8.4278329400    4.2139164700   10.0000000000   -0.0000000000   -0.0000000000    0.0000000000
Ti   10.5347911700    4.2139164700   12.1069582300    0.0000000000   -0.0000000000    0.0000000000
Ti    8.4278329400    6.3208747000   12.1069582300   -0.0000000000    0.0000000000    0.0000000000
Ti   10.5347911700    6.3208747000   10.0000000000    0.0000000000    0.0000000000    0.0000000000
Ti    8.4320477956    4.2173683450   14.2056856844   -0.0000111473   -0.0000210021   -0.0000046521
Ti   10.5388649930    4.2152509804   16.2171591156    0.0000220466   -0.0000182578    0.0000161809
Ti    8.4619307285    6.3194044966   16.2147291684   -0.0001048838   -0.0000518458    0.0000642822
Ti   10.5301359312    6.3249064167   14.1981980147   -0.0000361504   -0.0000033205    0.0000131731
Ti    8.4278329400    8.4278329400   10.0000000000   -0.0000000000    0.0000000000    0.0000000000
Ti   10.5347911700    8.4278329400   12.1069582300   -0.0000000000    0.0000000000    0.0000000000
Ti    8.4278329400   10.5347911700   12.1069582300   -0.0000000000   -0.0000000000    0.0000000000
Ti   10.5347911700   10.5347911700   10.0000000000   -0.0000000000   -0.0000000000    0.0000000000
Ti    8.4301223105    8.4269969450   14.2069260860   -0.0000168155   -0.0000173398    0.0000168581
Ti   10.5380642087    8.4377779668   16.2168970203   -0.0000265448    0.0000081111    0.0000239077
Ti    8.4325343603   10.5364175136   16.2190166785    0.0000188337    0.0000016030    0.0000259268
Ti   10.5366857559   10.5367213355   14.2051475596    0.0000059413    0.0000056015    0.0000099386
 N    0.0000000000    2.1069582300   10.0000000000    0.0000000000    0.0000000000   -0.0000000000
 N    2.1069582300    0.0000000000   10.0000000000    0.0000000000    0.0000000000   -0.0000000000
 N    0.0000000000    0.0000000000   12.1069582300    0.0000000000    0.0000000000   -0.0000000000
 N    2.1069582300    2.1069582300   12.1069582300   -0.0000000000    0.0000000000   -0.0000000000
 N    0.0031774769    2.1116375997   14.2370789859    0.0000115379    0.0000030734    0.0000154443
 N    2.1102365357    0.0030302657   14.2371019778   -0.0000046165    0.0000147346    0.0000148721
 N    0.0027469147    0.0051767671   16.3949696544   -0.0000197325   -0.0000247800   -0.0000298316
 N    2.1250688156    2.1321361100   16.5410998378    0.0001773040    0.0001816437    0.0004661500
 N    0.0000000000    6.3208747000   10.0000000000   -0.0000000000    0.0000000000   -0.0000000000
 N    2.1069582300    4.2139164700   10.0000000000   -0.0000000000   -0.0000000000   -0.0000000000
 N    0.0000000000    4.2139164700   12.1069582300    0.0000000000   -0.0000000000   -0.0000000000
 N    2.1069582300    6.3208747000   12.1069582300    0.0000000000    0.0000000000   -0.0000000000
 N    0.0068034149    6.3263406699   14.2245952752   -0.0000315992   -0.0000055093   -0.0000364998
 N    2.1042512741    4.2185470358   14.2132269304   -0.0000042154   -0.0000103754    0.0000794162
 N   -0.0007434049    4.2290284697   16.3919529203   -0.0000028859    0.0000377056   -0.0000335564
 N    2.0771483179    6.3340356771   16.3171191731   -0.0001088139    0.0000436241   -0.0001810665
 N    0.0000000000   10.5347911700   10.0000000000    0.0000000000   -0.0000000000   -0.0000000000
 N    2.1069582300    8.4278329400   10.0000000000   -0.0000000000    0.0000000000   -0.0000000000
 N    0.0000000000    8.4278329400   12.1069582300    0.0000000000    0.0000000000   -0.0000000000
 N    2.1069582300   10.5347911700   12.1069582300   -0.0000000000    0.0000000000   -0.0000000000
 N    0.0023764301   10.5377744769   14.2291084164   -0.0000169951   -0.0000005491    0.0000097993
 N    2.1049986671    8.4346872540   14.2325116363   -0.0000122527    0.0000051683   -0.0000320823
 N   -0.0009199867    8.4352259160   16.3854498288   -0.0000489507    0.0000270268   -0.0000159850
 N    2.1094656233   10.5436801795   16.3892923703   -0.0000240809    0.0000053786    0.0000055261
 N    4.2139164700    2.1069582300   10.0000000000   -0.0000000000   -0.0000000000   -0.0000000000
 N    6.3208747000    0.0000000000   10.0000000000    0.0000000000   -0.0000000000   -0.0000000000
 N    4.2139164700    0.0000000000   12.1069582300   -0.0000000000   -0.0000000000   -0.0000000000
 N    6.3208747000    2.1069582300   12.1069582300    0.0000000000    0.0000000000   -0.0000000000
 N    4.2165812109    2.1100756614   14.2201984517    0.0000022126   -0.0000468994    0.0000478680
 N    6.3245051541   -0.0023470876   14.2231165978   -0.0000120075   -0.0000388604   -0.0000118404
 N    4.2239586685   -0.0053366967   16.3884588081    0.0000177289   -0.0000198138   -0.0000395055
 N    6.3250867033    2.1050908279   16.3856091161   -0.0000432857   -0.0000237575   -0.0000217552
 N    4.2139164700    6.3208747000   10.0000000000    0.0000000000    0.0000000000   -0.0000000000
 N    6.3208747000    4.2139164700   10.0000000000    0.0000000000    0.0000000000   -0.0000000000
 N    4.2139164700    4.2139164700   12.1069582300    0.0000000000    0.0000000000   -0.0000000000
 N    6.3208747000    6.3208747000   12.1069582300   -0.0000000000    0.0000000000   -0.0000000000
 N    4.2157580507    6.3225498453   14.2620884333   -0.0000236081   -0.0000391808   -0.0000288139
 N    6.3251166634    4.2130792778   14.2293280746   -0.0000216395   -0.0000195313   -0.0000828463
 N    4.2129859844    4.1781045267   16.2842808104    0.0000422732   -0.0001884001   -0.0005411128
 N    6.3353521541    6.3208808922   16.4542846998   -0.0000884505   -0.0000760381    0.0002641284
 N    4.2139164700   10.5347911700   10.0000000000   -0.0000000000    0.0000000000   -0.0000000000
 N    6.3208747000    8.4278329400   10.0000000000    0.0000000000   -0.0000000000   -0.0000000000
 N    4.2139164700    8.4278329400   12.1069582300    0.0000000000   -0.0000000000   -0.0000000000
 N    6.3208747000   10.5347911700   12.1069582300    0.0000000000   -0.0000000000   -0.0000000000
 N    4.2138862313   10.5238045210   14.2289630966    0.0000013243   -0.0000268769   -0.0000013693
 N    6.3205795279    8.4276886094   14.2367619307   -0.0000297103   -0.0000230406    0.0000200729
 N    4.2089706206    8.4375178472   16.3620089215   -0.0000394062   -0.0001212333    0.0002731320
 N    6.3233376921   10.5316103841   16.3897951539   -0.0000134058   -0.0000530928    0.0000168700
 N    8.4278329400    2.1069582300   10.0000000000   -0.0000000000   -0.0000000000   -0.0000000000
 N   10.5347911700    0.0000000000   10.0000000000   -0.0000000000    0.0000000000   -0.0000000000
 N    8.4278329400    0.0000000000   12.1069582300    0.0000000000   -0.0000000000   -0.0000000000
 N   10.5347911700    2.1069582300   12.1069582300    0.0000000000    0.0000000000   -0.0000000000
 N    8.4322206791    2.1068854564   14.2268098007    0.0000162945   -0.0000166308    0.0000128758
 N   10.5378520658    0.0017555913   14.2278405143    0.0000071099   -0.0000021081    0.0000084523
 N    8.4339669726    0.0008712280   16.3888979371    0.0000141731   -0.0000379465   -0.0000161137
 N   10.5435366556    2.1094790333   16.3908371038    0.0000140322   -0.0000077089    0.0000116174
 N    8.4278329400    6.3208747000   10.0000000000   -0.0000000000    0.0000000000   -0.0000000000
 N   10.5347911700    4.2139164700   10.0000000000   -0.0000000000   -0.0000000000   -0.0000000000
 N    8.4278329400    4.2139164700   12.1069582300   -0.0000000000    0.0000000000   -0.0000000000
 N   10.5347911700    6.3208747000   12.1069582300   -0.0000000000    0.0000000000   -0.0000000000
 N    8.4172659011    6.3217988728   14.2343384517   -0.0000280933   -0.0000241698    0.0000268229
 N   10.5339214907    4.2165170779   14.2245993295   -0.0000037040    0.0000087971    0.0000297735
 N    8.4321886593    4.2124445596   16.3938201675    0.0000079705   -0.0000148319   -0.0000277081
 N   10.5323447248    6.3262442097   16.3884749548   -0.0000601551   -0.0000255843    0.0000060101
 N    8.4278329400   10.5347911700   10.0000000000   -0.0000000000    0.0000000000   -0.0000000000
 N   10.5347911700    8.4278329400   10.0000000000    0.0000000000   -0.0000000000   -0.0000000000
 N    8.4278329400    8.4278329400   12.1069582300   -0.0000000000   -0.0000000000   -0.0000000000
 N   10.5347911700   10.5347911700   12.1069582300    0.0000000000    0.0000000000   -0.0000000000
 N    8.4286632006   10.5353404205   14.2277392044    0.0000039882   -0.0000124969    0.0000110760
 N   10.5350100289    8.4302424202   14.2253785243   -0.0000153755    0.0000016903    0.0000087881
 N    8.4304461372    8.4322058257   16.3941513993   -0.0000036679   -0.0000074439   -0.0000146302
 N   10.5370948508   10.5390487662   16.3888039650   -0.0000101916   -0.0000066215   -0.0000283174
 S    4.0123661284    5.8812726734   18.8566062869   -0.0014225920   -0.0038501114   -0.0006290876
Li    6.1676823010    6.2593589924   18.4295208158   -0.0014732349   -0.0007796029    0.0002143110
Li    2.5746645918    2.7456651869   18.3850145582    0.0017736617    0.0029468972    0.0004793070
 PRIMCOORD   5
  147  1
Ti    0.0000000000    0.0000000000   10.0000000000    0.0000000000    0.0000000000    0.0000000000
Ti    2.1069582300    0.0000000000   12.1069582300    0.0000000000    0.0000000000    0.0000000000
Ti    0.0000000000    2.1069582300   12.1069582300    0.0000000000    0.0000000000    0.0000000000
Ti    2.1069582300    2.1069582300   10.0000000000   -0.0000000000    0.0000000000    0.0000000000
Ti   -0.0005468700   -0.0010152000   14.2021189300    0.0002358583    0.0002954851   -0.0001590940
Ti    2.1060018000   -0.0296620000   16.2213132000    0.0001232025   -0.0008712831    0.0008477896
Ti   -0.0301704100    2.1100098000   16.2197140900   -0.0008013558    0.0000788417    0.0009749619
Ti    2.1080499000    2.1049112500   14.2473379100   -0.0000183837   -0.0000623177    0.0005083982
Ti    0.0000000000    4.2139164700   10.0000000000    0.0000000000   -0.0000000000    0.0000000000
Ti    2.1069582300    4.2139164700   12.1069582300    0.0000000000   -0.0000000000    0.0000000000
Ti    0.0000000000    6.3208747000   12.1069582300   -0.0000000000   -0.0000000000    0.0000000000
Ti    2.1069582300    6.3208747000   10.0000000000    0.0000000000    0.0000000000    0.0000000000
Ti   -0.0061481200    4.2182509600   14.2011997000    0.0004718151   -0.0002698245   -0.0002312802
Ti    2.1104241800    4.2542342500   16.2103397800    0.0006147258    0.0006960290   -0.0001163214
Ti   -0.0120846800    6.3227605100   16.2131132100   -0.0005007369   -0.0000043166   -0.0002399302
Ti    2.1475128500    6.3275507700   14.2009556000    0.0001620979   -0.0005564032   -0.0007247919
Ti    0.0000000000    8.4278329400   10.0000000000    0.0000000000    0.0000000000    0.0000000000
Ti    2.1069582300    8.4278329400   12.1069582300    0.0000000000   -0.0000000000    0.0000000000
Ti    0.0000000000   10.5347911700   12.1069582300    0.0000000000   -0.0000000000    0.0000000000
Ti    2.1069582300   10.5347911700   10.0000000000   -0.0000000000   -0.0000000000    0.0000000000
Ti   -0.0035753500    8.4275767000   14.2065810000    0.0000230735   -0.0000466498   -0.0000557134
Ti    2.1095356400    8.4291863100   16.2266669600   -0.0000267859    0.0000073056   -0.0009245477
Ti   -0.0014817900   10.5343893100   16.2192428300    0.0000538617   -0.0001850537   -0.0000445503
Ti    2.1083974400   10.5367572800   14.2022783000    0.0000475315    0.0002678005    0.0000819444
Ti    4.2139164700    0.0000000000   10.0000000000   -0.0000000000    0.0000000000    0.0000000000
Ti    6.3208747000    0.0000000000   12.1069582300   -0.0000000000   -0.0000000000    0.0000000000
Ti    4.2139164700    2.1069582300   12.1069582300   -0.0000000000   -0.0000000000    0.0000000000
Ti    6.3208747000    2.1069582300   10.0000000000    0.0000000000   -0.0000000000    0.0000000000
Ti    4.2153413300   -0.0025918900   14.1949940100   -0.0003955336    0.0002357270    0.0002325010
Ti    6.3247883100   -0.0041276600   16.2150686000   -0.0003771011    0.0000573897   -0.0000152134
Ti    4.2437066400    2.0951199700   16.2065738700    0.0012112639    0.0007510953    0.0005080500
Ti    6.3226486100    2.1044816500   14.1996473700   -0.0005122794   -0.0000951996    0.0002656490
Ti    4.2139164700    4.2139164700   10.0000000000   -0.0000000000    0.0000000000    0.0000000000
Ti    6.3208747000    4.2139164700   12.1069582300   -0.0000000000    0.0000000000    0.0000000000
Ti    4.2139164700    6.3208747000   12.1069582300    0.0000000000   -0.0000000000   -0.0000000000
Ti    6.3208747000    6.3208747000   10.0000000000   -0.0000000000    0.0000000000    0.0000000000
Ti    4.2169707100    4.2519302300   14.1948046100   -0.0003156541    0.0000106923    0.0004184367
Ti    6.3134196800    4.1934881800   16.2176682200   -0.0007337278   -0.0002687021   -0.0010019524
Ti    4.1822084000    6.3224007900   16.6314228400   -0.0001903110   -0.0004333287    0.0005544004
Ti    6.2863532000    6.3236127300   14.2351056700   -0.0002081714   -0.0001179103   -0.0006197313
Ti    4.2139164700    8.4278329400   10.0000000000   -0.0000000000   -0.0000000000    0.0000000000
Ti    6.3208747000    8.4278329400   12.1069582300   -0.0000000000   -0.0000000000    0.0000000000
Ti    4.2139164700   10.5347911700   12.1069582300   -0.0000000000    0.0000000000    0.0000000000
Ti    6.3208747000   10.5347911700   10.0000000000    0.0000000000    0.0000000000    0.0000000000
Ti    4.2144746300    8.3918856600   14.2049589000    0.0000394662   -0.0002096929   -0.0005455993
Ti    6.3089365200    8.4568857100   16.2183489800   -0.0000241888   -0.0000433402   -0.0006260479
Ti    4.2139134500   10.5479951500   16.2137390700   -0.0000144454    0.0003196390   -0.0000635626
Ti    6.3198629600   10.5369820800   14.2031030400   -0.0001152928   -0.0000029400    0.0001173179
Ti    8.4278329400    0.0000000000   10.0000000000   -0.0000000000   -0.0000000000    0.0000000000
Ti   10.5347911700    0.0000000000   12.1069582300    0.0000000000    0.0000000000    0.0000000000
Ti    8.4278329400    2.1069582300   12.1069582300   -0.0000000000    0.0000000000    0.0000000000
Ti   10.5347911700    2.1069582300   10.0000000000   -0.0000000000   -0.0000000000    0.0000000000
Ti    8.4288561400   -0.0009238700   14.2074029000   -0.0000138136   -0.0000666195   -0.0000973884
Ti   10.5352851700   -0.0041445800   16.2185287900    0.0000063399    0.0000575776   -0.0000894814
Ti    8.4320284700    2.1084820400   16.2180142000   -0.0003393980    0.0001877313   -0.0001069313
Ti   10.5346388200    2.1069610500   14.2013797400    0.0003900259    0.0000762218    0.0002017699
Ti    8.4278329400    4.2139164700   10.0000000000   -0.0000000000   -0.0000000000    0.0000000000
Ti   10.5347911700    4.2139164700   12.1069582300    0.0000000000   -0.0000000000    0.0000000000
Ti    8.4278329400    6.3208747000   12.1069582300   -0.0000000000   -0.0000000000    0.0000000000
Ti   10.5347911700    6.3208747000   10.0000000000    0.0000000000    0.0000000000    0.0000000000
Ti    8.4317659800    4.2175616100   14.2065214100   -0.0000387930    0.0000097733   -0.0000597454
Ti   10.5378489500    4.2134216700   16.2164766800   -0.0000679022   -0.0000017730    0.0000536203
Ti    8.4701093100    6.3215035200   16.2093809900    0.0001716227   -0.0001730804    0.0000473150
Ti   10.5344812700    6.3234207900   14.1977366000    0.0000191419   -0.0000380016    0.0002997808
Ti    8.4278329400    8.4278329400   10.0000000000   -0.0000000000    0.0000000000    0.0000000000
Ti   10.5347911700    8.4278329400   12.1069582300    0.0000000000    0.0000000000    0.0000000000
Ti    8.4278329400   10.5347911700   12.1069582300   -0.0000000000   -0.0000000000    0.0000000000
Ti   10.5347911700   10.5347911700   10.0000000000   -0.0000000000   -0.0000000000    0.0000000000
Ti    8.4308069600    8.4276116800   14.2066353800    0.0000194257   -0.0000133388   -0.0000844670
Ti   10.5394345300    8.4364785400   16.2164794800    0.0000344359   -0.0000817688    0.0000682554
Ti    8.4310068600   10.5359293700   16.2185400600   -0.0000252051   -0.0001128902    0.0000489654
Ti   10.5350270600   10.5346490000   14.2032356800    0.0000651066   -0.0000566295    0.0004216255
 N    0.0000000000    2.1069582300   10.0000000000    0.0000000000    0.0000000000   -0.0000000000
 N    2.1069582300    0.0000000000   10.0000000000   -0.0000000000    0.0000000000   -0.0000000000
 N    0.0000000000    0.0000000000   12.1069582300    0.0000000000    0.0000000000   -0.0000000000
 N    2.1069582300    2.1069582300   12.1069582300   -0.0000000000    0.0000000000   -0.0000000000
 N    0.0000741400    2.1084908200   14.2306823600    0.0001391110    0.0000908429    0.0006667458
 N    2.1079415300   -0.0005182800   14.2304422700   -0.0000386206    0.0001262704    0.0006257219
 N   -0.0038187700   -0.0022280600   16.3931013300   -0.0001987621   -0.0003524532   -0.0000148705
 N    2.1120136500    2.1151772100   16.4552148500    0.0001547346    0.0002715382    0.0002364566
 N    0.0000000000    6.3208747000   10.0000000000   -0.0000000000    0.0000000000   -0.0000000000
 N    2.1069582300    4.2139164700   10.0000000000   -0.0000000000   -0.0000000000   -0.0000000000
 N    0.0000000000    4.2139164700   12.1069582300    0.0000000000   -0.0000000000   -0.0000000000
 N    2.1069582300    6.3208747000   12.1069582300    0.0000000000    0.0000000000   -0.0000000000
 N    0.0116631200    6.3243865300   14.2278507000   -0.0002998930   -0.0001058028   -0.0000411157
 N    2.1062909100    4.2172725200   14.2271422000   -0.0003611544   -0.0002013944    0.0006684291
 N    0.0004264600    4.2201499300   16.3951193100   -0.0004814049    0.0003448066    0.0002621019
 N    2.0884634400    6.3243065500   16.3329590800    0.0003395842    0.0004989936    0.0001797719
 N    0.0000000000   10.5347911700   10.0000000000    0.0000000000   -0.0000000000   -0.0000000000
 N    2.1069582300    8.4278329400   10.0000000000   -0.0000000000    0.0000000000   -0.0000000000
 N    0.0000000000    8.4278329400   12.1069582300    0.0000000000    0.0000000000   -0.0000000000
 N    2.1069582300   10.5347911700   12.1069582300   -0.0000000000   -0.0000000000   -0.0000000000
 N    0.0012915400   10.5329967700   14.2266266100   -0.0000789508    0.0000430975    0.0002089675
 N    2.1053501500    8.4306892700   14.2329008800   -0.0000126440   -0.0000390486    0.0003992545
 N    0.0000657800    8.4296440100   16.3850627600    0.0002624191   -0.0001002757    0.0000133687
 N    2.1077385700   10.5364722200   16.3868088800    0.0000665534   -0.0004890382   -0.0000739323
 N    4.2139164700    2.1069582300   10.0000000000   -0.0000000000   -0.0000000000   -0.0000000000
 N    6.3208747000    0.0000000000   10.0000000000    0.0000000000    0.0000000000   -0.0000000000
 N    4.2139164700    0.0000000000   12.1069582300   -0.0000000000    0.0000000000   -0.0000000000
 N    6.3208747000    2.1069582300   12.1069582300    0.0000000000    0.0000000000   -0.0000000000
 N    4.2155678100    2.1154359700   14.2283169000   -0.0003419465   -0.0004656069    0.0004375963
 N    6.3234556600   -0.0001382900   14.2228086700   -0.0000851137   -0.0001145216    0.0002384217
 N    4.2184679100   -0.0018869900   16.3937046700    0.0001911014   -0.0006289630   -0.0001344159
 N    6.3205994100    2.1090016000   16.3881628900    0.0004769272   -0.0000231753   -0.0001494320
 N    4.2139164700    6.3208747000   10.0000000000    0.0000000000    0.0000000000   -0.0000000000
 N    6.3208747000    4.2139164700   10.0000000000    0.0000000000    0.0000000000   -0.0000000000
 N    4.2139164700    4.2139164700   12.1069582300   -0.0000000000    0.0000000000   -0.0000000000
 N    6.3208747000    6.3208747000   12.1069582300   -0.0000000000    0.0000000000   -0.0000000000
 N    4.2167558500    6.3234942400   14.2580673500    0.0000928887    0.0000545354    0.0000479854
 N    6.3240457100    4.2144694200   14.2319613000    0.0003662045    0.0000536336    0.0000370287
 N    4.2136193500    4.1991083800   16.3236997200    0.0001897598   -0.0001151975   -0.0009871596
 N    6.3402853200    6.3242619900   16.4360452200   -0.0001829807    0.0000113855   -0.0002810541
 N    4.2139164700   10.5347911700   10.0000000000   -0.0000000000    0.0000000000   -0.0000000000
 N    6.3208747000    8.4278329400   10.0000000000    0.0000000000   -0.0000000000   -0.0000000000
 N    4.2139164700    8.4278329400   12.1069582300    0.0000000000   -0.0000000000   -0.0000000000
 N    6.3208747000   10.5347911700   12.1069582300    0.0000000000   -0.0000000000   -0.0000000000
 N    4.2137194000   10.5243005800   14.2280302100   -0.0000195904    0.0001652242    0.0000647323
 N    6.3217454600    8.4291400500   14.2330615400   -0.0000179939    0.0001513684    0.0001778035
 N    4.2118650200    8.4452179500   16.3331836800   -0.0002522249   -0.0000623976    0.0000583219
 N    6.3214566400   10.5335380100   16.3894123800   -0.0000155990    0.0001908073    0.0000162002
 N    8.4278329400    2.1069582300   10.0000000000   -0.0000000000   -0.0000000000   -0.0000000000
 N   10.5347911700    0.0000000000   10.0000000000   -0.0000000000    0.0000000000   -0.0000000000
 N    8.4278329400    0.0000000000   12.1069582300    0.0000000000   -0.0000000000   -0.0000000000
 N   10.5347911700    2.1069582300   12.1069582300    0.0000000000   -0.0000000000   -0.0000000000
 N    8.4282939900    2.1070261600   14.2268582400    0.0000366239    0.0000046156    0.0000499074
 N   10.5338070000    0.0000166000   14.2252684900    0.0000420574   -0.0000837197    0.0001602457
 N    8.4305877800    0.0001111600   16.3875197300   -0.0002262004    0.0001263052   -0.0000313217
 N   10.5365026800    2.1057964000   16.3887213300   -0.0003492347    0.0001326215   -0.0002928928
 N    8.4278329400    6.3208747000   10.0000000000   -0.0000000000    0.0000000000   -0.0000000000
 N   10.5347911700    4.2139164700   10.0000000000   -0.0000000000   -0.0000000000   -0.0000000000
 N    8.4278329400    4.2139164700   12.1069582300   -0.0000000000    0.0000000000   -0.0000000000
 N   10.5347911700    6.3208747000   12.1069582300    0.0000000000    0.0000000000   -0.0000000000
 N    8.4178153100    6.3228236200   14.2330286600    0.0003414388   -0.0002184052   -0.0001662822
 N   10.5337646100    4.2155514600   14.2229762500    0.0001517604   -0.0000056016    0.0003281745
 N    8.4311086600    4.2141014600   16.3957854500    0.0001496148   -0.0000305969    0.0001063005
 N   10.5360086400    6.3238039700   16.3892070700    0.0001381483   -0.0000132776   -0.0001379927
 N    8.4278329400   10.5347911700   10.0000000000   -0.0000000000    0.0000000000   -0.0000000000
 N   10.5347911700    8.4278329400   10.0000000000    0.0000000000   -0.0000000000   -0.0000000000
 N    8.4278329400    8.4278329400   12.1069582300   -0.0000000000   -0.0000000000   -0.0000000000
 N   10.5347911700   10.5347911700   12.1069582300    0.0000000000    0.0000000000   -0.0000000000
 N    8.4273487800   10.5353404600   14.2267498800    0.0000962679    0.0000082978    0.0001288018
 N   10.5353037200    8.4284086200   14.2240673600    0.0001390651    0.0001050158    0.0002848293
 N    8.4311520000    8.4312189600   16.3946413700   -0.0000286538   -0.0000692059    0.0002543852
 N   10.5350860100   10.5368930600   16.3902886500    0.0000563832   -0.0002118983   -0.0005942405
 S    4.1286843800    6.2523258000   18.9080511500   -0.0000783911   -0.0011979493   -0.0011658612
Li    6.2845362900    6.3201987900   18.4154185200   -0.0008600009   -0.0002937646   -0.0003011819
Li    2.1356473300    2.1737375700   18.3352581300    0.0003162885    0.0008246188    0.0014248616
