  147

Ti    0.0000000000    0.0000000000   10.0000000000
Ti    2.1069582300    0.0000000000   12.1069582300
Ti    0.0000000000    2.1069582300   12.1069582300
Ti    2.1069582300    2.1069582300   10.0000000000
Ti    0.0030561900   -0.0003468800   14.2046400400
Ti    2.1066805100   -0.0018351100   16.2158304800
Ti    0.0045856000    2.1051371300   16.2165616100
Ti    2.1101866300    2.1037516100   14.2031487700
Ti    0.0000000000    4.2139164700   10.0000000000
Ti    2.1069582300    4.2139164700   12.1069582300
Ti    0.0000000000    6.3208747000   12.1069582300
Ti    2.1069582300    6.3208747000   10.0000000000
Ti   -0.0008067800    4.2162375600   14.2015746000
Ti    2.0766074200    4.2182505600   16.2120728400
Ti   -0.0019865400    6.3281288100   16.2108469700
Ti    2.1420586700    6.3237314500   14.2072036600
Ti    0.0000000000    8.4278329400   10.0000000000
Ti    2.1069582300    8.4278329400   12.1069582300
Ti    0.0000000000   10.5347911700   12.1069582300
Ti    2.1069582300   10.5347911700   10.0000000000
Ti    0.0006388300    8.4296756800   14.2034481500
Ti    2.1098458100    8.4323786100   16.2255411200
Ti    0.0079795200   10.5331980000   16.2180485400
Ti    2.1097765400   10.5393215400   14.2033033100
Ti    4.2139164700    0.0000000000   10.0000000000
Ti    6.3208747000    0.0000000000   12.1069582300
Ti    4.2139164700    2.1069582300   12.1069582300
Ti    6.3208747000    2.1069582300   10.0000000000
Ti    4.2161836900    0.0008439000   14.1959022800
Ti    6.3335806000   -0.0020935700   16.2134606000
Ti    4.2166707800    2.0660387400   16.2082431700
Ti    6.3232256000    2.1054349700   14.2004844000
Ti    4.2139164700    4.2139164700   10.0000000000
Ti    6.3208747000    4.2139164700   12.1069582300
Ti    4.2139164700    6.3208747000   12.1069582300
Ti    6.3208747000    6.3208747000   10.0000000000
Ti    4.2175262100    4.2426938200   14.2414797400
Ti    6.3584158500    4.1833190400   16.2213813300
Ti    4.1846215700    6.3571313700   16.4750176500
Ti    6.2947906400    6.3203658700   14.2409585100
Ti    4.2139164700    8.4278329400   10.0000000000
Ti    6.3208747000    8.4278329400   12.1069582300
Ti    4.2139164700   10.5347911700   12.1069582300
Ti    6.3208747000   10.5347911700   10.0000000000
Ti    4.2138773200    8.3961341800   14.2052764800
Ti    6.3191310300    8.4634868100   16.2082093800
Ti    4.2137161300   10.5436615200   16.2097732700
Ti    6.3228495500   10.5404115700   14.2004327200
Ti    8.4278329400    0.0000000000   10.0000000000
Ti   10.5347911700    0.0000000000   12.1069582300
Ti    8.4278329400    2.1069582300   12.1069582300
Ti   10.5347911700    2.1069582300   10.0000000000
Ti    8.4337207200   -0.0012224700   14.2046224300
Ti   10.5397586800    0.0018601600   16.2183778800
Ti    8.4401763800    2.1018911900   16.2159469100
Ti   10.5405165600    2.1060672700   14.2046328900
Ti    8.4278329400    4.2139164700   10.0000000000
Ti   10.5347911700    4.2139164700   12.1069582300
Ti    8.4278329400    6.3208747000   12.1069582300
Ti   10.5347911700    6.3208747000   10.0000000000
Ti    8.4335447400    4.2150856800   14.2001986800
Ti   10.5430012600    4.2089830000   16.2139210100
Ti    8.4747565400    6.3246002600   16.2038684600
Ti   10.5400454100    6.3228455400   14.1949515400
Ti    8.4278329400    8.4278329400   10.0000000000
Ti   10.5347911700    8.4278329400   12.1069582300
Ti    8.4278329400   10.5347911700   12.1069582300
Ti   10.5347911700   10.5347911700   10.0000000000
Ti    8.4346093100    8.4295646000   14.2023141500
Ti   10.5426526800    8.4336681200   16.2155298300
Ti    8.4352206500   10.5354018300   16.2161770400
Ti   10.5394603400   10.5361710700   14.2052879800
 N    0.0000000000    2.1069582300   10.0000000000
 N    2.1069582300    0.0000000000   10.0000000000
 N    0.0000000000    0.0000000000   12.1069582300
 N    2.1069582300    2.1069582300   12.1069582300
 N    0.0032103100    2.1080290400   14.2251745300
 N    2.1103452900    0.0002988600   14.2237022000
 N    0.0039907300    0.0004085600   16.3860640700
 N    2.1090297800    2.1040952100   16.3946218700
 N    0.0000000000    6.3208747000   10.0000000000
 N    2.1069582300    4.2139164700   10.0000000000
 N    0.0000000000    4.2139164700   12.1069582300
 N    2.1069582300    6.3208747000   12.1069582300
 N    0.0115503500    6.3232944700   14.2255807100
 N    2.1075504800    4.2140939100   14.2286018700
 N    0.0041589400    4.2145878400   16.3857323300
 N    2.0844354400    6.3232415500   16.3369883100
 N    0.0000000000   10.5347911700   10.0000000000
 N    2.1069582300    8.4278329400   10.0000000000
 N    0.0000000000    8.4278329400   12.1069582300
 N    2.1069582300   10.5347911700   12.1069582300
 N    0.0041498100   10.5352154600   14.2269986200
 N    2.1074088000    8.4313331500   14.2319784900
 N    0.0043985300    8.4311895300   16.3828811400
 N    2.1108460900   10.5375393200   16.3830121800
 N    4.2139164700    2.1069582300   10.0000000000
 N    6.3208747000    0.0000000000   10.0000000000
 N    4.2139164700    0.0000000000   12.1069582300
 N    6.3208747000    2.1069582300   12.1069582300
 N    4.2165382700    2.1136868000   14.2296244000
 N    6.3247151100    0.0005418000   14.2223070500
 N    4.2193329000   -0.0013961000   16.3882458500
 N    6.3305391100    2.1028009700   16.3909203900
 N    4.2139164700    6.3208747000   10.0000000000
 N    6.3208747000    4.2139164700   10.0000000000
 N    4.2139164700    4.2139164700   12.1069582300
 N    6.3208747000    6.3208747000   12.1069582300
 N    4.2182126700    6.3196254300   14.2659472400
 N    6.3248795300    4.2129330900   14.2375688000
 N    4.2120966100    4.1867893800   16.4198031400
 N    6.3572883100    6.3285540000   16.4084228500
 N    4.2139164700   10.5347911700   10.0000000000
 N    6.3208747000    8.4278329400   10.0000000000
 N    4.2139164700    8.4278329400   12.1069582300
 N    6.3208747000   10.5347911700   12.1069582300
 N    4.2159967000   10.5283053600   14.2252246000
 N    6.3235444800    8.4311752200   14.2270450100
 N    4.2170847100    8.4576807100   16.3324684700
 N    6.3264219500   10.5360896700   16.3831937500
 N    8.4278329400    2.1069582300   10.0000000000
 N   10.5347911700    0.0000000000   10.0000000000
 N    8.4278329400    0.0000000000   12.1069582300
 N   10.5347911700    2.1069582300   12.1069582300
 N    8.4330441600    2.1060315400   14.2241129100
 N   10.5393431000    0.0003521200   14.2264976600
 N    8.4362591800   -0.0005638400   16.3869885100
 N   10.5420460500    2.1053084400   16.3872803300
 N    8.4278329400    6.3208747000   10.0000000000
 N   10.5347911700    4.2139164700   10.0000000000
 N    8.4278329400    4.2139164700   12.1069582300
 N   10.5347911700    6.3208747000   12.1069582300
 N    8.4251895000    6.3225221700   14.2270029500
 N   10.5390725400    4.2146988800   14.2226927700
 N    8.4397523200    4.2117476900   16.3913708800
 N   10.5422959700    6.3232124700   16.3865974100
 N    8.4278329400   10.5347911700   10.0000000000
 N   10.5347911700    8.4278329400   10.0000000000
 N    8.4278329400    8.4278329400   12.1069582300
 N   10.5347911700   10.5347911700   12.1069582300
 N    8.4310783500   10.5361137200   14.2250234300
 N   10.5391394100    8.4287376900   14.2238420400
 N    8.4361359100    8.4314713000   16.3924062400
 N   10.5408103900   10.5372176500   16.3866950200
 S    4.1780401100    6.3978257200   18.9120250900
Li    6.3128925300    6.3636423100   18.3617862100
Li    4.1947460200    4.2588797300   18.3813891300
  147

Ti    0.0000000000    0.0000000000   10.0000000000
Ti    2.1069582300    0.0000000000   12.1069582300
Ti    0.0000000000    2.1069582300   12.1069582300
Ti    2.1069582300    2.1069582300   10.0000000000
Ti   -0.0009831449   -0.0019071732   14.2062868545
Ti    2.1005439588   -0.0037698797   16.2224085669
Ti   -0.0014896992    2.1018178827   16.2210579862
Ti    2.0997944800    2.0948179042   14.2072684116
Ti    0.0000000000    4.2139164700   10.0000000000
Ti    2.1069582300    4.2139164700   12.1069582300
Ti    0.0000000000    6.3208747000   12.1069582300
Ti    2.1069582300    6.3208747000   10.0000000000
Ti   -0.0155350982    4.2135309478   14.1951717719
Ti    2.0456286921    4.2217849371   16.1800016042
Ti   -0.0171890105    6.3270874646   16.2081172338
Ti    2.1349522359    6.3259429413   14.1985524237
Ti    0.0000000000    8.4278329400   10.0000000000
Ti    2.1069582300    8.4278329400   12.1069582300
Ti    0.0000000000   10.5347911700   12.1069582300
Ti    2.1069582300   10.5347911700   10.0000000000
Ti   -0.0059540441    8.4290122305   14.2034047981
Ti    2.1025988625    8.4235260262   16.2275464575
Ti   -0.0001143785   10.5302747527   16.2200821639
Ti    2.1056734687   10.5361301315   14.2077903913
Ti    4.2139164700    0.0000000000   10.0000000000
Ti    6.3208747000    0.0000000000   12.1069582300
Ti    4.2139164700    2.1069582300   12.1069582300
Ti    6.3208747000    2.1069582300   10.0000000000
Ti    4.2115559428   -0.0131001618   14.1927185258
Ti    6.3264108092   -0.0116563688   16.2144393830
Ti    4.2161326220    2.0501477057   16.1875823420
Ti    6.3216704033    2.0993838184   14.1991990342
Ti    4.2139164700    4.2139164700   10.0000000000
Ti    6.3208747000    4.2139164700   12.1069582300
Ti    4.2139164700    6.3208747000   12.1069582300
Ti    6.3208747000    6.3208747000   10.0000000000
Ti    4.2086634499    4.2337244507   14.2196340397
Ti    6.3225255036    4.1721879977   16.2252025023
Ti    4.1500380764    6.2929291540   16.4893908170
Ti    6.2855916451    6.3144592649   14.2494720768
Ti    4.2139164700    8.4278329400   10.0000000000
Ti    6.3208747000    8.4278329400   12.1069582300
Ti    4.2139164700   10.5347911700   12.1069582300
Ti    6.3208747000   10.5347911700   10.0000000000
Ti    4.2100899447    8.3886742377   14.2148045755
Ti    6.3059692020    8.4471076043   16.2227623960
Ti    4.2058956175   10.5348612454   16.2165260183
Ti    6.3176035571   10.5301913573   14.2046802227
Ti    8.4278329400    0.0000000000   10.0000000000
Ti   10.5347911700    0.0000000000   12.1069582300
Ti    8.4278329400    2.1069582300   12.1069582300
Ti   10.5347911700    2.1069582300   10.0000000000
Ti    8.4286090495   -0.0042220803   14.2045211327
Ti   10.5319619975   -0.0018656139   16.2191613796
Ti    8.4277193532    2.0985667257   16.2180043952
Ti   10.5354827169    2.1039007061   14.2069050611
Ti    8.4278329400    4.2139164700   10.0000000000
Ti   10.5347911700    4.2139164700   12.1069582300
Ti    8.4278329400    6.3208747000   12.1069582300
Ti   10.5347911700    6.3208747000   10.0000000000
Ti    8.4240680148    4.2133767722   14.2069240728
Ti   10.5315947015    4.2067676757   16.2165115093
Ti    8.4547470230    6.3163920429   16.2168969983
Ti   10.5265006274    6.3219552464   14.1981905162
Ti    8.4278329400    8.4278329400   10.0000000000
Ti   10.5347911700    8.4278329400   12.1069582300
Ti    8.4278329400   10.5347911700   12.1069582300
Ti   10.5347911700   10.5347911700   10.0000000000
Ti    8.4262588281    8.4234260796   14.2067165389
Ti   10.5323904573    8.4311931119   16.2174693766
Ti    8.4278154298   10.5305783048   16.2187447912
Ti   10.5342657109   10.5340075045   14.2054246595
 N    0.0000000000    2.1069582300   10.0000000000
 N    2.1069582300    0.0000000000   10.0000000000
 N    0.0000000000    0.0000000000   12.1069582300
 N    2.1069582300    2.1069582300   12.1069582300
 N   -0.0041421527    2.1057051487   14.2270699739
 N    2.1058773509   -0.0054328191   14.2273078206
 N   -0.0030606484   -0.0023628043   16.3887389188
 N    2.1035424858    2.1066097618   16.4344075441
 N    0.0000000000    6.3208747000   10.0000000000
 N    2.1069582300    4.2139164700   10.0000000000
 N    0.0000000000    4.2139164700   12.1069582300
 N    2.1069582300    6.3208747000   12.1069582300
 N    0.0012215369    6.3225012038   14.2237389158
 N    2.0970482254    4.2106308209   14.2119260262
 N   -0.0146577739    4.2142166220   16.3811486132
 N    2.0648689602    6.3162883492   16.3273178895
 N    0.0000000000   10.5347911700   10.0000000000
 N    2.1069582300    8.4278329400   10.0000000000
 N    0.0000000000    8.4278329400   12.1069582300
 N    2.1069582300   10.5347911700   12.1069582300
 N   -0.0006439701   10.5336588453   14.2285946970
 N    2.1026781190    8.4290615528   14.2333155302
 N   -0.0065545530    8.4287060550   16.3850702518
 N    2.1029783423   10.5324171462   16.3865520987
 N    4.2139164700    2.1069582300   10.0000000000
 N    6.3208747000    0.0000000000   10.0000000000
 N    4.2139164700    0.0000000000   12.1069582300
 N    6.3208747000    2.1069582300   12.1069582300
 N    4.2103696312    2.1039639195   14.2193424692
 N    6.3207491759   -0.0069474260   14.2237133263
 N    4.2124991973   -0.0156846986   16.3842945506
 N    6.3173911257    2.0919173956   16.3899579805
 N    4.2139164700    6.3208747000   10.0000000000
 N    6.3208747000    4.2139164700   10.0000000000
 N    4.2139164700    4.2139164700   12.1069582300
 N    6.3208747000    6.3208747000   12.1069582300
 N    4.2091224871    6.3121823010   14.2678731779
 N    6.3165763158    4.2070542875   14.2362387472
 N    4.1840678315    4.1518609355   16.3633494268
 N    6.3289345221    6.3097140024   16.4571976308
 N    4.2139164700   10.5347911700   10.0000000000
 N    6.3208747000    8.4278329400   10.0000000000
 N    4.2139164700    8.4278329400   12.1069582300
 N    6.3208747000   10.5347911700   12.1069582300
 N    4.2113782857   10.5181332300   14.2294270335
 N    6.3165098017    8.4225123945   14.2365719174
 N    4.2034203159    8.4281613644   16.3715002485
 N    6.3184843504   10.5249858825   16.3887058201
 N    8.4278329400    2.1069582300   10.0000000000
 N   10.5347911700    0.0000000000   10.0000000000
 N    8.4278329400    0.0000000000   12.1069582300
 N   10.5347911700    2.1069582300   12.1069582300
 N    8.4283555105    2.1034441556   14.2262465619
 N   10.5342889040   -0.0018041256   14.2274328396
 N    8.4288445872   -0.0059006623   16.3884637193
 N   10.5333393939    2.1023390362   16.3880673809
 N    8.4278329400    6.3208747000   10.0000000000
 N   10.5347911700    4.2139164700   10.0000000000
 N    8.4278329400    4.2139164700   12.1069582300
 N   10.5347911700    6.3208747000   12.1069582300
 N    8.4140103801    6.3184801217   14.2349551146
 N   10.5277817400    4.2134016138   14.2247090110
 N    8.4231560440    4.2041192575   16.3951586328
 N   10.5259386068    6.3204368612   16.3882302281
 N    8.4278329400   10.5347911700   10.0000000000
 N   10.5347911700    8.4278329400   10.0000000000
 N    8.4278329400    8.4278329400   12.1069582300
 N   10.5347911700   10.5347911700   12.1069582300
 N    8.4259433604   10.5318439912   14.2275574621
 N   10.5321942707    8.4273704712   14.2259299612
 N    8.4253746167    8.4267609056   16.3950454746
 N   10.5331409778   10.5339593505   16.3874729795
 S    4.0249853945    5.9755379570   18.9241792474
Li    6.1540161908    6.2554838470   18.4206025693
Li    3.6822675963    3.8412783480   18.3679480119
  147

Ti    0.0000000000    0.0000000000   10.0000000000
Ti    2.1069582300    0.0000000000   12.1069582300
Ti    0.0000000000    2.1069582300   12.1069582300
Ti    2.1069582300    2.1069582300   10.0000000000
Ti    0.0049016053    0.0053598406   14.2093854773
Ti    2.1103655936    0.0034825766   16.2335478558
Ti    0.0057919732    2.1150448092   16.2321617333
Ti    2.1035263853    2.1010861836   14.2266073088
Ti    0.0000000000    4.2139164700   10.0000000000
Ti    2.1069582300    4.2139164700   12.1069582300
Ti    0.0000000000    6.3208747000   12.1069582300
Ti    2.1069582300    6.3208747000   10.0000000000
Ti   -0.0119080630    4.2159584919   14.1966369128
Ti    2.0698546798    4.2570829948   16.1712159096
Ti   -0.0148444110    6.3318276824   16.2068716790
Ti    2.1358425067    6.3334759802   14.1935393295
Ti    0.0000000000    8.4278329400   10.0000000000
Ti    2.1069582300    8.4278329400   12.1069582300
Ti    0.0000000000   10.5347911700   12.1069582300
Ti    2.1069582300   10.5347911700   10.0000000000
Ti   -0.0052592111    8.4324798024   14.2028208490
Ti    2.1057495941    8.4278240845   16.2254212133
Ti    0.0025925467   10.5370715722   16.2208147885
Ti    2.1074962784   10.5429870774   14.2097152344
Ti    4.2139164700    0.0000000000   10.0000000000
Ti    6.3208747000    0.0000000000   12.1069582300
Ti    4.2139164700    2.1069582300   12.1069582300
Ti    6.3208747000    2.1069582300   10.0000000000
Ti    4.2128017866   -0.0112354747   14.1928037186
Ti    6.3297006509   -0.0089517035   16.2134315481
Ti    4.2387332546    2.0700526337   16.1814857654
Ti    6.3269210487    2.1014215859   14.1965631602
Ti    4.2139164700    4.2139164700   10.0000000000
Ti    6.3208747000    4.2139164700   12.1069582300
Ti    4.2139164700    6.3208747000   12.1069582300
Ti    6.3208747000    6.3208747000   10.0000000000
Ti    4.2141836328    4.2359533513   14.1943022318
Ti    6.3096052631    4.1797071860   16.2226992277
Ti    4.1561406793    6.2816745509   16.4695084642
Ti    6.2894398155    6.3187454901   14.2501438605
Ti    4.2139164700    8.4278329400   10.0000000000
Ti    6.3208747000    8.4278329400   12.1069582300
Ti    4.2139164700   10.5347911700   12.1069582300
Ti    6.3208747000   10.5347911700   10.0000000000
Ti    4.2128999277    8.3945442533   14.2137506181
Ti    6.3077968420    8.4485305537   16.2259868105
Ti    4.2100059915   10.5394162981   16.2167617937
Ti    6.3198890134   10.5311742801   14.2047243662
Ti    8.4278329400    0.0000000000   10.0000000000
Ti   10.5347911700    0.0000000000   12.1069582300
Ti    8.4278329400    2.1069582300   12.1069582300
Ti   10.5347911700    2.1069582300   10.0000000000
Ti    8.4314412557   -0.0014982077   14.2044660375
Ti   10.5370966548    0.0027303928   16.2201193092
Ti    8.4306937051    2.1055802518   16.2180726576
Ti   10.5416665907    2.1068069901   14.2091211117
Ti    8.4278329400    4.2139164700   10.0000000000
Ti   10.5347911700    4.2139164700   12.1069582300
Ti    8.4278329400    6.3208747000   12.1069582300
Ti   10.5347911700    6.3208747000   10.0000000000
Ti    8.4273057554    4.2158122358   14.2072335104
Ti   10.5367919891    4.2131323107   16.2172243355
Ti    8.4535596219    6.3168894427   16.2196915957
Ti   10.5268259213    6.3245802843   14.1983804044
Ti    8.4278329400    8.4278329400   10.0000000000
Ti   10.5347911700    8.4278329400   12.1069582300
Ti    8.4278329400   10.5347911700   12.1069582300
Ti   10.5347911700   10.5347911700   10.0000000000
Ti    8.4275658367    8.4248845164   14.2073589262
Ti   10.5349254644    8.4356712148   16.2173337947
Ti    8.4312905155   10.5348327491   16.2190402190
Ti   10.5363069018   10.5366080743   14.2056260317
 N    0.0000000000    2.1069582300   10.0000000000
 N    2.1069582300    0.0000000000   10.0000000000
 N    0.0000000000    0.0000000000   12.1069582300
 N    2.1069582300    2.1069582300   12.1069582300
 N    0.0008776257    2.1108882264   14.2338967419
 N    2.1095372505    0.0005435679   14.2339244664
 N    0.0031482317    0.0056614815   16.3929535121
 N    2.1288239158    2.1382046183   16.5297338095
 N    0.0000000000    6.3208747000   10.0000000000
 N    2.1069582300    4.2139164700   10.0000000000
 N    0.0000000000    4.2139164700   12.1069582300
 N    2.1069582300    6.3208747000   12.1069582300
 N    0.0024041067    6.3260497804   14.2229526886
 N    2.1007398639    4.2162535382   14.2060905302
 N   -0.0084186427    4.2267681948   16.3831881900
 N    2.0677265393    6.3303498238   16.3183773534
 N    0.0000000000   10.5347911700   10.0000000000
 N    2.1069582300    8.4278329400   10.0000000000
 N    0.0000000000    8.4278329400   12.1069582300
 N    2.1069582300   10.5347911700   12.1069582300
 N    0.0014892276   10.5382565389   14.2295968767
 N    2.1039912536    8.4347497792   14.2326112916
 N   -0.0038317435    8.4353878805   16.3854795219
 N    2.1072228946   10.5427519699   16.3883789637
 N    4.2139164700    2.1069582300   10.0000000000
 N    6.3208747000    0.0000000000   10.0000000000
 N    4.2139164700    0.0000000000   12.1069582300
 N    6.3208747000    2.1069582300   12.1069582300
 N    4.2144855901    2.1056114150   14.2153027043
 N    6.3235942578   -0.0047920584   14.2235479735
 N    4.2209320405   -0.0109558422   16.3834752436
 N    6.3217896309    2.0983010280   16.3863790451
 N    4.2139164700    6.3208747000   10.0000000000
 N    6.3208747000    4.2139164700   10.0000000000
 N    4.2139164700    4.2139164700   12.1069582300
 N    6.3208747000    6.3208747000   12.1069582300
 N    4.2118342902    6.3172306616   14.2645206917
 N    6.3212313678    4.2102568241   14.2312965412
 N    4.1995827106    4.1549223817   16.2849200941
 N    6.3282497985    6.3131507272   16.4715043664
 N    4.2139164700   10.5347911700   10.0000000000
 N    6.3208747000    8.4278329400   10.0000000000
 N    4.2139164700    8.4278329400   12.1069582300
 N    6.3208747000   10.5347911700   12.1069582300
 N    4.2131475052   10.5217091133   14.2294302320
 N    6.3181536381    8.4246520545   14.2388560927
 N    4.2046475871    8.4285892318   16.3822885280
 N    6.3218328982   10.5281473783   16.3895933333
 N    8.4278329400    2.1069582300   10.0000000000
 N   10.5347911700    0.0000000000   10.0000000000
 N    8.4278329400    0.0000000000   12.1069582300
 N   10.5347911700    2.1069582300   12.1069582300
 N    8.4325482399    2.1057317440   14.2270772621
 N   10.5379494429    0.0012573868   14.2285199448
 N    8.4331770364   -0.0011152575   16.3891177916
 N   10.5421058210    2.1084418725   16.3898295216
 N    8.4278329400    6.3208747000   10.0000000000
 N   10.5347911700    4.2139164700   10.0000000000
 N    8.4278329400    4.2139164700   12.1069582300
 N   10.5347911700    6.3208747000   12.1069582300
 N    8.4154929382    6.3201343525   14.2358977954
 N   10.5308174490    4.2159594995   14.2253504176
 N    8.4288186489    4.2083939131   16.3932310204
 N   10.5277165502    6.3250596022   16.3879293961
 N    8.4278329400   10.5347911700   10.0000000000
 N   10.5347911700    8.4278329400   10.0000000000
 N    8.4278329400    8.4278329400   12.1069582300
 N   10.5347911700   10.5347911700   12.1069582300
 N    8.4280279715   10.5339210188   14.2280830583
 N   10.5334017915    8.4298960454   14.2260633231
 N    8.4278027714    8.4305529652   16.3940596636
 N   10.5361988783   10.5382920062   16.3883781017
 S    3.9602833293    5.6721321748   18.8601839557
Li    6.0895390239    6.2249217719   18.4394006627
Li    3.0931739458    3.3527699604   18.4547221563
  147

Ti    0.0000000000    0.0000000000   10.0000000000
Ti    2.1069582300    0.0000000000   12.1069582300
Ti    0.0000000000    2.1069582300   12.1069582300
Ti    2.1069582300    2.1069582300   10.0000000000
Ti    0.0049130190    0.0051663342   14.2079633396
Ti    2.1125928305   -0.0089307684   16.2335863141
Ti   -0.0081443182    2.1173628229   16.2315931968
Ti    2.1087520608    2.1063830159   14.2469269676
Ti    0.0000000000    4.2139164700   10.0000000000
Ti    2.1069582300    4.2139164700   12.1069582300
Ti    0.0000000000    6.3208747000   12.1069582300
Ti    2.1069582300    6.3208747000   10.0000000000
Ti   -0.0078101546    4.2171597266   14.2000192430
Ti    2.0991027866    4.2739378925   16.1860809282
Ti   -0.0145645567    6.3304124163   16.2085051356
Ti    2.1428765789    6.3316335257   14.1930218595
Ti    0.0000000000    8.4278329400   10.0000000000
Ti    2.1069582300    8.4278329400   12.1069582300
Ti    0.0000000000   10.5347911700   12.1069582300
Ti    2.1069582300   10.5347911700   10.0000000000
Ti   -0.0044241579    8.4317350680   14.2037793951
Ti    2.1085953890    8.4297426413   16.2242878415
Ti    0.0025755964   10.5372427979   16.2203648101
Ti    2.1087515423   10.5432089317   14.2069227787
Ti    4.2139164700    0.0000000000   10.0000000000
Ti    6.3208747000    0.0000000000   12.1069582300
Ti    4.2139164700    2.1069582300   12.1069582300
Ti    6.3208747000    2.1069582300   10.0000000000
Ti    4.2138091474   -0.0069236612   14.1941475198
Ti    6.3301180028   -0.0067887600   16.2137073639
Ti    4.2556253552    2.0867327856   16.1906567457
Ti    6.3261305938    2.1027606361   14.1961652090
Ti    4.2139164700    4.2139164700   10.0000000000
Ti    6.3208747000    4.2139164700   12.1069582300
Ti    4.2139164700    6.3208747000   12.1069582300
Ti    6.3208747000    6.3208747000   10.0000000000
Ti    4.2165660482    4.2444479137   14.1888908888
Ti    6.3112330470    4.1889338707   16.2161570647
Ti    4.1705830086    6.2992659648   16.5481183679
Ti    6.2892233312    6.3228688233   14.2394019797
Ti    4.2139164700    8.4278329400   10.0000000000
Ti    6.3208747000    8.4278329400   12.1069582300
Ti    4.2139164700   10.5347911700   12.1069582300
Ti    6.3208747000   10.5347911700   10.0000000000
Ti    4.2146997199    8.3949848259   14.2080804547
Ti    6.3090124172    8.4527891428   16.2223457264
Ti    4.2133073506   10.5455702148   16.2150232828
Ti    6.3206796425   10.5344448096   14.2040154476
Ti    8.4278329400    0.0000000000   10.0000000000
Ti   10.5347911700    0.0000000000   12.1069582300
Ti    8.4278329400    2.1069582300   12.1069582300
Ti   10.5347911700    2.1069582300   10.0000000000
Ti    8.4317152547   -0.0007375181   14.2053561292
Ti   10.5376891175    0.0015801327   16.2197143252
Ti    8.4323511301    2.1090240954   16.2174842677
Ti   10.5410548598    2.1080097515   14.2067865344
Ti    8.4278329400    4.2139164700   10.0000000000
Ti   10.5347911700    4.2139164700   12.1069582300
Ti    8.4278329400    6.3208747000   12.1069582300
Ti   10.5347911700    6.3208747000   10.0000000000
Ti    8.4320477956    4.2173683450   14.2056856844
Ti   10.5388649930    4.2152509804   16.2171591156
Ti    8.4619307285    6.3194044966   16.2147291684
Ti   10.5301359312    6.3249064167   14.1981980147
Ti    8.4278329400    8.4278329400   10.0000000000
Ti   10.5347911700    8.4278329400   12.1069582300
Ti    8.4278329400   10.5347911700   12.1069582300
Ti   10.5347911700   10.5347911700   10.0000000000
Ti    8.4301223105    8.4269969450   14.2069260860
Ti   10.5380642087    8.4377779668   16.2168970203
Ti    8.4325343603   10.5364175136   16.2190166785
Ti   10.5366857559   10.5367213355   14.2051475596
 N    0.0000000000    2.1069582300   10.0000000000
 N    2.1069582300    0.0000000000   10.0000000000
 N    0.0000000000    0.0000000000   12.1069582300
 N    2.1069582300    2.1069582300   12.1069582300
 N    0.0031774769    2.1116375997   14.2370789859
 N    2.1102365357    0.0030302657   14.2371019778
 N    0.0027469147    0.0051767671   16.3949696544
 N    2.1250688156    2.1321361100   16.5410998378
 N    0.0000000000    6.3208747000   10.0000000000
 N    2.1069582300    4.2139164700   10.0000000000
 N    0.0000000000    4.2139164700   12.1069582300
 N    2.1069582300    6.3208747000   12.1069582300
 N    0.0068034149    6.3263406699   14.2245952752
 N    2.1042512741    4.2185470358   14.2132269304
 N   -0.0007434049    4.2290284697   16.3919529203
 N    2.0771483179    6.3340356771   16.3171191731
 N    0.0000000000   10.5347911700   10.0000000000
 N    2.1069582300    8.4278329400   10.0000000000
 N    0.0000000000    8.4278329400   12.1069582300
 N    2.1069582300   10.5347911700   12.1069582300
 N    0.0023764301   10.5377744769   14.2291084164
 N    2.1049986671    8.4346872540   14.2325116363
 N   -0.0009199867    8.4352259160   16.3854498288
 N    2.1094656233   10.5436801795   16.3892923703
 N    4.2139164700    2.1069582300   10.0000000000
 N    6.3208747000    0.0000000000   10.0000000000
 N    4.2139164700    0.0000000000   12.1069582300
 N    6.3208747000    2.1069582300   12.1069582300
 N    4.2165812109    2.1100756614   14.2201984517
 N    6.3245051541   -0.0023470876   14.2231165978
 N    4.2239586685   -0.0053366967   16.3884588081
 N    6.3250867033    2.1050908279   16.3856091161
 N    4.2139164700    6.3208747000   10.0000000000
 N    6.3208747000    4.2139164700   10.0000000000
 N    4.2139164700    4.2139164700   12.1069582300
 N    6.3208747000    6.3208747000   12.1069582300
 N    4.2157580507    6.3225498453   14.2620884333
 N    6.3251166634    4.2130792778   14.2293280746
 N    4.2129859844    4.1781045267   16.2842808104
 N    6.3353521541    6.3208808922   16.4542846998
 N    4.2139164700   10.5347911700   10.0000000000
 N    6.3208747000    8.4278329400   10.0000000000
 N    4.2139164700    8.4278329400   12.1069582300
 N    6.3208747000   10.5347911700   12.1069582300
 N    4.2138862313   10.5238045210   14.2289630966
 N    6.3205795279    8.4276886094   14.2367619307
 N    4.2089706206    8.4375178472   16.3620089215
 N    6.3233376921   10.5316103841   16.3897951539
 N    8.4278329400    2.1069582300   10.0000000000
 N   10.5347911700    0.0000000000   10.0000000000
 N    8.4278329400    0.0000000000   12.1069582300
 N   10.5347911700    2.1069582300   12.1069582300
 N    8.4322206791    2.1068854564   14.2268098007
 N   10.5378520658    0.0017555913   14.2278405143
 N    8.4339669726    0.0008712280   16.3888979371
 N   10.5435366556    2.1094790333   16.3908371038
 N    8.4278329400    6.3208747000   10.0000000000
 N   10.5347911700    4.2139164700   10.0000000000
 N    8.4278329400    4.2139164700   12.1069582300
 N   10.5347911700    6.3208747000   12.1069582300
 N    8.4172659011    6.3217988728   14.2343384517
 N   10.5339214907    4.2165170779   14.2245993295
 N    8.4321886593    4.2124445596   16.3938201675
 N   10.5323447248    6.3262442097   16.3884749548
 N    8.4278329400   10.5347911700   10.0000000000
 N   10.5347911700    8.4278329400   10.0000000000
 N    8.4278329400    8.4278329400   12.1069582300
 N   10.5347911700   10.5347911700   12.1069582300
 N    8.4286632006   10.5353404205   14.2277392044
 N   10.5350100289    8.4302424202   14.2253785243
 N    8.4304461372    8.4322058257   16.3941513993
 N   10.5370948508   10.5390487662   16.3888039650
 S    4.0123661284    5.8812726734   18.8566062869
Li    6.1676823010    6.2593589924   18.4295208158
Li    2.5746645918    2.7456651869   18.3850145582
  147

Ti    0.0000000000    0.0000000000   10.0000000000
Ti    2.1069582300    0.0000000000   12.1069582300
Ti    0.0000000000    2.1069582300   12.1069582300
Ti    2.1069582300    2.1069582300   10.0000000000
Ti   -0.0005468700   -0.0010152000   14.2021189300
Ti    2.1060018000   -0.0296620000   16.2213132000
Ti   -0.0301704100    2.1100098000   16.2197140900
Ti    2.1080499000    2.1049112500   14.2473379100
Ti    0.0000000000    4.2139164700   10.0000000000
Ti    2.1069582300    4.2139164700   12.1069582300
Ti    0.0000000000    6.3208747000   12.1069582300
Ti    2.1069582300    6.3208747000   10.0000000000
Ti   -0.0061481200    4.2182509600   14.2011997000
Ti    2.1104241800    4.2542342500   16.2103397800
Ti   -0.0120846800    6.3227605100   16.2131132100
Ti    2.1475128500    6.3275507700   14.2009556000
Ti    0.0000000000    8.4278329400   10.0000000000
Ti    2.1069582300    8.4278329400   12.1069582300
Ti    0.0000000000   10.5347911700   12.1069582300
Ti    2.1069582300   10.5347911700   10.0000000000
Ti   -0.0035753500    8.4275767000   14.2065810000
Ti    2.1095356400    8.4291863100   16.2266669600
Ti   -0.0014817900   10.5343893100   16.2192428300
Ti    2.1083974400   10.5367572800   14.2022783000
Ti    4.2139164700    0.0000000000   10.0000000000
Ti    6.3208747000    0.0000000000   12.1069582300
Ti    4.2139164700    2.1069582300   12.1069582300
Ti    6.3208747000    2.1069582300   10.0000000000
Ti    4.2153413300   -0.0025918900   14.1949940100
Ti    6.3247883100   -0.0041276600   16.2150686000
Ti    4.2437066400    2.0951199700   16.2065738700
Ti    6.3226486100    2.1044816500   14.1996473700
Ti    4.2139164700    4.2139164700   10.0000000000
Ti    6.3208747000    4.2139164700   12.1069582300
Ti    4.2139164700    6.3208747000   12.1069582300
Ti    6.3208747000    6.3208747000   10.0000000000
Ti    4.2169707100    4.2519302300   14.1948046100
Ti    6.3134196800    4.1934881800   16.2176682200
Ti    4.1822084000    6.3224007900   16.6314228400
Ti    6.2863532000    6.3236127300   14.2351056700
Ti    4.2139164700    8.4278329400   10.0000000000
Ti    6.3208747000    8.4278329400   12.1069582300
Ti    4.2139164700   10.5347911700   12.1069582300
Ti    6.3208747000   10.5347911700   10.0000000000
Ti    4.2144746300    8.3918856600   14.2049589000
Ti    6.3089365200    8.4568857100   16.2183489800
Ti    4.2139134500   10.5479951500   16.2137390700
Ti    6.3198629600   10.5369820800   14.2031030400
Ti    8.4278329400    0.0000000000   10.0000000000
Ti   10.5347911700    0.0000000000   12.1069582300
Ti    8.4278329400    2.1069582300   12.1069582300
Ti   10.5347911700    2.1069582300   10.0000000000
Ti    8.4288561400   -0.0009238700   14.2074029000
Ti   10.5352851700   -0.0041445800   16.2185287900
Ti    8.4320284700    2.1084820400   16.2180142000
Ti   10.5346388200    2.1069610500   14.2013797400
Ti    8.4278329400    4.2139164700   10.0000000000
Ti   10.5347911700    4.2139164700   12.1069582300
Ti    8.4278329400    6.3208747000   12.1069582300
Ti   10.5347911700    6.3208747000   10.0000000000
Ti    8.4317659800    4.2175616100   14.2065214100
Ti   10.5378489500    4.2134216700   16.2164766800
Ti    8.4701093100    6.3215035200   16.2093809900
Ti   10.5344812700    6.3234207900   14.1977366000
Ti    8.4278329400    8.4278329400   10.0000000000
Ti   10.5347911700    8.4278329400   12.1069582300
Ti    8.4278329400   10.5347911700   12.1069582300
Ti   10.5347911700   10.5347911700   10.0000000000
Ti    8.4308069600    8.4276116800   14.2066353800
Ti   10.5394345300    8.4364785400   16.2164794800
Ti    8.4310068600   10.5359293700   16.2185400600
Ti   10.5350270600   10.5346490000   14.2032356800
 N    0.0000000000    2.1069582300   10.0000000000
 N    2.1069582300    0.0000000000   10.0000000000
 N    0.0000000000    0.0000000000   12.1069582300
 N    2.1069582300    2.1069582300   12.1069582300
 N    0.0000741400    2.1084908200   14.2306823600
 N    2.1079415300   -0.0005182800   14.2304422700
 N   -0.0038187700   -0.0022280600   16.3931013300
 N    2.1120136500    2.1151772100   16.4552148500
 N    0.0000000000    6.3208747000   10.0000000000
 N    2.1069582300    4.2139164700   10.0000000000
 N    0.0000000000    4.2139164700   12.1069582300
 N    2.1069582300    6.3208747000   12.1069582300
 N    0.0116631200    6.3243865300   14.2278507000
 N    2.1062909100    4.2172725200   14.2271422000
 N    0.0004264600    4.2201499300   16.3951193100
 N    2.0884634400    6.3243065500   16.3329590800
 N    0.0000000000   10.5347911700   10.0000000000
 N    2.1069582300    8.4278329400   10.0000000000
 N    0.0000000000    8.4278329400   12.1069582300
 N    2.1069582300   10.5347911700   12.1069582300
 N    0.0012915400   10.5329967700   14.2266266100
 N    2.1053501500    8.4306892700   14.2329008800
 N    0.0000657800    8.4296440100   16.3850627600
 N    2.1077385700   10.5364722200   16.3868088800
 N    4.2139164700    2.1069582300   10.0000000000
 N    6.3208747000    0.0000000000   10.0000000000
 N    4.2139164700    0.0000000000   12.1069582300
 N    6.3208747000    2.1069582300   12.1069582300
 N    4.2155678100    2.1154359700   14.2283169000
 N    6.3234556600   -0.0001382900   14.2228086700
 N    4.2184679100   -0.0018869900   16.3937046700
 N    6.3205994100    2.1090016000   16.3881628900
 N    4.2139164700    6.3208747000   10.0000000000
 N    6.3208747000    4.2139164700   10.0000000000
 N    4.2139164700    4.2139164700   12.1069582300
 N    6.3208747000    6.3208747000   12.1069582300
 N    4.2167558500    6.3234942400   14.2580673500
 N    6.3240457100    4.2144694200   14.2319613000
 N    4.2136193500    4.1991083800   16.3236997200
 N    6.3402853200    6.3242619900   16.4360452200
 N    4.2139164700   10.5347911700   10.0000000000
 N    6.3208747000    8.4278329400   10.0000000000
 N    4.2139164700    8.4278329400   12.1069582300
 N    6.3208747000   10.5347911700   12.1069582300
 N    4.2137194000   10.5243005800   14.2280302100
 N    6.3217454600    8.4291400500   14.2330615400
 N    4.2118650200    8.4452179500   16.3331836800
 N    6.3214566400   10.5335380100   16.3894123800
 N    8.4278329400    2.1069582300   10.0000000000
 N   10.5347911700    0.0000000000   10.0000000000
 N    8.4278329400    0.0000000000   12.1069582300
 N   10.5347911700    2.1069582300   12.1069582300
 N    8.4282939900    2.1070261600   14.2268582400
 N   10.5338070000    0.0000166000   14.2252684900
 N    8.4305877800    0.0001111600   16.3875197300
 N   10.5365026800    2.1057964000   16.3887213300
 N    8.4278329400    6.3208747000   10.0000000000
 N   10.5347911700    4.2139164700   10.0000000000
 N    8.4278329400    4.2139164700   12.1069582300
 N   10.5347911700    6.3208747000   12.1069582300
 N    8.4178153100    6.3228236200   14.2330286600
 N   10.5337646100    4.2155514600   14.2229762500
 N    8.4311086600    4.2141014600   16.3957854500
 N   10.5360086400    6.3238039700   16.3892070700
 N    8.4278329400   10.5347911700   10.0000000000
 N   10.5347911700    8.4278329400   10.0000000000
 N    8.4278329400    8.4278329400   12.1069582300
 N   10.5347911700   10.5347911700   12.1069582300
 N    8.4273487800   10.5353404600   14.2267498800
 N   10.5353037200    8.4284086200   14.2240673600
 N    8.4311520000    8.4312189600   16.3946413700
 N   10.5350860100   10.5368930600   16.3902886500
 S    4.1286843800    6.2523258000   18.9080511500
Li    6.2845362900    6.3201987900   18.4154185200
Li    2.1356473300    2.1737375700   18.3352581300
