
     Program PWSCF v.7.5 starts on 30Mar2026 at 22:59:51 

     This program is part of the open-source Quantum ESPRESSO suite
     for quantum simulation of materials; please cite
         "P. Giannozzi et al., J. Phys.:Condens. Matter 21 395502 (2009);
         "P. Giannozzi et al., J. Phys.:Condens. Matter 29 465901 (2017);
         "P. Giannozzi et al., J. Chem. Phys. 152 154105 (2020);
          URL http://www.quantum-espresso.org", 
     in publications or presentations arising from this work. More details at
     http://www.quantum-espresso.org/quote

     Parallel version (MPI & OpenMP), running on      16 processor cores
     Number of MPI processes:                16
     Threads/MPI process:                     1

     MPI processes distributed on     1 nodes
     532546 MiB available memory on the printing compute node when the environment starts

     Waiting for input...
     Reading input from standard input

     Current dimensions of program PWSCF are:
     Max number of different atomic species (ntypx) = 10
     Max number of k-points (npk) =  40000
     Max angular momentum in pseudopotentials (lmaxx) =  4
     Found identity + ( -0.5000 -0.5000  0.0000) symmetry
     This is a supercell, fractional translations are disabled
     Message from routine setup:
     using ibrav=0 with symmetry is DISCOURAGED, use correct ibrav instead

     R & G space division:  proc/nbgrp/npool/nimage =      16
     Subspace diagonalization in iterative solution of the eigenvalue problem:
     a serial algorithm will be used


     Parallelization info
     --------------------
     sticks:   dense  smooth     PW     G-vecs:    dense   smooth      PW
     Min         160      64     18                 6094     1550     242
     Max         161      65     19                 6099     1553     245
     Sum        2561    1033    293                97521    24837    3887

     Using Slab Decomposition



     bravais-lattice index     =            0
     lattice parameter (alat)  =       8.4600  a.u.
     unit-cell volume          =     605.5004 (a.u.)^3
     number of atoms/cell      =            8
     number of atomic types    =            2
     number of electrons       =        64.00
     number of Kohn-Sham states=           32
     kinetic-energy cutoff     =      45.0000  Ry
     charge density cutoff     =     450.0000  Ry
     scf convergence threshold =      1.0E-07
     mixing beta               =       0.2000
     number of iterations used =            8  local-TF  mixing
     energy convergence thresh.=      1.0E-04
     force convergence thresh. =      1.0E-03
     press convergence thresh. =      5.0E-01
     Exchange-correlation= SLA  PW   PBE  PBE
                           (   1   4   3   4   0   0   0)
     nstep                     =           50

     Hubbard projectors: atomic
     Hubbard parameters of DFT+U (Dudarev formulation) in eV:
     U(Sc-3d) =  1.9000

     Internal variables: lda_plus_u =T, lda_plus_u_kind = 0

     Internal variables: orbital_resolved =F, hub_pot_fix =F, apply_U = F

     celldm(1)=   8.460022  celldm(2)=   0.000000  celldm(3)=   0.000000
     celldm(4)=   0.000000  celldm(5)=   0.000000  celldm(6)=   0.000000

     crystal axes: (cart. coord. in units of alat)
               a(1) = (   1.000000   0.000000   0.000000 )  
               a(2) = (   0.000000   1.000000   0.000000 )  
               a(3) = (   0.000000   0.000000   1.000000 )  

     reciprocal axes: (cart. coord. in units 2 pi/alat)
               b(1) = (  1.000000  0.000000  0.000000 )  
               b(2) = (  0.000000  1.000000  0.000000 )  
               b(3) = (  0.000000  0.000000  1.000000 )  


     PseudoPot. # 1 for Sc read from file:
     /scratch/anizami/QE_2/USPP/sc_pbe_v1.uspp.F.UPF
     MD5 check sum: db30a2753ba66ef00f23801d899b7e7f
     Pseudo is Ultrasoft + core correction, Zval = 11.0
     Generated by new atomic code, or converted to UPF format
     Using radial grid of  849 points,  6 beta functions with: 
                l(1) =   0
                l(2) =   0
                l(3) =   1
                l(4) =   1
                l(5) =   2
                l(6) =   2
     Q(r) pseudized with  6 coefficients,  rinner =    1.200   1.200   1.200
                                                       1.200   1.200

     PseudoPot. # 2 for N  read from file:
     /scratch/anizami/QE_2/USPP/n_pbe_v1.2.uspp.F.UPF
     MD5 check sum: 95339753478d7afb44899504a8723017
     Pseudo is Ultrasoft + core correction, Zval =  5.0
     Generated by new atomic code, or converted to UPF format
     Using radial grid of  729 points,  4 beta functions with: 
                l(1) =   0
                l(2) =   0
                l(3) =   1
                l(4) =   1
     Q(r) pseudized with  8 coefficients,  rinner =    0.900   0.900   0.900


     atomic species   valence    mass     pseudopotential
     Sc               11.00     1.00000     Sc( 1.00)
     N                 5.00     1.00000     N ( 1.00)

     48 Sym. Ops., with inversion, found



   Cartesian axes

     site n.     atom                  positions (alat units)
         1        Sc     tau(   1) = (   0.0000000   0.0000000   0.0000000  )
         2        Sc     tau(   2) = (   0.5000000   0.5000000   0.0000000  )
         3        Sc     tau(   3) = (   0.5000000   0.0000000   0.5000000  )
         4        Sc     tau(   4) = (   0.0000000   0.5000000   0.5000000  )
         5        N      tau(   5) = (   0.0000000   0.0000000   0.5000000  )
         6        N      tau(   6) = (   0.0000000   0.5000000   0.0000000  )
         7        N      tau(   7) = (   0.5000000   0.0000000   0.0000000  )
         8        N      tau(   8) = (   0.5000000   0.5000000   0.5000000  )

     --------------------------------------------
     DFT-D3 Dispersion Correction (3-body terms):
     --------------------------------------------
       Reference C6 values for interpolation: 

         atom   Coordination number   C6
         N          0.000            50.54
         N          0.994            44.25
         N          2.014            39.35
         N          2.990            31.16
         Sc         0.000          3044.94
         Sc         1.863           649.01
         Sc         2.900           627.97

       Values used:

         atom   Coordination number  R0_AB[au]  C6      C8
         Sc        16.706            3.676    627.97  82273.04
         Sc        16.706            3.676    627.97  82273.04
         Sc        16.706            3.676    627.97  82273.04
         Sc        16.706            3.676    627.97  82273.04
         N          5.927            2.478     31.16    687.49
         N          5.927            2.478     31.16    687.49
         N          5.927            2.478     31.16    687.49
         N          5.927            2.478     31.16    687.49

         Molecular C6 ( Ry / a.u.^6 ) =     14727.98


     number of k points=    10
                       cart. coord. in units 2pi/alat
        k(    1) = (   0.0000000   0.0000000   0.0000000), wk =   0.0160000
        k(    2) = (   0.0000000   0.0000000   0.2000000), wk =   0.0960000
        k(    3) = (   0.0000000   0.0000000   0.4000000), wk =   0.0960000
        k(    4) = (   0.0000000   0.2000000   0.2000000), wk =   0.1920000
        k(    5) = (   0.0000000   0.2000000   0.4000000), wk =   0.3840000
        k(    6) = (   0.0000000   0.4000000   0.4000000), wk =   0.1920000
        k(    7) = (   0.2000000   0.2000000   0.2000000), wk =   0.1280000
        k(    8) = (   0.2000000   0.2000000   0.4000000), wk =   0.3840000
        k(    9) = (   0.2000000   0.4000000   0.4000000), wk =   0.3840000
        k(   10) = (   0.4000000   0.4000000   0.4000000), wk =   0.1280000

     Dense  grid:    97521 G-vectors     FFT dimensions: (  60,  60,  60)

     Smooth grid:    24837 G-vectors     FFT dimensions: (  40,  40,  40)

     Estimated max dynamical RAM per process >      31.16 MB

     Estimated total dynamical RAM >     498.58 MB

     Check: negative core charge=   -0.000002

     Initial potential from superposition of free atoms

     starting charge      63.9904, renormalised to      64.0000

     STARTING HUBBARD OCCUPATIONS:

     =================== HUBBARD OCCUPATIONS ===================
     ------------------------ ATOM    1 ------------------------
     Tr[ns(  1)] =   1.00000
     eigenvalues:
       0.100  0.100  0.100  0.100  0.100
     eigenvectors (columns):
       1.000  0.000  0.000  0.000  0.000
       0.000  1.000  0.000  0.000  0.000
       0.000  0.000  1.000  0.000  0.000
       0.000  0.000  0.000  1.000  0.000
       0.000  0.000  0.000  0.000  1.000
     occupation matrix ns (before diag.):
       0.100  0.000  0.000  0.000  0.000
       0.000  0.100  0.000  0.000  0.000
       0.000  0.000  0.100  0.000  0.000
       0.000  0.000  0.000  0.100  0.000
       0.000  0.000  0.000  0.000  0.100
     ------------------------ ATOM    2 ------------------------
     Tr[ns(  2)] =   1.00000
     eigenvalues:
       0.100  0.100  0.100  0.100  0.100
     eigenvectors (columns):
       1.000  0.000  0.000  0.000  0.000
       0.000  1.000  0.000  0.000  0.000
       0.000  0.000  1.000  0.000  0.000
       0.000  0.000  0.000  1.000  0.000
       0.000  0.000  0.000  0.000  1.000
     occupation matrix ns (before diag.):
       0.100  0.000  0.000  0.000  0.000
       0.000  0.100  0.000  0.000  0.000
       0.000  0.000  0.100  0.000  0.000
       0.000  0.000  0.000  0.100  0.000
       0.000  0.000  0.000  0.000  0.100
     ------------------------ ATOM    3 ------------------------
     Tr[ns(  3)] =   1.00000
     eigenvalues:
       0.100  0.100  0.100  0.100  0.100
     eigenvectors (columns):
       1.000  0.000  0.000  0.000  0.000
       0.000  1.000  0.000  0.000  0.000
       0.000  0.000  1.000  0.000  0.000
       0.000  0.000  0.000  1.000  0.000
       0.000  0.000  0.000  0.000  1.000
     occupation matrix ns (before diag.):
       0.100  0.000  0.000  0.000  0.000
       0.000  0.100  0.000  0.000  0.000
       0.000  0.000  0.100  0.000  0.000
       0.000  0.000  0.000  0.100  0.000
       0.000  0.000  0.000  0.000  0.100
     ------------------------ ATOM    4 ------------------------
     Tr[ns(  4)] =   1.00000
     eigenvalues:
       0.100  0.100  0.100  0.100  0.100
     eigenvectors (columns):
       1.000  0.000  0.000  0.000  0.000
       0.000  1.000  0.000  0.000  0.000
       0.000  0.000  1.000  0.000  0.000
       0.000  0.000  0.000  1.000  0.000
       0.000  0.000  0.000  0.000  1.000
     occupation matrix ns (before diag.):
       0.100  0.000  0.000  0.000  0.000
       0.000  0.100  0.000  0.000  0.000
       0.000  0.000  0.100  0.000  0.000
       0.000  0.000  0.000  0.100  0.000
       0.000  0.000  0.000  0.000  0.100

     Number of occupied Hubbard levels =    4.0000

     Atomic wfc used for Hubbard projectors are NOT orthogonalized

     Starting wfcs are   68 randomized atomic wfcs

     total cpu time spent up to now is        1.0 secs

     per-process dynamical memory:   103.7 Mb

     Self-consistent Calculation

     iteration #  1     ecut=    45.00 Ry     beta= 0.20
     Davidson diagonalization with overlap
     ethr =  1.00E-02,  avg # of iterations =  1.1

     =================== HUBBARD OCCUPATIONS ===================
     ------------------------ ATOM    1 ------------------------
     Tr[ns(  1)] =   2.29218
     eigenvalues:
       0.162  0.162  0.162  0.330  0.330
     eigenvectors (columns):
      -0.000 -0.000 -0.000  0.253 -0.968
      -0.278  0.687 -0.671 -0.000  0.000
      -0.395  0.555  0.732 -0.000  0.000
       0.000 -0.000  0.000 -0.968 -0.253
       0.876  0.469  0.117  0.000 -0.000
     occupation matrix ns (before diag.):
       0.330 -0.000 -0.000  0.000  0.000
      -0.000  0.162 -0.000  0.000  0.000
      -0.000 -0.000  0.162  0.000  0.000
       0.000  0.000  0.000  0.330 -0.000
       0.000  0.000  0.000 -0.000  0.162
     ------------------------ ATOM    2 ------------------------
     Tr[ns(  2)] =   2.29079
     eigenvalues:
       0.162  0.162  0.162  0.330  0.330
     eigenvectors (columns):
       0.000 -0.000  0.000 -1.000  0.000
       0.730 -0.684 -0.000  0.000  0.000
       0.684  0.730 -0.000  0.000  0.000
      -0.000  0.000 -0.000  0.000  1.000
      -0.000 -0.000 -1.000 -0.000 -0.000
     occupation matrix ns (before diag.):
       0.330 -0.000 -0.000  0.000  0.000
      -0.000  0.162 -0.000  0.000  0.000
      -0.000 -0.000  0.162  0.000  0.000
       0.000  0.000  0.000  0.330 -0.000
       0.000  0.000  0.000 -0.000  0.162
     ------------------------ ATOM    3 ------------------------
     Tr[ns(  3)] =   2.29079
     eigenvalues:
       0.162  0.162  0.162  0.330  0.330
     eigenvectors (columns):
      -0.000 -0.000  0.000 -0.500  0.866
      -0.000  0.000  1.000 -0.000 -0.000
      -0.350  0.937 -0.000 -0.000 -0.000
       0.000  0.000 -0.000 -0.866 -0.500
       0.937  0.350  0.000  0.000  0.000
     occupation matrix ns (before diag.):
       0.330 -0.000 -0.000 -0.000  0.000
      -0.000  0.162 -0.000  0.000  0.000
      -0.000 -0.000  0.162  0.000  0.000
      -0.000  0.000  0.000  0.330 -0.000
       0.000  0.000  0.000 -0.000  0.162
     ------------------------ ATOM    4 ------------------------
     Tr[ns(  4)] =   2.29079
     eigenvalues:
       0.162  0.162  0.162  0.330  0.330
     eigenvectors (columns):
      -0.000  0.000  0.000  0.500 -0.866
      -0.270  0.963 -0.000 -0.000  0.000
      -0.000  0.000  1.000 -0.000 -0.000
       0.000 -0.000 -0.000 -0.866 -0.500
       0.963  0.270  0.000  0.000 -0.000
     occupation matrix ns (before diag.):
       0.330 -0.000 -0.000  0.000  0.000
      -0.000  0.162 -0.000  0.000  0.000
      -0.000 -0.000  0.162  0.000  0.000
       0.000  0.000  0.000  0.330 -0.000
       0.000  0.000  0.000 -0.000  0.162

     Number of occupied Hubbard levels =    9.1645

     total cpu time spent up to now is        1.4 secs

     total energy              =    -458.87912307 Ry
     estimated scf accuracy    <       3.62946529 Ry

     iteration #  2     ecut=    45.00 Ry     beta= 0.20
     Davidson diagonalization with overlap
     ethr =  5.67E-03,  avg # of iterations =  1.0

     total cpu time spent up to now is        1.5 secs

     total energy              =    -458.05971620 Ry
     estimated scf accuracy    <       2.01991607 Ry

     iteration #  3     ecut=    45.00 Ry     beta= 0.20
     Davidson diagonalization with overlap
     ethr =  3.16E-03,  avg # of iterations =  3.1

     total cpu time spent up to now is        1.7 secs

     total energy              =    -458.56311860 Ry
     estimated scf accuracy    <       0.10398713 Ry

     iteration #  4     ecut=    45.00 Ry     beta= 0.20
     Davidson diagonalization with overlap
     ethr =  1.62E-04,  avg # of iterations =  3.3

     total cpu time spent up to now is        1.9 secs

     total energy              =    -458.60353277 Ry
     estimated scf accuracy    <       0.04610836 Ry

     iteration #  5     ecut=    45.00 Ry     beta= 0.20
     Davidson diagonalization with overlap
     ethr =  7.20E-05,  avg # of iterations =  2.8

     total cpu time spent up to now is        2.1 secs

     total energy              =    -458.57550501 Ry
     estimated scf accuracy    <       0.07748322 Ry

     iteration #  6     ecut=    45.00 Ry     beta= 0.20
     Davidson diagonalization with overlap
     ethr =  7.20E-05,  avg # of iterations =  3.9

     total cpu time spent up to now is        2.3 secs

     total energy              =    -458.59209583 Ry
     estimated scf accuracy    <       0.00262045 Ry

     iteration #  7     ecut=    45.00 Ry     beta= 0.20
     Davidson diagonalization with overlap
     ethr =  4.09E-06,  avg # of iterations =  2.8

     total cpu time spent up to now is        2.5 secs

     total energy              =    -458.59221781 Ry
     estimated scf accuracy    <       0.00313297 Ry

     iteration #  8     ecut=    45.00 Ry     beta= 0.20
     Davidson diagonalization with overlap
     ethr =  4.09E-06,  avg # of iterations =  1.0

     total cpu time spent up to now is        2.7 secs

     total energy              =    -458.59536803 Ry
     estimated scf accuracy    <       0.00309837 Ry

     iteration #  9     ecut=    45.00 Ry     beta= 0.20
     Davidson diagonalization with overlap
     ethr =  4.09E-06,  avg # of iterations =  4.7

     total cpu time spent up to now is        2.9 secs

     total energy              =    -458.59820486 Ry
     estimated scf accuracy    <       0.02967425 Ry

     iteration # 10     ecut=    45.00 Ry     beta= 0.20
     Davidson diagonalization with overlap
     ethr =  4.09E-06,  avg # of iterations =  1.0

     total cpu time spent up to now is        3.0 secs

     total energy              =    -458.59617640 Ry
     estimated scf accuracy    <       0.03159676 Ry

     iteration # 11     ecut=    45.00 Ry     beta= 0.20
     Davidson diagonalization with overlap
     ethr =  4.09E-06,  avg # of iterations =  1.0

     total cpu time spent up to now is        3.2 secs

     total energy              =    -458.59524359 Ry
     estimated scf accuracy    <       0.02641615 Ry

     iteration # 12     ecut=    45.00 Ry     beta= 0.20
     Davidson diagonalization with overlap
     ethr =  4.09E-06,  avg # of iterations =  1.4

     total cpu time spent up to now is        3.4 secs

     total energy              =    -458.59211309 Ry
     estimated scf accuracy    <       0.02196365 Ry

     iteration # 13     ecut=    45.00 Ry     beta= 0.20
     Davidson diagonalization with overlap
     ethr =  4.09E-06,  avg # of iterations =  3.9

     total cpu time spent up to now is        3.6 secs

     total energy              =    -458.59255013 Ry
     estimated scf accuracy    <       0.00725957 Ry

     iteration # 14     ecut=    45.00 Ry     beta= 0.20
     Davidson diagonalization with overlap
     ethr =  4.09E-06,  avg # of iterations =  1.0

     total cpu time spent up to now is        3.7 secs

     total energy              =    -458.59158613 Ry
     estimated scf accuracy    <       0.00592806 Ry

     iteration # 15     ecut=    45.00 Ry     beta= 0.20
     Davidson diagonalization with overlap
     ethr =  4.09E-06,  avg # of iterations =  2.2

     total cpu time spent up to now is        3.9 secs

     total energy              =    -458.59081269 Ry
     estimated scf accuracy    <       0.00194024 Ry

     iteration # 16     ecut=    45.00 Ry     beta= 0.20
     Davidson diagonalization with overlap
     ethr =  3.03E-06,  avg # of iterations =  4.1

     total cpu time spent up to now is        4.1 secs

     total energy              =    -458.59172357 Ry
     estimated scf accuracy    <       0.00112989 Ry

     iteration # 17     ecut=    45.00 Ry     beta= 0.20
     Davidson diagonalization with overlap
     ethr =  1.77E-06,  avg # of iterations =  1.0

     total cpu time spent up to now is        4.3 secs

     total energy              =    -458.59174362 Ry
     estimated scf accuracy    <       0.00087427 Ry

     iteration # 18     ecut=    45.00 Ry     beta= 0.20
     Davidson diagonalization with overlap
     ethr =  1.37E-06,  avg # of iterations =  1.0

     total cpu time spent up to now is        4.4 secs

     total energy              =    -458.59145073 Ry
     estimated scf accuracy    <       0.00090005 Ry

     iteration # 19     ecut=    45.00 Ry     beta= 0.20
     Davidson diagonalization with overlap
     ethr =  1.37E-06,  avg # of iterations =  3.5

     total cpu time spent up to now is        4.6 secs

     total energy              =    -458.59153831 Ry
     estimated scf accuracy    <       0.00005003 Ry

     iteration # 20     ecut=    45.00 Ry     beta= 0.20
     Davidson diagonalization with overlap
     ethr =  7.82E-08,  avg # of iterations =  4.2

     total cpu time spent up to now is        4.9 secs

     total energy              =    -458.59156011 Ry
     estimated scf accuracy    <       0.00006779 Ry

     iteration # 21     ecut=    45.00 Ry     beta= 0.20
     Davidson diagonalization with overlap
     ethr =  7.82E-08,  avg # of iterations =  3.8

     total cpu time spent up to now is        5.1 secs

     total energy              =    -458.59158138 Ry
     estimated scf accuracy    <       0.00000655 Ry

     iteration # 22     ecut=    45.00 Ry     beta= 0.20
     Davidson diagonalization with overlap
     ethr =  1.02E-08,  avg # of iterations =  3.5

     total cpu time spent up to now is        5.3 secs

     total energy              =    -458.59157499 Ry
     estimated scf accuracy    <       0.00002247 Ry

     iteration # 23     ecut=    45.00 Ry     beta= 0.20
     Davidson diagonalization with overlap
     ethr =  1.02E-08,  avg # of iterations =  3.8

     total cpu time spent up to now is        5.5 secs

     total energy              =    -458.59157684 Ry
     estimated scf accuracy    <       0.00000108 Ry

     iteration # 24     ecut=    45.00 Ry     beta= 0.20
     Davidson diagonalization with overlap
     ethr =  1.69E-09,  avg # of iterations =  3.8

     total cpu time spent up to now is        5.7 secs

     End of self-consistent calculation

     =================== HUBBARD OCCUPATIONS ===================
     ------------------------ ATOM    1 ------------------------
     Tr[ns(  1)] =   3.26165
     eigenvalues:
       0.250  0.250  0.250  0.440  0.440
     eigenvectors (columns):
      -0.000 -0.000 -0.000  0.337 -0.941
      -0.273  0.846 -0.457 -0.000  0.000
      -0.360  0.351  0.864 -0.000 -0.000
       0.000 -0.000  0.000 -0.941 -0.337
       0.892  0.400  0.209  0.000 -0.000
     occupation matrix ns (before diag.):
       0.440 -0.000 -0.000  0.000  0.000
      -0.000  0.250 -0.000  0.000  0.000
      -0.000 -0.000  0.250  0.000  0.000
       0.000  0.000  0.000  0.440 -0.000
       0.000  0.000  0.000 -0.000  0.250
     ------------------------ ATOM    2 ------------------------
     Tr[ns(  2)] =   3.26174
     eigenvalues:
       0.250  0.250  0.250  0.440  0.440
     eigenvectors (columns):
      -0.000  0.000 -0.000  0.000 -1.000
      -0.000  0.755 -0.656 -0.000  0.000
      -0.000  0.656  0.755 -0.000  0.000
       0.000 -0.000  0.000 -1.000 -0.000
       1.000  0.000  0.000  0.000 -0.000
     occupation matrix ns (before diag.):
       0.440 -0.000 -0.000  0.000  0.000
      -0.000  0.250 -0.000  0.000  0.000
      -0.000 -0.000  0.250  0.000  0.000
       0.000  0.000  0.000  0.440 -0.000
       0.000  0.000  0.000 -0.000  0.250
     ------------------------ ATOM    3 ------------------------
     Tr[ns(  3)] =   3.26174
     eigenvalues:
       0.250  0.250  0.250  0.440  0.440
     eigenvectors (columns):
       0.000 -0.000 -0.000 -0.866 -0.500
       1.000  0.000 -0.000  0.000 -0.000
       0.000 -0.346  0.938  0.000 -0.000
      -0.000  0.000  0.000  0.500 -0.866
      -0.000  0.938  0.346 -0.000  0.000
     occupation matrix ns (before diag.):
       0.440 -0.000 -0.000  0.000  0.000
      -0.000  0.250 -0.000  0.000  0.000
      -0.000 -0.000  0.250  0.000  0.000
       0.000  0.000  0.000  0.440 -0.000
       0.000  0.000  0.000 -0.000  0.250
     ------------------------ ATOM    4 ------------------------
     Tr[ns(  4)] =   3.26174
     eigenvalues:
       0.250  0.250  0.250  0.440  0.440
     eigenvectors (columns):
       0.000 -0.000  0.000 -0.866 -0.500
       0.000 -0.257  0.966  0.000  0.000
       1.000  0.000 -0.000 -0.000  0.000
      -0.000  0.000 -0.000 -0.500  0.866
      -0.000  0.966  0.257 -0.000 -0.000
     occupation matrix ns (before diag.):
       0.440 -0.000 -0.000 -0.000  0.000
      -0.000  0.250 -0.000  0.000  0.000
      -0.000 -0.000  0.250  0.000  0.000
      -0.000  0.000  0.000  0.440 -0.000
       0.000  0.000  0.000 -0.000  0.250

     Number of occupied Hubbard levels =   13.0469

          k = 0.0000 0.0000 0.0000 (  3071 PWs)   bands (ev):

   -35.5379 -35.4002 -35.4002 -35.4000 -14.4521 -14.4521 -14.4521 -14.1028
   -14.1028 -14.1028 -14.1027 -14.1027 -14.1027 -13.8868 -13.8868 -13.8868
    -1.1727  -0.0051  -0.0051  -0.0047   9.8685   9.8685   9.8685  12.0191
    12.0191  12.0191  12.0193  12.0193  12.0193  12.9688  12.9688  12.9688

          k = 0.0000 0.0000 0.2000 (  3070 PWs)   bands (ev):

   -35.5251 -35.4125 -35.4018 -35.4017 -14.4136 -14.4136 -14.4099 -14.1330
   -14.1330 -14.1121 -14.1120 -14.0813 -14.0813 -13.9550 -13.9066 -13.9066
    -0.9535   0.0236   0.1185   0.1187   9.5806   9.9400   9.9400  11.3266
    11.3268  11.3437  11.3437  11.6937  12.0072  12.0072  12.6765  12.6765

          k = 0.0000 0.0000 0.4000 (  3086 PWs)   bands (ev):

   -35.4899 -35.4462 -35.4044 -35.4043 -14.3197 -14.3197 -14.2896 -14.2138
   -14.2138 -14.1272 -14.1271 -14.1174 -14.0260 -14.0260 -13.9592 -13.9592
    -0.4537  -0.0576   0.3314   0.3316   9.3601  10.0668  10.1723  10.1723
    10.4035  10.4037  10.6208  10.6208  12.0441  12.0441  12.2596  12.2596

          k = 0.0000 0.2000 0.2000 (  3067 PWs)   bands (ev):

   -35.5100 -35.4104 -35.4103 -35.4023 -14.3953 -14.3953 -14.3777 -14.2096
   -14.1106 -14.1105 -14.0771 -14.0770 -14.0649 -14.0483 -13.9274 -13.8900
    -0.7373   0.1575   0.1577   0.2359   9.6001   9.6001  10.0074  10.5030
    11.3040  11.3260  11.3398  11.3399  11.3779  11.3781  11.8171  12.3359

          k = 0.0000 0.2000 0.4000 (  3073 PWs)   bands (ev):

   -35.4738 -35.4358 -35.4064 -35.4037 -14.3565 -14.3265 -14.2942 -14.2894
   -14.1991 -14.1884 -14.0630 -14.0526 -14.0504 -13.9987 -13.9827 -13.9241
    -0.2548   0.1069   0.3978   0.4288   9.3099   9.5852   9.7461   9.9343
    10.2310  10.5956  10.6706  10.7514  11.3471  11.4565  11.5159  11.8332

          k = 0.0000 0.4000 0.4000 (  3098 PWs)   bands (ev):

   -35.4409 -35.4164 -35.4163 -35.4053 -14.3734 -14.3734 -14.3660 -14.3151
   -14.2130 -14.1232 -14.1231 -14.0447 -13.9829 -13.9688 -13.9687 -13.9159
     0.1661   0.4283   0.4285   0.5569   9.1119   9.1120   9.1216   9.4133
    10.4353  10.5358  10.5663  10.5664  10.6636  10.8525  10.8527  11.2368

          k = 0.2000 0.2000 0.2000 (  3083 PWs)   bands (ev):

   -35.4936 -35.4073 -35.4073 -35.4072 -14.4004 -14.4003 -14.4003 -14.1414
   -14.1383 -14.1383 -14.1382 -14.0476 -14.0476 -14.0476 -13.9060 -13.9060
    -0.5268   0.2840   0.2840   0.2844   9.5636   9.5637   9.5637  10.6664
    10.6664  10.6666  10.8653  11.2963  11.2964  11.2964  11.6589  11.6589

          k = 0.2000 0.2000 0.4000 (  3083 PWs)   bands (ev):

   -35.4572 -35.4247 -35.4023 -35.4022 -14.4125 -14.4125 -14.3838 -14.2866
   -14.1512 -14.1511 -14.0281 -14.0281 -14.0204 -14.0029 -13.9488 -13.9322
    -0.0656   0.2615   0.5021   0.5023   9.2033   9.3277   9.3277   9.7287
    10.3156  10.3158  10.7270  10.7270  10.8321  11.0969  11.2817  11.4030

          k = 0.2000 0.4000 0.4000 (  3100 PWs)   bands (ev):

   -35.4251 -35.4052 -35.4051 -35.3974 -14.4714 -14.4598 -14.4597 -14.4094
   -14.0974 -14.0481 -14.0481 -13.9838 -13.9761 -13.9674 -13.9674 -13.9219
     0.3284   0.5564   0.5566   0.6527   8.8577   8.8886   8.8886   9.1444
    10.3472  10.4002  10.4004  10.4824  10.5785  10.7057  10.7058  10.9120

          k = 0.4000 0.4000 0.4000 (  3082 PWs)   bands (ev):

   -35.3968 -35.3870 -35.3870 -35.3868 -14.5550 -14.5550 -14.5550 -14.5289
   -13.9780 -13.9780 -13.9779 -13.9589 -13.9588 -13.9588 -13.9381 -13.9381
     0.6473   0.7774   0.7774   0.7777   8.4707   8.4708   8.4708   8.6096
    10.2715  10.2715  10.2717  10.4082  10.4084  10.4084  10.4410  10.4410

     highest occupied level (ev):    12.9688

!    total energy              =    -458.59157697 Ry
     estimated scf accuracy    <       0.00000009 Ry

     The total energy is the sum of the following terms:
     one-electron contribution =     -85.26846202 Ry
     hartree contribution      =      75.08620340 Ry
     xc contribution           =     -75.62611167 Ry
     ewald contribution        =    -373.17185274 Ry
     DFT-D3 Dispersion         =      -0.20112233 Ry
     Hubbard energy            =       0.58976839 Ry

     convergence has been achieved in  24 iterations
     force_hub    :      0.06s CPU      0.06s WALL (       1 calls)
     dndtau       :      0.05s CPU      0.05s WALL (     240 calls)
     dprojdtau    :      0.00s CPU      0.01s WALL (     960 calls)
     matel_dSdtau :      0.04s CPU      0.04s WALL (     240 calls)

     Forces acting on atoms (cartesian axes, Ry/au):

     atom    1 type  1   force =     0.00000000    0.00000000    0.00000000
     atom    2 type  1   force =     0.00000000    0.00000000    0.00000000
     atom    3 type  1   force =     0.00000000    0.00000000    0.00000000
     atom    4 type  1   force =     0.00000000    0.00000000    0.00000000
     atom    5 type  2   force =     0.00000000    0.00000000    0.00000000
     atom    6 type  2   force =     0.00000000    0.00000000    0.00000000
     atom    7 type  2   force =     0.00000000    0.00000000    0.00000000
     atom    8 type  2   force =     0.00000000    0.00000000    0.00000000

     Total force =     0.000000     Total SCF correction =     0.000000


     Computing stress (Cartesian axis) and pressure

     stres_hub    :      0.14s CPU      0.15s WALL (       1 calls)
     dprojdepsilo :      0.13s CPU      0.14s WALL (      90 calls)
     dprojdeps1   :      0.00s CPU      0.00s WALL (      90 calls)
     dprojdeps2   :      0.01s CPU      0.01s WALL (      90 calls)
     dprojdeps3   :      0.12s CPU      0.13s WALL (      90 calls)
          total   stress  (Ry/bohr**3)                   (kbar)     P=       51.14
   0.00034768   0.00000000   0.00000000           51.14        0.00        0.00
   0.00000000   0.00034768   0.00000000            0.00       51.14        0.00
   0.00000000   0.00000000   0.00034768            0.00        0.00       51.14


     BFGS Geometry Optimization
     Energy error            =      5.3E-03 Ry
     Gradient error          =      0.0E+00 Ry/Bohr
     Cell gradient error     =      5.1E+01 kbar

     number of scf cycles    =   1
     number of bfgs steps    =   0

     enthalpy           new  =    -458.5915769719 Ry

     new trust radius        =       0.0427761625 bohr
     new conv_thr            =       0.0000001000 Ry

     new unit-cell volume =    621.42684 a.u.^3 (    92.08596 Ang^3 )
     density =      0.14426 g/cm^3

CELL_PARAMETERS (angstrom)
   4.515762943   0.000000000   0.000000000
   0.000000000   4.515762943   0.000000000
   0.000000000   0.000000000   4.515762943

ATOMIC_POSITIONS (crystal)
Sc               0.0000000000        0.0000000000        0.0000000000
Sc               0.5000000006        0.5000000006        0.0000000000
Sc               0.5000000006        0.0000000000        0.5000000006
Sc               0.0000000000        0.5000000006        0.5000000006
N                0.0000000000        0.0000000000        0.5000000006
N                0.0000000000        0.5000000006        0.0000000000
N                0.5000000006        0.0000000000        0.0000000000
N                0.5000000006        0.5000000006        0.5000000006



     Writing config-only to output data dir ./tmp/scn.save/ :
     XML data file
     NEW-OLD atomic charge density approx. for the potential
     New effective cutoffs (rho, wfc):  441.29   44.19

     Check: negative core charge=   -0.000002

     Atomic wfc used for Hubbard projectors are NOT orthogonalized


     total cpu time spent up to now is        6.9 secs

     per-process dynamical memory:   137.3 Mb

     Self-consistent Calculation

     iteration #  1     ecut=    45.00 Ry     beta= 0.20
     Davidson diagonalization with overlap
     ethr =  1.00E-06,  avg # of iterations =  5.8

     =================== HUBBARD OCCUPATIONS ===================
     ------------------------ ATOM    1 ------------------------
     Tr[ns(  1)] =   3.20575
     eigenvalues:
       0.245  0.245  0.245  0.434  0.434
     eigenvectors (columns):
      -0.000 -0.000 -0.000  0.312 -0.950
      -0.274  0.803 -0.529 -0.000  0.000
      -0.374  0.417  0.828 -0.000  0.000
       0.000 -0.000  0.000 -0.950 -0.312
       0.886  0.425  0.186  0.000 -0.000
     occupation matrix ns (before diag.):
       0.434 -0.000 -0.000  0.000  0.000
      -0.000  0.245 -0.000  0.000  0.000
      -0.000 -0.000  0.245  0.000  0.000
       0.000  0.000  0.000  0.434 -0.000
       0.000  0.000  0.000 -0.000  0.245
     ------------------------ ATOM    2 ------------------------
     Tr[ns(  2)] =   3.20554
     eigenvalues:
       0.245  0.245  0.245  0.434  0.434
     eigenvectors (columns):
       0.000 -0.000  0.000 -1.000  0.000
       0.774 -0.633 -0.000  0.000  0.000
       0.633  0.774 -0.000  0.000  0.000
      -0.000  0.000 -0.000  0.000  1.000
      -0.000 -0.000 -1.000 -0.000 -0.000
     occupation matrix ns (before diag.):
       0.434 -0.000 -0.000  0.000  0.000
      -0.000  0.245 -0.000  0.000  0.000
      -0.000 -0.000  0.245  0.000  0.000
       0.000  0.000  0.000  0.434 -0.000
       0.000  0.000  0.000 -0.000  0.245
     ------------------------ ATOM    3 ------------------------
     Tr[ns(  3)] =   3.20554
     eigenvalues:
       0.245  0.245  0.245  0.434  0.434
     eigenvectors (columns):
      -0.000 -0.000  0.000 -0.500  0.866
      -0.000  0.000  1.000 -0.000 -0.000
      -0.385  0.923 -0.000 -0.000 -0.000
       0.000  0.000 -0.000 -0.866 -0.500
       0.923  0.385  0.000  0.000  0.000
     occupation matrix ns (before diag.):
       0.434 -0.000 -0.000 -0.000  0.000
      -0.000  0.245 -0.000  0.000  0.000
      -0.000 -0.000  0.245  0.000  0.000
      -0.000  0.000  0.000  0.434 -0.000
       0.000  0.000  0.000 -0.000  0.245
     ------------------------ ATOM    4 ------------------------
     Tr[ns(  4)] =   3.20554
     eigenvalues:
       0.245  0.245  0.245  0.434  0.434
     eigenvectors (columns):
      -0.000  0.000  0.000  0.500 -0.866
      -0.267  0.964 -0.000 -0.000 -0.000
      -0.000  0.000  1.000 -0.000 -0.000
       0.000 -0.000 -0.000 -0.866 -0.500
       0.964  0.267  0.000  0.000 -0.000
     occupation matrix ns (before diag.):
       0.434 -0.000 -0.000  0.000  0.000
      -0.000  0.245 -0.000  0.000  0.000
      -0.000 -0.000  0.245  0.000  0.000
       0.000  0.000  0.000  0.434 -0.000
       0.000  0.000  0.000 -0.000  0.245

     Number of occupied Hubbard levels =   12.8224

     total cpu time spent up to now is        7.4 secs

     total energy              =    -458.59435799 Ry
     estimated scf accuracy    <       0.00012761 Ry

     iteration #  2     ecut=    45.00 Ry     beta= 0.20
     Davidson diagonalization with overlap
     ethr =  1.99E-07,  avg # of iterations =  3.7

     total cpu time spent up to now is        7.6 secs

     total energy              =    -458.59438106 Ry
     estimated scf accuracy    <       0.00011170 Ry

     iteration #  3     ecut=    45.00 Ry     beta= 0.20
     Davidson diagonalization with overlap
     ethr =  1.75E-07,  avg # of iterations =  1.0

     total cpu time spent up to now is        7.8 secs

     total energy              =    -458.59432642 Ry
     estimated scf accuracy    <       0.00009455 Ry

     iteration #  4     ecut=    45.00 Ry     beta= 0.20
     Davidson diagonalization with overlap
     ethr =  1.48E-07,  avg # of iterations =  3.6

     total cpu time spent up to now is        8.0 secs

     total energy              =    -458.59434715 Ry
     estimated scf accuracy    <       0.00000342 Ry

     iteration #  5     ecut=    45.00 Ry     beta= 0.20
     Davidson diagonalization with overlap
     ethr =  5.34E-09,  avg # of iterations =  5.1

     total cpu time spent up to now is        8.3 secs

     total energy              =    -458.59434523 Ry
     estimated scf accuracy    <       0.00001752 Ry

     iteration #  6     ecut=    45.00 Ry     beta= 0.20
     Davidson diagonalization with overlap
     ethr =  5.34E-09,  avg # of iterations =  4.7

     total cpu time spent up to now is        8.6 secs

     total energy              =    -458.59434858 Ry
     estimated scf accuracy    <       0.00000014 Ry

     iteration #  7     ecut=    45.00 Ry     beta= 0.20
     Davidson diagonalization with overlap
     ethr =  2.19E-10,  avg # of iterations =  5.0

     total cpu time spent up to now is        8.8 secs

     total energy              =    -458.59434883 Ry
     estimated scf accuracy    <       0.00000014 Ry

     iteration #  8     ecut=    45.00 Ry     beta= 0.20
     Davidson diagonalization with overlap
     ethr =  2.19E-10,  avg # of iterations =  3.9

     total cpu time spent up to now is        9.0 secs

     total energy              =    -458.59434896 Ry
     estimated scf accuracy    <       0.00000052 Ry

     iteration #  9     ecut=    45.00 Ry     beta= 0.20
     Davidson diagonalization with overlap
     ethr =  2.19E-10,  avg # of iterations =  1.0

     total cpu time spent up to now is        9.2 secs

     total energy              =    -458.59434901 Ry
     estimated scf accuracy    <       0.00000037 Ry

     iteration # 10     ecut=    45.00 Ry     beta= 0.20
     Davidson diagonalization with overlap
     ethr =  2.19E-10,  avg # of iterations =  1.9

     total cpu time spent up to now is        9.4 secs

     total energy              =    -458.59434904 Ry
     estimated scf accuracy    <       0.00000023 Ry

     iteration # 11     ecut=    45.00 Ry     beta= 0.20
     Davidson diagonalization with overlap
     ethr =  2.19E-10,  avg # of iterations =  1.7

     total cpu time spent up to now is        9.5 secs

     total energy              =    -458.59434904 Ry
     estimated scf accuracy    <       0.00000015 Ry

     iteration # 12     ecut=    45.00 Ry     beta= 0.20
     Davidson diagonalization with overlap
     ethr =  2.19E-10,  avg # of iterations =  2.3

     total cpu time spent up to now is        9.7 secs

     End of self-consistent calculation

     =================== HUBBARD OCCUPATIONS ===================
     ------------------------ ATOM    1 ------------------------
     Tr[ns(  1)] =   3.20242
     eigenvalues:
       0.245  0.245  0.245  0.433  0.433
     eigenvectors (columns):
      -0.000 -0.000 -0.000  0.320 -0.947
      -0.267  0.730 -0.629 -0.000  0.000
      -0.366  0.527  0.767 -0.000  0.000
       0.000 -0.000  0.000 -0.947 -0.320
       0.892  0.435  0.126  0.000 -0.000
     occupation matrix ns (before diag.):
       0.433 -0.000 -0.000  0.000  0.000
      -0.000  0.245 -0.000  0.000  0.000
      -0.000 -0.000  0.245  0.000  0.000
       0.000  0.000  0.000  0.433 -0.000
       0.000  0.000  0.000 -0.000  0.245
     ------------------------ ATOM    2 ------------------------
     Tr[ns(  2)] =   3.20242
     eigenvalues:
       0.245  0.245  0.245  0.433  0.433
     eigenvectors (columns):
      -0.000  0.000 -0.000  0.000 -1.000
      -0.000  0.747 -0.665 -0.000  0.000
      -0.000  0.665  0.747 -0.000  0.000
       0.000 -0.000  0.000 -1.000 -0.000
       1.000  0.000  0.000  0.000 -0.000
     occupation matrix ns (before diag.):
       0.433 -0.000 -0.000  0.000  0.000
      -0.000  0.245 -0.000  0.000  0.000
      -0.000 -0.000  0.245  0.000  0.000
       0.000  0.000  0.000  0.433 -0.000
       0.000  0.000  0.000 -0.000  0.245
     ------------------------ ATOM    3 ------------------------
     Tr[ns(  3)] =   3.20242
     eigenvalues:
       0.245  0.245  0.245  0.433  0.433
     eigenvectors (columns):
       0.000 -0.000 -0.000 -0.866 -0.500
       1.000  0.000 -0.000  0.000 -0.000
       0.000 -0.355  0.935  0.000 -0.000
      -0.000  0.000  0.000  0.500 -0.866
      -0.000  0.935  0.355 -0.000  0.000
     occupation matrix ns (before diag.):
       0.433 -0.000 -0.000  0.000  0.000
      -0.000  0.245 -0.000  0.000  0.000
      -0.000 -0.000  0.245  0.000  0.000
       0.000  0.000  0.000  0.433 -0.000
       0.000  0.000  0.000 -0.000  0.245
     ------------------------ ATOM    4 ------------------------
     Tr[ns(  4)] =   3.20242
     eigenvalues:
       0.245  0.245  0.245  0.433  0.433
     eigenvectors (columns):
       0.000 -0.000  0.000 -0.866 -0.500
       0.000 -0.285  0.959  0.000  0.000
       1.000  0.000 -0.000 -0.000  0.000
      -0.000  0.000 -0.000 -0.500  0.866
      -0.000  0.959  0.285 -0.000 -0.000
     occupation matrix ns (before diag.):
       0.433 -0.000 -0.000 -0.000  0.000
      -0.000  0.245 -0.000  0.000  0.000
      -0.000 -0.000  0.245  0.000  0.000
      -0.000  0.000  0.000  0.433 -0.000
       0.000  0.000  0.000 -0.000  0.245

     Number of occupied Hubbard levels =   12.8097

          k = 0.0000 0.0000 0.0000 (  3071 PWs)   bands (ev):

   -36.0418 -35.9185 -35.9185 -35.9185 -14.9200 -14.9200 -14.9200 -14.6027
   -14.6027 -14.6027 -14.6027 -14.6027 -14.6027 -14.4058 -14.4058 -14.4058
    -1.4595  -0.2907  -0.2907  -0.2907   9.4885   9.4885   9.4885  11.6301
    11.6301  11.6301  11.6301  11.6301  11.6301  12.5808  12.5808  12.5808

          k = 0.0000 0.0000 0.1983 (  3070 PWs)   bands (ev):

   -36.0303 -35.9295 -35.9202 -35.9202 -14.8847 -14.8847 -14.8810 -14.6299
   -14.6299 -14.6105 -14.6105 -14.5831 -14.5831 -14.4671 -14.4238 -14.4238
    -1.2511  -0.2739  -0.1778  -0.1778   9.2216   9.5651   9.5651  10.9628
    10.9628  10.9821  10.9821  11.3353  11.6224  11.6224  12.2970  12.2970

          k = 0.0000 0.0000 0.3966 (  3086 PWs)   bands (ev):

   -35.9988 -35.9596 -35.9230 -35.9230 -14.7989 -14.7989 -14.7707 -14.7028
   -14.7028 -14.6232 -14.6232 -14.6139 -14.5326 -14.5326 -14.4718 -14.4718
    -0.7705  -0.3753   0.0160   0.0160   9.0352   9.7432   9.8087   9.8087
    10.0754  10.0754  10.2652  10.2652  11.6675  11.6675  11.8864  11.8864

          k = 0.0000 0.1983 0.1983 (  3067 PWs)   bands (ev):

   -36.0168 -35.9277 -35.9277 -35.9208 -14.8674 -14.8674 -14.8518 -14.6981
   -14.6094 -14.6094 -14.5789 -14.5789 -14.5684 -14.5513 -14.4427 -14.4090
    -1.0455  -0.1504  -0.1504  -0.0712   9.2463   9.2463   9.6373  10.1591
    10.9452  10.9691  10.9797  10.9797  11.0176  11.0176  11.4689  11.9669

          k = 0.0000 0.1983 0.3966 (  3073 PWs)   bands (ev):

   -35.9842 -35.9501 -35.9244 -35.9221 -14.8313 -14.8039 -14.7743 -14.7713
   -14.6877 -14.6797 -14.5659 -14.5566 -14.5549 -14.5080 -14.4930 -14.4401
    -0.5821  -0.2211   0.0711   0.1024   8.9879   9.2494   9.4198   9.6106
     9.8711  10.2625  10.3173  10.4146  10.9964  11.1116  11.1578  11.4738

          k = 0.0000 0.3966 0.3966 (  3098 PWs)   bands (ev):

   -35.9545 -35.9326 -35.9326 -35.9228 -14.8459 -14.8459 -14.8389 -14.7927
   -14.7018 -14.6204 -14.6204 -14.5492 -14.4940 -14.4810 -14.4810 -14.4330
    -0.1799   0.0820   0.0820   0.2109   8.7999   8.7999   8.8124   9.0977
    10.0829  10.2169  10.2475  10.2476  10.3492  10.5036  10.5036  10.8877

          k = 0.1983 0.1983 0.1983 (  3083 PWs)   bands (ev):

   -36.0020 -35.9249 -35.9249 -35.9249 -14.8715 -14.8715 -14.8715 -14.6353
   -14.6340 -14.6340 -14.6340 -14.5526 -14.5526 -14.5526 -14.4236 -14.4236
    -0.8455  -0.0344  -0.0344  -0.0343   9.2169   9.2169   9.2169  10.3212
    10.3212  10.3212  10.5111  10.9437  10.9437  10.9437  11.3147  11.3147

          k = 0.1983 0.1983 0.3966 (  3083 PWs)   bands (ev):

   -35.9690 -35.9399 -35.9202 -35.9202 -14.8817 -14.8817 -14.8556 -14.7669
   -14.6458 -14.6458 -14.5347 -14.5347 -14.5275 -14.5118 -14.4625 -14.4475
    -0.4032  -0.0768   0.1648   0.1648   8.8846   9.0030   9.0030   9.4054
     9.9754   9.9754  10.3942  10.3942  10.4946  10.7629  10.9370  11.0622

          k = 0.1983 0.3966 0.3966 (  3100 PWs)   bands (ev):

   -35.9396 -35.9218 -35.9218 -35.9149 -14.9347 -14.9241 -14.9241 -14.8782
   -14.5971 -14.5526 -14.5526 -14.4944 -14.4879 -14.4798 -14.4798 -14.4385
    -0.0280   0.1996   0.1996   0.2960   8.5514   8.5811   8.5811   8.8325
    10.0130  10.0815  10.0815  10.1672  10.2672  10.3767  10.3767  10.5811

          k = 0.3966 0.3966 0.3966 (  3082 PWs)   bands (ev):

   -35.9131 -35.9042 -35.9042 -35.9042 -15.0105 -15.0105 -15.0105 -14.9868
   -14.4894 -14.4894 -14.4894 -14.4722 -14.4722 -14.4722 -14.4533 -14.4533
     0.2720   0.4016   0.4016   0.4016   8.1759   8.1759   8.1759   8.3111
     9.9615   9.9615   9.9615  10.0993  10.0993  10.0993  10.1337  10.1337

     highest occupied level (ev):    12.5808

!    total energy              =    -458.59434909 Ry
     estimated scf accuracy    <       0.00000002 Ry

     The total energy is the sum of the following terms:
     one-electron contribution =     -89.83928897 Ry
     hartree contribution      =      76.28210716 Ry
     xc contribution           =     -75.46880379 Ry
     ewald contribution        =    -369.95623092 Ry
     DFT-D3 Dispersion         =      -0.19624264 Ry
     Hubbard energy            =       0.58411007 Ry

     convergence has been achieved in  12 iterations
     force_hub    :      0.11s CPU      0.12s WALL (       2 calls)
     dndtau       :      0.10s CPU      0.11s WALL (     480 calls)
     dprojdtau    :      0.01s CPU      0.01s WALL (    1920 calls)
     matel_dSdtau :      0.08s CPU      0.09s WALL (     480 calls)

     Forces acting on atoms (cartesian axes, Ry/au):

     atom    1 type  1   force =     0.00000000    0.00000000    0.00000000
     atom    2 type  1   force =     0.00000000    0.00000000    0.00000000
     atom    3 type  1   force =     0.00000000    0.00000000    0.00000000
     atom    4 type  1   force =     0.00000000    0.00000000    0.00000000
     atom    5 type  2   force =     0.00000000    0.00000000    0.00000000
     atom    6 type  2   force =     0.00000000    0.00000000    0.00000000
     atom    7 type  2   force =     0.00000000    0.00000000    0.00000000
     atom    8 type  2   force =     0.00000000    0.00000000    0.00000000

     Total force =     0.000000     Total SCF correction =     0.000000


     Computing stress (Cartesian axis) and pressure

     stres_hub    :      0.29s CPU      0.31s WALL (       2 calls)
     dprojdepsilo :      0.26s CPU      0.27s WALL (     180 calls)
     dprojdeps1   :      0.00s CPU      0.00s WALL (     180 calls)
     dprojdeps2   :      0.01s CPU      0.01s WALL (     180 calls)
     dprojdeps3   :      0.25s CPU      0.26s WALL (     180 calls)
          total   stress  (Ry/bohr**3)                   (kbar)     P=        0.18
   0.00000122   0.00000000   0.00000000            0.18        0.00        0.00
   0.00000000   0.00000122   0.00000000            0.00        0.18        0.00
   0.00000000   0.00000000   0.00000122            0.00        0.00        0.18

     Energy error            =      2.8E-03 Ry
     Gradient error          =      0.0E+00 Ry/Bohr
     Cell gradient error     =      1.8E-01 kbar

     number of scf cycles    =   2
     number of bfgs steps    =   1

     enthalpy           old  =    -458.5915769719 Ry
     enthalpy           new  =    -458.5943490943 Ry

     CASE: enthalpy          _new < enthalpy          _old

     new trust radius        =       0.0001542579 bohr
     new conv_thr            =       0.0000000010 Ry

     new unit-cell volume =    621.48452 a.u.^3 (    92.09450 Ang^3 )
     density =      0.14425 g/cm^3

CELL_PARAMETERS (angstrom)
   4.515902662   0.000000000   0.000000000
   0.000000000   4.515902662   0.000000000
   0.000000000   0.000000000   4.515902662

ATOMIC_POSITIONS (crystal)
Sc               0.0000000000        0.0000000000        0.0000000000
Sc               0.5000000006        0.5000000006        0.0000000000
Sc               0.5000000006        0.0000000000        0.5000000006
Sc               0.0000000000        0.5000000006        0.5000000006
N                0.0000000000        0.0000000000        0.5000000006
N                0.0000000000        0.5000000006        0.0000000000
N                0.5000000006        0.0000000000        0.0000000000
N                0.5000000006        0.5000000006        0.5000000006



     Writing config-only to output data dir ./tmp/scn.save/ :
     XML data file
     NEW-OLD atomic charge density approx. for the potential
     New effective cutoffs (rho, wfc):  441.26   44.19

     Check: negative core charge=   -0.000002

     Atomic wfc used for Hubbard projectors are NOT orthogonalized


     total cpu time spent up to now is       10.8 secs

     per-process dynamical memory:   137.4 Mb

     Self-consistent Calculation

     iteration #  1     ecut=    45.00 Ry     beta= 0.20
     Davidson diagonalization with overlap
     ethr =  1.00E-06,  avg # of iterations =  2.0

     =================== HUBBARD OCCUPATIONS ===================
     ------------------------ ATOM    1 ------------------------
     Tr[ns(  1)] =   3.20206
     eigenvalues:
       0.245  0.245  0.245  0.433  0.433
     eigenvectors (columns):
      -0.000 -0.000 -0.000  0.339 -0.941
      -0.286  0.809 -0.514 -0.000  0.000
      -0.367  0.403  0.839 -0.000  0.000
       0.000 -0.000  0.000 -0.941 -0.339
       0.885  0.428  0.181  0.000 -0.000
     occupation matrix ns (before diag.):
       0.433 -0.000 -0.000  0.000  0.000
      -0.000  0.245 -0.000  0.000  0.000
      -0.000 -0.000  0.245  0.000  0.000
       0.000  0.000  0.000  0.433 -0.000
       0.000  0.000  0.000 -0.000  0.245
     ------------------------ ATOM    2 ------------------------
     Tr[ns(  2)] =   3.20206
     eigenvalues:
       0.245  0.245  0.245  0.433  0.433
     eigenvectors (columns):
       0.000 -0.000 -0.000 -1.000 -0.000
       0.734 -0.679  0.000  0.000 -0.000
       0.679  0.734  0.000  0.000 -0.000
      -0.000  0.000  0.000  0.000 -1.000
      -0.000 -0.000  1.000 -0.000  0.000
     occupation matrix ns (before diag.):
       0.433 -0.000 -0.000  0.000  0.000
      -0.000  0.245 -0.000  0.000  0.000
      -0.000 -0.000  0.245  0.000  0.000
       0.000  0.000  0.000  0.433 -0.000
       0.000  0.000  0.000 -0.000  0.245
     ------------------------ ATOM    3 ------------------------
     Tr[ns(  3)] =   3.20206
     eigenvalues:
       0.245  0.245  0.245  0.433  0.433
     eigenvectors (columns):
      -0.000 -0.000  0.000 -0.500  0.866
      -0.000  0.000  1.000 -0.000 -0.000
      -0.365  0.931 -0.000 -0.000 -0.000
       0.000  0.000 -0.000 -0.866 -0.500
       0.931  0.365  0.000  0.000  0.000
     occupation matrix ns (before diag.):
       0.433 -0.000 -0.000 -0.000  0.000
      -0.000  0.245 -0.000  0.000  0.000
      -0.000 -0.000  0.245  0.000  0.000
      -0.000  0.000  0.000  0.433 -0.000
       0.000  0.000  0.000 -0.000  0.245
     ------------------------ ATOM    4 ------------------------
     Tr[ns(  4)] =   3.20206
     eigenvalues:
       0.245  0.245  0.245  0.433  0.433
     eigenvectors (columns):
      -0.000  0.000  0.000  0.500 -0.866
      -0.254  0.967 -0.000 -0.000  0.000
      -0.000  0.000  1.000 -0.000 -0.000
       0.000 -0.000 -0.000 -0.866 -0.500
       0.967  0.254  0.000  0.000 -0.000
     occupation matrix ns (before diag.):
       0.433 -0.000 -0.000  0.000  0.000
      -0.000  0.245 -0.000  0.000  0.000
      -0.000 -0.000  0.245  0.000  0.000
       0.000  0.000  0.000  0.433 -0.000
       0.000  0.000  0.000 -0.000  0.245

     Number of occupied Hubbard levels =   12.8082

     Threshold (ethr) on eigenvalues was too large:
     Diagonalizing with lowered threshold

     Davidson diagonalization with overlap
     ethr =  1.17E-10,  avg # of iterations =  4.0

     total cpu time spent up to now is       11.4 secs

     total energy              =    -458.59434910 Ry
     estimated scf accuracy    <       0.00000026 Ry

     iteration #  2     ecut=    45.00 Ry     beta= 0.20
     Davidson diagonalization with overlap
     ethr =  4.09E-10,  avg # of iterations =  1.0

     total cpu time spent up to now is       11.6 secs

     total energy              =    -458.59434901 Ry
     estimated scf accuracy    <       0.00000017 Ry

     iteration #  3     ecut=    45.00 Ry     beta= 0.20
     Davidson diagonalization with overlap
     ethr =  2.61E-10,  avg # of iterations =  4.0

     total cpu time spent up to now is       11.8 secs

     total energy              =    -458.59434906 Ry
     estimated scf accuracy    <       0.00000007 Ry

     iteration #  4     ecut=    45.00 Ry     beta= 0.20
     Davidson diagonalization with overlap
     ethr =  1.13E-10,  avg # of iterations =  3.7

     total cpu time spent up to now is       12.0 secs

     total energy              =    -458.59434907 Ry
     estimated scf accuracy    <          2.0E-09 Ry

     iteration #  5     ecut=    45.00 Ry     beta= 0.20
     Davidson diagonalization with overlap
     ethr =  3.20E-12,  avg # of iterations =  6.2

     total cpu time spent up to now is       12.3 secs

     total energy              =    -458.59434907 Ry
     estimated scf accuracy    <       0.00000003 Ry

     iteration #  6     ecut=    45.00 Ry     beta= 0.20
     Davidson diagonalization with overlap
     ethr =  3.20E-12,  avg # of iterations =  4.2

     total cpu time spent up to now is       12.5 secs

     total energy              =    -458.59434907 Ry
     estimated scf accuracy    <          3.1E-09 Ry

     iteration #  7     ecut=    45.00 Ry     beta= 0.20
     Davidson diagonalization with overlap
     ethr =  3.20E-12,  avg # of iterations =  1.2

     total cpu time spent up to now is       12.7 secs

     total energy              =    -458.59434907 Ry
     estimated scf accuracy    <          1.8E-09 Ry

     iteration #  8     ecut=    45.00 Ry     beta= 0.20
     Davidson diagonalization with overlap
     ethr =  2.78E-12,  avg # of iterations =  1.9

     total cpu time spent up to now is       12.8 secs

     End of self-consistent calculation

     =================== HUBBARD OCCUPATIONS ===================
     ------------------------ ATOM    1 ------------------------
     Tr[ns(  1)] =   3.20210
     eigenvalues:
       0.245  0.245  0.245  0.433  0.433
     eigenvectors (columns):
      -0.000 -0.000 -0.000  0.270 -0.963
      -0.260  0.818 -0.513 -0.000  0.000
      -0.359  0.412  0.838 -0.000  0.000
       0.000 -0.000  0.000 -0.963 -0.270
       0.896  0.402  0.187  0.000 -0.000
     occupation matrix ns (before diag.):
       0.433 -0.000 -0.000  0.000  0.000
      -0.000  0.245 -0.000  0.000  0.000
      -0.000 -0.000  0.245  0.000  0.000
       0.000  0.000  0.000  0.433 -0.000
       0.000  0.000  0.000 -0.000  0.245
     ------------------------ ATOM    2 ------------------------
     Tr[ns(  2)] =   3.20210
     eigenvalues:
       0.245  0.245  0.245  0.433  0.433
     eigenvectors (columns):
       0.000 -0.000  0.000 -1.000  0.000
       0.699 -0.715 -0.000  0.000  0.000
       0.715  0.699 -0.000  0.000  0.000
      -0.000  0.000 -0.000  0.000  1.000
      -0.000 -0.000 -1.000 -0.000 -0.000
     occupation matrix ns (before diag.):
       0.433 -0.000 -0.000  0.000  0.000
      -0.000  0.245 -0.000  0.000  0.000
      -0.000 -0.000  0.245  0.000  0.000
       0.000  0.000  0.000  0.433 -0.000
       0.000  0.000  0.000 -0.000  0.245
     ------------------------ ATOM    3 ------------------------
     Tr[ns(  3)] =   3.20210
     eigenvalues:
       0.245  0.245  0.245  0.433  0.433
     eigenvectors (columns):
      -0.000 -0.000  0.000 -0.500  0.866
      -0.000  0.000  1.000 -0.000 -0.000
      -0.368  0.930 -0.000 -0.000 -0.000
       0.000  0.000 -0.000 -0.866 -0.500
       0.930  0.368  0.000  0.000  0.000
     occupation matrix ns (before diag.):
       0.433 -0.000 -0.000 -0.000  0.000
      -0.000  0.245 -0.000  0.000  0.000
      -0.000 -0.000  0.245  0.000  0.000
      -0.000  0.000  0.000  0.433 -0.000
       0.000  0.000  0.000 -0.000  0.245
     ------------------------ ATOM    4 ------------------------
     Tr[ns(  4)] =   3.20210
     eigenvalues:
       0.245  0.245  0.245  0.433  0.433
     eigenvectors (columns):
      -0.000  0.000  0.000  0.500 -0.866
      -0.250  0.968 -0.000 -0.000 -0.000
      -0.000  0.000  1.000 -0.000 -0.000
       0.000 -0.000 -0.000 -0.866 -0.500
       0.968  0.250  0.000  0.000 -0.000
     occupation matrix ns (before diag.):
       0.433 -0.000 -0.000  0.000  0.000
      -0.000  0.245 -0.000  0.000  0.000
      -0.000 -0.000  0.245  0.000  0.000
       0.000  0.000  0.000  0.433 -0.000
       0.000  0.000  0.000 -0.000  0.245

     Number of occupied Hubbard levels =   12.8084

          k = 0.0000 0.0000 0.0000 (  3071 PWs)   bands (ev):

   -36.0435 -35.9202 -35.9202 -35.9202 -14.9216 -14.9216 -14.9216 -14.6044
   -14.6044 -14.6044 -14.6044 -14.6044 -14.6044 -14.4076 -14.4076 -14.4076
    -1.4607  -0.2918  -0.2918  -0.2918   9.4871   9.4871   9.4871  11.6286
    11.6286  11.6286  11.6286  11.6286  11.6286  12.5793  12.5793  12.5793

          k = 0.0000 0.0000 0.1983 (  3070 PWs)   bands (ev):

   -36.0320 -35.9313 -35.9220 -35.9220 -14.8863 -14.8863 -14.8826 -14.6316
   -14.6316 -14.6122 -14.6122 -14.5848 -14.5848 -14.4689 -14.4256 -14.4256
    -1.2522  -0.2751  -0.1790  -0.1790   9.2203   9.5637   9.5637  10.9614
    10.9614  10.9807  10.9807  11.3339  11.6209  11.6209  12.2956  12.2956

          k = 0.0000 0.0000 0.3965 (  3086 PWs)   bands (ev):

   -36.0005 -35.9614 -35.9248 -35.9248 -14.8006 -14.8006 -14.7724 -14.7045
   -14.7045 -14.6249 -14.6249 -14.6156 -14.5343 -14.5343 -14.4735 -14.4735
    -0.7718  -0.3765   0.0148   0.0148   9.0339   9.7420   9.8073   9.8073
    10.0741  10.0741  10.2639  10.2639  11.6660  11.6660  11.8850  11.8850

          k = 0.0000 0.1983 0.1983 (  3067 PWs)   bands (ev):

   -36.0186 -35.9295 -35.9295 -35.9226 -14.8691 -14.8691 -14.8534 -14.6998
   -14.6111 -14.6111 -14.5806 -14.5806 -14.5701 -14.5530 -14.4445 -14.4107
    -1.0467  -0.1516  -0.1516  -0.0724   9.2450   9.2450   9.6359  10.1578
    10.9439  10.9677  10.9783  10.9783  11.0163  11.0163  11.4676  11.9655

          k = 0.0000 0.1983 0.3965 (  3073 PWs)   bands (ev):

   -35.9860 -35.9519 -35.9261 -35.9239 -14.8330 -14.8055 -14.7760 -14.7729
   -14.6894 -14.6814 -14.5676 -14.5584 -14.5566 -14.5097 -14.4947 -14.4419
    -0.5833  -0.2224   0.0698   0.1012   8.9867   9.2481   9.4186   9.6093
     9.8697  10.2612  10.3160  10.4133  10.9950  11.1103  11.1564  11.4724

          k = 0.0000 0.3965 0.3965 (  3098 PWs)   bands (ev):

   -35.9563 -35.9343 -35.9343 -35.9246 -14.8475 -14.8475 -14.8405 -14.7943
   -14.7035 -14.6221 -14.6221 -14.5509 -14.4958 -14.4828 -14.4828 -14.4348
    -0.1813   0.0807   0.0807   0.2096   8.7987   8.7987   8.8112   9.0965
    10.0815  10.2157  10.2463  10.2463  10.3480  10.5023  10.5023  10.8864

          k = 0.1983 0.1983 0.1983 (  3083 PWs)   bands (ev):

   -36.0037 -35.9266 -35.9266 -35.9266 -14.8731 -14.8731 -14.8731 -14.6370
   -14.6357 -14.6357 -14.6357 -14.5543 -14.5543 -14.5543 -14.4254 -14.4254
    -0.8468  -0.0356  -0.0356  -0.0356   9.2156   9.2156   9.2156  10.3199
    10.3199  10.3199  10.5097  10.9423  10.9423  10.9423  11.3133  11.3133

          k = 0.1983 0.1983 0.3965 (  3083 PWs)   bands (ev):

   -35.9708 -35.9417 -35.9220 -35.9220 -14.8833 -14.8833 -14.8572 -14.7685
   -14.6475 -14.6475 -14.5365 -14.5365 -14.5293 -14.5136 -14.4643 -14.4493
    -0.4045  -0.0782   0.1635   0.1635   8.8834   9.0018   9.0018   9.4041
     9.9741   9.9741  10.3930  10.3930  10.4933  10.7616  10.9357  11.0609

          k = 0.1983 0.3965 0.3965 (  3100 PWs)   bands (ev):

   -35.9413 -35.9235 -35.9235 -35.9167 -14.9363 -14.9257 -14.9257 -14.8798
   -14.5988 -14.5543 -14.5543 -14.4961 -14.4897 -14.4816 -14.4816 -14.4403
    -0.0293   0.1982   0.1982   0.2946   8.5503   8.5799   8.5799   8.8313
    10.0117  10.0803  10.0803  10.1660  10.2660  10.3755  10.3755  10.5798

          k = 0.3965 0.3965 0.3965 (  3082 PWs)   bands (ev):

   -35.9148 -35.9060 -35.9060 -35.9060 -15.0121 -15.0121 -15.0121 -14.9883
   -14.4911 -14.4911 -14.4911 -14.4739 -14.4739 -14.4739 -14.4551 -14.4551
     0.2705   0.4002   0.4002   0.4002   8.1747   8.1747   8.1747   8.3100
     9.9603   9.9603   9.9603  10.0981  10.0981  10.0981  10.1325  10.1325

     highest occupied level (ev):    12.5793

!    total energy              =    -458.59434907 Ry
     estimated scf accuracy    <          4.5E-10 Ry

     The total energy is the sum of the following terms:
     one-electron contribution =     -89.85531442 Ry
     hartree contribution      =      76.28625769 Ry
     xc contribution           =     -75.46835957 Ry
     ewald contribution        =    -369.94478477 Ry
     DFT-D3 Dispersion         =      -0.19622538 Ry
     Hubbard energy            =       0.58407739 Ry

     convergence has been achieved in   8 iterations
     force_hub    :      0.17s CPU      0.18s WALL (       3 calls)
     dndtau       :      0.15s CPU      0.16s WALL (     720 calls)
     dprojdtau    :      0.01s CPU      0.02s WALL (    2880 calls)
     matel_dSdtau :      0.12s CPU      0.13s WALL (     720 calls)

     Forces acting on atoms (cartesian axes, Ry/au):

     atom    1 type  1   force =     0.00000000    0.00000000    0.00000000
     atom    2 type  1   force =     0.00000000    0.00000000    0.00000000
     atom    3 type  1   force =     0.00000000    0.00000000    0.00000000
     atom    4 type  1   force =     0.00000000    0.00000000    0.00000000
     atom    5 type  2   force =     0.00000000    0.00000000    0.00000000
     atom    6 type  2   force =     0.00000000    0.00000000    0.00000000
     atom    7 type  2   force =     0.00000000    0.00000000    0.00000000
     atom    8 type  2   force =     0.00000000    0.00000000    0.00000000

     Total force =     0.000000     Total SCF correction =     0.000000


     Computing stress (Cartesian axis) and pressure

     stres_hub    :      0.44s CPU      0.46s WALL (       3 calls)
     dprojdepsilo :      0.39s CPU      0.41s WALL (     270 calls)
     dprojdeps1   :      0.00s CPU      0.00s WALL (     270 calls)
     dprojdeps2   :      0.02s CPU      0.02s WALL (     270 calls)
     dprojdeps3   :      0.37s CPU      0.39s WALL (     270 calls)
          total   stress  (Ry/bohr**3)                   (kbar)     P=       -0.22
  -0.00000150   0.00000000   0.00000000           -0.22        0.00        0.00
   0.00000000  -0.00000150   0.00000000            0.00       -0.22        0.00
   0.00000000   0.00000000  -0.00000150            0.00        0.00       -0.22

     Energy error            =      2.1E-08 Ry
     Gradient error          =      0.0E+00 Ry/Bohr
     Cell gradient error     =      2.2E-01 kbar

     bfgs converged in   3 scf cycles and   2 bfgs steps
     (criteria: energy <  1.0E-04 Ry, force <  1.0E-03 Ry/Bohr, cell <  5.0E-01 kbar)

     End of BFGS Geometry Optimization

     Final enthalpy           =    -458.5943490731 Ry

     File ./tmp/scn.bfgs deleted, as requested
Begin final coordinates
     new unit-cell volume =    621.48452 a.u.^3 (    92.09450 Ang^3 )
     density =      0.14425 g/cm^3

CELL_PARAMETERS (angstrom)
   4.515902662   0.000000000   0.000000000
   0.000000000   4.515902662   0.000000000
   0.000000000   0.000000000   4.515902662

ATOMIC_POSITIONS (crystal)
Sc               0.0000000000        0.0000000000        0.0000000000
Sc               0.5000000006        0.5000000006        0.0000000000
Sc               0.5000000006        0.0000000000        0.5000000006
Sc               0.0000000000        0.5000000006        0.5000000006
N                0.0000000000        0.0000000000        0.5000000006
N                0.0000000000        0.5000000006        0.0000000000
N                0.5000000006        0.0000000000        0.0000000000
N                0.5000000006        0.5000000006        0.5000000006
End final coordinates



     Writing config-only to output data dir ./tmp/scn.save/ :
     XML data file

     Final scf calculation at the relaxed structure.
     The G-vectors are recalculated for the final unit cell
     Results may differ from those at the preceding step.

     Parallelization info
     --------------------
     sticks:   dense  smooth     PW     G-vecs:    dense   smooth      PW
     Min         162      65     18                 6272     1587     242
     Max         163      66     19                 6277     1592     247
     Sum        2601    1041    293               100377    25413    3911

     Using Slab Decomposition



     bravais-lattice index     =            0
     lattice parameter (alat)  =       8.4600  a.u.
     unit-cell volume          =     621.4845 (a.u.)^3
     number of atoms/cell      =            8
     number of atomic types    =            2
     number of electrons       =        64.00
     number of Kohn-Sham states=           32
     kinetic-energy cutoff     =      45.0000  Ry
     charge density cutoff     =     450.0000  Ry
     scf convergence threshold =      1.0E-09
     mixing beta               =       0.2000
     number of iterations used =            8  local-TF  mixing
     press convergence thresh. =      5.0E-01
     Exchange-correlation= SLA  PW   PBE  PBE
                           (   1   4   3   4   0   0   0)
     Hubbard projectors: atomic
     Hubbard parameters of DFT+U (Dudarev formulation) in eV:
     U(Sc-3d) =  1.9000

     Internal variables: lda_plus_u =T, lda_plus_u_kind = 0

     Internal variables: orbital_resolved =F, hub_pot_fix =F, apply_U = F

     celldm(1)=   8.460022  celldm(2)=   0.000000  celldm(3)=   0.000000
     celldm(4)=   0.000000  celldm(5)=   0.000000  celldm(6)=   0.000000

     crystal axes: (cart. coord. in units of alat)
               a(1) = (   1.008723   0.000000   0.000000 )  
               a(2) = (   0.000000   1.008723   0.000000 )  
               a(3) = (   0.000000   0.000000   1.008723 )  

     reciprocal axes: (cart. coord. in units 2 pi/alat)
               b(1) = (  0.991352  0.000000  0.000000 )  
               b(2) = (  0.000000  0.991352  0.000000 )  
               b(3) = (  0.000000  0.000000  0.991352 )  


     PseudoPot. # 1 for Sc read from file:
     /scratch/anizami/QE_2/USPP/sc_pbe_v1.uspp.F.UPF
     MD5 check sum: db30a2753ba66ef00f23801d899b7e7f
     Pseudo is Ultrasoft + core correction, Zval = 11.0
     Generated by new atomic code, or converted to UPF format
     Using radial grid of  849 points,  6 beta functions with: 
                l(1) =   0
                l(2) =   0
                l(3) =   1
                l(4) =   1
                l(5) =   2
                l(6) =   2
     Q(r) pseudized with  6 coefficients,  rinner =    1.200   1.200   1.200
                                                       1.200   1.200

     PseudoPot. # 2 for N  read from file:
     /scratch/anizami/QE_2/USPP/n_pbe_v1.2.uspp.F.UPF
     MD5 check sum: 95339753478d7afb44899504a8723017
     Pseudo is Ultrasoft + core correction, Zval =  5.0
     Generated by new atomic code, or converted to UPF format
     Using radial grid of  729 points,  4 beta functions with: 
                l(1) =   0
                l(2) =   0
                l(3) =   1
                l(4) =   1
     Q(r) pseudized with  8 coefficients,  rinner =    0.900   0.900   0.900


     atomic species   valence    mass     pseudopotential
     Sc               11.00     1.00000     Sc( 1.00)
     N                 5.00     1.00000     N ( 1.00)

     48 Sym. Ops., with inversion, found



   Cartesian axes

     site n.     atom                  positions (alat units)
         1        Sc     tau(   1) = (   0.0000000   0.0000000   0.0000000  )
         2        Sc     tau(   2) = (   0.5043616   0.5043616   0.0000000  )
         3        Sc     tau(   3) = (   0.5043616   0.0000000   0.5043616  )
         4        Sc     tau(   4) = (   0.0000000   0.5043616   0.5043616  )
         5        N      tau(   5) = (   0.0000000   0.0000000   0.5043616  )
         6        N      tau(   6) = (   0.0000000   0.5043616   0.0000000  )
         7        N      tau(   7) = (   0.5043616   0.0000000   0.0000000  )
         8        N      tau(   8) = (   0.5043616   0.5043616   0.5043616  )

     --------------------------------------------
     DFT-D3 Dispersion Correction (3-body terms):
     --------------------------------------------
       Reference C6 values for interpolation: 

         atom   Coordination number   C6
         N          0.000            50.54
         N          0.994            44.25
         N          2.014            39.35
         N          2.990            31.16
         Sc         0.000          3044.94
         Sc         1.863           649.01
         Sc         2.900           627.97

       Values used:

         atom   Coordination number  R0_AB[au]  C6      C8
         Sc        16.417            3.676    627.97  82273.04
         Sc        16.417            3.676    627.97  82273.04
         Sc        16.417            3.676    627.97  82273.04
         Sc        16.417            3.676    627.97  82273.04
         N          5.885            2.478     31.16    687.49
         N          5.885            2.478     31.16    687.49
         N          5.885            2.478     31.16    687.49
         N          5.885            2.478     31.16    687.49

         Molecular C6 ( Ry / a.u.^6 ) =     14727.98


     number of k points=    10
                       cart. coord. in units 2pi/alat
        k(    1) = (   0.0000000   0.0000000   0.0000000), wk =   0.0160000
        k(    2) = (   0.0000000   0.0000000   0.1982705), wk =   0.0960000
        k(    3) = (   0.0000000   0.0000000   0.3965409), wk =   0.0960000
        k(    4) = (   0.0000000   0.1982705   0.1982705), wk =   0.1920000
        k(    5) = (   0.0000000   0.1982705   0.3965409), wk =   0.3840000
        k(    6) = (   0.0000000   0.3965409   0.3965409), wk =   0.1920000
        k(    7) = (   0.1982705   0.1982705   0.1982705), wk =   0.1280000
        k(    8) = (   0.1982705   0.1982705   0.3965409), wk =   0.3840000
        k(    9) = (   0.1982705   0.3965409   0.3965409), wk =   0.3840000
        k(   10) = (   0.3965409   0.3965409   0.3965409), wk =   0.1280000

     Dense  grid:   100377 G-vectors     FFT dimensions: (  60,  60,  60)

     Smooth grid:    25413 G-vectors     FFT dimensions: (  40,  40,  40)

     Estimated max dynamical RAM per process >      31.94 MB

     Estimated total dynamical RAM >     511.10 MB

     Check: negative core charge=   -0.000002

     Initial potential from superposition of free atoms

     starting charge      63.9904, renormalised to      64.0000

     STARTING HUBBARD OCCUPATIONS:

     =================== HUBBARD OCCUPATIONS ===================
     ------------------------ ATOM    1 ------------------------
     Tr[ns(  1)] =   1.00000
     eigenvalues:
       0.100  0.100  0.100  0.100  0.100
     eigenvectors (columns):
       1.000  0.000  0.000  0.000  0.000
       0.000  1.000  0.000  0.000  0.000
       0.000  0.000  1.000  0.000  0.000
       0.000  0.000  0.000  1.000  0.000
       0.000  0.000  0.000  0.000  1.000
     occupation matrix ns (before diag.):
       0.100  0.000  0.000  0.000  0.000
       0.000  0.100  0.000  0.000  0.000
       0.000  0.000  0.100  0.000  0.000
       0.000  0.000  0.000  0.100  0.000
       0.000  0.000  0.000  0.000  0.100
     ------------------------ ATOM    2 ------------------------
     Tr[ns(  2)] =   1.00000
     eigenvalues:
       0.100  0.100  0.100  0.100  0.100
     eigenvectors (columns):
       1.000  0.000  0.000  0.000  0.000
       0.000  1.000  0.000  0.000  0.000
       0.000  0.000  1.000  0.000  0.000
       0.000  0.000  0.000  1.000  0.000
       0.000  0.000  0.000  0.000  1.000
     occupation matrix ns (before diag.):
       0.100  0.000  0.000  0.000  0.000
       0.000  0.100  0.000  0.000  0.000
       0.000  0.000  0.100  0.000  0.000
       0.000  0.000  0.000  0.100  0.000
       0.000  0.000  0.000  0.000  0.100
     ------------------------ ATOM    3 ------------------------
     Tr[ns(  3)] =   1.00000
     eigenvalues:
       0.100  0.100  0.100  0.100  0.100
     eigenvectors (columns):
       1.000  0.000  0.000  0.000  0.000
       0.000  1.000  0.000  0.000  0.000
       0.000  0.000  1.000  0.000  0.000
       0.000  0.000  0.000  1.000  0.000
       0.000  0.000  0.000  0.000  1.000
     occupation matrix ns (before diag.):
       0.100  0.000  0.000  0.000  0.000
       0.000  0.100  0.000  0.000  0.000
       0.000  0.000  0.100  0.000  0.000
       0.000  0.000  0.000  0.100  0.000
       0.000  0.000  0.000  0.000  0.100
     ------------------------ ATOM    4 ------------------------
     Tr[ns(  4)] =   1.00000
     eigenvalues:
       0.100  0.100  0.100  0.100  0.100
     eigenvectors (columns):
       1.000  0.000  0.000  0.000  0.000
       0.000  1.000  0.000  0.000  0.000
       0.000  0.000  1.000  0.000  0.000
       0.000  0.000  0.000  1.000  0.000
       0.000  0.000  0.000  0.000  1.000
     occupation matrix ns (before diag.):
       0.100  0.000  0.000  0.000  0.000
       0.000  0.100  0.000  0.000  0.000
       0.000  0.000  0.100  0.000  0.000
       0.000  0.000  0.000  0.100  0.000
       0.000  0.000  0.000  0.000  0.100

     Number of occupied Hubbard levels =    4.0000

     Atomic wfc used for Hubbard projectors are NOT orthogonalized

     Starting wfcs are   68 randomized atomic wfcs

     total cpu time spent up to now is       14.1 secs

     per-process dynamical memory:   138.3 Mb

     Self-consistent Calculation

     iteration #  1     ecut=    45.00 Ry     beta= 0.20
     Davidson diagonalization with overlap
     ethr =  1.00E-06,  avg # of iterations =  8.2

     =================== HUBBARD OCCUPATIONS ===================
     ------------------------ ATOM    1 ------------------------
     Tr[ns(  1)] =   2.33190
     eigenvalues:
       0.163  0.163  0.163  0.338  0.338
     eigenvectors (columns):
      -0.000 -0.000 -0.000  0.262 -0.965
      -0.303  0.857 -0.417 -0.000  0.000
      -0.361  0.302  0.882 -0.000  0.000
       0.000 -0.000  0.000 -0.965 -0.262
       0.882  0.418  0.217  0.000 -0.000
     occupation matrix ns (before diag.):
       0.338 -0.000 -0.000  0.000  0.000
      -0.000  0.163 -0.000  0.000  0.000
      -0.000 -0.000  0.163  0.000  0.000
       0.000  0.000  0.000  0.338 -0.000
       0.000  0.000  0.000 -0.000  0.163
     ------------------------ ATOM    2 ------------------------
     Tr[ns(  2)] =   2.33198
     eigenvalues:
       0.163  0.163  0.163  0.338  0.338
     eigenvectors (columns):
      -0.000  0.000 -0.000  1.000 -0.000
      -0.000  0.780 -0.625 -0.000 -0.000
      -0.000  0.625  0.780 -0.000 -0.000
       0.000 -0.000  0.000 -0.000 -1.000
       1.000  0.000  0.000  0.000  0.000
     occupation matrix ns (before diag.):
       0.338 -0.000 -0.000  0.000  0.000
      -0.000  0.163 -0.000  0.000  0.000
      -0.000 -0.000  0.163  0.000  0.000
       0.000  0.000  0.000  0.338 -0.000
       0.000  0.000  0.000 -0.000  0.163
     ------------------------ ATOM    3 ------------------------
     Tr[ns(  3)] =   2.33198
     eigenvalues:
       0.163  0.163  0.163  0.338  0.338
     eigenvectors (columns):
       0.000 -0.000 -0.000 -0.500  0.866
       1.000  0.000 -0.000 -0.000 -0.000
       0.000 -0.314  0.949 -0.000 -0.000
      -0.000  0.000  0.000 -0.866 -0.500
      -0.000  0.949  0.314  0.000  0.000
     occupation matrix ns (before diag.):
       0.338 -0.000 -0.000 -0.000  0.000
      -0.000  0.163 -0.000  0.000  0.000
      -0.000 -0.000  0.163  0.000  0.000
      -0.000  0.000  0.000  0.338 -0.000
       0.000  0.000  0.000 -0.000  0.163
     ------------------------ ATOM    4 ------------------------
     Tr[ns(  4)] =   2.33198
     eigenvalues:
       0.163  0.163  0.163  0.338  0.338
     eigenvectors (columns):
       0.000 -0.000  0.000  0.500 -0.866
       0.000 -0.243  0.970 -0.000  0.000
       1.000  0.000 -0.000 -0.000 -0.000
      -0.000  0.000 -0.000 -0.866 -0.500
      -0.000  0.970  0.243  0.000 -0.000
     occupation matrix ns (before diag.):
       0.338 -0.000 -0.000  0.000  0.000
      -0.000  0.163 -0.000  0.000  0.000
      -0.000 -0.000  0.163  0.000  0.000
       0.000  0.000  0.000  0.338 -0.000
       0.000  0.000  0.000 -0.000  0.163

     Number of occupied Hubbard levels =    9.3279

     total cpu time spent up to now is       14.8 secs

     total energy              =    -458.95661572 Ry
     estimated scf accuracy    <       3.23844278 Ry

     iteration #  2     ecut=    45.00 Ry     beta= 0.20
     Davidson diagonalization with overlap
     ethr =  5.06E-03,  avg # of iterations =  1.0

     total cpu time spent up to now is       14.9 secs

     total energy              =    -458.05253769 Ry
     estimated scf accuracy    <       1.95370154 Ry

     iteration #  3     ecut=    45.00 Ry     beta= 0.20
     Davidson diagonalization with overlap
     ethr =  3.05E-03,  avg # of iterations =  3.4

     total cpu time spent up to now is       15.1 secs

     total energy              =    -458.54137925 Ry
     estimated scf accuracy    <       0.17842792 Ry

     iteration #  4     ecut=    45.00 Ry     beta= 0.20
     Davidson diagonalization with overlap
     ethr =  2.79E-04,  avg # of iterations =  4.1

     total cpu time spent up to now is       15.4 secs

     total energy              =    -458.61014752 Ry
     estimated scf accuracy    <       0.11899706 Ry

     iteration #  5     ecut=    45.00 Ry     beta= 0.20
     Davidson diagonalization with overlap
     ethr =  1.86E-04,  avg # of iterations =  1.2

     total cpu time spent up to now is       15.5 secs

     total energy              =    -458.58104209 Ry
     estimated scf accuracy    <       0.09679968 Ry

     iteration #  6     ecut=    45.00 Ry     beta= 0.20
     Davidson diagonalization with overlap
     ethr =  1.51E-04,  avg # of iterations =  2.5

     total cpu time spent up to now is       15.7 secs

     total energy              =    -458.59462182 Ry
     estimated scf accuracy    <       0.00446773 Ry

     iteration #  7     ecut=    45.00 Ry     beta= 0.20
     Davidson diagonalization with overlap
     ethr =  6.98E-06,  avg # of iterations =  3.2

     total cpu time spent up to now is       15.9 secs

     total energy              =    -458.59396796 Ry
     estimated scf accuracy    <       0.00455251 Ry

     iteration #  8     ecut=    45.00 Ry     beta= 0.20
     Davidson diagonalization with overlap
     ethr =  6.98E-06,  avg # of iterations =  3.2

     total cpu time spent up to now is       16.1 secs

     total energy              =    -458.59516751 Ry
     estimated scf accuracy    <       0.00073167 Ry

     iteration #  9     ecut=    45.00 Ry     beta= 0.20
     Davidson diagonalization with overlap
     ethr =  1.14E-06,  avg # of iterations =  6.7

     total cpu time spent up to now is       16.4 secs

     total energy              =    -458.59810306 Ry
     estimated scf accuracy    <       0.02612980 Ry

     iteration # 10     ecut=    45.00 Ry     beta= 0.20
     Davidson diagonalization with overlap
     ethr =  1.14E-06,  avg # of iterations =  2.6

     total cpu time spent up to now is       16.6 secs

     total energy              =    -458.59601894 Ry
     estimated scf accuracy    <       0.02108160 Ry

     iteration # 11     ecut=    45.00 Ry     beta= 0.20
     Davidson diagonalization with overlap
     ethr =  1.14E-06,  avg # of iterations =  3.8

     total cpu time spent up to now is       16.9 secs

     total energy              =    -458.59749525 Ry
     estimated scf accuracy    <       0.01010290 Ry

     iteration # 12     ecut=    45.00 Ry     beta= 0.20
     Davidson diagonalization with overlap
     ethr =  1.14E-06,  avg # of iterations =  3.6

     total cpu time spent up to now is       17.1 secs

     total energy              =    -458.59262689 Ry
     estimated scf accuracy    <       0.01509438 Ry

     iteration # 13     ecut=    45.00 Ry     beta= 0.20
     Davidson diagonalization with overlap
     ethr =  1.14E-06,  avg # of iterations =  5.2

     total cpu time spent up to now is       17.3 secs

     total energy              =    -458.59443837 Ry
     estimated scf accuracy    <       0.00015408 Ry

     iteration # 14     ecut=    45.00 Ry     beta= 0.20
     Davidson diagonalization with overlap
     ethr =  2.41E-07,  avg # of iterations =  2.3

     total cpu time spent up to now is       17.5 secs

     total energy              =    -458.59442477 Ry
     estimated scf accuracy    <       0.00003099 Ry

     iteration # 15     ecut=    45.00 Ry     beta= 0.20
     Davidson diagonalization with overlap
     ethr =  4.84E-08,  avg # of iterations =  5.3

     total cpu time spent up to now is       17.8 secs

     total energy              =    -458.59434132 Ry
     estimated scf accuracy    <       0.00055916 Ry

     iteration # 16     ecut=    45.00 Ry     beta= 0.20
     Davidson diagonalization with overlap
     ethr =  4.84E-08,  avg # of iterations =  5.4

     total cpu time spent up to now is       18.1 secs

     total energy              =    -458.59445467 Ry
     estimated scf accuracy    <       0.00001470 Ry

     iteration # 17     ecut=    45.00 Ry     beta= 0.20
     Davidson diagonalization with overlap
     ethr =  2.30E-08,  avg # of iterations =  1.0

     total cpu time spent up to now is       18.3 secs

     total energy              =    -458.59445345 Ry
     estimated scf accuracy    <       0.00000874 Ry

     iteration # 18     ecut=    45.00 Ry     beta= 0.20
     Davidson diagonalization with overlap
     ethr =  1.36E-08,  avg # of iterations =  1.9

     total cpu time spent up to now is       18.4 secs

     total energy              =    -458.59445411 Ry
     estimated scf accuracy    <       0.00000247 Ry

     iteration # 19     ecut=    45.00 Ry     beta= 0.20
     Davidson diagonalization with overlap
     ethr =  3.86E-09,  avg # of iterations =  1.6

     total cpu time spent up to now is       18.6 secs

     total energy              =    -458.59445339 Ry
     estimated scf accuracy    <       0.00000219 Ry

     iteration # 20     ecut=    45.00 Ry     beta= 0.20
     Davidson diagonalization with overlap
     ethr =  3.42E-09,  avg # of iterations =  3.8

     total cpu time spent up to now is       18.8 secs

     total energy              =    -458.59445387 Ry
     estimated scf accuracy    <       0.00000001 Ry

     iteration # 21     ecut=    45.00 Ry     beta= 0.20
     Davidson diagonalization with overlap
     ethr =  2.24E-11,  avg # of iterations =  5.6

     total cpu time spent up to now is       19.1 secs

     total energy              =    -458.59445390 Ry
     estimated scf accuracy    <          5.6E-09 Ry

     iteration # 22     ecut=    45.00 Ry     beta= 0.20
     Davidson diagonalization with overlap
     ethr =  8.77E-12,  avg # of iterations =  1.7

     total cpu time spent up to now is       19.3 secs

     total energy              =    -458.59445390 Ry
     estimated scf accuracy    <          3.3E-09 Ry

     iteration # 23     ecut=    45.00 Ry     beta= 0.20
     Davidson diagonalization with overlap
     ethr =  5.10E-12,  avg # of iterations =  1.7

     total cpu time spent up to now is       19.5 secs

     total energy              =    -458.59445390 Ry
     estimated scf accuracy    <          4.1E-09 Ry

     iteration # 24     ecut=    45.00 Ry     beta= 0.20
     Davidson diagonalization with overlap
     ethr =  5.10E-12,  avg # of iterations =  1.1

     total cpu time spent up to now is       19.6 secs

     total energy              =    -458.59445390 Ry
     estimated scf accuracy    <          4.7E-09 Ry

     iteration # 25     ecut=    45.00 Ry     beta= 0.20
     Davidson diagonalization with overlap
     ethr =  5.10E-12,  avg # of iterations =  4.0

     total cpu time spent up to now is       19.9 secs

     total energy              =    -458.59445390 Ry
     estimated scf accuracy    <          6.1E-09 Ry

     iteration # 26     ecut=    45.00 Ry     beta= 0.20
     Davidson diagonalization with overlap
     ethr =  5.10E-12,  avg # of iterations =  3.1

     total cpu time spent up to now is       20.1 secs

     total energy              =    -458.59445390 Ry
     estimated scf accuracy    <       0.00000001 Ry

     iteration # 27     ecut=    45.00 Ry     beta= 0.20
     Davidson diagonalization with overlap
     ethr =  5.10E-12,  avg # of iterations =  4.0

     total cpu time spent up to now is       20.3 secs

     End of self-consistent calculation

     =================== HUBBARD OCCUPATIONS ===================
     ------------------------ ATOM    1 ------------------------
     Tr[ns(  1)] =   3.20211
     eigenvalues:
       0.245  0.245  0.245  0.433  0.433
     eigenvectors (columns):
      -0.000 -0.000 -0.000  0.260 -0.966
      -0.270  0.656 -0.705 -0.000  0.000
      -0.390  0.595  0.703 -0.000  0.000
       0.000 -0.000  0.000 -0.966 -0.260
       0.880  0.464  0.095  0.000 -0.000
     occupation matrix ns (before diag.):
       0.433 -0.000 -0.000  0.000  0.000
      -0.000  0.245 -0.000  0.000  0.000
      -0.000 -0.000  0.245  0.000  0.000
       0.000  0.000  0.000  0.433 -0.000
       0.000  0.000  0.000 -0.000  0.245
     ------------------------ ATOM    2 ------------------------
     Tr[ns(  2)] =   3.20211
     eigenvalues:
       0.245  0.245  0.245  0.433  0.433
     eigenvectors (columns):
      -0.000 -0.000 -0.000  0.000  1.000
      -0.746 -0.666  0.000 -0.000 -0.000
      -0.666  0.746  0.000 -0.000 -0.000
       0.000  0.000  0.000 -1.000  0.000
       0.000 -0.000  1.000  0.000  0.000
     occupation matrix ns (before diag.):
       0.433 -0.000 -0.000  0.000  0.000
      -0.000  0.245 -0.000  0.000  0.000
      -0.000 -0.000  0.245  0.000  0.000
       0.000  0.000  0.000  0.433 -0.000
       0.000  0.000  0.000 -0.000  0.245
     ------------------------ ATOM    3 ------------------------
     Tr[ns(  3)] =   3.20211
     eigenvalues:
       0.245  0.245  0.245  0.433  0.433
     eigenvectors (columns):
      -0.000 -0.000  0.000 -0.866 -0.500
      -0.000  0.000  1.000  0.000 -0.000
      -0.363  0.932 -0.000  0.000 -0.000
       0.000  0.000 -0.000  0.500 -0.866
       0.932  0.363  0.000 -0.000  0.000
     occupation matrix ns (before diag.):
       0.433 -0.000 -0.000  0.000  0.000
      -0.000  0.245 -0.000  0.000  0.000
      -0.000 -0.000  0.245  0.000  0.000
       0.000  0.000  0.000  0.433 -0.000
       0.000  0.000  0.000 -0.000  0.245
     ------------------------ ATOM    4 ------------------------
     Tr[ns(  4)] =   3.20211
     eigenvalues:
       0.245  0.245  0.245  0.433  0.433
     eigenvectors (columns):
      -0.000  0.000  0.000  0.866  0.500
      -0.247  0.969 -0.000  0.000 -0.000
      -0.000  0.000  1.000  0.000 -0.000
       0.000 -0.000 -0.000  0.500 -0.866
       0.969  0.247  0.000  0.000  0.000
     occupation matrix ns (before diag.):
       0.433 -0.000 -0.000 -0.000  0.000
      -0.000  0.245 -0.000  0.000  0.000
      -0.000 -0.000  0.245  0.000  0.000
      -0.000  0.000  0.000  0.433 -0.000
       0.000  0.000  0.000 -0.000  0.245

     Number of occupied Hubbard levels =   12.8085

          k = 0.0000 0.0000 0.0000 (  3191 PWs)   bands (ev):

   -36.0435 -35.9203 -35.9203 -35.9203 -14.9216 -14.9216 -14.9216 -14.6044
   -14.6044 -14.6044 -14.6044 -14.6044 -14.6044 -14.4077 -14.4077 -14.4077
    -1.4606  -0.2918  -0.2918  -0.2918   9.4871   9.4871   9.4871  11.6286
    11.6286  11.6286  11.6286  11.6286  11.6286  12.5791  12.5791  12.5791

          k = 0.0000 0.0000 0.1983 (  3150 PWs)   bands (ev):

   -36.0321 -35.9313 -35.9220 -35.9220 -14.8863 -14.8863 -14.8827 -14.6317
   -14.6317 -14.6123 -14.6123 -14.5849 -14.5849 -14.4689 -14.4256 -14.4256
    -1.2522  -0.2751  -0.1790  -0.1790   9.2202   9.5637   9.5637  10.9614
    10.9614  10.9807  10.9807  11.3339  11.6209  11.6209  12.2955  12.2955

          k = 0.0000 0.0000 0.3965 (  3166 PWs)   bands (ev):

   -36.0006 -35.9614 -35.9248 -35.9248 -14.8006 -14.8006 -14.7724 -14.7046
   -14.7046 -14.6250 -14.6250 -14.6157 -14.5344 -14.5344 -14.4736 -14.4736
    -0.7718  -0.3765   0.0148   0.0148   9.0339   9.7420   9.8073   9.8073
    10.0741  10.0741  10.2638  10.2638  11.6660  11.6660  11.8850  11.8850

          k = 0.0000 0.1983 0.1983 (  3163 PWs)   bands (ev):

   -36.0186 -35.9295 -35.9295 -35.9226 -14.8691 -14.8691 -14.8535 -14.6998
   -14.6112 -14.6112 -14.5807 -14.5807 -14.5702 -14.5531 -14.4445 -14.4108
    -1.0467  -0.1516  -0.1515  -0.0724   9.2450   9.2450   9.6359  10.1577
    10.9438  10.9677  10.9783  10.9783  11.0163  11.0163  11.4676  11.9654

          k = 0.0000 0.1983 0.3965 (  3183 PWs)   bands (ev):

   -35.9860 -35.9519 -35.9262 -35.9239 -14.8330 -14.8056 -14.7761 -14.7730
   -14.6895 -14.6814 -14.5677 -14.5584 -14.5567 -14.5098 -14.4948 -14.4420
    -0.5833  -0.2223   0.0699   0.1012   8.9866   9.2481   9.4186   9.6093
     9.8697  10.2611  10.3160  10.4133  10.9950  11.1103  11.1564  11.4724

          k = 0.0000 0.3965 0.3965 (  3165 PWs)   bands (ev):

   -35.9563 -35.9344 -35.9344 -35.9246 -14.8475 -14.8475 -14.8406 -14.7944
   -14.7036 -14.6221 -14.6221 -14.5510 -14.4958 -14.4828 -14.4828 -14.4349
    -0.1812   0.0807   0.0807   0.2096   8.7987   8.7987   8.8112   9.0965
    10.0815  10.2157  10.2463  10.2463  10.3480  10.5023  10.5023  10.8863

          k = 0.1983 0.1983 0.1983 (  3152 PWs)   bands (ev):

   -36.0037 -35.9267 -35.9267 -35.9266 -14.8732 -14.8732 -14.8732 -14.6371
   -14.6358 -14.6358 -14.6358 -14.5544 -14.5544 -14.5544 -14.4254 -14.4254
    -0.8468  -0.0356  -0.0356  -0.0356   9.2156   9.2156   9.2156  10.3199
    10.3199  10.3199  10.5097  10.9423  10.9423  10.9423  11.3133  11.3133

          k = 0.1983 0.1983 0.3965 (  3174 PWs)   bands (ev):

   -35.9708 -35.9417 -35.9220 -35.9220 -14.8833 -14.8833 -14.8572 -14.7686
   -14.6476 -14.6476 -14.5365 -14.5365 -14.5293 -14.5136 -14.4643 -14.4493
    -0.4045  -0.0781   0.1635   0.1635   8.8833   9.0018   9.0018   9.4041
     9.9741   9.9741  10.3929  10.3929  10.4933  10.7616  10.9357  11.0609

          k = 0.1983 0.3965 0.3965 (  3177 PWs)   bands (ev):

   -35.9414 -35.9236 -35.9236 -35.9167 -14.9363 -14.9258 -14.9258 -14.8798
   -14.5989 -14.5544 -14.5544 -14.4962 -14.4897 -14.4817 -14.4817 -14.4404
    -0.0293   0.1983   0.1983   0.2946   8.5503   8.5799   8.5799   8.8313
    10.0117  10.0803  10.0803  10.1660  10.2660  10.3754  10.3754  10.5798

          k = 0.3965 0.3965 0.3965 (  3169 PWs)   bands (ev):

   -35.9148 -35.9060 -35.9060 -35.9060 -15.0121 -15.0121 -15.0121 -14.9884
   -14.4912 -14.4912 -14.4912 -14.4740 -14.4740 -14.4740 -14.4551 -14.4551
     0.2706   0.4002   0.4002   0.4002   8.1747   8.1747   8.1747   8.3100
     9.9603   9.9603   9.9603  10.0981  10.0981  10.0981  10.1325  10.1325

     highest occupied level (ev):    12.5791

!    total energy              =    -458.59445390 Ry
     estimated scf accuracy    <          6.1E-10 Ry

     The total energy is the sum of the following terms:
     one-electron contribution =     -89.85554054 Ry
     hartree contribution      =      76.28632577 Ry
     xc contribution           =     -75.46830911 Ry
     ewald contribution        =    -369.94478477 Ry
     DFT-D3 Dispersion         =      -0.19622538 Ry
     Hubbard energy            =       0.58408014 Ry

     convergence has been achieved in  27 iterations
     force_hub    :      0.22s CPU      0.24s WALL (       4 calls)
     dndtau       :      0.20s CPU      0.21s WALL (     960 calls)
     dprojdtau    :      0.02s CPU      0.02s WALL (    3840 calls)
     matel_dSdtau :      0.16s CPU      0.17s WALL (     960 calls)

     Forces acting on atoms (cartesian axes, Ry/au):

     atom    1 type  1   force =     0.00000000    0.00000000    0.00000000
     atom    2 type  1   force =     0.00000000    0.00000000    0.00000000
     atom    3 type  1   force =     0.00000000    0.00000000    0.00000000
     atom    4 type  1   force =     0.00000000    0.00000000    0.00000000
     atom    5 type  2   force =     0.00000000    0.00000000    0.00000000
     atom    6 type  2   force =     0.00000000    0.00000000    0.00000000
     atom    7 type  2   force =     0.00000000    0.00000000    0.00000000
     atom    8 type  2   force =     0.00000000    0.00000000    0.00000000

     Total force =     0.000000     Total SCF correction =     0.000000


     Computing stress (Cartesian axis) and pressure

     stres_hub    :      0.58s CPU      0.61s WALL (       4 calls)
     dprojdepsilo :      0.52s CPU      0.55s WALL (     360 calls)
     dprojdeps1   :      0.00s CPU      0.00s WALL (     360 calls)
     dprojdeps2   :      0.02s CPU      0.02s WALL (     360 calls)
     dprojdeps3   :      0.50s CPU      0.52s WALL (     360 calls)
          total   stress  (Ry/bohr**3)                   (kbar)     P=       -0.15
  -0.00000100   0.00000000   0.00000000           -0.15        0.00        0.00
   0.00000000  -0.00000100   0.00000000            0.00       -0.15        0.00
   0.00000000   0.00000000  -0.00000100            0.00        0.00       -0.15


     Writing all to output data dir ./tmp/scn.save/ :
     XML data file, charge density, pseudopotentials, collected wavefunctions

     init_run     :      0.97s CPU      1.00s WALL (       2 calls)
     electrons    :     14.72s CPU     15.92s WALL (       4 calls)
     update_pot   :      0.02s CPU      0.02s WALL (       2 calls)
     forces       :      1.60s CPU      1.63s WALL (       4 calls)
     force_dftd3  :      1.24s CPU      1.24s WALL (       4 calls)
     stress       :      2.51s CPU      2.57s WALL (       4 calls)
     stres_dftd3  :      1.23s CPU      1.24s WALL (       4 calls)

     Called by init_run:
     wfcinit      :      0.20s CPU      0.22s WALL (       2 calls)
     potinit      :      0.28s CPU      0.28s WALL (       2 calls)
     hinit0       :      0.41s CPU      0.41s WALL (       2 calls)

     Called by electrons:
     c_bands      :     10.18s CPU     11.09s WALL (      72 calls)
     sum_band     :      2.21s CPU      2.35s WALL (      72 calls)
     v_of_rho     :      0.32s CPU      0.36s WALL (      75 calls)
     newd         :      0.88s CPU      0.90s WALL (      75 calls)
     mix_rho      :      0.18s CPU      0.20s WALL (      72 calls)
     energy_dftd3 :      0.93s CPU      0.94s WALL (       4 calls)

     Called by c_bands:
     init_us_2    :      0.09s CPU      0.11s WALL (    1660 calls)
     cegterg      :      9.84s CPU     10.41s WALL (     720 calls)

     Called by *egterg:
     cdiaghg      :      2.63s CPU      2.71s WALL (    2910 calls)
     h_psi        :      6.09s CPU      6.55s WALL (    2960 calls)
     s_psi        :      0.24s CPU      0.26s WALL (    3080 calls)
     g_psi        :      0.01s CPU      0.02s WALL (    2220 calls)

     Called by h_psi:
     h_psi:calbec :      0.49s CPU      0.53s WALL (    2960 calls)
     vloc_psi     :      5.11s CPU      5.50s WALL (    2960 calls)
                                        0.00s GPU  (    2960 calls)
     add_vuspsi   :      0.23s CPU      0.25s WALL (    2960 calls)
     vhpsi        :      0.23s CPU      0.25s WALL (    2960 calls)

     General routines
     calbec       :      1.61s CPU      1.72s WALL (   23960 calls)
     fft          :      0.60s CPU      0.64s WALL (    1070 calls)
     ffts         :      0.34s CPU      0.35s WALL (    1404 calls)
     fftw         :      5.58s CPU      6.03s WALL (  152234 calls)
     interpolate  :      0.29s CPU      0.29s WALL (      75 calls)

     Parallel routines

     Hubbard U routines
     new_ns       :      0.08s CPU      0.09s WALL (      72 calls)
     vhpsi        :      0.23s CPU      0.25s WALL (    2960 calls)
     force_hub    :      0.22s CPU      0.24s WALL (       4 calls)
     stres_hub    :      0.58s CPU      0.61s WALL (       4 calls)

     PWSCF        :     20.02s CPU     21.47s WALL


   This run was terminated on:  23: 0:13  30Mar2026            

=------------------------------------------------------------------------------=
   JOB DONE.
=------------------------------------------------------------------------------=
