192
Lattice="18.468272352 0.0 0.0 0.0 18.468272352 0.0 0.0 0.0 26.9256021333" Properties=species:S:1:pos:R:3:tags:I:1 pbc="T T F"
Zr       0.00000000       0.00000000      10.00000000        2
Zr       2.30853405       0.00000000      12.30853405        2
Zr       0.00000000       2.30853405      12.30853405        2
Zr       2.30853405       2.30853405      10.00000000        2
Zr       0.00000000       0.00000000      14.61706809        1
Zr       2.30853405       2.30853405      14.61706809        1
Zr       0.00000000       4.61706809      10.00000000        2
Zr       2.30853405       4.61706809      12.30853405        2
Zr       0.00000000       6.92560213      12.30853405        2
Zr       2.30853405       6.92560213      10.00000000        2
Zr       0.00000000       4.61706809      14.61706809        1
Zr       2.30853405       6.92560213      14.61706809        1
Zr       0.00000000       9.23413618      10.00000000        2
Zr       2.30853405       9.23413618      12.30853405        2
Zr       0.00000000      11.54267022      12.30853405        2
Zr       2.30853405      11.54267022      10.00000000        2
Zr       0.00000000       9.23413618      14.61706809        1
Zr       2.30853405      11.54267022      14.61706809        1
Zr       0.00000000      13.85120426      10.00000000        2
Zr       2.30853405      13.85120426      12.30853405        2
Zr       0.00000000      16.15973831      12.30853405        2
Zr       2.30853405      16.15973831      10.00000000        2
Zr       0.00000000      13.85120426      14.61706809        1
Zr       2.30853405      16.15973831      14.61706809        1
Zr       4.61706809       0.00000000      10.00000000        2
Zr       6.92560213       0.00000000      12.30853405        2
Zr       4.61706809       2.30853405      12.30853405        2
Zr       6.92560213       2.30853405      10.00000000        2
Zr       4.61706809       0.00000000      14.61706809        1
Zr       6.92560213       2.30853405      14.61706809        1
Zr       4.61706809       4.61706809      10.00000000        2
Zr       6.92560213       4.61706809      12.30853405        2
Zr       4.61706809       6.92560213      12.30853405        2
Zr       6.92560213       6.92560213      10.00000000        2
Zr       4.61706809       4.61706809      14.61706809        1
Zr       6.92560213       6.92560213      14.61706809        1
Zr       4.61706809       9.23413618      10.00000000        2
Zr       6.92560213       9.23413618      12.30853405        2
Zr       4.61706809      11.54267022      12.30853405        2
Zr       6.92560213      11.54267022      10.00000000        2
Zr       4.61706809       9.23413618      14.61706809        1
Zr       6.92560213      11.54267022      14.61706809        1
Zr       4.61706809      13.85120426      10.00000000        2
Zr       6.92560213      13.85120426      12.30853405        2
Zr       4.61706809      16.15973831      12.30853405        2
Zr       6.92560213      16.15973831      10.00000000        2
Zr       4.61706809      13.85120426      14.61706809        1
Zr       6.92560213      16.15973831      14.61706809        1
Zr       9.23413618       0.00000000      10.00000000        2
Zr      11.54267022       0.00000000      12.30853405        2
Zr       9.23413618       2.30853405      12.30853405        2
Zr      11.54267022       2.30853405      10.00000000        2
Zr       9.23413618       0.00000000      14.61706809        1
Zr      11.54267022       2.30853405      14.61706809        1
Zr       9.23413618       4.61706809      10.00000000        2
Zr      11.54267022       4.61706809      12.30853405        2
Zr       9.23413618       6.92560213      12.30853405        2
Zr      11.54267022       6.92560213      10.00000000        2
Zr       9.23413618       4.61706809      14.61706809        1
Zr      11.54267022       6.92560213      14.61706809        1
Zr       9.23413618       9.23413618      10.00000000        2
Zr      11.54267022       9.23413618      12.30853405        2
Zr       9.23413618      11.54267022      12.30853405        2
Zr      11.54267022      11.54267022      10.00000000        2
Zr       9.23413618       9.23413618      14.61706809        1
Zr      11.54267022      11.54267022      14.61706809        1
Zr       9.23413618      13.85120426      10.00000000        2
Zr      11.54267022      13.85120426      12.30853405        2
Zr       9.23413618      16.15973831      12.30853405        2
Zr      11.54267022      16.15973831      10.00000000        2
Zr       9.23413618      13.85120426      14.61706809        1
Zr      11.54267022      16.15973831      14.61706809        1
Zr      13.85120426       0.00000000      10.00000000        2
Zr      16.15973831       0.00000000      12.30853405        2
Zr      13.85120426       2.30853405      12.30853405        2
Zr      16.15973831       2.30853405      10.00000000        2
Zr      13.85120426       0.00000000      14.61706809        1
Zr      16.15973831       2.30853405      14.61706809        1
Zr      13.85120426       4.61706809      10.00000000        2
Zr      16.15973831       4.61706809      12.30853405        2
Zr      13.85120426       6.92560213      12.30853405        2
Zr      16.15973831       6.92560213      10.00000000        2
Zr      13.85120426       4.61706809      14.61706809        1
Zr      16.15973831       6.92560213      14.61706809        1
Zr      13.85120426       9.23413618      10.00000000        2
Zr      16.15973831       9.23413618      12.30853405        2
Zr      13.85120426      11.54267022      12.30853405        2
Zr      16.15973831      11.54267022      10.00000000        2
Zr      13.85120426       9.23413618      14.61706809        1
Zr      16.15973831      11.54267022      14.61706809        1
Zr      13.85120426      13.85120426      10.00000000        2
Zr      16.15973831      13.85120426      12.30853405        2
Zr      13.85120426      16.15973831      12.30853405        2
Zr      16.15973831      16.15973831      10.00000000        2
Zr      13.85120426      13.85120426      14.61706809        1
Zr      16.15973831      16.15973831      14.61706809        1
N        0.00000000       2.30853405      10.00000000        2
N        2.30853405       0.00000000      10.00000000        2
N        0.00000000       0.00000000      12.30853405        2
N        2.30853405       2.30853405      12.30853405        2
N        0.00000000       2.30853405      14.61706809        1
N        2.30853405       0.00000000      14.61706809        1
N        0.00000000       6.92560213      10.00000000        2
N        2.30853405       4.61706809      10.00000000        2
N        0.00000000       4.61706809      12.30853405        2
N        2.30853405       6.92560213      12.30853405        2
N        0.00000000       6.92560213      14.61706809        1
N        2.30853405       4.61706809      14.61706809        1
N        0.00000000      11.54267022      10.00000000        2
N        2.30853405       9.23413618      10.00000000        2
N        0.00000000       9.23413618      12.30853405        2
N        2.30853405      11.54267022      12.30853405        2
N        0.00000000      11.54267022      14.61706809        1
N        2.30853405       9.23413618      14.61706809        1
N        0.00000000      16.15973831      10.00000000        2
N        2.30853405      13.85120426      10.00000000        2
N        0.00000000      13.85120426      12.30853405        2
N        2.30853405      16.15973831      12.30853405        2
N        0.00000000      16.15973831      14.61706809        1
N        2.30853405      13.85120426      14.61706809        1
N        4.61706809       2.30853405      10.00000000        2
N        6.92560213       0.00000000      10.00000000        2
N        4.61706809       0.00000000      12.30853405        2
N        6.92560213       2.30853405      12.30853405        2
N        4.61706809       2.30853405      14.61706809        1
N        6.92560213       0.00000000      14.61706809        1
N        4.61706809       6.92560213      10.00000000        2
N        6.92560213       4.61706809      10.00000000        2
N        4.61706809       4.61706809      12.30853405        2
N        6.92560213       6.92560213      12.30853405        2
N        4.61706809       6.92560213      14.61706809        1
N        6.92560213       4.61706809      14.61706809        1
N        4.61706809      11.54267022      10.00000000        2
N        6.92560213       9.23413618      10.00000000        2
N        4.61706809       9.23413618      12.30853405        2
N        6.92560213      11.54267022      12.30853405        2
N        4.61706809      11.54267022      14.61706809        1
N        6.92560213       9.23413618      14.61706809        1
N        4.61706809      16.15973831      10.00000000        2
N        6.92560213      13.85120426      10.00000000        2
N        4.61706809      13.85120426      12.30853405        2
N        6.92560213      16.15973831      12.30853405        2
N        4.61706809      16.15973831      14.61706809        1
N        6.92560213      13.85120426      14.61706809        1
N        9.23413618       2.30853405      10.00000000        2
N       11.54267022       0.00000000      10.00000000        2
N        9.23413618       0.00000000      12.30853405        2
N       11.54267022       2.30853405      12.30853405        2
N        9.23413618       2.30853405      14.61706809        1
N       11.54267022       0.00000000      14.61706809        1
N        9.23413618       6.92560213      10.00000000        2
N       11.54267022       4.61706809      10.00000000        2
N        9.23413618       4.61706809      12.30853405        2
N       11.54267022       6.92560213      12.30853405        2
N        9.23413618       6.92560213      14.61706809        1
N       11.54267022       4.61706809      14.61706809        1
N        9.23413618      11.54267022      10.00000000        2
N       11.54267022       9.23413618      10.00000000        2
N        9.23413618       9.23413618      12.30853405        2
N       11.54267022      11.54267022      12.30853405        2
N        9.23413618      11.54267022      14.61706809        1
N       11.54267022       9.23413618      14.61706809        1
N        9.23413618      16.15973831      10.00000000        2
N       11.54267022      13.85120426      10.00000000        2
N        9.23413618      13.85120426      12.30853405        2
N       11.54267022      16.15973831      12.30853405        2
N        9.23413618      16.15973831      14.61706809        1
N       11.54267022      13.85120426      14.61706809        1
N       13.85120426       2.30853405      10.00000000        2
N       16.15973831       0.00000000      10.00000000        2
N       13.85120426       0.00000000      12.30853405        2
N       16.15973831       2.30853405      12.30853405        2
N       13.85120426       2.30853405      14.61706809        1
N       16.15973831       0.00000000      14.61706809        1
N       13.85120426       6.92560213      10.00000000        2
N       16.15973831       4.61706809      10.00000000        2
N       13.85120426       4.61706809      12.30853405        2
N       16.15973831       6.92560213      12.30853405        2
N       13.85120426       6.92560213      14.61706809        1
N       16.15973831       4.61706809      14.61706809        1
N       13.85120426      11.54267022      10.00000000        2
N       16.15973831       9.23413618      10.00000000        2
N       13.85120426       9.23413618      12.30853405        2
N       16.15973831      11.54267022      12.30853405        2
N       13.85120426      11.54267022      14.61706809        1
N       16.15973831       9.23413618      14.61706809        1
N       13.85120426      16.15973831      10.00000000        2
N       16.15973831      13.85120426      10.00000000        2
N       13.85120426      13.85120426      12.30853405        2
N       16.15973831      16.15973831      12.30853405        2
N       13.85120426      16.15973831      14.61706809        1
N       16.15973831      13.85120426      14.61706809        1
