3
Lattice="19.907558 0.0 0.0 0.0 16.74609 0.0 0.0 0.0 26.0" Properties=species:S:1:pos:R:3:spacegroup_kinds:I:1:forces:R:3 spacegroup="P 1" unit_cell=conventional occupancy="_JSON {\"0\": {\"S\": 1.0}, \"1\": {\"Li\": 1.0}, \"2\": {\"Li\": 1.0}}" energy=-721.7496515431213 free_energy=-721.7496515431213 pbc="T T T"
S       10.12657760       8.98049803       8.12802944        0      -0.00079807      -0.02137898      -0.00730630
Li      11.87768622       7.85271233       7.94894640        1      -0.00404769       0.01129768       0.00378209
Li       8.32801235       7.93670804       7.91244480        2       0.00484576       0.01008130       0.00352421
