  145

 V    0.0000000000    0.0000000000   10.0000000000
 V    2.0432625400    0.0000000000   12.0432625400
 V    0.0000000000    2.0432625400   12.0432625400
 V    2.0432625400    2.0432625400   10.0000000000
 V    0.0049532760    0.0049533060   14.1616741780
 V    2.0600828080    0.0351495260   16.0195445260
 V    0.0351493760    2.0600827280   16.0195443360
 V    2.0552390830    2.0552389930   14.1768954960
 V    0.0000000000    4.0865250700   10.0000000000
 V    2.0432625400    4.0865250700   12.0432625400
 V    0.0000000000    6.1297876100   12.0432625400
 V    2.0432625400    6.1297876100   10.0000000000
 V   -0.0102416220    4.0865477570   14.1708732640
 V    1.9139661700    4.0865653200   16.0200066110
 V    0.0351149080    6.1128942230   16.0195346470
 V    2.0552606930    6.1177672560   14.1768878340
 V    0.0000000000    8.1730501500   10.0000000000
 V    2.0432625400    8.1730501500   12.0432625400
 V    0.0000000000   10.2163126900   12.0432625400
 V    2.0432625400   10.2163126900   10.0000000000
 V    0.0049623590    8.1681325620   14.1616512710
 V    2.0601095830    8.1379247620   16.0195565550
 V   -0.0579111530   10.2163483970   16.0233369300
 V    2.0327263400   10.2163071520   14.1511628980
 V    4.0865250700    0.0000000000   10.0000000000
 V    6.1297876100    0.0000000000   12.0432625400
 V    4.0865250700    2.0432625400   12.0432625400
 V    6.1297876100    2.0432625400   10.0000000000
 V    4.0865477770   -0.0102415720   14.1708731740
 V    6.1128943430    0.0351151080   16.0195352270
 V    4.0865651300    1.9139662500   16.0200067210
 V    6.1177672360    2.0552607730   14.1768878340
 V    4.0865250700    4.0865250700   10.0000000000
 V    6.1297876100    4.0865250700   12.0432625400
 V    4.0865250700    6.1297876100   12.0432625400
 V    6.1297876100    6.1297876100   10.0000000000
 V    4.0865423520    4.0865421620   14.1948102850
 V    6.2590937310    4.0865664990   16.0200170820
 V    4.0865664490    6.2590937310   16.0200168410
 V    6.1177581130    6.1177582130   14.1768950440
 V    4.0865250700    8.1730501500   10.0000000000
 V    6.1297876100    8.1730501500   12.0432625400
 V    4.0865250700   10.2163126900   12.0432625400
 V    6.1297876100   10.2163126900   10.0000000000
 V    4.0865578490    8.1832683040   14.1708907760
 V    6.1128672980    8.1379660860   16.0195409680
 V    4.0865942020   10.2163302350   16.0220666400
 V    6.1402876420   10.2163160120   14.1511736180
 V    8.1730501500    0.0000000000   10.0000000000
 V   10.2163126900    0.0000000000   12.0432625400
 V    8.1730501500    2.0432625400   12.0432625400
 V   10.2163126900    2.0432625400   10.0000000000
 V    8.1681327620    0.0049626190   14.1616511810
 V   10.2163484770   -0.0579110430   16.0233367900
 V    8.1379247120    2.0601095830   16.0195570850
 V   10.2163073620    2.0327263400   14.1511627680
 V    8.1730501500    4.0865250700   10.0000000000
 V   10.2163126900    4.0865250700   12.0432625400
 V    8.1730501500    6.1297876100   12.0432625400
 V   10.2163126900    6.1297876100   10.0000000000
 V    8.1832678240    4.0865578290   14.1708906860
 V   10.2163302950    4.0865944020   16.0220668600
 V    8.1379662560    6.1128673670   16.0195412390
 V   10.2163163920    6.1402876920   14.1511736680
 V    8.1730501500    8.1730501500   10.0000000000
 V   10.2163126900    8.1730501500   12.0432625400
 V    8.1730501500   10.2163126900   12.0432625400
 V   10.2163126900   10.2163126900   10.0000000000
 V    8.1681329270    8.1681328070   14.1616359650
 V   10.2163521660    8.2309503180   16.0233194600
 V    8.2309503380   10.2163522060   16.0233190700
 V   10.2163052070   10.2163050770   14.1904985580
 N    0.0000000000    2.0432625400   10.0000000000
 N    2.0432625400    0.0000000000   10.0000000000
 N    0.0000000000    0.0000000000   12.0432625400
 N    2.0432625400    2.0432625400   12.0432625400
 N    0.0049938500    2.0458972430   14.1166170450
 N    2.0458970120    0.0049938400   14.1166167450
 N    0.0109856450    0.0109856350   16.2736166910
 N    2.0668844630    2.0668843830   16.3223309510
 N    0.0000000000    6.1297876100   10.0000000000
 N    2.0432625400    4.0865250700   10.0000000000
 N    0.0000000000    4.0865250700   12.0432625400
 N    2.0432625400    6.1297876100   12.0432625400
 N    0.0050096450    6.1271812330   14.1166100680
 N    2.0396163290    4.0865084190   14.1197721920
 N   -0.0473604030    4.0864990600   16.3260068560
 N    2.0668618520    6.1061979150   16.3223332590
 N    0.0000000000   10.2163126900   10.0000000000
 N    2.0432625400    8.1730501500   10.0000000000
 N    0.0000000000    8.1730501500   12.0432625400
 N    2.0432625400   10.2163126900   12.0432625400
 N   -0.0073239570   10.2163263070   14.1182439310
 N    2.0459041320    8.1680352430   14.1166282860
 N    0.0109932990    8.1620784230   16.2735590380
 N    2.0131913650   10.2163165710   16.2434931310
 N    4.0865250700    2.0432625400   10.0000000000
 N    6.1297876100    0.0000000000   10.0000000000
 N    4.0865250700    0.0000000000   12.0432625400
 N    6.1297876100    2.0432625400   12.0432625400
 N    4.0865082290    2.0396163890   14.1197720220
 N    6.1271811530    0.0050097750   14.1166098980
 N    4.0864990100   -0.0473602830   16.3260073450
 N    6.1061981150    2.0668619520   16.3223336790
 N    4.0865250700    6.1297876100   10.0000000000
 N    6.1297876100    4.0865250700   10.0000000000
 N    4.0865250700    4.0865250700   12.0432625400
 N    6.1297876100    6.1297876100   12.0432625400
 N    4.0865137390    6.1334362690   14.1197727120
 N    6.1334364290    4.0865136690   14.1197723820
 N    4.0865409610    4.0865408410   16.2279148700
 N    6.1062312670    6.1062311470   16.3223246540
 N    4.0865250700   10.2163126900   10.0000000000
 N    6.1297876100    8.1730501500   10.0000000000
 N    4.0865250700    8.1730501500   12.0432625400
 N    6.1297876100   10.2163126900   12.0432625400
 N    4.0865137730   10.2163048590   14.1168841250
 N    6.1271851420    8.1680376490   14.1166180340
 N    4.0864993490    8.2204183020   16.3260135950
 N    6.1598751500   10.2163218840   16.2435470810
 N    8.1730501500    2.0432625400   10.0000000000
 N   10.2163126900    0.0000000000   10.0000000000
 N    8.1730501500    0.0000000000   12.0432625400
 N   10.2163126900    2.0432625400   12.0432625400
 N    8.1680351630    2.0459040820   14.1166278360
 N   10.2163265970   -0.0073240970   14.1182442110
 N    8.1620782530    0.0109932290   16.2735592680
 N   10.2163166010    2.0131913650   16.2434931410
 N    8.1730501500    6.1297876100   10.0000000000
 N   10.2163126900    4.0865250700   10.0000000000
 N    8.1730501500    4.0865250700   12.0432625400
 N   10.2163126900    6.1297876100   12.0432625400
 N    8.1680374290    6.1271849210   14.1166176040
 N   10.2163051490    4.0865139730   14.1168841450
 N    8.2204182320    4.0864992390   16.3260137650
 N   10.2163218540    6.1598751810   16.2435468610
 N    8.1730501500   10.2163126900   10.0000000000
 N   10.2163126900    8.1730501500   10.0000000000
 N    8.1730501500    8.1730501500   12.0432625400
 N   10.2163126900   10.2163126900   12.0432625400
 N    8.1803534080   10.2163340780   14.1182275560
 N   10.2163340480    8.1803533580   14.1182269760
 N    8.1620734680    8.1620735280   16.2735081540
 N   10.2163042660   10.2163041660   16.3563008500
Li    4.0864372610    4.0864371410   18.0655765960
  145

 V    0.0000000000    0.0000000000   10.0000000000
 V    2.0432625400    0.0000000000   12.0432625400
 V    0.0000000000    2.0432625400   12.0432625400
 V    2.0432625400    2.0432625400   10.0000000000
 V    0.0039329770    0.0039330070   14.1685417068
 V    2.0528194617    0.0417631672   16.0213838306
 V    0.0417630172    2.0528193817   16.0213836406
 V    2.0522986268    2.0522985368   14.1768958791
 V    0.0000000000    4.0865250700   10.0000000000
 V    2.0432625400    4.0865250700   12.0432625400
 V    0.0000000000    6.1297876100   12.0432625400
 V    2.0432625400    6.1297876100   10.0000000000
 V    0.0007472776    4.0903421383   14.1732321993
 V    1.9547494271    4.0672846704   16.0276297945
 V    0.0482518058    6.1152093079   16.0219140624
 V    2.0439100751    6.1126370424   14.1705925034
 V    0.0000000000    8.1730501500   10.0000000000
 V    2.0432625400    8.1730501500   12.0432625400
 V    0.0000000000   10.2163126900   12.0432625400
 V    2.0432625400   10.2163126900   10.0000000000
 V    0.0036986629    8.1709314758   14.1575543454
 V    2.0561717674    8.1600217811   16.0124761263
 V   -0.0566005455   10.2239220372   16.0224874397
 V    2.0324856094   10.2185092991   14.1513556561
 V    4.0865250700    0.0000000000   10.0000000000
 V    6.1297876100    0.0000000000   12.0432625400
 V    4.0865250700    2.0432625400   12.0432625400
 V    6.1297876100    2.0432625400   10.0000000000
 V    4.0903421583    0.0007473276   14.1732321093
 V    6.1152094279    0.0482520058   16.0219146424
 V    4.0672844804    1.9547495071   16.0276299045
 V    6.1126370224    2.0439101551   14.1705925034
 V    4.0865250700    4.0865250700   10.0000000000
 V    6.1297876100    4.0865250700   12.0432625400
 V    4.0865250700    6.1297876100   12.0432625400
 V    6.1297876100    6.1297876100   10.0000000000
 V    4.1041805865    4.1041803965   14.2064037671
 V    6.2825679903    4.0400106682   16.0091632118
 V    4.0400106182    6.2825679903   16.0091629711
 V    6.1053640325    6.1053641325   14.1911738984
 V    4.0865250700    8.1730501500   10.0000000000
 V    6.1297876100    8.1730501500   12.0432625400
 V    4.0865250700   10.2163126900   12.0432625400
 V    6.1297876100   10.2163126900   10.0000000000
 V    4.0949754648    8.1940941333   14.1646542307
 V    6.1225602506    8.1450562612   16.0244717255
 V    4.0956187146   10.1962541113   16.0225672784
 V    6.1368167313   10.2141555996   14.1548906502
 V    8.1730501500    0.0000000000   10.0000000000
 V   10.2163126900    0.0000000000   12.0432625400
 V    8.1730501500    2.0432625400   12.0432625400
 V   10.2163126900    2.0432625400   10.0000000000
 V    8.1709316758    0.0036989229   14.1575542554
 V   10.2239221172   -0.0566004355   16.0224872997
 V    8.1600217311    2.0561717674   16.0124766563
 V   10.2185095092    2.0324856094   14.1513555261
 V    8.1730501500    4.0865250700   10.0000000000
 V   10.2163126900    4.0865250700   12.0432625400
 V    8.1730501500    6.1297876100   12.0432625400
 V   10.2163126900    6.1297876100   10.0000000000
 V    8.1940936533    4.0949754448   14.1646541407
 V   10.1962541713    4.0956189146   16.0225674984
 V    8.1450564312    6.1225603199   16.0244719963
 V   10.2141559796    6.1368167813   14.1548907002
 V    8.1730501500    8.1730501500   10.0000000000
 V   10.2163126900    8.1730501500   12.0432625400
 V    8.1730501500   10.2163126900   12.0432625400
 V   10.2163126900   10.2163126900   10.0000000000
 V    8.1663261440    8.1663260240   14.1659917696
 V   10.2052050750    8.2208679908   16.0234796348
 V    8.2208680108   10.2052051150   16.0234792448
 V   10.2159783253   10.2159781953   14.1868408836
 N    0.0000000000    2.0432625400   10.0000000000
 N    2.0432625400    0.0000000000   10.0000000000
 N    0.0000000000    0.0000000000   12.0432625400
 N    2.0432625400    2.0432625400   12.0432625400
 N    0.0061937296    2.0462597546   14.1175201580
 N    2.0462595236    0.0061937196   14.1175198580
 N    0.0080657596    0.0080657496   16.2863139137
 N    2.0622116933    2.0622116133   16.3268181528
 N    0.0000000000    6.1297876100   10.0000000000
 N    2.0432625400    4.0865250700   10.0000000000
 N    0.0000000000    4.0865250700   12.0432625400
 N    2.0432625400    6.1297876100   12.0432625400
 N    0.0021347904    6.1292033099   14.1187165169
 N    2.0516498708    4.0832625476   14.1242492836
 N   -0.0381038617    4.0853770009   16.3094188591
 N    2.0559704199    6.1151448157   16.3175521444
 N    0.0000000000   10.2163126900   10.0000000000
 N    2.0432625400    8.1730501500   10.0000000000
 N    0.0000000000    8.1730501500   12.0432625400
 N    2.0432625400   10.2163126900   12.0432625400
 N   -0.0069250128   10.2173329344   14.1172023114
 N    2.0466001215    8.1700714677   14.1115182418
 N    0.0069731357    8.1679542984   16.2655858445
 N    2.0177128254   10.2226424323   16.2454629261
 N    4.0865250700    2.0432625400   10.0000000000
 N    6.1297876100    0.0000000000   10.0000000000
 N    4.0865250700    0.0000000000   12.0432625400
 N    6.1297876100    2.0432625400   12.0432625400
 N    4.0832623576    2.0516499308   14.1242491136
 N    6.1292032299    0.0021349204   14.1187163469
 N    4.0853769509   -0.0381037417   16.3094193483
 N    6.1151450157    2.0559705199   16.3175525647
 N    4.0865250700    6.1297876100   10.0000000000
 N    6.1297876100    4.0865250700   10.0000000000
 N    4.0865250700    4.0865250700   12.0432625400
 N    6.1297876100    6.1297876100   12.0432625400
 N    4.0780625568    6.1426431414   14.1133191216
 N    6.1426433014    4.0780624868   14.1133187916
 N    4.0988756984    4.0988755784   16.2708485495
 N    6.0822222429    6.0822221229   16.3526167147
 N    4.0865250700   10.2163126900   10.0000000000
 N    6.1297876100    8.1730501500   10.0000000000
 N    4.0865250700    8.1730501500   12.0432625400
 N    6.1297876100   10.2163126900   12.0432625400
 N    4.0853624364   10.2223024797   14.1172575767
 N    6.1296785820    8.1617249141   14.1201440361
 N    4.0865684186    8.2225420231   16.3319137663
 N    6.1562346865   10.2206641935   16.2509061129
 N    8.1730501500    2.0432625400   10.0000000000
 N   10.2163126900    0.0000000000   10.0000000000
 N    8.1730501500    0.0000000000   12.0432625400
 N   10.2163126900    2.0432625400   12.0432625400
 N    8.1700713877    2.0466000715   14.1115177918
 N   10.2173332247   -0.0069251528   14.1172025914
 N    8.1679541284    0.0069730657   16.2655860745
 N   10.2226424626    2.0177128254   16.2454629361
 N    8.1730501500    6.1297876100   10.0000000000
 N   10.2163126900    4.0865250700   10.0000000000
 N    8.1730501500    4.0865250700   12.0432625400
 N   10.2163126900    6.1297876100   12.0432625400
 N    8.1617246941    6.1296783613   14.1201436061
 N   10.2223027697    4.0853626364   14.1172575967
 N    8.2225419531    4.0865683086   16.3319139363
 N   10.2206641635    6.1562347172   16.2509058932
 N    8.1730501500   10.2163126900   10.0000000000
 N   10.2163126900    8.1730501500   10.0000000000
 N    8.1730501500    8.1730501500   12.0432625400
 N   10.2163126900   10.2163126900   12.0432625400
 N    8.1777122880   10.2138051560   14.1187313436
 N   10.2138051260    8.1777122380   14.1187307636
 N    8.1552578988    8.1552579588   16.2896142833
 N   10.2126662151   10.2126661153   16.3465481207
Li    4.6104160959    4.6104159759   18.0230371524
  145

 V    0.0000000000    0.0000000000   10.0000000000
 V    2.0432625400    0.0000000000   12.0432625400
 V    0.0000000000    2.0432625400   12.0432625400
 V    2.0432625400    2.0432625400   10.0000000000
 V    0.0005400998    0.0005401298   14.1792082784
 V    2.0235708526    0.0399888032   16.0232085589
 V    0.0399886532    2.0235707726   16.0232083689
 V    2.0523068523    2.0523067623   14.1757405335
 V    0.0000000000    4.0865250700   10.0000000000
 V    2.0432625400    4.0865250700   12.0432625400
 V    0.0000000000    6.1297876100   12.0432625400
 V    2.0432625400    6.1297876100   10.0000000000
 V    0.0070711994    4.0895146044   14.1652687508
 V    2.0278891048    4.0609441974   16.0314428017
 V    0.0480742490    6.1227917355   16.0229256125
 V    2.0234873663    6.1116558313   14.1601885661
 V    0.0000000000    8.1730501500   10.0000000000
 V    2.0432625400    8.1730501500   12.0432625400
 V    0.0000000000   10.2163126900   12.0432625400
 V    2.0432625400   10.2163126900   10.0000000000
 V   -0.0011330387    8.1780015864   14.1530984360
 V    2.0451554574    8.1711514781   16.0063001412
 V   -0.0325397596   10.2485440457   16.0223497170
 V    2.0382216561   10.2174925207   14.1530627523
 V    4.0865250700    0.0000000000   10.0000000000
 V    6.1297876100    0.0000000000   12.0432625400
 V    4.0865250700    2.0432625400   12.0432625400
 V    6.1297876100    2.0432625400   10.0000000000
 V    4.0895146244    0.0070712494   14.1652686608
 V    6.1227918555    0.0480744490   16.0229261925
 V    4.0609440074    2.0278891848   16.0314429117
 V    6.1116558113    2.0234874463   14.1601885661
 V    4.0865250700    4.0865250700   10.0000000000
 V    6.1297876100    4.0865250700   12.0432625400
 V    4.0865250700    6.1297876100   12.0432625400
 V    6.1297876100    6.1297876100   10.0000000000
 V    4.1196790376    4.1196788476   14.2124056049
 V    6.2573932794    3.9595468109   16.0013941310
 V    3.9595467609    6.2573932794   16.0013938905
 V    6.0965937738    6.0965938738   14.2123008909
 V    4.0865250700    8.1730501500   10.0000000000
 V    6.1297876100    8.1730501500   12.0432625400
 V    4.0865250700   10.2163126900   12.0432625400
 V    6.1297876100   10.2163126900   10.0000000000
 V    4.1046154334    8.1929379286   14.1601553552
 V    6.1552275116    8.1877735348   16.0314266368
 V    4.0934887318   10.1683810441   16.0229321485
 V    6.1268681164   10.2092435742   14.1651690057
 V    8.1730501500    0.0000000000   10.0000000000
 V   10.2163126900    0.0000000000   12.0432625400
 V    8.1730501500    2.0432625400   12.0432625400
 V   10.2163126900    2.0432625400   10.0000000000
 V    8.1780017864   -0.0011327787   14.1530983460
 V   10.2485441257   -0.0325396496   16.0223495770
 V    8.1711514281    2.0451554574   16.0063006712
 V   10.2174927307    2.0382216561   14.1530626223
 V    8.1730501500    4.0865250700   10.0000000000
 V   10.2163126900    4.0865250700   12.0432625400
 V    8.1730501500    6.1297876100   12.0432625400
 V   10.2163126900    6.1297876100   10.0000000000
 V    8.1929374486    4.1046154134   14.1601552652
 V   10.1683811041    4.0934889318   16.0229323685
 V    8.1877737048    6.1552275811   16.0314269073
 V   10.2092439542    6.1268681664   14.1651690557
 V    8.1730501500    8.1730501500   10.0000000000
 V   10.2163126900    8.1730501500   12.0432625400
 V    8.1730501500   10.2163126900   12.0432625400
 V   10.2163126900   10.2163126900   10.0000000000
 V    8.1639912017    8.1639910817   14.1756756467
 V   10.1765335436    8.1930656098   16.0232183988
 V    8.1930656298   10.1765335836   16.0232180088
 V   10.2158043574   10.2158042274   14.1792999019
 N    0.0000000000    2.0432625400   10.0000000000
 N    2.0432625400    0.0000000000   10.0000000000
 N    0.0000000000    0.0000000000   12.0432625400
 N    2.0432625400    2.0432625400   12.0432625400
 N    0.0071158469    2.0434959348   14.1187042002
 N    2.0434957038    0.0071158369   14.1187039002
 N    0.0052252323    0.0052252223   16.3187862919
 N    2.0623451216    2.0623450416   16.3252468101
 N    0.0000000000    6.1297876100   10.0000000000
 N    2.0432625400    4.0865250700   10.0000000000
 N    0.0000000000    4.0865250700   12.0432625400
 N    2.0432625400    6.1297876100   12.0432625400
 N   -0.0061251170    6.1320318296   14.1187273202
 N    2.0615701689    4.0833737569   14.1250512451
 N   -0.0167626506    4.0761264147   16.2735805368
 N    2.0209095252    6.1248022178   16.3193953604
 N    0.0000000000   10.2163126900   10.0000000000
 N    2.0432625400    8.1730501500   10.0000000000
 N    0.0000000000    8.1730501500   12.0432625400
 N    2.0432625400   10.2163126900   12.0432625400
 N   -0.0033558843   10.2196283284   14.1165101427
 N    2.0453606061    8.1709682736   14.1075617587
 N   -0.0064686095    8.1828225179   16.2541025861
 N    2.0333189434   10.2228622525   16.2540000583
 N    4.0865250700    2.0432625400   10.0000000000
 N    6.1297876100    0.0000000000   10.0000000000
 N    4.0865250700    0.0000000000   12.0432625400
 N    6.1297876100    2.0432625400   12.0432625400
 N    4.0833735669    2.0615702289   14.1250510751
 N    6.1320317496   -0.0061249870   14.1187271502
 N    4.0761263647   -0.0167625306   16.2735810263
 N    6.1248024178    2.0209096252   16.3193957809
 N    4.0865250700    6.1297876100   10.0000000000
 N    6.1297876100    4.0865250700   10.0000000000
 N    4.0865250700    4.0865250700   12.0432625400
 N    6.1297876100    6.1297876100   12.0432625400
 N    4.0688373808    6.1474984504   14.1108015255
 N    6.1474986104    4.0688373108   14.1108011955
 N    4.1355462011    4.1355460811   16.3598815299
 N    6.0804758753    6.0804757553   16.3604485329
 N    4.0865250700   10.2163126900   10.0000000000
 N    6.1297876100    8.1730501500   10.0000000000
 N    4.0865250700    8.1730501500   12.0432625400
 N    6.1297876100   10.2163126900   12.0432625400
 N    4.0842743937   10.2224672764   14.1187242526
 N    6.1329197140    8.1547277189   14.1250202042
 N    4.0914332416    8.1957704386   16.3194694770
 N    6.1403294906   10.2328912712   16.2732678458
 N    8.1730501500    2.0432625400   10.0000000000
 N   10.2163126900    0.0000000000   10.0000000000
 N    8.1730501500    0.0000000000   12.0432625400
 N   10.2163126900    2.0432625400   12.0432625400
 N    8.1709681936    2.0453605561   14.1075613087
 N   10.2196286189   -0.0033560243   14.1165104227
 N    8.1828223479   -0.0064686795   16.2541028161
 N   10.2228622830    2.0333189434   16.2540000683
 N    8.1730501500    6.1297876100   10.0000000000
 N   10.2163126900    4.0865250700   10.0000000000
 N    8.1730501500    4.0865250700   12.0432625400
 N   10.2163126900    6.1297876100   12.0432625400
 N    8.1547274989    6.1329194935   14.1250197742
 N   10.2224675664    4.0842745937   14.1187242726
 N    8.1957703686    4.0914331316   16.3194696470
 N   10.2328912412    6.1403295211   16.2732676263
 N    8.1730501500   10.2163126900   10.0000000000
 N   10.2163126900    8.1730501500   10.0000000000
 N    8.1730501500    8.1730501500   12.0432625400
 N   10.2163126900   10.2163126900   12.0432625400
 N    8.1728687167   10.2092050605   14.1187079065
 N   10.2092050305    8.1728686667   14.1187073265
 N    8.1539850322    8.1539850922   16.3250116103
 N   10.2111015368   10.2111014373   16.3191200527
Li    5.1053642041    5.1053640841   17.9091754829
  145

 V    0.0000000000    0.0000000000   10.0000000000
 V    2.0432625400    0.0000000000   12.0432625400
 V    0.0000000000    2.0432625400   12.0432625400
 V    2.0432625400    2.0432625400   10.0000000000
 V    0.0003316259    0.0003316559   14.1867814113
 V    1.9957956942    0.0115125037   16.0234844256
 V    0.0115123537    1.9957956142   16.0234842356
 V    2.0500267737    2.0500266837   14.1661308767
 V    0.0000000000    4.0865250700   10.0000000000
 V    2.0432625400    4.0865250700   12.0432625400
 V    0.0000000000    6.1297876100   12.0432625400
 V    2.0432625400    6.1297876100   10.0000000000
 V    0.0022314942    4.0796294274   14.1550282443
 V    2.0708156957    4.0933459417   16.0245752100
 V    0.0205270170    6.1205968679   16.0225787033
 V    2.0221780660    6.1212068933   14.1645624346
 V    0.0000000000    8.1730501500   10.0000000000
 V    2.0432625400    8.1730501500   12.0432625400
 V    0.0000000000   10.2163126900   12.0432625400
 V    2.0432625400   10.2163126900   10.0000000000
 V   -0.0022069616    8.1837210636   14.1513635349
 V    2.0559989966    8.1602633217   16.0123725809
 V   -0.0078781781   10.2727063638   16.0224675296
 V    2.0452959475   10.2127017545   14.1574772303
 V    4.0865250700    0.0000000000   10.0000000000
 V    6.1297876100    0.0000000000   12.0432625400
 V    4.0865250700    2.0432625400   12.0432625400
 V    6.1297876100    2.0432625400   10.0000000000
 V    4.0796294474    0.0022315442   14.1550281543
 V    6.1205969879    0.0205272170   16.0225792833
 V    4.0933457517    2.0708157757   16.0245753200
 V    6.1212068733    2.0221781460   14.1645624346
 V    4.0865250700    4.0865250700   10.0000000000
 V    6.1297876100    4.0865250700   12.0432625400
 V    4.0865250700    6.1297876100   12.0432625400
 V    6.1297876100    6.1297876100   10.0000000000
 V    4.1111082326    4.1111080426   14.1915100886
 V    6.1775925244    3.9337422957   16.0090059108
 V    3.9337422457    6.1775925244   16.0090056705
 V    6.1118095792    6.1118096792   14.2064236622
 V    4.0865250700    8.1730501500   10.0000000000
 V    6.1297876100    8.1730501500   12.0432625400
 V    4.0865250700   10.2163126900   12.0432625400
 V    6.1297876100   10.2163126900   10.0000000000
 V    4.1037083767    8.1726156648   14.1704189531
 V    6.1493243303    8.2605716695   16.0276541856
 V    4.1009298019   10.1679012834   16.0219375106
 V    6.1259878689   10.2154441918   14.1731656525
 V    8.1730501500    0.0000000000   10.0000000000
 V   10.2163126900    0.0000000000   12.0432625400
 V    8.1730501500    2.0432625400   12.0432625400
 V   10.2163126900    2.0432625400   10.0000000000
 V    8.1837212636   -0.0022067016   14.1513634449
 V   10.2727064438   -0.0078780681   16.0224673896
 V    8.1602632717    2.0559989966   16.0123731109
 V   10.2127019645    2.0452959475   14.1574771003
 V    8.1730501500    4.0865250700   10.0000000000
 V   10.2163126900    4.0865250700   12.0432625400
 V    8.1730501500    6.1297876100   12.0432625400
 V   10.2163126900    6.1297876100   10.0000000000
 V    8.1726151848    4.1037083567   14.1704188631
 V   10.1679013434    4.1009300019   16.0219377306
 V    8.2605718395    6.1493244000   16.0276544559
 V   10.2154445718    6.1259879189   14.1731657025
 V    8.1730501500    8.1730501500   10.0000000000
 V   10.2163126900    8.1730501500   12.0432625400
 V    8.1730501500   10.2163126900   12.0432625400
 V   10.2163126900   10.2163126900   10.0000000000
 V    8.1640100645    8.1640099445   14.1768428669
 V   10.1745146640    8.1638020182   16.0213935725
 V    8.1638020382   10.1745147040   16.0213931825
 V   10.2124363311   10.2124362011   14.1686688645
 N    0.0000000000    2.0432625400   10.0000000000
 N    2.0432625400    0.0000000000   10.0000000000
 N    0.0000000000    0.0000000000   12.0432625400
 N    2.0432625400    2.0432625400   12.0432625400
 N    0.0025912613    2.0386765373   14.1187293923
 N    2.0386763063    0.0025912513   14.1187290923
 N    0.0036953906    0.0036953806   16.3461761145
 N    2.0611368035    2.0611367235   16.2901028685
 N    0.0000000000    6.1297876100   10.0000000000
 N    2.0432625400    4.0865250700   10.0000000000
 N    0.0000000000    4.0865250700   12.0432625400
 N    2.0432625400    6.1297876100   12.0432625400
 N   -0.0059807645    6.1309401291   14.1172793997
 N    2.0546672987    4.0866001582   14.1201943524
 N   -0.0045262622    4.0602559442   16.2512620297
 N    1.9940483968    6.1296869231   16.3318342882
 N    0.0000000000   10.2163126900   10.0000000000
 N    2.0432625400    8.1730501500   10.0000000000
 N    0.0000000000    8.1730501500   12.0432625400
 N    2.0432625400   10.2163126900   12.0432625400
 N   -0.0010326841   10.2231821509   14.1171813026
 N    2.0462108564    8.1697520065   14.1114504538
 N   -0.0063428598    8.1983816568   16.2455731394
 N    2.0481515600   10.2094942123   16.2654294370
 N    4.0865250700    2.0432625400   10.0000000000
 N    6.1297876100    0.0000000000   10.0000000000
 N    4.0865250700    0.0000000000   12.0432625400
 N    6.1297876100    2.0432625400   12.0432625400
 N    4.0865999682    2.0546673587   14.1201941824
 N    6.1309400491   -0.0059806345   14.1172792297
 N    4.0602558942   -0.0045261422   16.2512625194
 N    6.1296871231    1.9940484968   16.3318347089
 N    4.0865250700    6.1297876100   10.0000000000
 N    6.1297876100    4.0865250700   10.0000000000
 N    4.0865250700    4.0865250700   12.0432625400
 N    6.1297876100    6.1297876100   12.0432625400
 N    4.0735912496    6.1383451764   14.1132485122
 N    6.1383453364    4.0735911796   14.1132481822
 N    4.1344695089    4.1344693889   16.3531636008
 N    6.1169598552    6.1169597352   16.2722850436
 N    4.0865250700   10.2163126900   10.0000000000
 N    6.1297876100    8.1730501500   10.0000000000
 N    4.0865250700    8.1730501500   12.0432625400
 N    6.1297876100   10.2163126900   12.0432625400
 N    4.0870829665   10.2142453276   14.1187364732
 N    6.1330336419    8.1644981034   14.1242538693
 N    4.1010062832    8.1608014097   16.3175322258
 N    6.1310205211   10.2541306372   16.3089421073
 N    8.1730501500    2.0432625400   10.0000000000
 N   10.2163126900    0.0000000000   10.0000000000
 N    8.1730501500    0.0000000000   12.0432625400
 N   10.2163126900    2.0432625400   12.0432625400
 N    8.1697519265    2.0462108064   14.1114500038
 N   10.2231824416   -0.0010328241   14.1171815827
 N    8.1983814868   -0.0063429298   16.2455733694
 N   10.2094942431    2.0481515600   16.2654294470
 N    8.1730501500    6.1297876100   10.0000000000
 N   10.2163126900    4.0865250700   10.0000000000
 N    8.1730501500    4.0865250700   12.0432625400
 N   10.2163126900    6.1297876100   12.0432625400
 N    8.1644978834    6.1330334216   14.1242534393
 N   10.2142456176    4.0870831665   14.1187364932
 N    8.1608013397    4.1010061732   16.3175323958
 N   10.2541306072    6.1310205514   16.3089418880
 N    8.1730501500   10.2163126900   10.0000000000
 N   10.2163126900    8.1730501500   10.0000000000
 N    8.1730501500    8.1730501500   12.0432625400
 N   10.2163126900   10.2163126900   12.0432625400
 N    8.1701180701   10.2101010334   14.1175184887
 N   10.2101010034    8.1701180201   14.1175179087
 N    8.1541389119    8.1541389719   16.3267470768
 N   10.2083032401   10.2083031408   16.2867401825
Li    5.5966193262    5.5966192062   18.0216132115
  145

 V    0.0000000000    0.0000000000   10.0000000000
 V    2.0432625400    0.0000000000   12.0432625400
 V    0.0000000000    2.0432625400   12.0432625400
 V    2.0432625400    2.0432625400   10.0000000000
 V    0.0000001400    0.0000001700   14.1905025030
 V    1.9853665600    0.0000000600   16.0233252800
 V   -0.0000000900    1.9853664800   16.0233250900
 V    2.0481598330    2.0481597430   14.1616512290
 V    0.0000000000    4.0865250700   10.0000000000
 V    2.0432625400    4.0865250700   12.0432625400
 V    0.0000000000    6.1297876100   12.0432625400
 V    2.0432625400    6.1297876100   10.0000000000
 V    0.0000001200    4.0760482150   14.1511489200
 V    2.0784122780    4.1033706660   16.0195645390
 V   -0.0000001500    6.1297875000   16.0220891040
 V    2.0330258900    6.1297873900   14.1709028950
 V    0.0000000000    8.1730501500   10.0000000000
 V    2.0432625400    8.1730501500   12.0432625400
 V    0.0000000000   10.2163126900   12.0432625400
 V    2.0432625400   10.2163126900   10.0000000000
 V   -0.0000002100    8.1835267550   14.1511489000
 V    2.0784123580    8.1562047540   16.0195643590
 V   -0.0000000100   10.2742086400   16.0233253600
 V    2.0481597630   10.2114152370   14.1616510190
 V    4.0865250700    0.0000000000   10.0000000000
 V    6.1297876100    0.0000000000   12.0432625400
 V    4.0865250700    2.0432625400   12.0432625400
 V    6.1297876100    2.0432625400   10.0000000000
 V    4.0760482350    0.0000001700   14.1511488300
 V    6.1297876200    0.0000000500   16.0220896840
 V    4.1033704760    2.0784123580   16.0195646490
 V    6.1297873700    2.0330259700   14.1709028950
 V    4.0865250700    4.0865250700   10.0000000000
 V    6.1297876100    4.0865250700   12.0432625400
 V    4.0865250700    6.1297876100   12.0432625400
 V    6.1297876100    6.1297876100   10.0000000000
 V    4.0985434930    4.0985433030   14.1769078390
 V    6.1297875500    3.9572387940   16.0200644640
 V    3.9572387440    6.1297875500   16.0200642240
 V    6.1297874000    6.1297875000   14.1948156180
 V    4.0865250700    8.1730501500   10.0000000000
 V    6.1297876100    8.1730501500   12.0432625400
 V    4.0865250700   10.2163126900   12.0432625400
 V    6.1297876100   10.2163126900   10.0000000000
 V    4.0985435130    8.1610320370   14.1769078490
 V    6.1297875800    8.3023363460   16.0200641840
 V    4.1033704960   10.1811627920   16.0195641190
 V    6.1297875400   10.2265490300   14.1709029650
 V    8.1730501500    0.0000000000   10.0000000000
 V   10.2163126900    0.0000000000   12.0432625400
 V    8.1730501500    2.0432625400   12.0432625400
 V   10.2163126900    2.0432625400   10.0000000000
 V    8.1835269550    0.0000000500   14.1511488100
 V   10.2742087200    0.0000001000   16.0233252200
 V    8.1562047040    2.0784123580   16.0195648890
 V   10.2114154470    2.0481597630   14.1616508890
 V    8.1730501500    4.0865250700   10.0000000000
 V   10.2163126900    4.0865250700   12.0432625400
 V    8.1730501500    6.1297876100   12.0432625400
 V   10.2163126900    6.1297876100   10.0000000000
 V    8.1610315570    4.0985434930   14.1769077590
 V   10.1811628520    4.1033706960   16.0195643390
 V    8.3023365160    6.1297876500   16.0200644540
 V   10.2265494100    6.1297875900   14.1709030150
 V    8.1730501500    8.1730501500   10.0000000000
 V   10.2163126900    8.1730501500   12.0432625400
 V    8.1730501500   10.2163126900   12.0432625400
 V   10.2163126900   10.2163126900   10.0000000000
 V    8.1610319070    8.1610317870   14.1769079590
 V   10.1811628520    8.1562045540   16.0195645290
 V    8.1562045740   10.1811628920   16.0195641390
 V   10.2114153270   10.2114151970   14.1616509990
 N    0.0000000000    2.0432625400   10.0000000000
 N    2.0432625400    0.0000000000   10.0000000000
 N    0.0000000000    0.0000000000   12.0432625400
 N    2.0432625400    2.0432625400   12.0432625400
 N    0.0000001100    2.0359700530   14.1182204190
 N    2.0359698220    0.0000001000   14.1182201190
 N   -0.0000000300   -0.0000000400   16.3562132940
 N    2.0542290520    2.0542289720   16.2735786400
 N    0.0000000000    6.1297876100   10.0000000000
 N    2.0432625400    4.0865250700   10.0000000000
 N    0.0000000000    4.0865250700   12.0432625400
 N    2.0432625400    6.1297876100   12.0432625400
 N   -0.0000000400    6.1297876300   14.1168907690
 N    2.0482888000    4.0891347090   14.1166343820
 N   -0.0000001500    4.0564545560   16.2435159090
 N    1.9959019060    6.1297874600   16.3260376540
 N    0.0000000000   10.2163126900   10.0000000000
 N    2.0432625400    8.1730501500   10.0000000000
 N    0.0000000000    8.1730501500   12.0432625400
 N    2.0432625400   10.2163126900   12.0432625400
 N    0.0000000200   10.2236051770   14.1182199390
 N    2.0482887900    8.1704406710   14.1166345220
 N    0.0000000800    8.2031207740   16.2435158790
 N    2.0542289820   10.2053462680   16.2735785500
 N    4.0865250700    2.0432625400   10.0000000000
 N    6.1297876100    0.0000000000   10.0000000000
 N    4.0865250700    0.0000000000   12.0432625400
 N    6.1297876100    2.0432625400   12.0432625400
 N    4.0891345190    2.0482888600   14.1166342120
 N    6.1297875500    0.0000000900   14.1168905990
 N    4.0564545060   -0.0000000300   16.2435163990
 N    6.1297876600    1.9959020060   16.3260380750
 N    4.0865250700    6.1297876100   10.0000000000
 N    6.1297876100    4.0865250700   10.0000000000
 N    4.0865250700    4.0865250700   12.0432625400
 N    6.1297876100    6.1297876100   12.0432625400
 N    4.0828790240    6.1297874900   14.1198229910
 N    6.1297876500    4.0828789540   14.1198226610
 N    4.1101167580    4.1101166380   16.3223704530
 N    6.1297876300    6.1297875100   16.2279820730
 N    4.0865250700   10.2163126900   10.0000000000
 N    6.1297876100    8.1730501500   10.0000000000
 N    4.0865250700    8.1730501500   12.0432625400
 N    6.1297876100   10.2163126900   12.0432625400
 N    4.0891344890   10.2112861900   14.1166346420
 N    6.1297875600    8.1766962760   14.1198229910
 N    4.1101167380    8.1494587120   16.3223699930
 N    6.1297876400   10.2636733540   16.3260378240
 N    8.1730501500    2.0432625400   10.0000000000
 N   10.2163126900    0.0000000000   10.0000000000
 N    8.1730501500    0.0000000000   12.0432625400
 N   10.2163126900    2.0432625400   12.0432625400
 N    8.1704405910    2.0482887400   14.1166340720
 N   10.2236054680   -0.0000001200   14.1182202190
 N    8.2031206040    0.0000000100   16.2435161090
 N   10.2053462990    2.0542289820   16.2735785600
 N    8.1730501500    6.1297876100   10.0000000000
 N   10.2163126900    4.0865250700   10.0000000000
 N    8.1730501500    4.0865250700   12.0432625400
 N   10.2163126900    6.1297876100   12.0432625400
 N    8.1766960560    6.1297873400   14.1198225610
 N   10.2112864800    4.0891346890   14.1166346620
 N    8.1494586420    4.1101166280   16.3223701630
 N   10.2636733240    6.1297876700   16.3260376050
 N    8.1730501500   10.2163126900   10.0000000000
 N   10.2163126900    8.1730501500   10.0000000000
 N    8.1730501500    8.1730501500   12.0432625400
 N   10.2163126900   10.2163126900   12.0432625400
 N    8.1704405210   10.2112865000   14.1166346120
 N   10.2112864700    8.1704404710   14.1166340320
 N    8.1494585520    8.1494586120   16.3223701530
 N   10.2053462880   10.2053461890   16.2735785800
Li    6.1297876300    6.1297875100   18.0656424710
