16
Lattice="4.297346799 0.0 0.0 0.0 4.297346799 0.0 0.0 0.0 26.446020193899997" Properties=species:S:1:pos:R:3:tags:I:1 pbc="T T F"
Ti       0.00000000       0.00000000      10.00000000        2
Ti       2.14867339       0.00000000      12.14867339        2
Ti       0.00000000       2.14867339      12.14867339        2
Ti       2.14867339       2.14867339      10.00000000        2
N        0.00000000       2.14867339      10.00000000        2
N        2.14867339       0.00000000      10.00000000        2
N        0.00000000       0.00000000      12.14867339        2
N        2.14867339       2.14867339      12.14867339        2
Ti       0.00000000       0.00000000      14.29734680        1
Ti       2.14867339       0.00000000      16.44602019        1
Ti       0.00000000       2.14867339      16.44602019        1
Ti       2.14867339       2.14867339      14.29734680        1
N        0.00000000       2.14867339      14.29734680        1
N        2.14867339       0.00000000      14.29734680        1
N        0.00000000       0.00000000      16.44602019        1
N        2.14867339       2.14867339      16.44602019        1
