16
Lattice="4.145675746 0.0 0.0 0.0 4.145675746 0.0 0.0 0.0 26.2185136167" Properties=species:S:1:pos:R:3:tags:I:1 pbc="T T F"
V        0.00000000       0.00000000      10.00000000        2
V        2.07283787       0.00000000      12.07283787        2
V        0.00000000       2.07283787      12.07283787        2
V        2.07283787       2.07283787      10.00000000        2
N        0.00000000       2.07283787      10.00000000        2
N        2.07283787       0.00000000      10.00000000        2
N        0.00000000       0.00000000      12.07283787        2
N        2.07283787       2.07283787      12.07283787        2
V        0.00000000       0.00000000      14.14567575        1
V        2.07283787       0.00000000      16.21851362        1
V        0.00000000       2.07283787      16.21851362        1
V        2.07283787       2.07283787      14.14567575        1
N        0.00000000       2.07283787      14.14567575        1
N        2.07283787       0.00000000      14.14567575        1
N        0.00000000       0.00000000      16.21851362        1
N        2.07283787       2.07283787      16.21851362        1
