16
Lattice="4.617068088 0.0 0.0 0.0 4.617068088 0.0 0.0 0.0 26.9256021333" Properties=species:S:1:pos:R:3:tags:I:1 pbc="T T F"
Zr       0.00000000       0.00000000      10.00000000        2
Zr       2.30853405       0.00000000      12.30853405        2
Zr       0.00000000       2.30853405      12.30853405        2
Zr       2.30853405       2.30853405      10.00000000        2
N        0.00000000       2.30853405      10.00000000        2
N        2.30853405       0.00000000      10.00000000        2
N        0.00000000       0.00000000      12.30853405        2
N        2.30853405       2.30853405      12.30853405        2
Zr       0.00000000       0.00000000      14.61706809        1
Zr       2.30853405       0.00000000      16.92560213        1
Zr       0.00000000       2.30853405      16.92560213        1
Zr       2.30853405       2.30853405      14.61706809        1
N        0.00000000       2.30853405      14.61706809        1
N        2.30853405       0.00000000      14.61706809        1
N        0.00000000       0.00000000      16.92560213        1
N        2.30853405       2.30853405      16.92560213        1
