152
Lattice="13.175790690290984 0.0 0.0 0.0 13.175790690290984 0.0 0.0 0.0 26.587889186612337" Properties=species:S:1:pos:R:3:forces:R:3 energy=-137795.2152834985 free_energy=-137795.2152834985 pbc="T T T"
Nb       0.00000000       0.00000000      10.00000000      -0.07214850      -0.06749531       2.26658093
Nb       2.19596509       0.00000000      12.19596509       0.18013200      -0.17286658      -0.56529945
Nb       0.00000000       2.19596509      12.19596509      -0.20827427       0.18463323      -0.57154003
Nb       2.19596509       2.19596509      10.00000000       0.05398108       0.08184104       2.26036478
Nb      -0.10537663      -0.10326677      14.44812819      -0.00486247      -0.00453825      -0.01806534
Nb       2.18653100      -0.01204340      16.44913332       0.00500517       0.01841321       0.00335786
Nb      -0.00283587       2.18529127      16.44930707      -0.02522664      -0.01398989      -0.00461796
Nb       2.30229116       2.30682907      14.46106112       0.01000699       0.00943801      -0.01979621
Nb       0.00000000       4.39193020      10.00000000      -0.02770646      -0.08485540       2.27135367
Nb       2.19596509       4.39193020      12.19596509       0.18283629      -0.17099584      -0.54091100
Nb       0.00000000       6.58789529      12.19596509      -0.12622394       0.14326315      -0.48298944
Nb       2.19596509       6.58789529      10.00000000       0.03423527       0.02718762       2.34860452
Nb      -0.11108775       4.28486496      14.45468980      -0.01013555       0.01909353      -0.00681754
Nb       2.18704036       4.36228370      16.45886262       0.00966992       0.00196715       0.00331492
Nb      -0.00697812       6.60352958      16.44330326       0.01742797       0.02561821       0.01292802
Nb       2.30109066       6.69270965      14.43796964       0.01602003      -0.00317917      -0.01646303
Nb       0.00000000       8.78386040      10.00000000      -0.07700968      -0.04101501       2.27165089
Nb       2.19596509       8.78386040      12.19596509       0.17073591      -0.14686064      -0.45419900
Nb       0.00000000      10.97982549      12.19596509      -0.17932519       0.13935456      -0.62627831
Nb       2.19596509      10.97982549      10.00000000       0.03100288       0.08526189       2.27342675
Nb      -0.12650623       8.67841408      14.44840544      -0.00471926      -0.00717595       0.01867007
Nb       2.19750948       8.76559196      16.43845919       0.02255115      -0.00213299       0.00370393
Nb      -0.01328182      10.99461220      16.44675201       0.02516210      -0.00299559       0.01004067
Nb       2.29357093      11.08063656      14.44403563      -0.00591328      -0.00368928      -0.01006176
Nb       4.39193020       0.00000000      10.00000000      -0.08866012      -0.04687867       2.22773028
Nb       6.58789529       0.00000000      12.19596509       0.15298090      -0.11337408      -0.54385980
Nb       4.39193020       2.19596509      12.19596509      -0.12586476       0.24300807      -0.49578479
Nb       6.58789529       2.19596509      10.00000000       0.03223881       0.07040015       2.33738011
Nb       4.28695997      -0.09069206      14.45293926       0.00101430       0.00608580       0.01313345
Nb       6.60273175      -0.01104443      16.45436806       0.00502214      -0.01103903      -0.00186456
Nb       4.34683568       2.18848216      16.45785283      -0.00689878       0.01062354       0.00299482
Nb       6.67892436       2.32517858      14.46127772       0.01897268       0.00252431      -0.01979415
Nb       4.39193020       4.39193020      10.00000000      -0.08991971      -0.09868305       2.37261245
Nb       6.58789529       4.39193020      12.19596509       0.13606869      -0.13512330      -0.46694139
Nb       4.39193020       6.58789529      12.19596509      -0.08886118       0.14941837       0.00114851
Nb       6.58789529       6.58789529      10.00000000       0.08212026       0.04758726       2.44703561
Nb       4.30897396       4.33463988      14.48041272      -0.02204824       0.00945317      -0.00675917
Nb       6.65665896       4.34471466      16.55929315      -0.00217515      -0.01997079       0.02136175
Nb       4.25483548       6.57658252      16.78171738       0.01953216      -0.01127532      -0.00940175
Nb       6.66861562       6.68187746      14.48859515       0.00386668       0.00173190       0.03060693
Nb       4.39193020       8.78386040      10.00000000      -0.06549551      -0.02109693       2.42585589
Nb       6.58789529       8.78386040      12.19596509       0.15736951      -0.25868769      -0.52808479
Nb       4.39193020      10.97982549      12.19596509      -0.14565068       0.06438711      -0.49638000
Nb       6.58789529      10.97982549      10.00000000       0.07445195       0.07164019       2.25435791
Nb       4.26920411       8.66046185      14.42344396      -0.00754824      -0.00131949      -0.00624752
Nb       6.62262551       8.83216311      16.43753599       0.01058600       0.01003553       0.00121922
Nb       4.35839382      11.02171263      16.44251346      -0.00016506      -0.00453980       0.00790846
Nb       6.68137740      11.07776269      14.44356446      -0.00059290      -0.00263564       0.00290046
Nb       8.78386040       0.00000000      10.00000000      -0.03602655      -0.12339547       2.23965608
Nb      10.97982549       0.00000000      12.19596509       0.12205618      -0.14989043      -0.61459701
Nb       8.78386040       2.19596509      12.19596509      -0.18651322       0.19726532      -0.35462609
Nb      10.97982549       2.19596509      10.00000000       0.10225869       0.01928996       2.29798670
Nb       8.67152638      -0.09370052      14.45299038       0.01830291      -0.00331827      -0.01179288
Nb      10.99869226      -0.01860193      16.44635071      -0.01884850       0.02978546       0.01678776
Nb       8.76199136       2.16810511      16.44694645       0.01162833       0.00118219       0.00319537
Nb      11.08261950       2.29911151      14.44417428       0.01773007      -0.00121407      -0.00249526
Nb       8.78386040       4.39193020      10.00000000      -0.06346845      -0.05857384       2.44592566
Nb      10.97982549       4.39193020      12.19596509       0.19000272      -0.14924534      -0.51642638
Nb       8.78386040       6.58789529      12.19596509      -0.24139085       0.15142178      -0.28951419
Nb      10.97982549       6.58789529      10.00000000       0.04608882       0.07883234       2.29932033
Nb       8.63149807       4.29168350      14.40846493      -0.01001419      -0.00011236       0.01709269
Nb      10.99460595       4.36232730      16.44363191       0.00407623      -0.00518257       0.00103281
Nb       8.81323878       6.60925704      16.58326037       0.01055386       0.02210403       0.00309946
Nb      11.02007068       6.68279762      14.46533483       0.00343397       0.00301050       0.01616864
Nb       8.78386040       8.78386040      10.00000000      -0.06229217      -0.01711763       2.29651731
Nb      10.97982549       8.78386040      12.19596509       0.17069220      -0.22239528      -0.50106584
Nb       8.78386040      10.97982549      12.19596509      -0.19368969       0.12348391      -0.57833160
Nb      10.97982549      10.97982549      10.00000000       0.08063905       0.08170452       2.25606229
Nb       8.66110370       8.65693375      14.47641726      -0.00053993      -0.00921895      -0.02703901
Nb      10.97158291       8.77970819      16.45815761      -0.00696615       0.00703120      -0.00223557
Nb       8.77839136      10.97765504      16.45566247      -0.02360993       0.01877034       0.00095259
Nb      11.07002156      11.07077785      14.44865621       0.00661056       0.01155968      -0.00003008
N        0.00000000       2.19596509      10.00000000       0.03015544      -0.01261023      -1.39453319
N        2.19596509       0.00000000      10.00000000      -0.02634918       0.03171250      -1.38890170
N        0.00000000       0.00000000      12.19596509       0.05275081       0.05362498      -0.27570273
N        2.19596509       2.19596509      12.19596509      -0.05811979      -0.05215791      -0.20547305
N        0.10934980       2.08388369      14.39679379       0.00204711       0.00705254       0.00523451
N        2.08416766       0.10933270      14.39718059      -0.00068777      -0.00166325       0.00884639
N        0.00040272      -0.00295279      16.76039967      -0.01468023       0.01065002       0.00752716
N        2.17308756       2.17830394      16.76974756       0.01933341       0.00722094      -0.00320977
N        0.00000000       6.58789529      10.00000000      -0.00120816      -0.01262283      -1.39100563
N        2.19596509       4.39193020      10.00000000      -0.00820002       0.01354123      -1.43400065
N        0.00000000       4.39193020      12.19596509       0.02613012       0.04988531      -0.33303371
N        2.19596509       6.58789529      12.19596509      -0.06878241      -0.06362092      -0.49003349
N        0.06800847       6.47971783      14.39297738      -0.01098658       0.00566003       0.00526613
N        2.08602214       4.50032364      14.40106029      -0.00770457       0.00643239      -0.00388365
N       -0.00482487       4.38401106      16.74725661      -0.00834889      -0.00832857       0.00568959
N        2.11542624       6.56519480      16.68404373      -0.00450277      -0.00389522       0.00608991
N        0.00000000      10.97982549      10.00000000       0.01311340      -0.01989982      -1.41438467
N        2.19596509       8.78386040      10.00000000      -0.02441134       0.00627272      -1.43218596
N        0.00000000       8.78386040      12.19596509       0.05955009       0.05404947      -0.34647209
N        2.19596509      10.97982549      12.19596509      -0.04968477      -0.05047333      -0.32451898
N        0.09865749      10.87175691      14.39449157      -0.00150050       0.00247263       0.01272645
N        2.06884617       8.89346452      14.38490297       0.00016172      -0.00424875       0.00132695
N       -0.01502862       8.79481498      16.73786314       0.00613260       0.01081483       0.00403535
N        2.18117949      10.97318573      16.74484092       0.00139817      -0.01359162      -0.01071250
N        4.39193020       2.19596509      10.00000000       0.00575284       0.01292108      -1.39928587
N        6.58789529       0.00000000      10.00000000      -0.00929428      -0.01008130      -1.38452825
N        4.39193020       0.00000000      12.19596509       0.04929782       0.02369632      -0.27502679
N        6.58789529       2.19596509      12.19596509      -0.07243055      -0.10117060      -0.31300661
N        4.49815885       2.10958206      14.40210682      -0.01413387       0.01061994       0.00657457
N        6.47454550       0.10990797      14.40227426       0.02001989       0.01522813      -0.01121618
N        4.38830393       0.01223212      16.76187486      -0.00084975       0.01041682      -0.00121022
N        6.56649049       2.15651594      16.72208405       0.00180363       0.01162061       0.00566928
N        4.39193020       6.58789529      10.00000000       0.02286353      -0.04417824      -1.56820632
N        6.58789529       4.39193020      10.00000000      -0.06189571       0.01910227      -1.64073663
N        4.39193020       4.39193020      12.19596509       0.01968951       0.04074916      -0.61809243
N        6.58789529       6.58789529      12.19596509      -0.09618857      -0.05203296      -0.50780059
N        4.48267832       6.50488104      14.44289530       0.01004376      -0.00363065      -0.00593025
N        6.46144910       4.50771648      14.36448132       0.00919169       0.00743846       0.00567674
N        4.38644574       4.37664025      16.69916769       0.01726162      -0.00382734      -0.00714381
N        6.55148615       6.61926426      16.66302394       0.01721868      -0.00869958       0.00113951
N        4.39193020      10.97982549      10.00000000       0.00399704      -0.00737367      -1.37975706
N        6.58789529       8.78386040      10.00000000      -0.03182717       0.03009605      -1.45847447
N        4.39193020       8.78386040      12.19596509       0.04388256       0.06933262      -0.66633738
N        6.58789529      10.97982549      12.19596509      -0.03960553      -0.03011893      -0.33874387
N        4.49127350      10.88128642      14.38898520      -0.00572173       0.00274285       0.00927603
N        6.46351714       8.88287305      14.38642139       0.01248785       0.00456911      -0.00558624
N        4.40053135       8.81507678      16.61829423       0.01543330      -0.00218415      -0.01437401
N        6.56665545      10.99673593      16.75113302      -0.01645609      -0.00593719       0.02671222
N        8.78386040       2.19596509      10.00000000      -0.00217978      -0.00667561      -1.41304307
N       10.97982549       0.00000000      10.00000000      -0.00613131       0.00327481      -1.40330116
N        8.78386040       0.00000000      12.19596509       0.03462787       0.04869155      -0.29920647
N       10.97982549       2.19596509      12.19596509      -0.05521187      -0.06220913      -0.34825644
N        8.88749384       2.09758251      14.39073388       0.00843733      -0.01444369       0.02015565
N       10.86818906       0.10033384      14.39414588       0.00544020       0.00137451       0.02074597
N        8.79379695      -0.01496721      16.76189334      -0.00265929      -0.00792774      -0.01748144
N       10.97506274       2.18038846      16.73708823       0.00800050       0.00538106      -0.00970309
N        8.78386040       6.58789529      10.00000000       0.01934010       0.00324113      -1.53569601
N       10.97982549       4.39193020      10.00000000      -0.01343504       0.01338336      -1.41798473
N        8.78386040       4.39193020      12.19596509       0.12345100       0.06389114      -0.86863049
N       10.97982549       6.58789529      12.19596509      -0.01277993      -0.04845115      -0.43369677
N        8.85771006       6.47346890      14.39086624      -0.01481393      -0.00618402      -0.00061192
N       10.85455482       4.48853292      14.38701911       0.01085211      -0.00196509       0.00231116
N        8.83064391       4.36808552      16.54865094       0.01299384       0.00390345      -0.00429066
N       11.00976293       6.57023363      16.72243358       0.00451177       0.02553414      -0.00980927
N        8.78386040      10.97982549      10.00000000       0.02081257      -0.00906597      -1.37418959
N       10.97982549       8.78386040      10.00000000      -0.00793314       0.03396196      -1.39114833
N        8.78386040       8.78386040      12.19596509       0.04707407       0.05310382      -0.16909606
N       10.97982549      10.97982549      12.19596509      -0.06866517      -0.05850674      -0.31683781
N        8.88055100      10.87392876      14.40237044       0.01097681      -0.00618530       0.00482802
N       10.84557870       8.88501282      14.40489123       0.01311443       0.00258730      -0.00747882
N        8.79420167       8.81365968      16.77622354       0.00472697      -0.00042680      -0.01627251
N       10.97615314      10.97272996      16.75554041      -0.00508050       0.01502038      -0.00357563
S        7.25138178       4.45287962      19.05112276       0.00533658      -0.01843044       0.00784366
S        4.13617407       6.70425332      19.09719953       0.00152004      -0.00944880      -0.00589683
S        4.33986474       4.96442385      22.73866991      -0.03553753      -0.03050588      -0.01676514
S        5.36398350       6.64755287      23.07656793       0.02196699       0.02885498      -0.03601473
S        6.73961939       7.00839025      21.66764108      -0.01912489       0.00976839       0.00283876
S        8.67816917       6.04465787      19.07135177       0.02236808      -0.01135631      -0.00757216
Li       5.38622837       5.21621379      20.58624546       0.00510441      -0.00067671       0.00552067
Li       6.45359624       6.74602050      18.81539596       0.02847214      -0.00741815      -0.01969594
