148
Lattice="13.175790690290984 0.0 0.0 0.0 13.175790690290984 0.0 0.0 0.0 26.587889186612337" Properties=species:S:1:pos:R:3:forces:R:3 energy=-136481.15703815848 free_energy=-136481.15703815848 pbc="T T T"
Nb       0.00000000       0.00000000      10.00000000       0.06635657       0.06639283       2.25376373
Nb       2.19596509       0.00000000      12.19596509      -0.15002875       0.19911420      -0.58145189
Nb       0.00000000       2.19596509      12.19596509       0.19933506      -0.15210132      -0.58625600
Nb       2.19596509       2.19596509      10.00000000      -0.09664134      -0.09714630       2.22838359
Nb       0.10580336       0.10587030      14.43998924       0.00453285      -0.00352010       0.00033733
Nb       2.17025917       0.00707684      16.44841081       0.00303956       0.00193913       0.00529544
Nb       0.00810870       2.16891749      16.44838511       0.00261995       0.00509618       0.00391245
Nb       2.10508573       2.10375825      14.44305629       0.00300536       0.00217850      -0.00960950
Nb       0.00000000       4.39193020      10.00000000       0.07331295       0.05213143       2.24188394
Nb       2.19596509       4.39193020      12.19596509      -0.03839120       0.18349372      -0.60410306
Nb       0.00000000       6.58789529      12.19596509       0.24533312      -0.16197410      -0.53197924
Nb       2.19596509       6.58789529      10.00000000      -0.06168411      -0.03629781       2.34024998
Nb       0.10623176       4.49558951      14.44718073      -0.01773136      -0.00359697      -0.00799382
Nb       2.10464982       4.41049138      16.44214251       0.00134674      -0.01711121      -0.00329615
Nb      -0.00661529       6.58340275      16.45443498      -0.00768348       0.00361523      -0.00206845
Nb       2.12612513       6.48329856      14.45603331      -0.00078959       0.00605546      -0.00062015
Nb       0.00000000       8.78386040      10.00000000       0.05627476       0.07624092       2.26776107
Nb       2.19596509       8.78386040      12.19596509      -0.12930309       0.14088514      -0.55893983
Nb       0.00000000      10.97982549      12.19596509       0.19961942      -0.18808134      -0.61092034
Nb       2.19596509      10.97982549      10.00000000      -0.07406757      -0.04867304       2.26756206
Nb       0.11546661       8.88963584      14.44663521       0.00183628       0.00018820      -0.00141771
Nb       2.19916412       8.79051884      16.45013100      -0.00321439       0.00140125      -0.00001337
Nb       0.01191560      10.97714728      16.44582330      -0.00118605      -0.00181263       0.00316631
Nb       2.09846377      10.87469892      14.44511441      -0.00317197      -0.00426932      -0.00026174
Nb       4.39193020       0.00000000      10.00000000       0.05160924       0.07206159       2.24278589
Nb       6.58789529       0.00000000      12.19596509      -0.16038233       0.24364545      -0.53080682
Nb       4.39193020       2.19596509      12.19596509       0.18497339      -0.03949394      -0.60357469
Nb       6.58789529       2.19596509      10.00000000      -0.03671921      -0.06121411       2.34102954
Nb       4.49619891       0.10545021      14.44777421      -0.00060678      -0.02006977      -0.01089479
Nb       6.58411539      -0.00658732      16.45499252       0.00452283      -0.01003887      -0.00447449
Nb       4.41092630       2.10455059      16.44312358      -0.01383691      -0.00070731      -0.00840751
Nb       6.48526407       2.12539994      14.45692692       0.00416313       0.00651903      -0.00273437
Nb       4.39193020       4.39193020      10.00000000       0.03471066       0.03447309       2.36928853
Nb       6.58789529       4.39193020      12.19596509      -0.20773254       0.21577315      -0.45802892
Nb       4.39193020       6.58789529      12.19596509       0.21783132      -0.20879569      -0.44968800
Nb       6.58789529       6.58789529      10.00000000      -0.03091314      -0.03131449       2.37688666
Nb       4.51140742       4.50915696      14.48947609       0.01882613       0.03110058       0.02994487
Nb       6.57118908       4.43430357      16.56170898       0.00118579      -0.01265600      -0.02005152
Nb       4.43735602       6.57341784      16.55991723      -0.00727776      -0.00939712       0.01063743
Nb       6.48351045       6.48208726      14.47869474      -0.03900209      -0.03012947       0.01632548
Nb       4.39193020       8.78386040      10.00000000       0.03759004       0.06229680       2.35100413
Nb       6.58789529       8.78386040      12.19596509      -0.17043149       0.06110021      -0.61482713
Nb       4.39193020      10.97982549      12.19596509       0.17145170      -0.22237368      -0.52248879
Nb       6.58789529      10.97982549      10.00000000      -0.04903531      -0.06075851       2.24067090
Nb       4.50525278       8.86856240      14.45193132      -0.00098962      -0.01115550       0.00076670
Nb       6.57941267       8.89804190      16.43386349       0.01074490       0.01158668      -0.00174347
Nb       4.40550296      11.00297415      16.45345466       0.00723997       0.01293599      -0.00304059
Nb       6.49212937      10.88937430      14.44442608       0.00601818       0.00138351       0.00265492
Nb       8.78386040       0.00000000      10.00000000       0.07581155       0.05532680       2.26800867
Nb      10.97982549       0.00000000      12.19596509      -0.18677342       0.19957057      -0.61075296
Nb       8.78386040       2.19596509      12.19596509       0.14068382      -0.13243932      -0.55637618
Nb      10.97982549       2.19596509      10.00000000      -0.04738749      -0.07545982       2.26793667
Nb       8.89074620       0.11528958      14.44662788      -0.00128992       0.00124287      -0.00227928
Nb      10.97909573       0.01047397      16.44555718      -0.00523888      -0.00030596       0.00409577
Nb       8.79226568       2.19834270      16.45041802      -0.00279993      -0.00351444      -0.00156169
Nb      10.87670950       2.09663990      14.44512373      -0.01035049       0.00031779      -0.00238830
Nb       8.78386040       4.39193020      10.00000000       0.06266498       0.03753939       2.35193024
Nb      10.97982549       4.39193020      12.19596509      -0.22302983       0.17066880      -0.51591473
Nb       8.78386040       6.58789529      12.19596509       0.06249169      -0.17160802      -0.61713444
Nb      10.97982549       6.58789529      10.00000000      -0.05985580      -0.05029129       2.24055854
Nb       8.86997733       4.50491548      14.45103989      -0.01132520      -0.00222760       0.00371807
Nb      11.00548276       4.40427517      16.45334279       0.01258324       0.00734204      -0.00534738
Nb       8.90056553       6.57681465      16.43324461       0.01044948       0.01696080      -0.00189207
Nb      10.88960658       6.49047283      14.44385074       0.00701114       0.00579835       0.00215947
Nb       8.78386040       8.78386040      10.00000000       0.10233351       0.10242966       2.22937347
Nb      10.97982549       8.78386040      12.19596509      -0.18797669       0.16526306      -0.58413870
Nb       8.78386040      10.97982549      12.19596509       0.16501417      -0.18976593      -0.58457578
Nb      10.97982549      10.97982549      10.00000000      -0.06253231      -0.06362940       2.25067403
Nb       8.88713526       8.88670990      14.44171211      -0.00517923      -0.00573947      -0.00354169
Nb      10.98826794       8.82054592      16.44827120      -0.00886748      -0.00645347       0.00587009
Nb       8.82153685      10.98710251      16.44826439      -0.00840031      -0.00939327       0.00598013
Nb      10.88225464      10.88033032      14.43952710      -0.00226231      -0.00119608       0.00175632
N        0.00000000       2.19596509      10.00000000      -0.01618252       0.01646946      -1.39328055
N        2.19596509       0.00000000      10.00000000       0.01698882      -0.01713255      -1.39233309
N        0.00000000       0.00000000      12.19596509      -0.05369646      -0.05391012      -0.27681011
N        2.19596509       2.19596509      12.19596509       0.04647912       0.04646292      -0.34351995
N       -0.10275631       2.30389928      14.39849087      -0.00406800      -0.00873584       0.00857154
N        2.30389458      -0.10452598      14.39880864      -0.00663036      -0.00105415       0.00624727
N       -0.00402007      -0.00569094      16.76228566      -0.00601972      -0.00398007       0.00648407
N        2.19910783       2.19799496      16.76228042      -0.00668307      -0.00573870      -0.00046871
N        0.00000000       6.58789529      10.00000000      -0.01170392       0.02430490      -1.40342663
N        2.19596509       4.39193020      10.00000000       0.00921972      -0.02643094      -1.41205243
N        0.00000000       4.39193020      12.19596509      -0.03649321      -0.05296035      -0.21827766
N        2.19596509       6.58789529      12.19596509       0.03336006       0.05347098      -0.42019076
N       -0.08729236       6.69746401      14.40395622      -0.01927787      -0.00139457       0.00457682
N        2.31373959       4.28955334      14.39111788      -0.00090066       0.00401889      -0.00142233
N       -0.01843055       4.37842950      16.77904189      -0.00951437       0.00514812       0.01203045
N        2.19255255       6.58925908      16.72660715      -0.00868827      -0.00386668       0.00808072
N        0.00000000      10.97982549      10.00000000      -0.01193660       0.01339185      -1.39101026
N        2.19596509       8.78386040      10.00000000       0.00315063      -0.00464316      -1.41391005
N        0.00000000       8.78386040      12.19596509      -0.05743742      -0.04957113      -0.30028891
N        2.19596509      10.97982549      12.19596509       0.05414280       0.06068601      -0.31403891
N       -0.10210662      11.08991450      14.39623507      -0.00436033       0.00099579       0.00368773
N        2.31252794       8.67671979      14.39934115       0.01550787      -0.00905131       0.00807738
N        0.01169878       8.78393222      16.75111654       0.00313083       0.00307504       0.00648021
N        2.20513727      10.98096031      16.74780119      -0.00085978       0.00083998       0.01294422
N        4.39193020       2.19596509      10.00000000      -0.02666105       0.00914876      -1.41103273
N        6.58789529       0.00000000      10.00000000       0.02441931      -0.01217572      -1.40212745
N        4.39193020       0.00000000      12.19596509      -0.05203707      -0.03640888      -0.21821133
N        6.58789529       2.19596509      12.19596509       0.05319510       0.03286076      -0.41513006
N        4.29137224       2.31267458      14.39188974       0.00006196      -0.00417856      -0.00457451
N        6.69833715      -0.08795559      14.40436981      -0.00279813      -0.01470568       0.00337612
N        4.37936211      -0.01994605      16.77778518       0.00533041      -0.00842756       0.01978952
N        6.59063015       2.19201523      16.72786204      -0.00630537      -0.01695925       0.00792131
N        4.39193020       6.58789529      10.00000000      -0.04531569       0.04093479      -1.57571137
N        6.58789529       4.39193020      10.00000000       0.04216815      -0.04499122      -1.57799348
N        4.39193020       4.39193020      12.19596509      -0.05770095      -0.05805191      -0.21770070
N        6.58789529       6.58789529      12.19596509       0.06527517       0.06560735      -0.28705441
N        4.29593868       6.69576713      14.37479724       0.01322318      -0.00547902      -0.02661297
N        6.69730728       4.29559441      14.37359679      -0.00186765       0.00716027       0.00023063
N        4.33894406       4.33953935      16.68723382      -0.01123983      -0.00916753      -0.01347258
N        6.67005276       6.66652390      16.66058388      -0.01004684      -0.00190390       0.01574106
N        4.39193020      10.97982549      10.00000000      -0.02455661       0.01450668      -1.40314741
N        6.58789529       8.78386040      10.00000000       0.02779877      -0.01168772      -1.42324110
N        4.39193020       8.78386040      12.19596509      -0.05221448      -0.02949004      -0.44048654
N        6.58789529      10.97982549      12.19596509       0.05761148       0.03946052      -0.22648719
N        4.28974589      11.08157353      14.40312497       0.00135497       0.01499287       0.00681651
N        6.70038883       8.68127625      14.38432233       0.00281227      -0.00333472       0.00107061
N        4.40396483       8.80970849      16.72187674      -0.00786835       0.00382529       0.00643881
N        6.61079396      11.02117290      16.77821227      -0.00438836      -0.02573083       0.00678694
N        8.78386040       2.19596509      10.00000000      -0.00428243       0.00328227      -1.41269340
N       10.97982549       0.00000000      10.00000000       0.01314117      -0.01190369      -1.39144375
N        8.78386040       0.00000000      12.19596509      -0.04910858      -0.05748010      -0.30290346
N       10.97982549       2.19596509      12.19596509       0.06126013       0.05395357      -0.31467243
N        8.67885487       2.31256139      14.40008216      -0.01060606       0.01184919      -0.00068006
N       11.09026401      -0.10441021      14.39581714       0.00391990      -0.00031882       0.00686459
N        8.78530649       0.01056117      16.74969196       0.00422149       0.00160694       0.01418426
N       10.98220681       2.20413158      16.74728025       0.00180749      -0.00332212       0.01741640
N        8.78386040       6.58789529      10.00000000      -0.01181756       0.02741722      -1.42350746
N       10.97982549       4.39193020      10.00000000       0.01358905      -0.02423908      -1.40329396
N        8.78386040       4.39193020      12.19596509      -0.02948927      -0.05262328      -0.44944503
N       10.97982549       6.58789529      12.19596509       0.03956825       0.05782308      -0.22839135
N        8.68148698       6.70036609      14.38412933       0.00299431      -0.00172547      -0.00206331
N       11.08278919       4.28778189      14.40335595       0.01309103       0.00498871       0.00339077
N        8.81028924       4.40221877      16.71953766       0.00721452      -0.00367873       0.01445603
N       11.02231943       6.60945962      16.77741628      -0.02506054      -0.00365302       0.01335585
N        8.78386040      10.97982549      10.00000000      -0.01464886       0.01760074      -1.39165844
N       10.97982549       8.78386040      10.00000000       0.01685255      -0.01466506      -1.39186413
N        8.78386040       8.78386040      12.19596509      -0.04197095      -0.04209744      -0.35602297
N       10.97982549      10.97982549      12.19596509       0.05687820       0.05672265      -0.27574696
N        8.68441645      11.09470847      14.39874947       0.00874149       0.00048285       0.00712967
N       11.09475540       8.68211794      14.39882301       0.00250374       0.01378548       0.00511958
N        8.79457577       8.79264727      16.76119185       0.00681779       0.01050424       0.00391245
N       10.99456673      10.99335749      16.76373568       0.01116682       0.01126272      -0.00009873
S        6.33915052       4.76276380      19.18878895      -0.02952912      -0.01556803      -0.01270613
S        4.77201070       6.34232176      19.18585685      -0.03368582      -0.02708040       0.01281464
Li       6.91625898       6.90432591      18.61904382      -0.03446975      -0.03209919       0.01921385
Li       4.19060905       4.19987974      18.64333894      -0.01931181      -0.02638003       0.00721889
