152
Lattice="13.429296207015998 0.0 0.0 0.0 13.429296207015998 0.0 0.0 0.0 26.714643787988994" Properties=species:S:1:pos:R:3:forces:R:3 energy=-115044.87513188495 free_energy=-115044.87513188495 pbc="T T T"
Sc       0.00000000       0.00000000      10.00000000      -0.00016815       0.00072634       0.44881177
Sc       2.23821609       0.00000000      12.23821609       0.00278785      -0.00921355      -0.13195261
Sc       0.00000000       2.23821609      12.23821609       0.00127835      -0.00446986      -0.13696164
Sc       2.23821609       2.23821609      10.00000000       0.00565206       0.00683682       0.44425552
Sc       0.00183990      -0.00148899      14.48235864      -0.00079987       0.00181623      -0.01004041
Sc       2.23884431      -0.00218404      16.67209016       0.01007641       0.00553636      -0.02873054
Sc       0.00163399       2.23795946      16.67120374      -0.00039389       0.00522525      -0.03154666
Sc       2.23928528       2.23684295      14.48005915       0.00073611       0.00387568       0.00280970
Sc       0.00000000       4.47643218      10.00000000      -0.00006171       0.00601715       0.44732361
Sc       2.23821609       4.47643218      12.23821609       0.01160313       0.00795268      -0.14292428
Sc       0.00000000       6.71464827      12.23821609       0.01084414      -0.00639922      -0.12580973
Sc       2.23821609       6.71464827      10.00000000       0.01230067      -0.00327199       0.45411158
Sc       0.00190771       4.47559207      14.47888499      -0.00245720       0.01321804       0.00987484
Sc       2.24255362       4.47527535      16.66578374      -0.00060395      -0.00295523      -0.00957916
Sc       0.00350315       6.71156884      16.66656021      -0.00628095       0.00557749      -0.01461466
Sc       2.24576091       6.71423637      14.47987403      -0.00450766      -0.00313675       0.00341005
Sc       0.00000000       8.95286435      10.00000000      -0.00021134      -0.00651749       0.44424472
Sc       2.23821609       8.95286435      12.23821609       0.02356287      -0.01006150      -0.13794766
Sc       0.00000000      11.19108044      12.23821609       0.01030524      -0.00170876      -0.13102085
Sc       2.23821609      11.19108044      10.00000000       0.00472569      -0.00377926       0.44739123
Sc       0.00191676       8.95058594      14.47993170      -0.00114491      -0.00473392       0.00430814
Sc       2.23854054       8.94956634      16.67127636       0.00288889       0.00706745      -0.01522916
Sc       0.00218149      11.18826995      16.67056315      -0.00179797      -0.00213890      -0.02575628
Sc       2.24072521      11.18856257      14.48265111      -0.00220446       0.00421712      -0.00553096
Sc       4.47643218       0.00000000      10.00000000       0.00468121       0.00146733       0.44817233
Sc       6.71464827       0.00000000      12.23821609      -0.00211833       0.00430763      -0.12320675
Sc       4.47643218       2.23821609      12.23821609       0.01224051       0.00477531      -0.13947412
Sc       6.71464827       2.23821609      10.00000000      -0.00165193       0.01426217       0.45199582
Sc       4.47737770      -0.00027056      14.48061587       0.01004093      -0.00158843      -0.00000977
Sc       6.71537364      -0.00505656      16.66712379      -0.00384663       0.00556747      -0.01058960
Sc       4.47503451       2.23625780      16.66783806       0.00055150       0.00432537      -0.01591050
Sc       6.71646571       2.24311011      14.47930749       0.00248523       0.00019129       0.00577958
Sc       4.47643218       4.47643218      10.00000000       0.01221685       0.01287943       0.44966409
Sc       6.71464827       4.47643218      12.23821609       0.00804061       0.02665668      -0.12635172
Sc       4.47643218       6.71464827      12.23821609       0.03283119       0.00302002      -0.11824452
Sc       6.71464827       6.71464827      10.00000000      -0.00212219      -0.00765160       0.46917490
Sc       4.47892650       4.47816745      14.47412253       0.00425955       0.00970257      -0.00230474
Sc       6.69802866       4.49102261      16.67308228      -0.00407186      -0.00037101      -0.00063095
Sc       4.48536006       6.70410506      16.68415464      -0.00329667      -0.00175298      -0.00644858
Sc       6.71382140       6.71641498      14.47762789      -0.00072017      -0.00321491      -0.02395651
Sc       4.47643218       8.95286435      10.00000000       0.00909245      -0.01382122       0.45301912
Sc       6.71464827       8.95286435      12.23821609      -0.00425415      -0.02667365      -0.12880610
Sc       4.47643218      11.19108044      12.23821609       0.00499411      -0.01995639      -0.12609564
Sc       6.71464827      11.19108044      10.00000000      -0.00118142      -0.00750968       0.45029812
Sc       4.48208677       8.94627543      14.48134373       0.00224869      -0.00195687       0.00456037
Sc       6.71809279       8.95900109      16.68966448      -0.00263949       0.00041909      -0.01086265
Sc       4.47795309      11.19309584      16.66961679      -0.00503525      -0.00075848      -0.01927710
Sc       6.71514373      11.18622545      14.47999115       0.00001851       0.00582638       0.00860934
Sc       8.95286435       0.00000000      10.00000000      -0.00450920       0.00131178       0.44423983
Sc      11.19108044       0.00000000      12.23821609       0.00978048      -0.00132695      -0.13230280
Sc       8.95286435       2.23821609      12.23821609      -0.00229162       0.01234052      -0.14484335
Sc      11.19108044       2.23821609      10.00000000      -0.00432640       0.00629252       0.44559557
Sc       8.95432643      -0.00033948      14.47902044      -0.01258015       0.00196304       0.00503499
Sc      11.19603840      -0.00263967      16.66806773      -0.01384848       0.00923412      -0.01709475
Sc       8.95934983       2.23048684      16.67555604      -0.00253357       0.00318765      -0.00364274
Sc      11.19225874       2.23848796      14.48055742      -0.00542657       0.00089114       0.01029907
Sc       8.95286435       4.47643218      10.00000000      -0.01198648       0.01228499       0.45312119
Sc      11.19108044       4.47643218      12.23821609      -0.01756192       0.00472620      -0.13098048
Sc       8.95286435       6.71464827      12.23821609      -0.03284250      -0.00967866      -0.13303582
Sc      11.19108044       6.71464827      10.00000000      -0.01102515      -0.00271483       0.45176031
Sc       8.94738701       4.47558990      14.47828051      -0.00564306       0.00163445      -0.01194329
Sc      11.19609799       4.47793784      16.66942649       0.00364994      -0.00872684      -0.01094210
Sc       8.94875617       6.71426252      16.66699101       0.00674015       0.00501905      -0.01113982
Sc      11.18827735       6.71343371      14.47808064       0.00397518      -0.00600250       0.00113668
Sc       8.95286435       8.95286435      10.00000000      -0.00876978      -0.01381968       0.44729662
Sc      11.19108044       8.95286435      12.23821609      -0.00738601      -0.01231096      -0.14024468
Sc       8.95286435      11.19108044      12.23821609      -0.00292669      -0.01205565      -0.13896247
Sc      11.19108044      11.19108044      10.00000000      -0.00379598      -0.00368953       0.44618307
Sc       8.94978994       8.94929030      14.47776999      -0.00354607      -0.00029953       0.00726337
Sc      11.19516113       8.94952817      16.66803810      -0.00964961       0.00429220      -0.01588865
Sc       8.95681733      11.19336092      16.66635432      -0.00377926      -0.00737984      -0.01147046
Sc      11.19284199      11.18844596      14.47968313      -0.00482108       0.00562506       0.00992034
N        0.00000000       2.23821609      10.00000000       0.00032756      -0.00479948       0.04110140
N        2.23821609       0.00000000      10.00000000      -0.00355712      -0.00075976       0.04078207
N        0.00000000       0.00000000      12.23821609       0.00525379      -0.00334758      -0.31209696
N        2.23821609       2.23821609      12.23821609      -0.00240501      -0.01151571      -0.31016812
N        0.00165915       2.23659683      14.49194896       0.00132026       0.00009256      -0.01561534
N        2.23826281      -0.00141945      14.49295884       0.00340234       0.00376589      -0.02360170
N        0.00245375      -0.00202255      16.68507910      -0.00039878       0.00400886      -0.01503221
N        2.24327365       2.23795372      16.68290037      -0.00856434       0.00445187       0.00439890
N        0.00000000       6.71464827      10.00000000      -0.00099939       0.00189747       0.02948850
N        2.23821609       4.47643218      10.00000000      -0.00891916      -0.00686099       0.03330016
N        0.00000000       4.47643218      12.23821609      -0.00022060      -0.01080223      -0.32397057
N        2.23821609       6.71464827      12.23821609      -0.02574986       0.00425183      -0.34008444
N        0.00219305       6.71307327      14.48861410      -0.00307170       0.00774236       0.00585414
N        2.23807126       4.47485520      14.48730833      -0.00516509      -0.00123002       0.00677820
N        0.00346698       4.47445325      16.68055037       0.00020029       0.00643676       0.00303879
N        2.24178535       6.71195331      16.68284027      -0.00986789      -0.00521523       0.01267991
N        0.00000000      11.19108044      10.00000000      -0.00039441       0.00256827       0.03935716
N        2.23821609       8.95286435      10.00000000      -0.00801027       0.00750839       0.04309580
N        0.00000000       8.95286435      12.23821609       0.00652083       0.00511521      -0.31132845
N        2.23821609      11.19108044      12.23821609      -0.00159203      -0.00147273      -0.30759084
N        0.00172494      11.18950087      14.49209153      -0.00068880       0.00195815      -0.02205672
N        2.24061276       8.95129402      14.49365060      -0.00523348       0.00435751      -0.00875255
N        0.00299324       8.95081850      16.68122910      -0.00073945      -0.00630255       0.00590377
N        2.24003074      11.18820518      16.68384991       0.00538106       0.00289403      -0.00636862
N        4.47643218       2.23821609      10.00000000      -0.00590660      -0.01070762       0.03601498
N        6.71464827       0.00000000      10.00000000       0.00117217      -0.00375947       0.03190713
N        4.47643218       0.00000000      12.23821609      -0.00567005      -0.00661108      -0.31877951
N        6.71464827       2.23821609      12.23821609       0.00268192      -0.03779830      -0.33729582
N        4.47770446       2.23467431      14.48941415      -0.00624778      -0.00158688      -0.00497277
N        6.71577294      -0.00044722      14.48960398       0.00139200      -0.00163676       0.00468584
N        4.47730044      -0.00158688      16.68206286       0.00857309      -0.00165013      -0.00762589
N        6.71293301       2.22752055      16.68112680      -0.00328921       0.00375818       0.00521034
N        4.47643218       6.71464827      10.00000000      -0.01401971       0.00340183       0.00155603
N        6.71464827       4.47643218      10.00000000       0.00215587      -0.01481315       0.00209802
N        4.47643218       4.47643218      12.23821609      -0.02079354      -0.02612395      -0.38705567
N        6.71464827       6.71464827      12.23821609      -0.00556490       0.01117376      -0.46216222
N        4.47322136       6.71702061      14.47510177      -0.00323085       0.00451743       0.00082944
N        6.71875379       4.46958324      14.47270400      -0.00029362      -0.00138505       0.00076387
N        4.48006293       4.47461300      16.65243386      -0.00499540       0.00247494       0.01284600
N        6.70633030       6.70514682      16.62738963      -0.00486813      -0.00152286       0.02878761
N        4.47643218      11.19108044      10.00000000      -0.00485167       0.00769351       0.03510661
N        6.71464827       8.95286435      10.00000000       0.00135677       0.01577835       0.02575320
N        4.47643218       8.95286435      12.23821609      -0.01073127       0.03047066      -0.33438791
N        6.71464827      11.19108044      12.23821609       0.00162622       0.01286426      -0.33102208
N        4.47696806      11.19016518      14.49171140      -0.00289146       0.00273231      -0.01131800
N        6.71582295       8.95629893      14.48686270      -0.00098010       0.00666816       0.00129069
N        4.48253002       8.95959365      16.68154706      -0.00367385       0.00841059       0.00796425
N        6.71792550      11.18960025      16.67947635      -0.00306630       0.00930019       0.00889987
N        8.95286435       2.23821609      10.00000000       0.00664784      -0.01081586       0.04120244
N       11.19108044       0.00000000      10.00000000       0.00277396      -0.00129686       0.03708148
N        8.95286435       0.00000000      12.23821609       0.00844967      -0.00082250      -0.31843755
N       11.19108044       2.23821609      12.23821609       0.00607320      -0.00725385      -0.31446880
N        8.95373060       2.23715796      14.49110021       0.00288915      -0.00097445       0.00882403
N       11.19414828      -0.00161970      14.48991937      -0.00636837       0.00314472      -0.00888985
N        8.95678753      -0.00069958      16.67778915      -0.00928297      -0.00224920       0.01937609
N       11.19307673       2.23516842      16.68033086       0.00102021       0.00734204       0.00849852
N        8.95286435       6.71464827      10.00000000       0.01446400       0.00328021       0.00348025
N       11.19108044       4.47643218      10.00000000       0.00956013      -0.00633468       0.03306182
N        8.95286435       4.47643218      12.23821609       0.03611346      -0.03030945      -0.35186807
N       11.19108044       6.71464827      12.23821609       0.03006340       0.00124261      -0.34468929
N        8.95596515       6.71415140      14.47210037       0.00380086       0.00188616       0.00789046
N       11.19248284       4.47519205      14.48952335       0.00254102      -0.00318971       0.00571093
N        8.96983211       4.47556746      16.67406873      -0.00255336       0.00259630       0.00781204
N       11.19383814       6.71489562      16.67646671       0.00530676      -0.01175534       0.00568471
N        8.95286435      11.19108044      10.00000000       0.00575799       0.00669027       0.03686396
N       11.19108044       8.95286435      10.00000000       0.00744206       0.00730605       0.03906226
N        8.95286435       8.95286435      12.23821609       0.01544179       0.02501889      -0.33915910
N       11.19108044      11.19108044      12.23821609       0.00850778      -0.00121767      -0.31742840
N        8.95498041      11.19032869      14.48910991       0.00276856       0.00161028       0.00112846
N       11.19289647       8.95178572      14.49021658       0.00000180       0.00485990      -0.00414359
N        8.95396279       8.95588203      16.67519983       0.00020389       0.00328150       0.01994688
N       11.19290541      11.18800625      16.68183357      -0.00071914       0.00529030      -0.00628763
S        8.64138502       5.33414452      20.32587443       0.02828676      -0.01907167      -0.00376230
S        8.51455414       7.11660091      19.35254822      -0.02143040      -0.01203353       0.01472702
S        6.78545849       8.23114026      19.90993264       0.02850196       0.01243283       0.00973008
S        4.91642594       7.43914499      19.43514458      -0.03136694      -0.02363487      -0.02945173
S        4.33128691       6.10282247      20.95959997       0.00134829      -0.00448040      -0.01060040
S        4.36513355       4.21577691      20.13666743      -0.03576404      -0.00961181      -0.00845662
S        6.10604083       3.23750848      20.58622308       0.00031470       0.00226334       0.00266006
S        7.59989690       3.83039787      19.18708665       0.02070535       0.03179195       0.00933568
