152
Lattice="13.429296207015998 0.0 0.0 0.0 13.429296207015998 0.0 0.0 0.0 26.714643787988994" Properties=species:S:1:pos:R:3:forces:R:3 energy=-114786.95732933222 free_energy=-114786.95732933222 pbc="T T T"
Sc       0.00000000       0.00000000      10.00000000      -0.00484807      -0.00488227       0.44470032
Sc       2.23821609       0.00000000      12.23821609      -0.00326427      -0.00595879      -0.16279917
Sc       0.00000000       2.23821609      12.23821609      -0.00169616       0.00018486      -0.16937476
Sc       2.23821609       2.23821609      10.00000000      -0.00758604      -0.00525559       0.44619927
Sc       0.00147847       0.00161699      14.47381108      -0.00516329      -0.01102463       0.00905285
Sc       2.23543446      -0.00102102      16.66129155      -0.00149921      -0.00415799       0.00310306
Sc      -0.00018544       2.23740610      16.66055130      -0.00366665      -0.00078753       0.00271483
Sc       2.23847276       2.24045842      14.47734186       0.00484164       0.00259990      -0.00131049
Sc       0.00000000       4.47643218      10.00000000      -0.01074567       0.00583898       0.43487793
Sc       2.23821609       4.47643218      12.23821609       0.00821699       0.02735242      -0.17013041
Sc       0.00000000       6.71464827      12.23821609       0.01215900       0.02660269      -0.15468399
Sc       2.23821609       6.71464827      10.00000000      -0.00372707       0.01132391       0.45358091
Sc      -0.00383335       4.48049333      14.47226904      -0.00007919      -0.00961618       0.00212425
Sc       2.21463065       4.48014662      16.65844026      -0.00140202      -0.00457142       0.00119633
Sc       0.00032714       6.72110198      16.65963587      -0.00121947      -0.00055202       0.00188873
Sc       2.24199252       6.72172612      14.47859000      -0.00251428      -0.00959330      -0.01150877
Sc       0.00000000       8.95286435      10.00000000      -0.00291923      -0.00160874       0.45109336
Sc       2.23821609       8.95286435      12.23821609       0.01477047       0.00656711      -0.13789649
Sc       0.00000000      11.19108044      12.23821609       0.00892533      -0.00482725      -0.16886723
Sc       2.23821609      11.19108044      10.00000000      -0.00215227      -0.00759195       0.45055163
Sc       0.00270111       8.95541186      14.47570172      -0.00616859      -0.00078676       0.00118734
Sc       2.23175621       8.96819643      16.67531456      -0.00085283      -0.00512832      -0.00689390
Sc       0.00025996      11.19528917      16.66270233      -0.00467812       0.00064920      -0.00953751
Sc       2.23903441      11.19129614      14.47636700       0.00162597      -0.00365122      -0.00191367
Sc       4.47643218       0.00000000      10.00000000       0.00305113      -0.01070659       0.43432129
Sc       6.71464827       0.00000000      12.23821609       0.01916989       0.00525791      -0.16079911
Sc       4.47643218       2.23821609      12.23821609       0.01269122       0.00613157      -0.17635711
Sc       6.71464827       2.23821609      10.00000000       0.01401765      -0.00193758       0.44630803
Sc       4.47810746      -0.00559721      14.47356593      -0.00191933       0.00110660      -0.00160128
Sc       6.72073774       0.00062527      16.66087115      -0.00079190      -0.00070088      -0.00131563
Sc       4.47290271       2.21202902      16.65366981       0.00355172      -0.00847898      -0.00545588
Sc       6.72010619       2.24106271      14.47760704      -0.00372321       0.00179309       0.00321388
Sc       4.47643218       4.47643218      10.00000000       0.00577984       0.00919298       0.42316399
Sc       6.71464827       4.47643218      12.23821609       0.04341128       0.06680394      -0.13891799
Sc       4.47643218       6.71464827      12.23821609       0.06041964       0.05301563      -0.13776819
Sc       6.71464827       6.71464827      10.00000000       0.00998436       0.01087551       0.48148098
Sc       4.48663643       4.48732579      14.48330696       0.01182913       0.01046568       0.00285932
Sc       6.76611508       4.42925936      16.70903555       0.00408805       0.00084564       0.01557934
Sc       4.44124969       6.78016579      16.69639759      -0.00048337      -0.01065619       0.01208161
Sc       6.71411252       6.71494748      14.50488348      -0.00853992      -0.01460181      -0.02020296
Sc       4.47643218       8.95286435      10.00000000       0.00530599       0.00047231       0.44663559
Sc       6.71464827       8.95286435      12.23821609       0.01329235      -0.06024120      -0.10723840
Sc       4.47643218      11.19108044      12.23821609       0.00450920      -0.02455172      -0.16936808
Sc       6.71464827      11.19108044      10.00000000       0.00607449      -0.00989592       0.44663481
Sc       4.48057877       8.95937889      14.47866763       0.00634420      -0.00606189      -0.00871321
Sc       6.72672805       8.98798830      16.68457806      -0.00319022      -0.00662188      -0.00314369
Sc       4.47810685      11.19395145      16.66693558      -0.00361034      -0.00776216      -0.00750582
Sc       6.71859413      11.19322764      14.47501147      -0.00052605      -0.01013195       0.00367616
Sc       8.95286435       0.00000000      10.00000000       0.00125264      -0.00196869       0.44991426
Sc      11.19108044       0.00000000      12.23821609       0.00087726       0.00233533      -0.17459230
Sc       8.95286435       2.23821609      12.23821609       0.00808201       0.02367189      -0.13990606
Sc      11.19108044       2.23821609      10.00000000      -0.00722557       0.00021572       0.44668855
Sc       8.95613642       0.00231109      14.47382789      -0.00605958      -0.00482776       0.00788146
Sc      11.19673027       0.00052540      16.66131478       0.00344399      -0.00313700      -0.00861757
Sc       8.97131236       2.22941612      16.66771360      -0.00417316      -0.00277448      -0.01209987
Sc      11.19210906       2.23911351      14.47319975      -0.00121305       0.00016069       0.00180003
Sc       8.95286435       4.47643218      10.00000000       0.00529004       0.00609300       0.44963504
Sc      11.19108044       4.47643218      12.23821609      -0.02889406       0.01214563      -0.16903949
Sc       8.95286435       6.71464827      12.23821609      -0.06664916       0.00700317      -0.10987249
Sc      11.19108044       6.71464827      10.00000000      -0.00821802       0.00503782       0.44715649
Sc       8.95490567       4.48250189      14.47767355      -0.00516457       0.00845404       0.00220858
Sc      11.19652404       4.47624367      16.65874276      -0.00075359      -0.00243715      -0.00571762
Sc       8.98305510       6.72494733      16.68819739       0.00132129      -0.00031522      -0.00494783
Sc      11.19079296       6.71919072      14.47394120      -0.00075359      -0.00271688       0.00470640
Sc       8.95286435       8.95286435      10.00000000      -0.00217284      -0.00540369       0.45962583
Sc      11.19108044       8.95286435      12.23821609      -0.01517696       0.00157943      -0.15577311
Sc       8.95286435      11.19108044      12.23821609       0.00305550      -0.01826769      -0.15749164
Sc      11.19108044      11.19108044      10.00000000      -0.00449506      -0.00570682       0.44409482
Sc       8.95018097       8.95091597      14.47973141      -0.00352113      -0.00529544       0.00752562
Sc      11.19493141       8.96109227      16.66331668       0.00406620      -0.00648098       0.00783749
Sc       8.96267197      11.19855290      16.66297256      -0.00415413      -0.00741043      -0.00014552
Sc      11.19208400      11.19127762      14.47304378      -0.00122950       0.00197281       0.01554875
N        0.00000000       2.23821609      10.00000000       0.00864071       0.00217361       0.03345828
N        2.23821609       0.00000000      10.00000000       0.00400732       0.00846381       0.03253140
N        0.00000000       0.00000000      12.23821609       0.00941049       0.00920815      -0.33093466
N        2.23821609       2.23821609      12.23821609       0.01729581       0.01514251      -0.31730190
N        0.00284032       2.24129891      14.48477395      -0.00713018      -0.00739218      -0.00429811
N        2.24069691       0.00245320      14.48540437      -0.00687204      -0.00802133      -0.00250065
N        0.00234859       0.00293013      16.67560142      -0.00723946      -0.01401637      -0.00010644
N        2.23613100       2.23677523      16.67514228       0.00543634       0.00066669       0.00563354
N        0.00000000       6.71464827      10.00000000       0.00238624      -0.00764980       0.02461883
N        2.23821609       4.47643218      10.00000000       0.01000056      -0.00910325       0.05471410
N        0.00000000       4.47643218      12.23821609       0.04782226      -0.00385074      -0.31074456
N        2.23821609       6.71464827      12.23821609      -0.00282719      -0.02020399      -0.36814135
N       -0.00198671       6.71673664      14.48195391      -0.00577418      -0.00241195       0.00796116
N        2.25204639       4.47738372      14.49602228       0.00048722      -0.00416930       0.00725411
N        0.00458275       4.47748510      16.67639693      -0.00588963      -0.00174115      -0.00011699
N        2.21717853       6.71541921      16.64981415       0.00030005      -0.01408579      -0.00761021
N        0.00000000      11.19108044      10.00000000       0.00245155       0.00652006       0.03274840
N        2.23821609       8.95286435      10.00000000      -0.00105544       0.00112331       0.02506491
N        0.00000000       8.95286435      12.23821609       0.00408857       0.00834014      -0.34103447
N        2.23821609      11.19108044      12.23821609       0.00123516       0.01384745      -0.33566832
N        0.00229711      11.19382098      14.48520055      -0.00770868       0.00312646       0.00338511
N        2.23831222       8.95840605      14.48608811      -0.00703531       0.00130509      -0.00003728
N        0.00435535       8.95869314      16.67600933      -0.00646041       0.00176043       0.00733896
N        2.23912416      11.19440467      16.67823269      -0.01118173      -0.00224097      -0.00521625
N        4.47643218       2.23821609      10.00000000      -0.00620921       0.00820953       0.05889626
N        6.71464827       0.00000000      10.00000000      -0.00835711       0.00519389       0.03050588
N        4.47643218       0.00000000      12.23821609      -0.00275031       0.04518611      -0.30287492
N        6.71464827       2.23821609      12.23821609      -0.02466639       0.00427292      -0.34328675
N        4.47555022       2.25143601      14.49660654       0.00798970       0.00107369      -0.00207745
N        6.71509939      -0.00036265      14.48347917       0.00191650       0.00149664       0.00604646
N        4.47649513       0.00598522      16.67845910       0.00683502      -0.00558572      -0.00076670
N        6.71706344       2.22400593      16.65784855      -0.01019417       0.00203631      -0.00041832
N        4.47643218       6.71464827      10.00000000      -0.01105677      -0.01825997       0.03625358
N        6.71464827       4.47643218      10.00000000      -0.02045107      -0.01253387       0.04403323
N        4.47643218       4.47643218      12.23821609      -0.01334531      -0.01694666      -0.10734947
N        6.71464827       6.71464827      12.23821609      -0.01771567      -0.00448915      -0.29457360
N        4.47842474       6.70818552      14.49086117       0.00165065      -0.00471695       0.00179926
N        6.70338179       4.48031593      14.49476407       0.00096134      -0.00265106       0.01111179
N        4.46935131       4.46459194      16.85098630       0.00054096      -0.01094364      -0.00388339
N        6.70615513       6.72661656      16.72328763       0.00973882       0.00100324      -0.01557960
N        4.47643218      11.19108044      10.00000000      -0.00255439       0.01332371       0.03654437
N        6.71464827       8.95286435      10.00000000      -0.00378415       0.00952799       0.02154893
N        4.47643218       8.95286435      12.23821609       0.00341751       0.00507613      -0.36450889
N        6.71464827      11.19108044      12.23821609       0.00258576       0.00875461      -0.33183326
N        4.47813127      11.19970272      14.48395362       0.00201549      -0.00243046       0.00150332
N        6.71926241       8.95548388      14.49014517       0.00101790      -0.01040525      -0.00093048
N        4.48042132       8.98582792      16.64469486       0.00563560       0.00068340      -0.01476199
N        6.72111135      11.19923330      16.67820714      -0.00372836      -0.00668127      -0.00830415
N        8.95286435       2.23821609      10.00000000      -0.00189387      -0.00495349       0.02086296
N       11.19108044       0.00000000      10.00000000       0.00502445       0.00261044       0.03275997
N        8.95286435       0.00000000      12.23821609       0.00436805      -0.00252405      -0.34661607
N       11.19108044       2.23821609      12.23821609       0.01492577      -0.00164551      -0.34124195
N        8.95720121       2.23562145      14.48303276      -0.00254514      -0.00568188      -0.00468995
N       11.19442442       0.00218308      14.48414072       0.00130175      -0.00787349       0.00243586
N        8.95895145       0.00301515      16.67441502       0.00122719      -0.01038546       0.00933233
N       11.19541113       2.23824948      16.67411527       0.00317968      -0.00691781       0.00293389
N        8.95286435       6.71464827      10.00000000       0.00544457      -0.00323625       0.01364536
N       11.19108044       4.47643218      10.00000000       0.01259172      -0.00470872       0.03241518
N        8.95286435       4.47643218      12.23821609      -0.00505736      -0.01090559      -0.38980109
N       11.19108044       6.71464827      12.23821609       0.00015812       0.00678566      -0.34089126
N        8.94887871       6.71675591      14.48503084       0.00218107       0.00372244       0.00836457
N       11.19990786       4.47874941      14.48072064      -0.00179360      -0.00107832       0.00946757
N        8.98744743       4.46308713      16.63167317      -0.00727571       0.00091300      -0.00247469
N       11.19413852       6.72157919      16.67406982      -0.00108295      -0.01478307       0.00091506
N        8.95286435      11.19108044      10.00000000       0.00130715       0.00833037       0.02802682
N       11.19108044       8.95286435      10.00000000       0.00709856       0.00341802       0.02748149
N        8.95286435       8.95286435      12.23821609       0.01214332       0.01680087      -0.35604688
N       11.19108044      11.19108044      12.23821609       0.00657534       0.00714072      -0.33265755
N        8.95486792      11.19431406      14.48578195       0.00634857       0.00340620      -0.00253228
N       11.19368188       8.95519643      14.48550822       0.00223249       0.00295137      -0.00226257
N        8.96427610       8.96071609      16.67271899      -0.00174629      -0.00343191       0.00169539
N       11.19413596      11.19488113      16.67416451       0.00827098       0.00428834       0.01006587
S        7.17202875       4.40741631      19.47739651      -0.01780540      -0.00083818       0.01439535
S        4.14182117       6.94400712      19.40731315      -0.01891638      -0.00822470      -0.00397467
S        5.17162538       8.34022387      20.54456482      -0.02538039       0.00789406       0.00074588
S        7.04566386       8.74556227      19.80285059      -0.01990445       0.00465447      -0.01059757
S        8.44945357       7.34837978      20.69863755      -0.01420817       0.01808128      -0.01906319
S        8.73684724       5.78109394      19.36597476       0.00539649       0.00549162       0.00849724
Li       4.75638857       4.68814273      18.82084263       0.00460176       0.01138742      -0.00495992
Li       6.53506280       6.63418407      18.66914951      -0.00527539      -0.00433771      -0.02566552
