147
Lattice="13.429296207015998 0.0 0.0 0.0 13.429296207015998 0.0 0.0 0.0 26.714643787988994" Properties=species:S:1:pos:R:3:forces:R:3 energy=-113144.752769417 free_energy=-113144.752769417 pbc="T T T"
Sc       0.00000000       0.00000000      10.00000000       0.00569756      -0.00836483       0.44767380
Sc       2.23821609       0.00000000      12.23821609      -0.00113206      -0.02833767      -0.17707239
Sc       0.00000000       2.23821609      12.23821609       0.00288144      -0.01087011      -0.17201863
Sc       2.23821609       2.23821609      10.00000000       0.00415053      -0.00054713       0.43905777
Sc       0.00297763      -0.00183414      14.47441661      -0.00183165       0.00077930       0.00360109
Sc       2.23703482      -0.00557413      16.66150726      -0.00387774       0.00195610      -0.00162365
Sc       0.00071281       2.23246161      16.66098577      -0.00517255       0.00088934      -0.00405232
Sc       2.23915791       2.23677557      14.47304350      -0.01042634      -0.00585749      -0.00802184
Sc       0.00000000       4.47643218      10.00000000       0.01039368       0.01525333       0.43023118
Sc       2.23821609       4.47643218      12.23821609       0.05726207       0.08353694      -0.17154837
Sc       0.00000000       6.71464827      12.23821609       0.12572746       0.02956126      -0.11857105
Sc       2.23821609       6.71464827      10.00000000       0.00488638       0.01519188       0.48873920
Sc      -0.00015206       4.48030558      14.47126461      -0.00473546      -0.00035327      -0.00254796
Sc       2.20596540       4.47539128      16.64975012      -0.01599509      -0.00323419      -0.00936730
Sc       0.00946067       6.72165200      16.66179430      -0.00815605      -0.00018898      -0.00707825
Sc       2.26337537       6.72142071      14.49548014      -0.00702785      -0.00271920      -0.01520910
Sc       0.00000000       8.95286435      10.00000000       0.01422874      -0.00685302       0.45138416
Sc       2.23821609       8.95286435      12.23821609       0.05646220      -0.05027072      -0.13127924
Sc       0.00000000      11.19108044      12.23821609       0.02203230      -0.01435884      -0.16837229
Sc       2.23821609      11.19108044      10.00000000       0.00680777      -0.01448919       0.45149780
Sc       0.00727005       8.95261719      14.47556535      -0.00002211      -0.00190904      -0.00453234
Sc       2.23206076       8.96417760      16.67873309      -0.00886208       0.00269734      -0.00950820
Sc       0.00167576      11.19357172      16.66258441       0.00007225      -0.00113309      -0.00506302
Sc       2.24128997      11.18711299      14.47548775       0.00035970      -0.00077776      -0.00557364
Sc       4.47643218       0.00000000      10.00000000      -0.01041374      -0.01098812       0.45231541
Sc       6.71464827       0.00000000      12.23821609       0.00448066      -0.01775115      -0.20560186
Sc       4.47643218       2.23821609      12.23821609      -0.01606862       0.07758895      -0.12664431
Sc       6.71464827       2.23821609      10.00000000      -0.01252667      -0.00490772       0.42178845
Sc       4.47555332      -0.00992690      14.47130230      -0.00258910       0.00125033      -0.00154498
Sc       6.71887311      -0.00514835      16.66227847      -0.00173112       0.00052990      -0.00366639
Sc       4.47258937       2.20958789      16.63228308      -0.00356175      -0.01619435      -0.01230504
Sc       6.71576489       2.23160244      14.47133481       0.00575233      -0.00590660      -0.00695021
Sc       4.47643218       4.47643218      10.00000000      -0.01537288       0.01494942       0.47159560
Sc       6.71464827       4.47643218      12.23821609      -0.06748863       0.07378140      -0.20969609
Sc       4.47643218       6.71464827      12.23821609      -0.01318153       0.02156204      -0.04604666
Sc       6.71464827       6.71464827      10.00000000      -0.01402408       0.01621826       0.47320511
Sc       4.47438415       4.50611897      14.50017395       0.00239935      -0.00585723       0.00974140
Sc       6.74791352       4.44877205      16.64232535       0.00925597      -0.01196540       0.00043580
Sc       4.43293504       6.76615931      16.91857151       0.00047591       0.00787837      -0.01436270
Sc       6.68767790       6.71955252      14.49999042       0.00684556      -0.00144085       0.00205971
Sc       4.47643218       8.95286435      10.00000000      -0.01434136      -0.00479356       0.48755109
Sc       6.71464827       8.95286435      12.23821609      -0.07597738      -0.04793256      -0.17076959
Sc       4.47643218      11.19108044      12.23821609      -0.02295198      -0.11114056      -0.11647612
Sc       6.71464827      11.19108044      10.00000000      -0.01543845      -0.01128817       0.43081302
Sc       4.47201444       8.93168539      14.49428132       0.00388262       0.00366999      -0.01710581
Sc       6.71978614       8.99186031      16.64513513       0.00670878       0.01181910       0.00074973
Sc       4.47337215      11.18656657      16.66154082      -0.00203426       0.00692604      -0.00917678
Sc       6.71340560      11.19556400      14.47032814      -0.00258807      -0.00111149      -0.00296243
Sc       8.95286435       0.00000000      10.00000000       0.00439736      -0.00817559       0.44614939
Sc      11.19108044       0.00000000      12.23821609       0.01480955      -0.00689056      -0.17255702
Sc       8.95286435       2.23821609      12.23821609       0.03157238      -0.02722901      -0.17531427
Sc      11.19108044       2.23821609      10.00000000       0.00786295      -0.00503036       0.44703976
Sc       8.95760869      -0.00128059      14.47567165      -0.00335246       0.00017329      -0.00050625
Sc      11.19728447      -0.00184340      16.66288167      -0.00212605      -0.00090014      -0.01067908
Sc       8.96481550       2.23040479      16.66173056      -0.00030750      -0.00134572      -0.01085751
Sc      11.19573908       2.23605353      14.47581891      -0.00316451       0.00401272      -0.00187408
Sc       8.95286435       4.47643218      10.00000000       0.00421404       0.01324581       0.41924897
Sc      11.19108044       4.47643218      12.23821609       0.03205600      -0.00039389      -0.20679151
Sc       8.95286435       6.71464827      12.23821609      -0.06974400       0.02433241      -0.12810856
Sc      11.19108044       6.71464827      10.00000000       0.00969640       0.01076675       0.45207578
Sc       8.96335685       4.47663148      14.47001495       0.00089809      -0.00001311      -0.00315500
Sc      11.20109984       4.47583905      16.66247471      -0.00300356       0.00286652      -0.00546951
Sc       8.98928827       6.72315039      16.62429059       0.00460330      -0.00010542       0.00481645
Sc      11.20566284       6.71812343      14.46987283      -0.00689313      -0.00010387       0.00121973
Sc       8.95286435       8.95286435      10.00000000      -0.00072197      -0.00514118       0.43727317
Sc      11.19108044       8.95286435      12.23821609       0.04099495       0.01111745      -0.18086014
Sc       8.95286435      11.19108044      12.23821609       0.01978284       0.01008927      -0.17701608
Sc      11.19108044      11.19108044      10.00000000       0.00806555      -0.00595365       0.44803195
Sc       8.95855505       8.95673664      14.47119852      -0.00333626      -0.00143210      -0.00461153
Sc      11.20147635       8.95836771      16.66163664      -0.00467015      -0.00005168      -0.00549959
Sc       8.96295979      11.19519731      16.66116426      -0.00420375       0.00104875      -0.00658768
Sc      11.19616536      11.19130461      14.47434186      -0.00385280      -0.00065923       0.00458093
N        0.00000000       2.23821609      10.00000000      -0.00462259       0.00185942       0.03222826
N        2.23821609       0.00000000      10.00000000      -0.00137837       0.01215618       0.03472532
N        0.00000000       0.00000000      12.23821609      -0.00073662       0.00795422      -0.33533767
N        2.23821609       2.23821609      12.23821609       0.00173344       0.00609069      -0.30884580
N        0.00199895       2.23793150      14.48380816       0.00062915       0.00401889      -0.00219726
N        2.23926227       0.00005091      14.48492108       0.00092457       0.00398727      -0.00119479
N        0.00146984      -0.00004246      16.67563438      -0.00295394       0.00083381      -0.00092431
N        2.23375643       2.23295448      16.67617256       0.00019180       0.00166273       0.00464058
N        0.00000000       6.71464827      10.00000000      -0.02444245      -0.01175431       0.00464855
N        2.23821609       4.47643218      10.00000000      -0.00536152      -0.02301266       0.05170360
N        0.00000000       4.47643218      12.23821609       0.00643033      -0.01806483      -0.30305413
N        2.23821609       6.71464827      12.23821609      -0.02415063      -0.01833557      -0.40070926
N       -0.00151022       6.71483912      14.48049334       0.00278091      -0.00057541       0.00207848
N        2.24702517       4.47631257      14.49594770      -0.00746391       0.00207488       0.00541269
N        0.00114894       4.47266173      16.67289055      -0.00299199       0.00140511      -0.00131178
N        2.21256145       6.72038710      16.65702604       0.01057880      -0.00504888       0.02277766
N        0.00000000      11.19108044      10.00000000      -0.00954136       0.00998205       0.02721924
N        2.23821609       8.95286435      10.00000000      -0.01136299       0.01144629       0.01973810
N        0.00000000       8.95286435      12.23821609      -0.01345278       0.01306583      -0.34056113
N        2.23821609      11.19108044      12.23821609      -0.00860214       0.01910690      -0.34132371
N        0.00147544      11.19256511      14.48411253       0.00153572      -0.00102510      -0.00031085
N        2.23876753       8.95549142      14.48837999       0.00973651      -0.01354303       0.00528156
N        0.00137709       8.95951221      16.67564779      -0.00112563      -0.00207282      -0.00430840
N        2.23630801      11.19510255      16.67545003       0.00078830      -0.00281382      -0.00303493
N        4.47643218       2.23821609      10.00000000       0.01109200      -0.00898549       0.01689395
N        6.71464827       0.00000000      10.00000000       0.00879857       0.01176614       0.05176505
N        4.47643218       0.00000000      12.23821609       0.01312060       0.02021993      -0.35339222
N        6.71464827       2.23821609      12.23821609       0.01370269       0.02846057      -0.27153652
N        4.47908931       2.23848906      14.48327592      -0.00109580      -0.00933465       0.00481465
N        6.71810830       0.00077780      14.48613639      -0.00313289       0.00353964      -0.00253999
N        4.48017854      -0.00301754      16.67437584      -0.00303802       0.00126627       0.00010490
N        6.72446124       2.23714213      16.67527737      -0.00829284       0.00140382       0.00744411
N        4.47643218       6.71464827      10.00000000       0.01814710      -0.01885956      -0.02491528
N        6.71464827       4.47643218      10.00000000       0.01638333      -0.01661087       0.08596303
N        4.47643218       4.47643218      12.23821609       0.02214131      -0.06297840      -0.22076649
N        6.71464827       6.71464827      12.23821609       0.06912848      -0.01844689      -0.23494278
N        4.49084862       6.70255230      14.47605529      -0.00063043       0.00843708      -0.01869475
N        6.70959981       4.48336859      14.50647541       0.00646967       0.00124853       0.01564645
N        4.46820944       4.41554109      16.77279268      -0.00106804       0.01655045       0.01902513
N        6.78452142       6.72900878      16.75748149      -0.01086497      -0.00092817       0.01637510
N        4.47643218      11.19108044      10.00000000       0.01170958       0.02532794       0.00471592
N        6.71464827       8.95286435      10.00000000       0.02349500       0.00642004       0.04781429
N        4.47643218       8.95286435      12.23821609       0.02072052       0.03021406      -0.40541592
N        6.71464827      11.19108044      12.23821609       0.02408687       0.00480873      -0.30959424
N        4.47879089      11.19705944      14.48012790      -0.00091017      -0.00379803       0.00200006
N        6.71843740       8.95010097      14.49309985      -0.00746186      -0.01142701       0.01416704
N        4.47580028       8.98643626      16.65338823       0.00169590      -0.01833222       0.02368192
N        6.72352555      11.19630472      16.67152898      -0.00699700      -0.00538440      -0.00101224
N        8.95286435       2.23821609      10.00000000      -0.00540240       0.00616242       0.03777645
N       11.19108044       0.00000000      10.00000000      -0.00638713       0.00688361       0.03333718
N        8.95286435       0.00000000      12.23821609       0.00028848       0.00925109      -0.32726981
N       11.19108044       2.23821609      12.23821609      -0.00280842       0.00483110      -0.32922282
N        8.95572234       2.23886571      14.48458087      -0.00770071       0.00303647      -0.00454468
N       11.19364184       0.00040950      14.48516770      -0.00291923       0.00300331      -0.00285778
N        8.95892313       0.00097444      16.67629341      -0.00597216       0.00058853      -0.00301385
N       11.19544921       2.23706858      16.67606991      -0.00586237       0.00254565      -0.00103975
N        8.95286435       6.71464827      10.00000000       0.01098684      -0.01114830       0.01258169
N       11.19108044       4.47643218      10.00000000      -0.01110922      -0.00838000       0.05324318
N        8.95286435       4.47643218      12.23821609      -0.02280748      -0.01195974      -0.26925184
N       11.19108044       6.71464827      12.23821609      -0.00509001      -0.00849621      -0.35975158
N        8.95950416       6.71502718      14.47946976      -0.01079992      -0.00155372       0.01494197
N       11.19401189       4.47537813      14.48624239      -0.00371936       0.00213479      -0.00354967
N        8.95945449       4.47239865      16.67604412      -0.00322468       0.00169436      -0.00132875
N       11.20142049       6.71559513      16.67298671      -0.01205976       0.00115288      -0.00152004
N        8.95286435      11.19108044      10.00000000      -0.00103538       0.00519569       0.03290292
N       11.19108044       8.95286435      10.00000000      -0.01150646       0.00164525       0.03506033
N        8.95286435       8.95286435      12.23821609       0.00373093       0.00831058      -0.31112019
N       11.19108044      11.19108044      12.23821609      -0.00176583       0.00656685      -0.33707137
N        8.95675684      11.19254744      14.48360166      -0.00847873      -0.00161080      -0.00187151
N       11.19452455       8.95507635      14.48475878      -0.00431148      -0.00198078      -0.00263050
N        8.96355956       8.96230909      16.67640663      -0.00649281      -0.00250863      -0.00400835
N       11.19625199      11.19456020      16.67537151      -0.00547722      -0.00057413       0.00165348
S        4.65027249       6.59417409      19.47241203      -0.02675953       0.01123238       0.01297790
Li       6.68215728       6.74396837      18.71427493      -0.02482632       0.00210445       0.03573911
Li       4.47157359       4.55351393      18.74172671      -0.01964194      -0.01082666      -0.02334202
