148
Lattice="13.429296207015998 0.0 0.0 0.0 13.429296207015998 0.0 0.0 0.0 26.714643787988994" Properties=species:S:1:pos:R:3:forces:R:3 energy=-113473.79097424194 free_energy=-113473.79097424194 pbc="T T T"
Sc       0.00000000       0.00000000      10.00000000      -0.00154086      -0.00156374       0.44523562
Sc       2.23821609       0.00000000      12.23821609      -0.00707490      -0.02120003      -0.19301451
Sc       0.00000000       2.23821609      12.23821609      -0.02049632      -0.00770200      -0.19249464
Sc       2.23821609       2.23821609      10.00000000       0.00661185       0.00667767       0.42594335
Sc       0.00109679       0.00084011      14.47218952      -0.00206151      -0.00100144       0.00662188
Sc       2.23667063      -0.00270021      16.65749398      -0.01193892      -0.00792851       0.00623544
Sc      -0.00210953       2.23589706      16.65744445      -0.01066828      -0.00814423       0.00640282
Sc       2.23657617       2.23634589      14.46607731       0.00011339       0.00070371       0.00590788
Sc       0.00000000       4.47643218      10.00000000       0.00251017       0.00436188       0.43819311
Sc       2.23821609       4.47643218      12.23821609       0.10115157       0.04778652      -0.14818090
Sc       0.00000000       6.71464827      12.23821609       0.07266477       0.02096272      -0.16465113
Sc       2.23821609       6.71464827      10.00000000       0.00480771      -0.00238907       0.45310037
Sc      -0.00497356       4.47924271      14.46619438      -0.00897109       0.00119453       0.00665941
Sc       2.20303818       4.47421443      16.62325590      -0.00232685       0.00027382      -0.00893818
Sc       0.00320240       6.72239403      16.65707421      -0.00560938      -0.00577444       0.00790923
Sc       2.25387982       6.71950977      14.48284903      -0.00079113      -0.00265132       0.01778149
Sc       0.00000000       8.95286435      10.00000000       0.00379212      -0.00299791       0.44265629
Sc       2.23821609       8.95286435      12.23821609       0.02598974      -0.01738786      -0.17033790
Sc       0.00000000      11.19108044      12.23821609       0.00831340       0.00346250      -0.17306610
Sc       2.23821609      11.19108044      10.00000000       0.00276085      -0.00403278       0.44257119
Sc       0.00462325       8.95477040      14.47232350      -0.00778119      -0.00407648       0.00638971
Sc       2.23333347       8.96495578      16.66430556      -0.01132982       0.00046151       0.00294520
Sc       0.00191364      11.19560092      16.65666456      -0.01274444      -0.00047925       0.01507258
Sc       2.24117428      11.19150126      14.47217209      -0.00638405      -0.00259939       0.00665170
Sc       4.47643218       0.00000000      10.00000000       0.00443207       0.00254359       0.43778508
Sc       6.71464827       0.00000000      12.23821609       0.02297872       0.06946864      -0.16414231
Sc       4.47643218       2.23821609      12.23821609       0.04644595       0.10142951      -0.14840099
Sc       6.71464827       2.23821609      10.00000000      -0.00241324       0.00484447       0.45252136
Sc       4.47939636      -0.00572479      14.46586762      -0.00027408      -0.00472209       0.00870678
Sc       6.72244006       0.00271966      16.65680499      -0.00493395      -0.00212322       0.00784032
Sc       4.47420957       2.20264896      16.62216623       0.00302285       0.00029336      -0.00345171
Sc       6.71915243       2.25370957      14.48223596      -0.00075745       0.00032550       0.02042253
Sc       4.47643218       4.47643218      10.00000000       0.00083587       0.00075745       0.48685741
Sc       6.71464827       4.47643218      12.23821609      -0.05266622       0.05629842      -0.08080926
Sc       4.47643218       6.71464827      12.23821609       0.05401014      -0.05024758      -0.08230847
Sc       6.71464827       6.71464827      10.00000000      -0.00062298      -0.00056693       0.48610048
Sc       4.49491120       4.49575796      14.50642086       0.00273565      -0.00155706       0.01912618
Sc       6.74939598       4.44917816      16.80390479       0.00529467      -0.00407674      -0.03072854
Sc       4.44785307       6.75075125      16.80613631       0.00116651      -0.00079730      -0.03900261
Sc       6.69773391       6.69858937      14.50456458       0.00575824       0.00143879       0.02744653
Sc       4.47643218       8.95286435      10.00000000       0.00247083      -0.00495992       0.45166029
Sc       6.71464827       8.95286435      12.23821609      -0.03963047      -0.09070003      -0.15241345
Sc       4.47643218      11.19108044      12.23821609      -0.00831675      -0.05628325      -0.16565515
Sc       6.71464827      11.19108044      10.00000000      -0.00459276      -0.00302773       0.43773391
Sc       4.47472894       8.94116750      14.48148914       0.00171210      -0.00352987       0.02196108
Sc       6.72211451       8.99350673      16.61832472      -0.00518874      -0.00032267       0.00675557
Sc       4.47627386      11.19474839      16.65651222      -0.00691961      -0.00523194       0.01046490
Sc       6.71614929      11.20101095      14.46540408      -0.00737624       0.00336635       0.00717801
Sc       8.95286435       0.00000000      10.00000000      -0.00321928       0.00381115       0.44295685
Sc      11.19108044       0.00000000      12.23821609       0.00367539       0.00735541      -0.17246343
Sc       8.95286435       2.23821609      12.23821609      -0.01584494       0.02410975      -0.16886260
Sc      11.19108044       2.23821609      10.00000000      -0.00406517       0.00287578       0.44262569
Sc       8.95504878       0.00413044      14.47260422      -0.00536564      -0.00495529       0.00506199
Sc      11.19572725       0.00147874      16.65750017      -0.00151901      -0.00942644       0.00942695
Sc       8.96461557       2.23373810      16.66340236       0.00015349      -0.01180111       0.00552684
Sc      11.19177305       2.24074585      14.47231030      -0.00416750      -0.00394793       0.00691113
Sc       8.95286435       4.47643218      10.00000000      -0.00510415       0.00238290       0.45117178
Sc      11.19108044       4.47643218      12.23821609      -0.05320204      -0.00976119      -0.16402533
Sc       8.95286435       6.71464827      12.23821609      -0.09140297      -0.03852207      -0.15148117
Sc      11.19108044       6.71464827      10.00000000      -0.00304907      -0.00457733       0.43727831
Sc       8.94116276       4.47505899      14.48096608      -0.00329127       0.00171981       0.02436686
Sc      11.19522268       4.47627601      16.65598536      -0.00840519      -0.00863222       0.01129383
Sc       8.99340012       6.72210897      16.61808041      -0.00136783      -0.00595416       0.00946706
Sc      11.20158929       6.71606924      14.46519623      -0.00090786      -0.00703300       0.00918527
Sc       8.95286435       8.95286435      10.00000000      -0.00726054      -0.00707105       0.42416440
Sc      11.19108044       8.95286435      12.23821609       0.03621013       0.02049066      -0.19416303
Sc       8.95286435      11.19108044      12.23821609       0.02112598       0.03571057      -0.19379510
Sc      11.19108044      11.19108044      10.00000000       0.00132258       0.00131486       0.44556909
Sc       8.95804726       8.95793043      14.46440678       0.00056487      -0.00037641       0.00858723
Sc      11.19887783       8.96014432      16.65678932       0.00948146       0.00558572       0.00485399
Sc       8.96069089      11.19822575      16.65700685       0.00339514       0.01226828       0.00369622
Sc      11.19404162      11.19375192      14.47245356      -0.00250297      -0.00046126       0.00407494
N        0.00000000       2.23821609      10.00000000       0.00402018      -0.00105621       0.03236068
N        2.23821609       0.00000000      10.00000000      -0.00085669       0.00390319       0.03264298
N        0.00000000       0.00000000      12.23821609       0.00497843       0.00493652      -0.35195805
N        2.23821609       2.23821609      12.23821609      -0.00017484       0.00011390      -0.30944101
N        0.00238983       2.23822807      14.48131230      -0.00406466       0.00303107       0.00694635
N        2.23894131       0.00196306      14.48129844      -0.00096828      -0.00269606       0.00636477
N        0.00200595       0.00178062      16.67092509      -0.00482288      -0.00348179       0.00542708
N        2.23562945       2.23571403      16.67725582      -0.00015144      -0.00068494       0.00064149
N        0.00000000       6.71464827      10.00000000      -0.00713764       0.00047180       0.02281803
N        2.23821609       4.47643218      10.00000000      -0.01608534      -0.00845713       0.02363204
N        0.00000000       4.47643218      12.23821609       0.00144856      -0.00161208      -0.35589518
N        2.23821609       6.71464827      12.23821609       0.00745594       0.00616808      -0.33186334
N        0.00203028       6.71873520      14.48070457      -0.00314215      -0.00810849       0.00182651
N        2.23640830       4.47790159      14.48428319       0.00518052       0.00384508      -0.01013477
N       -0.00301978       4.47810986      16.66574022      -0.00032782      -0.00688130       0.01103620
N        2.22951392       6.72466015      16.67379432       0.00817945       0.00088163      -0.00291897
N        0.00000000      11.19108044      10.00000000      -0.00092920       0.00178512       0.02354899
N        2.23821609       8.95286435      10.00000000      -0.00507613       0.00597010       0.02961705
N        0.00000000       8.95286435      12.23821609       0.00018332       0.00832523      -0.34445918
N        2.23821609      11.19108044      12.23821609       0.00095079       0.00777167      -0.34455559
N        0.00276505      11.19345011      14.48094793      -0.00590197      -0.00401503       0.01047056
N        2.24112622       8.95442030      14.48534551      -0.00185145      -0.00138480      -0.00119813
N        0.00108857       8.95954420      16.67061908      -0.00113771      -0.00108063       0.00637891
N        2.23853000      11.19627817      16.67116357      -0.00803418      -0.00450354       0.00216178
N        4.47643218       2.23821609      10.00000000      -0.00840879      -0.01627817       0.02326617
N        6.71464827       0.00000000      10.00000000       0.00034427      -0.00711399       0.02263368
N        4.47643218       0.00000000      12.23821609      -0.00119248      -0.00020672      -0.35582165
N        6.71464827       2.23821609      12.23821609       0.00559626       0.00699469      -0.33362866
N        4.47757667       2.23611836      14.48373590       0.00602229       0.00600481      -0.00830261
N        6.71891173       0.00129634      14.48053902      -0.00926857       0.00093588       0.00262664
N        4.47775102      -0.00335265      16.66613784      -0.00412045       0.00198129       0.00707850
N        6.72370330       2.22978765      16.67194011       0.00559806       0.00924569       0.00445135
N        4.47643218       6.71464827      10.00000000      -0.00438450       0.00530264       0.02519218
N        6.71464827       4.47643218      10.00000000       0.00526948      -0.00438810       0.02419897
N        4.47643218       4.47643218      12.23821609      -0.02308388      -0.02095783      -0.28746090
N        6.71464827       6.71464827      12.23821609       0.02494896       0.02731977      -0.29509631
N        4.48645717       6.70807438      14.50003395      -0.00317763      -0.00092380       0.00354375
N        6.70729580       4.48717825      14.49913488       0.00258833      -0.00577521       0.01010161
N        4.43432530       4.43483135      16.72572661       0.01004967       0.00734667       0.00538595
N        6.76259790       6.76407665      16.72235586      -0.00654731      -0.01189701      -0.00142259
N        4.47643218      11.19108044      10.00000000       0.00037795       0.00767526       0.02277586
N        6.71464827       8.95286435      10.00000000       0.00924389       0.01694974       0.02145406
N        4.47643218       8.95286435      12.23821609      -0.00136654       0.00005271      -0.33492141
N        6.71464827      11.19108044      12.23821609       0.01040937       0.00904771      -0.35861773
N        4.47744378      11.19423759      14.48033558      -0.00073251      -0.00436985       0.00205791
N        6.71663890       8.95823313      14.48173603      -0.00297837       0.00136423      -0.00613645
N        4.47198418       8.96785456      16.67174720      -0.00036664      -0.01074310       0.00108681
N        6.71932174      11.20023781      16.66428894       0.00367025      -0.00311489       0.01373895
N        8.95286435       2.23821609      10.00000000       0.00596033      -0.00510878       0.02905064
N       11.19108044       0.00000000      10.00000000       0.00192421      -0.00107086       0.02441982
N        8.95286435       0.00000000      12.23821609       0.00923309      -0.00082275      -0.34340965
N       11.19108044       2.23821609      12.23821609       0.00846793      -0.00027228      -0.34394598
N        8.95461253       2.24091188      14.48494430      -0.00292129      -0.00128272       0.00091377
N       11.19370368       0.00229492      14.48165910      -0.00491261      -0.00367565       0.00487275
N        8.95920110       0.00103032      16.67118280      -0.00000463      -0.00038567       0.00279350
N       11.19617817       2.23864987      16.67121048      -0.00419553      -0.00755210       0.00137143
N        8.95286435       6.71464827      10.00000000       0.01702764       0.00925443       0.02137281
N       11.19108044       4.47643218      10.00000000       0.00764646       0.00042655       0.02248173
N        8.95286435       4.47643218      12.23821609       0.00021752      -0.00090554      -0.33694230
N       11.19108044       6.71464827      12.23821609       0.01015303       0.01031115      -0.35830971
N        8.95818427       6.71684274      14.48149232       0.00201060      -0.00354632      -0.00362397
N       11.19486786       4.47742506      14.48015312      -0.00774288      -0.00123259       0.00305164
N        8.96751568       4.47279181      16.67000857      -0.01182553      -0.00318714       0.00808432
N       11.20049975       6.71988760      16.66461659      -0.00663036      -0.00038849       0.01063408
N        8.95286435      11.19108044      10.00000000       0.00169539      -0.00367796       0.03266947
N       11.19108044       8.95286435      10.00000000      -0.00356921       0.00158226       0.03275560
N        8.95286435       8.95286435      12.23821609       0.00762563       0.00796836      -0.31207150
N       11.19108044      11.19108044      12.23821609       0.00266855       0.00255439      -0.35163050
N        8.95735461      11.19269797      14.48128912      -0.00835531       0.00101559       0.00413845
N       11.19309666       8.95670435      14.48117211      -0.00045689      -0.00422895       0.00429888
N        8.95963239       8.96000293      16.67597972       0.00692167       0.00417084       0.00384226
N       11.19510950      11.19496003      16.67052215      -0.00120173      -0.00070705       0.00724280
S        6.37723356       4.84325410      19.58395409      -0.00172315      -0.00327970       0.03449315
S        4.84066839       6.37593277      19.58719158       0.00298788      -0.00399909       0.02198679
Li       6.84026861       6.84423898      18.67088369      -0.00643856      -0.00922615      -0.00162699
Li       4.37763275       4.37591833      18.67170805      -0.01620952      -0.01410944       0.00678540
