150
Lattice="12.641749285038259 0.0 0.0 0.0 12.641749285038259 0.0 0.0 0.0 26.320880516406753" Properties=species:S:1:pos:R:3:forces:R:3 energy=-138529.58086173073 free_energy=-138529.58086173073 pbc="T T T"
Ti       0.00000000       0.00000000      10.00000000      -0.00325862      -0.00359415       1.88261727
Ti       2.10695823       0.00000000      12.10695823       0.00745568       0.00579141       0.27274134
Ti       0.00000000       2.10695823      12.10695823       0.00294006      -0.00439453       0.26072606
Ti       2.10695823       2.10695823      10.00000000       0.01905959       0.01479233       1.89528098
Ti      -0.00054840      -0.00325447      14.20338157       0.00179797      -0.00093922      -0.00010876
Ti       2.10368751      -0.00401587      16.21883571       0.00400475      -0.00498640      -0.00504579
Ti      -0.00227925       2.09754725      16.21779626      -0.00968792       0.00891556      -0.00557184
Ti       2.10803073       2.10125523      14.20253462       0.00261610       0.00056256       0.01196566
Ti       0.00000000       4.21391647      10.00000000      -0.00129404       0.00313752       1.90995632
Ti       2.10695823       4.21391647      12.10695823       0.02087530       0.00096982       0.24880385
Ti       0.00000000       6.32087470      12.10695823      -0.02622011      -0.00474780       0.24784817
Ti       2.10695823       6.32087470      10.00000000       0.04125669       0.00674529       1.89223782
Ti      -0.00178281       4.21117151      14.19331441      -0.00399858       0.00247417       0.00513321
Ti       2.06448715       4.20614379      16.20565802       0.00078239       0.00378544       0.00365457
Ti      -0.00340257       6.32314228      16.21345698       0.00562737       0.00231528      -0.00078959
Ti       2.12631267       6.31973257      14.20840572      -0.00044532       0.00185531       0.01329440
Ti       0.00000000       8.42783294      10.00000000       0.01309566       0.00339077       1.88848581
Ti       2.10695823       8.42783294      12.10695823       0.02319546      -0.02735114       0.25979892
Ti       0.00000000      10.53479117      12.10695823       0.00302542      -0.00787375       0.27267320
Ti       2.10695823      10.53479117      10.00000000       0.00215561      -0.01716263       1.89008041
Ti       0.00013816       8.42750299      14.20236517       0.00346199       0.00390551       0.00395770
Ti       2.09795557       8.43110547      16.22675601       0.00203786       0.00167662      -0.00469561
Ti       0.00100030      10.53252681      16.22040475       0.00966478      -0.00395590      -0.00562840
Ti       2.10749158      10.53516589      14.20290682       0.00053967      -0.00065255       0.01117170
Ti       4.21391647       0.00000000      10.00000000       0.01040268       0.00371473       1.91035073
Ti       6.32087470       0.00000000      12.10695823      -0.00485733      -0.03556118       0.24279724
Ti       4.21391647       2.10695823      12.10695823       0.01176768       0.01750587       0.26445313
Ti       6.32087470       2.10695823      10.00000000      -0.00335220       0.03471838       1.86816767
Ti       4.21500887      -0.00299571      14.19786004       0.00181057       0.00309021       0.00638251
Ti       6.32554466      -0.00827878      16.21686991       0.00180003       0.00994811       0.00379186
Ti       4.21034521       2.07454518      16.21994494       0.00145653       0.00587446       0.00483059
Ti       6.32057953       2.12642087      14.21493869       0.00457862      -0.00416673       0.00889293
Ti       4.21391647       4.21391647      10.00000000       0.04077204       0.02964045       1.80710320
Ti       6.32087470       4.21391647      12.10695823      -0.03092317       0.02186723       0.20517686
Ti       4.21391647       6.32087470      12.10695823       0.03553085      -0.02898585       0.20574842
Ti       6.32087470       6.32087470      10.00000000      -0.04185499      -0.02923421       1.80645245
Ti       4.23227967       4.23478412      14.25594069      -0.00735747      -0.00084769       0.00096236
Ti       6.35828826       4.19099903      16.30872734       0.00377335      -0.00596162       0.02343483
Ti       4.18393057       6.33867274      16.31471839      -0.00361163       0.00278630       0.00631129
Ti       6.30477124       6.29619752      14.25567019       0.00325810       0.01170803       0.00960693
Ti       4.21391647       8.42783294      10.00000000       0.00304393      -0.03600650       1.86619512
Ti       6.32087470       8.42783294      12.10695823      -0.00975245      -0.02602933       0.26552554
Ti       4.21391647      10.53479117      12.10695823       0.00719138       0.02248661       0.24561800
Ti       6.32087470      10.53479117      10.00000000      -0.01012423      -0.00285547       1.91021138
Ti       4.21593766       8.40486545      14.21683934      -0.00317994      -0.00215073       0.00385563
Ti       6.32741406       8.45350964      16.22153684      -0.00349901      -0.00065357       0.00310718
Ti       4.21106916      10.53649309      16.21758040       0.00012367      -0.00363065       0.00354607
Ti       6.32082003      10.53334999      14.19791135      -0.00282127       0.00086800       0.00487790
Ti       8.42783294       0.00000000      10.00000000      -0.00252662       0.01756346       1.88869973
Ti      10.53479117       0.00000000      12.10695823       0.00081967      -0.00295625       0.27135140
Ti       8.42783294       2.10695823      12.10695823      -0.01630876       0.01570121       0.25352388
Ti      10.53479117       2.10695823      10.00000000      -0.01363585      -0.00389625       1.89002308
Ti       8.42852643      -0.00468462      14.20311628       0.00002957       0.00520057       0.00831418
Ti      10.53510809      -0.00400895      16.22048543      -0.00660362       0.00924672      -0.00714252
Ti       8.44022060       2.09708105      16.22595868      -0.00342342       0.00649101      -0.00448606
Ti      10.53666763       2.10227142      14.20150815      -0.00400372       0.00519183       0.01023556
Ti       8.42783294       4.21391647      10.00000000      -0.04113199      -0.00735361       1.89305852
Ti      10.53479117       4.21391647      12.10695823       0.03445767      -0.00545254       0.24479602
Ti       8.42783294       6.32087470      12.10695823      -0.01516668      -0.00836971       0.24238921
Ti      10.53479117       6.32087470      10.00000000       0.00160874      -0.00288452       1.91050346
Ti       8.41120399       4.21096291      14.20697838       0.00503628       0.00109040       0.00838951
Ti      10.54250742       4.20534462      16.21194568      -0.01516822       0.00220935       0.00625704
Ti       8.47499300       6.32344870      16.20371604      -0.00178563      -0.00417059       0.00059058
Ti      10.53986632       6.31994691      14.19259523       0.00185891      -0.00125727       0.00723637
Ti       8.42783294       8.42783294      10.00000000      -0.01893103      -0.01527801       1.89460555
Ti      10.53479117       8.42783294      12.10695823       0.00175401      -0.00656428       0.25893708
Ti       8.42783294      10.53479117      12.10695823      -0.00552376      -0.01709655       0.27132826
Ti      10.53479117      10.53479117      10.00000000       0.00371216       0.00358695       1.88301091
Ti       8.42810201       8.42991076      14.20250234      -0.00057516       0.00288426       0.00711656
Ti      10.53974576       8.43065984      16.21710008       0.00842705       0.00108783      -0.00149098
Ti       8.43323990      10.53288796      16.21825563      -0.00637608       0.00797351      -0.00005862
Ti      10.53628099      10.53404522      14.20283304       0.00140434       0.00255979       0.00506996
N        0.00000000       2.10695823      10.00000000      -0.00163265      -0.00071605      -1.23587684
N        2.10695823       0.00000000      10.00000000       0.00072454       0.00017638      -1.24184643
N        0.00000000       0.00000000      12.10695823      -0.00070268      -0.00557595      -0.93143251
N        2.10695823       2.10695823      12.10695823       0.01339905       0.00830929      -0.91715929
N        0.00027308       2.10425486      14.22807028       0.00157017       0.00240578      -0.01255238
N        2.10780453      -0.00304852      14.22890713       0.00363400       0.00181983      -0.01221917
N       -0.00055952      -0.00490182      16.38703874       0.00027511       0.00206691      -0.00491672
N        2.10070556       2.09982460      16.39027278       0.00299199       0.00180543       0.00403226
N        0.00000000       6.32087470      10.00000000       0.00231451       0.00108835      -1.24448361
N        2.10695823       4.21391647      10.00000000       0.02140161      -0.00617193      -1.22813293
N        0.00000000       4.21391647      12.10695823       0.00677280      -0.00614134      -0.96112721
N        2.10695823       6.32087470      12.10695823       0.01261897      -0.00484370      -0.90937373
N        0.00646512       6.31938651      14.22705931      -0.00137220       0.00184451      -0.00605983
N        2.11041915       4.21085106      14.22921338       0.00567340      -0.00081401       0.00129147
N       -0.00233695       4.20867557      16.38263287       0.00300716       0.00038875       0.00938093
N        2.08398354       6.31631265      16.35412286      -0.00236696       0.00122796      -0.01381068
N        0.00000000      10.53479117      10.00000000       0.00217592      -0.00077750      -1.23873102
N        2.10695823       8.42783294      10.00000000      -0.00254334       0.00801799      -1.25147649
N        0.00000000       8.42783294      12.10695823       0.00701525      -0.00015401      -0.94269395
N        2.10695823      10.53479117      12.10695823       0.00232711      -0.01202582      -0.93229255
N        0.00110899      10.53272467      14.23029497       0.00075385       0.00080167      -0.01276090
N        2.10727471       8.42765223      14.23373191       0.00203117       0.00041009      -0.01058626
N       -0.00118790       8.42720096      16.38509681       0.00542811       0.00517357       0.01023968
N        2.10533502      10.53458813      16.38376901      -0.00472543      -0.00207257       0.00823087
N        4.21391647       2.10695823      10.00000000      -0.00744103       0.01018825      -1.22841421
N        6.32087470       0.00000000      10.00000000       0.00197358       0.00208157      -1.24153918
N        4.21391647       0.00000000      12.10695823       0.00298942       0.00795242      -0.92907481
N        6.32087470       2.10695823      12.10695823      -0.00491569      -0.00248343      -0.86609307
N        4.21404413       2.11002360      14.23291288       0.00162802       0.00554150       0.00120328
N        6.32132779       0.00255087      14.22809741      -0.00063815       0.00503062       0.00020929
N        4.21342297      -0.00310025      16.38255503      -0.00228725       0.00289069       0.00798070
N        6.32483692       2.07621275      16.35170413      -0.00184939       0.00500979      -0.00818536
N        4.21391647       6.32087470      10.00000000       0.00792774      -0.00439093      -1.25338142
N        6.32087470       4.21391647      10.00000000      -0.00838360       0.00596959      -1.25631428
N        4.21391647       4.21391647      12.10695823      -0.00038541      -0.00823370      -0.68746773
N        6.32087470       6.32087470      12.10695823       0.00284004       0.00416622      -0.68515168
N        4.21469387       6.32070649      14.23220025       0.00204146       0.00033424      -0.01172809
N        6.32240510       4.21066018      14.22956239      -0.00116420      -0.00059058      -0.01073744
N        4.18805311       4.20024353      16.42060146      -0.00595210       0.00174167       0.00112666
N        6.35410505       6.32792881      16.42464843      -0.00144727      -0.00249268      -0.01075750
N        4.21391647      10.53479117      10.00000000      -0.00169127      -0.00108321      -1.24030814
N        6.32087470       8.42783294      10.00000000       0.00698055      -0.01080660      -1.22561042
N        4.21391647       8.42783294      12.10695823       0.00773876      -0.00566363      -0.85317070
N        6.32087470      10.53479117      12.10695823      -0.00168227      -0.01567704      -0.92751595
N        4.21464210      10.52794704      14.22862802      -0.00050522       0.00052296      -0.00248549
N        6.32221171       8.42079362      14.23393294      -0.00130638      -0.00377824      -0.00041909
N        4.21295729       8.45244613      16.35665094       0.00216410      -0.00877518      -0.00191727
N        6.32330303      10.53176304      16.38251770       0.00537155       0.00023243       0.00722223
N        8.42783294       2.10695823      10.00000000       0.00256596      -0.00811466      -1.25405428
N       10.53479117       0.00000000      10.00000000      -0.00263949       0.00128144      -1.23891974
N        8.42783294       0.00000000      12.10695823      -0.00081298       0.00466630      -0.93395631
N       10.53479117       2.10695823      12.10695823      -0.00318714      -0.00696460      -0.94671592
N        8.42935538       2.10282390      14.23277417      -0.00139457       0.00362603      -0.00572250
N       10.53478555      -0.00240207      14.23006345       0.00023217       0.00411788      -0.01071919
N        8.43094393      -0.00629086      16.38406904       0.00702811       0.00935779       0.00500594
N       10.53863977       2.10094593      16.38510643      -0.00461924       0.00186534       0.00725077
N        8.42783294       6.32087470      10.00000000      -0.02156718       0.00698389      -1.22910764
N       10.53479117       4.21391647      10.00000000      -0.00231528      -0.00063609      -1.24531356
N        8.42783294       4.21391647      12.10695823      -0.00706565      -0.00160745      -0.92133039
N       10.53479117       6.32087470      12.10695823      -0.00190442      -0.00064843      -0.96460514
N        8.42671396       6.32008739      14.22830481      -0.00116831       0.00507381       0.00132309
N       10.53160804       4.21094370      14.22586399      -0.00581764       0.00420607       0.00117551
N        8.45641324       4.21268985      16.34933402       0.00047643       0.00374841      -0.00850058
N       10.54129194       6.31951200      16.38231009      -0.00387465       0.00625035       0.00973548
N        8.42783294      10.53479117      10.00000000      -0.00118836       0.00096031      -1.24254422
N       10.53479117       8.42783294      10.00000000       0.00172033       0.00156760      -1.23623834
N        8.42783294       8.42783294      12.10695823      -0.01205539      -0.01523250      -0.91751410
N       10.53479117      10.53479117      12.10695823       0.00310178      -0.00147607      -0.93374959
N        8.42791092      10.53380198      14.22800802      -0.00270711       0.00105184      -0.00457194
N       10.53621297       8.42664257      14.22732332      -0.00073945      -0.00081915      -0.00676329
N        8.43720161       8.42904176      16.39012748      -0.00106855       0.00072274       0.00635680
N       10.53695838      10.53307151      16.38746846       0.00337792       0.00340723      -0.01040885
S        4.20416252       7.01230930      18.85360252      -0.01581048       0.00199209      -0.00209931
S        6.36831713       3.48015004      18.83171718      -0.01722228      -0.00407186       0.00168227
S        6.28089050       4.87285479      20.42122382       0.00400449       0.02729535       0.00155552
S        4.28732860       5.59510808      20.42376005       0.00057156       0.00920275       0.00968869
Li       4.21036535       4.32603325      18.38679910      -0.01922002      -0.01576806       0.00491903
Li       6.36989129       6.19761610      18.40070148      -0.01028930      -0.00426058      -0.00721709
