152
Lattice="12.641749285038259 0.0 0.0 0.0 12.641749285038259 0.0 0.0 0.0 26.320880516406753" Properties=species:S:1:pos:R:3:forces:R:3 energy=-139189.31874160763 free_energy=-139189.31874160763 pbc="T T T"
Ti       0.00000000       0.00000000      10.00000000      -0.01422540      -0.00255131       1.86853971
Ti       2.10695823       0.00000000      12.10695823       0.00931331      -0.00730476       0.34687961
Ti       0.00000000       2.10695823      12.10695823       0.01141904      -0.01807948       0.32390732
Ti       2.10695823       2.10695823      10.00000000       0.00897932       0.01599072       1.87346800
Ti       0.00220946      -0.00594914      14.20747957      -0.00601972      -0.00049699      -0.00907265
Ti       2.11041890      -0.00570138      16.22482585      -0.00207359      -0.00637042       0.00294803
Ti      -0.00654557       2.09994647      16.22336930      -0.00102973      -0.00007585       0.00606652
Ti       2.10909391       2.10281731      14.20573319       0.00323625       0.00379161      -0.00160231
Ti       0.00000000       4.21391647      10.00000000      -0.02254780       0.00940381       1.88619650
Ti       2.10695823       4.21391647      12.10695823       0.03796722      -0.02273472       0.32300949
Ti       0.00000000       6.32087470      12.10695823      -0.02988573       0.01405108       0.26247775
Ti       2.10695823       6.32087470      10.00000000       0.03188168       0.01787714       1.91829287
Ti       0.00072219       4.21038868      14.20082910      -0.00137297       0.00249397      -0.00309098
Ti       2.08948160       4.20234054      16.21748948      -0.00088060      -0.00168176       0.00975091
Ti      -0.01390944       6.32074786      16.21145045      -0.00453080      -0.00044249       0.00131820
Ti       2.12202582       6.32192351      14.19293528       0.00290020       0.00582535       0.00419810
Ti       0.00000000       8.42783294      10.00000000       0.02119669      -0.00081761       1.89755024
Ti       2.10695823       8.42783294      12.10695823      -0.00644576      -0.00592536       0.26172750
Ti       0.00000000      10.53479117      12.10695823       0.02579768      -0.00892790       0.33490958
Ti       2.10695823      10.53479117      10.00000000       0.00923103      -0.02904550       1.90165140
Ti       0.00463035       8.43073249      14.20601007      -0.00333086      -0.00251685      -0.00118091
Ti       2.10960151       8.41892616      16.26264713      -0.01236829       0.01140130      -0.01166921
Ti       0.01452579      10.52812310      16.22550302       0.00364480      -0.00067543      -0.00365354
Ti       2.11482304      10.52520731      14.21183793       0.00475834      -0.00264592      -0.00241889
Ti       4.21391647       0.00000000      10.00000000       0.01431950      -0.02695930       1.88772374
Ti       6.32087470       0.00000000      12.10695823       0.02158081      -0.04710364       0.34331992
Ti       4.21391647       2.10695823      12.10695823       0.01177180       0.00720346       0.34379300
Ti       6.32087470       2.10695823      10.00000000       0.01642626       0.02623142       1.91082099
Ti       4.21603164      -0.00839676      14.20615972       0.00235333      -0.00323779      -0.00381372
Ti       6.33606991      -0.01087259      16.22373167      -0.00443644       0.00743075      -0.00060112
Ti       4.21947682       2.08693030      16.22724420      -0.00279093       0.00098319       0.00924723
Ti       6.32068823       2.12745224      14.20453907      -0.00109940       0.00219598       0.00487764
Ti       4.21391647       4.21391647      10.00000000       0.04464721       0.04538640       1.85002057
Ti       6.32087470       4.21391647      12.10695823      -0.01636867       0.03658037       0.23359886
Ti       4.21391647       6.32087470      12.10695823       0.03822973      -0.01117530       0.27839237
Ti       6.32087470       6.32087470      10.00000000       0.00096596      -0.00504142       1.87263008
Ti       4.23877052       4.22885237      14.24401678       0.00461616       0.00577521      -0.01523661
Ti       6.35378179       4.19087145      16.35202536      -0.00961798      -0.00027511       0.00030159
Ti       4.18296379       6.35286459      16.29989630       0.01248913      -0.00410297      -0.02178856
Ti       6.32962302       6.32740536      14.26283317       0.00330875       0.00850392      -0.00791128
Ti       4.21391647       8.42783294      10.00000000       0.02597354      -0.01917220       1.91754674
Ti       6.32087470       8.42783294      12.10695823       0.07023354       0.02057654       0.25555557
Ti       4.21391647      10.53479117      12.10695823       0.02504203       0.01138562       0.33151136
Ti       6.32087470      10.53479117      10.00000000       0.06787764      -0.02297486       1.95752148
Ti       4.23132275       8.42031406      14.20487236       0.00934982      -0.00009924      -0.00773619
Ti       6.32400771       8.47376170      16.36315045      -0.00510158      -0.00889447      -0.02631344
Ti       4.21108102      10.52838652      16.25701622      -0.00716155       0.00046151      -0.00432717
Ti       6.36715816      10.51595127      14.21649460      -0.00650412      -0.01160467      -0.01673531
Ti       8.42783294       0.00000000      10.00000000      -0.00055330      -0.05184604       1.97434472
Ti      10.53479117       0.00000000      12.10695823      -0.01846746      -0.04873243       0.37286447
Ti       8.42783294       2.10695823      12.10695823      -0.01939383       0.00784546       0.23169188
Ti      10.53479117       2.10695823      10.00000000      -0.01489774       0.00346173       1.86923545
Ti       8.43029917      -0.04690706      14.19540668       0.00073379       0.00536769      -0.00239653
Ti      10.52919284      -0.00574607      16.23888563      -0.00155835       0.00652726       0.00436213
Ti       8.43040352       2.10703996      16.21999370       0.00020697      -0.00847924      -0.00604338
Ti      10.53311248       2.10682345      14.20717745      -0.00371164      -0.00139868      -0.00564177
Ti       8.42783294       4.21391647      10.00000000      -0.02720896       0.02219633       1.98142708
Ti      10.53479117       4.21391647      12.10695823       0.01652242       0.02440388       0.29443836
Ti       8.42783294       6.32087470      12.10695823      -0.04224914       0.01497590       0.21140999
Ti      10.53479117       6.32087470      10.00000000      -0.02081976      -0.00713764       1.90768604
Ti       8.40727768       4.23533301      14.18838446      -0.01099095       0.00501211       0.00054147
Ti      10.53586931       4.20930013      16.22945776       0.00922075      -0.00918681       0.00299096
Ti       8.46101219       6.29496831      16.38030222       0.00141282      -0.00246646      -0.00123696
Ti      10.50362202       6.32420403      14.20772963      -0.01031064      -0.00127681      -0.00386463
Ti       8.42783294       8.42783294      10.00000000      -0.04524087       0.03249772       1.98215804
Ti      10.53479117       8.42783294      12.10695823      -0.04669046       0.02326386       0.40196884
Ti       8.42783294      10.53479117      12.10695823      -0.01266911      -0.04386611      -0.41679768
Ti      10.53479117      10.53479117      10.00000000      -0.07633708       0.00379469       1.94319503
Ti       8.41283007       8.45181123      14.22883972      -0.01292262      -0.02038911       0.00156400
Ti      10.52905068       8.43838171      16.23655008       0.00393713      -0.00717338      -0.00191239
Ti       8.46029505      10.56730896      16.75860972       0.01129331       0.00469458      -0.02815024
Ti      10.49266611      10.53205437      14.20458156       0.00052039       0.00022806      -0.01118713
N        0.00000000       2.10695823      10.00000000      -0.01227239       0.00090837      -1.20215322
N        2.10695823       0.00000000      10.00000000       0.00762975      -0.00565000      -1.18471394
N        0.00000000       0.00000000      12.10695823      -0.00370984      -0.00576596      -0.95148712
N        2.10695823       2.10695823      12.10695823       0.01332654      -0.00371242      -0.93252600
N       -0.00105088       2.10305658      14.23342392      -0.00185325      -0.00029336       0.00895001
N        2.11064841      -0.00644321      14.23373084      -0.00364814       0.00170747       0.00915518
N        0.00101271      -0.00769735      16.38293618      -0.00237133      -0.00032524      -0.01113570
N        2.10519006       2.09699903      16.38439923      -0.00279222      -0.00138223      -0.00430917
N        0.00000000       6.32087470      10.00000000      -0.01216260       0.00340363      -1.22126012
N        2.10695823       4.21391647      10.00000000       0.00637171      -0.01348235      -1.20522698
N        0.00000000       4.21391647      12.10695823       0.00253459      -0.00286755      -0.97633940
N        2.10695823       6.32087470      12.10695823      -0.00286138      -0.00937399      -1.04277568
N       -0.00708495       6.32094637      14.22896710       0.00052862      -0.00108475       0.00322545
N        2.11386958       4.21142333      14.23217816      -0.00188873       0.00310409       0.01665946
N        0.00186789       4.20935985      16.37913364      -0.00114851       0.00035404      -0.00191162
N        2.06278590       6.29530166      16.26982816       0.00190853       0.00604621       0.01274882
N        0.00000000      10.53479117      10.00000000       0.02927304      -0.00693992      -1.21176349
N        2.10695823       8.42783294      10.00000000      -0.01163578       0.01624217      -1.24192844
N        0.00000000       8.42783294      12.10695823      -0.01409350      -0.00231039      -0.95795447
N        2.10695823      10.53479117      12.10695823       0.00797068       0.00078162      -0.94109883
N       -0.00571471      10.53176809      14.23894568       0.00266649      -0.00058595       0.00080270
N        2.11076600       8.42665387      14.24147517      -0.00451254      -0.00068777       0.02231332
N       -0.00251518       8.42469894      16.38231801       0.00140639       0.00079421      -0.00755930
N        2.11274333      10.53007709      16.39454808       0.00401426      -0.00430120      -0.01255393
N        4.21391647       2.10695823      10.00000000       0.00274285       0.01293188      -1.18367779
N        6.32087470       0.00000000      10.00000000      -0.01188312       0.00289223      -1.21699774
N        4.21391647       0.00000000      12.10695823       0.01200448       0.00329153      -0.94006114
N        6.32087470       2.10695823      12.10695823      -0.01759920       0.00674683      -0.97159032
N        4.21761764       2.10837322      14.24162619       0.00369982      -0.00244923       0.01193789
N        6.32279244      -0.00054886      14.23572320       0.00048774      -0.00038515       0.00024760
N        4.22017579      -0.00023737      16.38525751      -0.00104618      -0.00567957      -0.00391476
N        6.32437539       2.08250860      16.34147404       0.00178512       0.00007688       0.00327456
N        4.21391647       6.32087470      10.00000000       0.02430927      -0.01069939      -1.26898931
N        6.32087470       4.21391647      10.00000000      -0.02491553       0.01152831      -1.26751863
N        4.21391647       4.21391647      12.10695823       0.01166844      -0.00096236      -0.74220061
N        6.32087470       6.32087470      12.10695823       0.00608786       0.01133471      -0.75036823
N        4.22390473       6.32331861      14.23277534      -0.00115597       0.00366922       0.00874098
N        6.32238179       4.22321256      14.24243284       0.00033347      -0.00063378       0.02193460
N        4.20955149       4.20722962      16.47267901       0.00198412       0.00369313      -0.00345479
N        6.31618312       6.34601450      16.42013387       0.00083201       0.00670261      -0.00006788
N        4.21391647      10.53479117      10.00000000      -0.02965408       0.00504450      -1.23554337
N        6.32087470       8.42783294      10.00000000      -0.00079524      -0.01454884      -1.24911751
N        4.21391647       8.42783294      12.10695823       0.02852305      -0.00790717      -1.02866649
N        6.32087470      10.53479117      12.10695823       0.04324647      -0.01947893      -0.90140126
N        4.22706631      10.53250480      14.24889015       0.00455522      -0.00011210       0.01387033
N        6.32314205       8.42400611      14.25103196      -0.00067029       0.00406877       0.02642168
N        4.20102303       8.44616931      16.25730076       0.00603515       0.00083021      -0.00461822
N        6.33544150      10.56505705      16.30839797       0.01345253      -0.00325990       0.00869161
N        8.42783294       2.10695823      10.00000000       0.00781898       0.00340568      -1.26008840
N       10.53479117       0.00000000      10.00000000       0.00630743       0.01513866      -1.21480253
N        8.42783294       0.00000000      12.10695823       0.00119248      -0.04670409      -0.97846776
N       10.53479117       2.10695823      12.10695823       0.00372604      -0.00705382      -0.98245888
N        8.42882407       2.09910534      14.23298671      -0.00540163       0.00180954      -0.00042886
N       10.53607113      -0.00129372      14.24039459      -0.00168356      -0.00520417       0.00576673
N        8.43005915       0.02662165      16.29479316      -0.00345428      -0.01503787       0.00926908
N       10.53216016       2.10365295      16.38682454      -0.00474523      -0.00244383      -0.00820825
N        8.42783294       6.32087470      10.00000000      -0.00526665       0.00371396      -1.29173251
N       10.53479117       4.21391647      10.00000000       0.01665612      -0.00679491      -1.22506895
N        8.42783294       4.21391647      12.10695823      -0.01511552       0.02861715      -1.07313321
N       10.53479117       6.32087470      12.10695823      -0.01764548       0.01732049      -0.95236618
N        8.42298890       6.33315556      14.25723390      -0.00076130      -0.00493266       0.01213304
N       10.53155733       4.21435545      14.23290224      -0.00049957       0.00076593       0.01142341
N        8.45254007       4.18361928      16.22152181      -0.00250065      -0.00261944       0.01907964
N       10.55058275       6.32512418      16.35821201       0.00050856      -0.00450740      -0.00100607
N        8.42783294      10.53479117      10.00000000      -0.00018743       0.00122025      -1.41380592
N       10.53479117       8.42783294      10.00000000       0.00309458      -0.01225234      -1.19682384
N        8.42783294       8.42783294      12.10695823      -0.01207467       0.01512914      -0.79366612
N       10.53479117      10.53479117      12.10695823      -0.03586458      -0.00967943      -0.94322668
N        8.43039954      10.52891213      14.23057652       0.00052219      -0.00357460      -0.00737367
N       10.53152543       8.42716017      14.24546298      -0.00592768       0.00127681       0.00024863
N        8.43978806       8.42800496      16.35553619      -0.00781744       0.00741120       0.00292206
N       10.56395732      10.53158446      16.30960113      -0.01432850      -0.00271097       0.00149227
S        6.94243655       4.13474844      18.78698547      -0.01718063       0.01985509       0.01340882
S        3.24567999       6.74731447      18.63416976       0.02237580       0.02080331       0.03179195
S        4.80094142       7.49914608      19.85349825       0.00148738       0.02588227      -0.02342532
S        5.87749382       8.98533516      18.82402083      -0.02291521       0.01506589      -0.00158431
S        8.62380341      10.81267466      18.87036892      -0.00551553      -0.01493477       0.00340748
S        8.51911131       5.55687486      18.81187108      -0.00464984       0.00916290      -0.00404537
Li       4.55226193       4.73461301      18.57673351       0.00539186       0.01305092      -0.02346852
Li       6.58739424       6.71155180      18.58171067      -0.02379787       0.02261568       0.00490129
