154
Lattice="12.641749285038259 0.0 0.0 0.0 12.641749285038259 0.0 0.0 0.0 26.320880516406753" Properties=species:S:1:pos:R:3:forces:R:3 energy=-139847.93121456724 free_energy=-139847.93121456724 pbc="T T T"
Ti       0.00000000       0.00000000       9.99999995       0.02098123      -0.00455111       1.89137111
Ti       2.10695822       0.00000000      12.10695816      -0.02212846       0.00457605       0.32562610
Ti       0.00000000       2.10695822      12.10695816       0.00848027      -0.00394536       0.35502898
Ti       2.10695822       2.10695822       9.99999995       0.01986229      -0.00770148       1.90753846
Ti      -0.00362144       0.00309225      14.20583376      -0.00055664      -0.00137631      -0.00518412
Ti       2.09914599       0.01062506      16.22718191       0.00276522       0.01082949      -0.00940407
Ti       0.00260486       2.11064383      16.22017480      -0.00144290       0.00431174      -0.00420530
Ti       2.10766483       2.10736678      14.20579719      -0.00514529       0.00318560      -0.00612951
Ti       0.00000000       4.21391645       9.99999995      -0.02177622       0.00915210       1.90313287
Ti       2.10695822       4.21391645      12.10695816       0.03461450       0.03017472       0.41470506
Ti       0.00000000       6.32087467      12.10695816      -0.00805115       0.01748633       0.30983053
Ti       2.10695822       6.32087467       9.99999995       0.04561754       0.00696846       1.97607430
Ti      -0.00392003       4.21363700      14.20470620       0.00736518      -0.00181314       0.00949354
Ti       2.10445753       4.21704058      16.22309710       0.00759195      -0.00003677       0.00733459
Ti      -0.00989956       6.31858118      16.21703436       0.00230551      -0.00276034       0.00574153
Ti       2.15333503       6.32339499      14.20088726      -0.00814217      -0.00322802       0.00203966
Ti       0.00000000       8.42783289       9.99999995      -0.07357674      -0.01460155       1.94154027
Ti       2.10695822       8.42783289      12.10695816       0.06689599      -0.02729097       0.44331681
Ti       0.00000000      10.53479111      12.10695816      -0.02058477      -0.00511650       0.33139051
Ti       2.10695822      10.53479111       9.99999995       0.04578003       0.00977508       1.90645782
Ti      -0.02361439       8.42554003      14.20231219      -0.00436548       0.00359646       0.00197949
Ti       2.09873105       8.41623237      16.21736657      -0.01640390      -0.00608194       0.00648072
Ti      -0.00600437      10.52956907      16.22095577      -0.00259656       0.01508620       0.00015915
Ti       2.12887964      10.53506813      14.20622505      -0.00389291      -0.00335812       0.00252559
Ti       4.21391645       0.00000000       9.99999995       0.01474502      -0.02660140       1.94782070
Ti       6.32087467       0.00000000      12.10695816       0.02656207       0.02196519       0.24268617
Ti       4.21391645       2.10695822      12.10695816       0.00854198       0.02902467       0.32236389
Ti       6.32087467       2.10695822       9.99999995       0.05038719       0.01391944       2.00579702
Ti       4.22062079      -0.01164157      14.20190648      -0.00193424      -0.01417398      -0.00323676
Ti       6.32936874      -0.02857319      16.27336411       0.00130612      -0.01561071       0.00155629
Ti       4.21223481       2.09876635      16.22127895      -0.00137066       0.00189645      -0.00062581
Ti       6.34727046       2.12231125      14.20710702       0.00162879      -0.00403432      -0.00008073
Ti       4.21391645       4.21391645       9.99999995       0.05740322       0.04258621       1.99021022
Ti       6.32087467       4.21391645      12.10695816      -0.02375854       0.03928234       0.18030812
Ti       4.21391645       6.32087467      12.10695816       0.04954619       0.01443057      -0.14025959
Ti       6.32087467       6.32087467       9.99999995      -0.00395204      -0.01387162       2.02368445
Ti       4.23866928       4.25752680      14.21194224       0.00083844       0.01102026      -0.00574719
Ti       6.31463601       4.19246307      16.39940341      -0.00355892       0.00227774       0.00852526
Ti       4.20200579       6.30886877      16.64734316       0.00436676      -0.00904360       0.00375690
Ti       6.30401464       6.31856799      14.24337198      -0.00615599       0.00405720       0.00521008
Ti       4.21391645       8.42783289       9.99999995       0.03831432      -0.03054368       1.96641749
Ti       6.32087467       8.42783289      12.10695816      -0.03325619      -0.06229063       0.28597301
Ti       4.21391645      10.53479111      12.10695816      -0.02811604      -0.01958718       0.19752269
Ti       6.32087467      10.53479111       9.99999995      -0.01790336      -0.00827175       1.96492985
Ti       4.23365074       8.40970712      14.23702855      -0.00194298       0.00522422       0.00014630
Ti       6.34640687       8.48430595      16.33344442      -0.00565848       0.00482416      -0.00095825
Ti       4.16334003      10.58200260      16.34019009       0.00682885       0.00826121       0.00742175
Ti       6.30201918      10.52104685      14.19654078      -0.00850778      -0.00241658       0.02061253
Ti       8.42783289       0.00000000       9.99999995      -0.04181616       0.03516524       1.96766422
Ti      10.53479111       0.00000000      12.10695816      -0.00381577       0.00837665       0.39339292
Ti       8.42783289       2.10695822      12.10695816      -0.03562212       0.00357795       0.01463189
Ti      10.53479111       2.10695822       9.99999995      -0.06221941       0.03483793       1.95384068
Ti       8.42328187       0.01812838      14.21168322       0.00483162      -0.01483707       0.01071430
Ti      10.52405049      -0.00075939      16.22735102       0.00182857      -0.00147530      -0.00155732
Ti       8.41612147       2.11146731      16.44795360       0.00093048      -0.01630619      -0.01118456
Ti      10.50422847       2.10018995      14.20758168      -0.00203349       0.00659077       0.00791463
Ti       8.42783289       4.21391645       9.99999995      -0.03722417       0.00343191       2.01264670
Ti      10.53479111       4.21391645      12.10695816      -0.02272212      -0.03859920       0.35201616
Ti       8.42783289       6.32087467      12.10695816      -0.04402963       0.01440589       0.08811530
Ti      10.53479111       6.32087467       9.99999995      -0.04357814       0.04776904       2.02076547
Ti       8.40126793       4.21358897      14.21019490       0.00377412      -0.01246059       0.01831602
Ti      10.53490692       4.20164102      16.23083185      -0.00285624      -0.00769917       0.00565900
Ti       8.46542870       6.31046722      16.38878722      -0.00944778      -0.00750274      -0.00273000
Ti      10.51068720       6.34275516      14.19407139       0.00871784       0.00060190      -0.01260715
Ti       8.42783289       8.42783289       9.99999995       0.02334767      -0.03808241       2.03290905
Ti      10.53479111       8.42783289      12.10695816      -0.01692814      -0.00823319      -0.03984001
Ti       8.42783289      10.53479111      12.10695816       0.02764759      -0.03408434       0.34126381
Ti      10.53479111      10.53479111       9.99999995      -0.01926245      -0.06990495       1.96337691
Ti       8.43661712       8.40168641      14.20324296       0.01085288       0.01033506       0.00544097
Ti      10.53118634       8.41415766      16.43580188      -0.00192910      -0.00057541      -0.00008536
Ti       8.43494679      10.51807650      16.24919280       0.01233615      -0.00527925       0.01538214
Ti      10.52832371      10.50654767      14.20547941       0.00515815       0.00209236       0.00692989
N        0.00000000       2.10695822       9.99999995       0.01659004       0.00656300      -1.22222942
N        2.10695822       0.00000000       9.99999995       0.00116934       0.00464213      -1.21259884
N        0.00000000       0.00000000      12.10695816      -0.01152780      -0.01032246      -0.95352652
N        2.10695822       2.10695822      12.10695816       0.00057490       0.00660902      -0.97762881
N       -0.00780436       2.10894507      14.23188481      -0.00788146      -0.00641927       0.00890862
N        2.10639977       0.00173747      14.23338443       0.00249397       0.00700523      -0.00518026
N       -0.00522059      -0.00199082      16.37706932      -0.00367359       0.01342116      -0.00357049
N        2.10565205       2.11035479      16.38188916       0.00606112       0.00372990      -0.00618350
N        0.00000000       6.32087467       9.99999995       0.00214764      -0.01166047      -1.25742525
N        2.10695822       4.21391645       9.99999995      -0.02182455       0.00292772      -1.20633255
N        0.00000000       4.21391645      12.10695816      -0.00689338       0.00071939      -1.00679618
N        2.10695822       6.32087467      12.10695816       0.05573817       0.00443361      -0.96168051
N        0.00526372       6.31827135      14.23388056      -0.00591508       0.00589245       0.00310795
N        2.11223681       4.21569432      14.23444163       0.00879292      -0.00063403       0.00133954
N       -0.00179491       4.21443466      16.37879036      -0.00396618      -0.00035944       0.01371735
N        2.08986935       6.32053827      16.31678660      -0.00259141       0.00166942       0.00857232
N        0.00000000      10.53479111       9.99999995      -0.00348410      -0.00588037      -1.21523319
N        2.10695822       8.42783289       9.99999995       0.02238377       0.00782515      -1.20171459
N        0.00000000       8.42783289      12.10695816      -0.00513784       0.01307740      -0.96474681
N        2.10695822      10.53479111      12.10695816      -0.02250769      -0.01188261      -0.97258842
N        0.00074476      10.53276646      14.23625255      -0.00102896       0.00123464      -0.01116887
N        2.10718994       8.42834352      14.23616532      -0.00322134      -0.00611023      -0.00527256
N        0.01604745       8.42662236      16.35197344       0.00685456      -0.00413588       0.00514452
N        2.07547514      10.53420359      16.34116339      -0.00276471       0.00202911       0.00160874
N        4.21391645       2.10695822       9.99999995      -0.02590901      -0.01678828      -1.25783920
N        6.32087467       0.00000000       9.99999995       0.01321727      -0.01099095      -1.23910177
N        4.21391645       0.00000000      12.10695816       0.01139873       0.01070659      -1.01521731
N        6.32087467       2.10695822      12.10695816       0.02035311       0.01728064      -0.94063449
N        4.21948692       2.11541837      14.24054529       0.00924672      -0.00259321      -0.00287578
N        6.32163149       0.00039170      14.24622586      -0.00015812      -0.00687410      -0.00811672
N        4.21324586       0.02751139      16.32103945      -0.01623189      -0.00203451      -0.00115571
N        6.30480092       2.07914043      16.27500614      -0.01076649      -0.00311309       0.01742951
N        4.21391645       6.32087467       9.99999995       0.00123927       0.00079781      -1.35840456
N        6.32087467       4.21391645       9.99999995       0.00200032       0.01065825      -1.31146830
N        4.21391645       4.21391645      12.10695816       0.03137749       0.05418009      -0.88544113
N        6.32087467       6.32087467      12.10695816      -0.02339910      -0.00107138      -0.71376729
N        4.22395097       6.32833624      14.26174209       0.00138197      -0.00051319      -0.00454751
N        6.32097816       4.21735209      14.25114746       0.00210959       0.00242044      -0.00259656
N        4.20137186       4.20422853      16.31743664       0.00403432      -0.00296011      -0.00251968
N        6.32622772       6.33008974      16.39941703      -0.00323111      -0.00543120       0.00185582
N        4.21391645      10.53479111       9.99999995       0.00659231       0.00694069      -1.33259685
N        6.32087467       8.42783289       9.99999995      -0.03236890       0.00769968      -1.26307603
N        4.21391645       8.42783289      12.10695816       0.01643578      -0.03360123      -0.80446244
N        6.32087467      10.53479111      12.10695816       0.00482468      -0.00079807      -1.09361359
N        4.21404852      10.52730121      14.23538945      -0.01081432      -0.00392479      -0.01138819
N        6.32820006       8.42308772      14.24881932      -0.00091891       0.00146399       0.00835480
N        4.21235268       8.43608860      16.38707153      -0.00406389      -0.00142259       0.00116008
N        6.31547531      10.55089758      16.22625927      -0.01279381       0.01287994       0.00710550
N        8.42783289       2.10695822       9.99999995      -0.00133003      -0.01293702      -1.35255864
N       10.53479111       0.00000000       9.99999995      -0.01091588       0.01082486      -1.20242447
N        8.42783289       0.00000000      12.10695816      -0.00396053       0.00747240      -0.91633268
N       10.53479111       2.10695822      12.10695816      -0.02903418      -0.00353810      -0.93023438
N        8.42547074       2.10915944      14.25078456      -0.00247983      -0.00075230       0.00320257
N       10.52963141      -0.00939817      14.23896939      -0.00034607      -0.00109555       0.00660002
N        8.42920050      -0.02054441      16.37056224       0.00127604       0.00035198       0.00628223
N       10.54359176       2.10039818      16.36324576       0.00432562      -0.00332469       0.00134237
N        8.42783289       6.32087467       9.99999995       0.00017329       0.00613877      -1.36346372
N       10.53479111       4.21391645       9.99999995       0.02786202      -0.02422622      -1.23974969
N        8.42783289       4.21391645      12.10695816      -0.03123376      -0.00811929      -0.94758084
N       10.53479111       6.32087467      12.10695816      -0.02193434      -0.00632106      -1.03279826
N        8.41595313       6.31462564      14.24571387       0.00514529      -0.00564460       0.00443387
N       10.52765710       4.21443596      14.23975043      -0.00381835       0.00180080      -0.00500388
N        8.43690500       4.22174443      16.27193645       0.00941564      -0.00181443       0.01224539
N       10.56251441       6.29836606      16.25348527       0.00744849      -0.00869290      -0.00849287
N        8.42783289      10.53479111       9.99999995       0.00482390       0.01212095      -1.27516998
N       10.53479111       8.42783289       9.99999995       0.01254570       0.00897804      -1.35108643
N        8.42783289       8.42783289      12.10695816      -0.01340368      -0.01550967      -0.99983029
N       10.53479111      10.53479111      12.10695816       0.00141951      -0.01547650      -0.92993202
N        8.42466842      10.53257558      14.24666425       0.00043169      -0.00058210       0.00381526
N       10.53275627       8.42474372      14.24238500       0.00456191       0.00748397       0.00445701
N        8.44409483       8.42179284      16.25561795      -0.00384766      -0.00475037      -0.01834636
N       10.53454136      10.53856357      16.36625277       0.00622541       0.00088395       0.00966606
S        4.09138586       6.24722601      18.88945162      -0.00090323      -0.00871990       0.01007461
S        6.50589790       3.79591540      18.79259757       0.01050836       0.00318225      -0.00684916
S        8.11556638       2.48343569      18.79923684      -0.00556258      -0.01142598      -0.00665350
S        8.92850508       6.41702152      18.77767971      -0.00747137       0.01529395      -0.00356098
S       10.26935736       8.00317488      18.78981074       0.00973574       0.00331158      -0.00435571
S        6.81594846       9.21274442      18.77841515       0.03407072       0.02738559       0.00300562
S        5.93464618      11.08084879      19.14345159       0.00492289       0.02331425      -0.00904334
S        3.89109210      10.80518923      18.81830932       0.01935064      -0.00889190       0.00162879
Li       4.42828380       8.51323871      18.60671358       0.00548416      -0.00316683      -0.00369570
Li       6.47298753       6.28116939      18.65720446       0.00867979       0.02140932       0.01095187
