148
Lattice="12.641749285038259 0.0 0.0 0.0 12.641749285038259 0.0 0.0 0.0 26.320880516406753" Properties=species:S:1:pos:R:3:forces:R:3 energy=-137872.42477781855 free_energy=-137872.42477781855 pbc="T T T"
Ti       0.00000000       0.00000000      10.00000000      -0.00054687      -0.00049288       1.89671617
Ti       2.10695823       0.00000000      12.10695823       0.01093130       0.00540086       0.25732449
Ti       0.00000000       2.10695823      12.10695823       0.00445778       0.01235261       0.25733580
Ti       2.10695823       2.10695823      10.00000000       0.00567777       0.00593591       1.87967721
Ti       0.00091732       0.00149889      14.20531389       0.00563329       0.00214199      -0.00626372
Ti       2.10562031      -0.00088010      16.21989339      -0.01342836       0.00372296      -0.01145812
Ti      -0.00152281       2.10523604      16.22013409       0.00710679      -0.00911045      -0.01286349
Ti       2.10328919       2.10369950      14.20765824       0.00803058       0.00708467      -0.01091948
Ti       0.00000000       4.21391647      10.00000000       0.00226180      -0.00106932       1.92027879
Ti       2.10695823       4.21391647      12.10695823       0.00971440       0.01336742       0.25888001
Ti       0.00000000       6.32087470      12.10695823      -0.01416806       0.01219474       0.25856453
Ti       2.10695823       6.32087470      10.00000000       0.03902318       0.00916675       1.89149040
Ti      -0.00457050       4.21722316      14.19707468       0.00301848      -0.00538492       0.00373453
Ti       2.05882902       4.21810893      16.19777245       0.01444677       0.00243303      -0.00946989
Ti       0.00039039       6.33045214      16.21809226      -0.00880654      -0.00347485      -0.02114527
Ti       2.13199514       6.32550398      14.21610955       0.00430737      -0.00285778       0.00262458
Ti       0.00000000       8.42783294      10.00000000       0.00843939       0.00664296       1.89631199
Ti       2.10695823       8.42783294      12.10695823       0.03731416      -0.02638312       0.27423772
Ti       0.00000000      10.53479117      12.10695823       0.01616041       0.00197229       0.26270864
Ti       2.10695823      10.53479117      10.00000000      -0.00674015      -0.00722814       1.89495857
Ti       0.00250171       8.43111594      14.20543699      -0.00208311      -0.00672652       0.00248420
Ti       2.10975918       8.43375078      16.22827851      -0.00075102      -0.01032478      -0.00990646
Ti       0.00431773      10.53742606      16.21949732       0.01834611      -0.00561889      -0.00473263
Ti       2.11039722      10.53763135      14.20634463      -0.00703968      -0.00126627      -0.00360906
Ti       4.21391647       0.00000000      10.00000000      -0.00128838       0.00231579       1.92029833
Ti       6.32087470       0.00000000      12.10695823       0.01163270      -0.01298664       0.25747567
Ti       4.21391647       2.10695823      12.10695823       0.01318153       0.01101718       0.25805134
Ti       6.32087470       2.10695823      10.00000000       0.00960101       0.03950320       1.89065454
Ti       4.21700681      -0.00360683      14.19675256      -0.00462721      -0.00145653       0.00685430
Ti       6.33056726       0.00133540      16.21811654      -0.00622618      -0.01180625      -0.02186312
Ti       4.21796031       2.05947017      16.19741115       0.00258396       0.01195486      -0.00834272
Ti       6.32548940       2.13195158      14.21638035      -0.00325605       0.00930559       0.00029542
Ti       4.21391647       4.21391647      10.00000000       0.03623867       0.03607026       1.86094750
Ti       6.32087470       4.21391647      12.10695823      -0.03660402       0.04155983       0.24411570
Ti       4.21391647       6.32087470      12.10695823       0.04059720      -0.03666676       0.24737123
Ti       6.32087470       6.32087470      10.00000000      -0.03592191      -0.03629549       1.85564434
Ti       4.23259126       4.23260500      14.24253197       0.00790254       0.00855020       0.01660033
Ti       6.33773973       4.20725086      16.35659019      -0.00763489      -0.01945374       0.00690598
Ti       4.20654587       6.33792412      16.35555444      -0.02010937      -0.00840596       0.01970159
Ti       6.30421151       6.30436242      14.24361414       0.00027639       0.00043117      -0.01530089
Ti       4.21391647       8.42783294      10.00000000      -0.00908011      -0.04019894       1.89354292
Ti       6.32087470       8.42783294      12.10695823      -0.00411094      -0.00310924       0.24701051
Ti       4.21391647      10.53479117      12.10695823       0.00091866       0.02745758       0.25600500
Ti       6.32087470      10.53479117      10.00000000       0.00070680      -0.00154626       1.92370170
Ti       4.21391393       8.40702919      14.21374820      -0.00387928      -0.00588834       0.01090893
Ti       6.32355363       8.48140356      16.19316209       0.00953596       0.01701068      -0.00630537
Ti       4.21522172      10.54039427      16.21675799      -0.00879214       0.01336562      -0.01572872
Ti       6.32362905      10.54356526      14.19441122      -0.00080990      -0.00360957       0.02009137
Ti       8.42783294       0.00000000      10.00000000       0.00674606       0.00873095       1.89581629
Ti      10.53479117       0.00000000      12.10695823       0.00125855       0.01687286       0.26162929
Ti       8.42783294       2.10695823      12.10695823      -0.02685106       0.03820042       0.27300179
Ti      10.53479117       2.10695823      10.00000000      -0.00750274      -0.00664065       1.89444537
Ti       8.43077904       0.00252434      14.20548362      -0.00466424       0.00024374       0.00165939
Ti      10.53685121       0.00484272      16.21951460      -0.00239833       0.01479593      -0.00421018
Ti       8.43399845       2.10980817      16.22837684      -0.01490366       0.00183757      -0.00949560
Ti      10.53763390       2.11073204      14.20640269      -0.00298942      -0.00805578      -0.00376692
Ti       8.42783294       4.21391647      10.00000000      -0.04040720      -0.00935599       1.89245585
Ti      10.53479117       4.21391647      12.10695823       0.02648262       0.00185634       0.25526478
Ti       8.42783294       6.32087470      12.10695823      -0.00418421      -0.00382683       0.24740055
Ti      10.53479117       6.32087470      10.00000000      -0.00142208       0.00079936       1.92349987
Ti       8.40727557       4.21426863      14.21421219      -0.01172860      -0.00404177       0.00726131
Ti      10.53957991       4.21542195      16.21699666       0.01539859      -0.00717621      -0.01645300
Ti       8.48042003       6.32417188      16.19328013       0.01801418       0.00793802      -0.00111560
Ti      10.54228666       6.32391140      14.19436716       0.00263975      -0.00179180       0.02300186
Ti       8.42783294       8.42783294      10.00000000      -0.00692835      -0.00688927       1.88468598
Ti      10.53479117       8.42783294      12.10695823       0.00960950       0.00462979       0.25088748
Ti       8.42783294      10.53479117      12.10695823       0.00360366       0.01080840       0.25059668
Ti      10.53479117      10.53479117      10.00000000       0.00156117       0.00158843       1.89722731
Ti       8.43525901       8.43560361      14.20323707      -0.00266263      -0.00326016       0.01045128
Ti      10.54155206       8.43925772      16.21678497      -0.00274877      -0.01787894      -0.00004705
Ti       8.43949987      10.54202565      16.21678828      -0.02152373      -0.00367231       0.00034761
Ti      10.53967715      10.54015213      14.20401787      -0.01037389      -0.01299898      -0.00773594
N        0.00000000       2.10695823      10.00000000       0.00146270      -0.00058878      -1.25685138
N        2.10695823       0.00000000      10.00000000      -0.00049699       0.00118374      -1.25702236
N        0.00000000       0.00000000      12.10695823       0.00186739       0.00266135      -0.90260351
N        2.10695823       2.10695823      12.10695823       0.01496768       0.01588736      -0.86833584
N       -0.00111749       2.10985223      14.22758617       0.00103590      -0.00532887      -0.01420740
N        2.10941419      -0.00089004      14.22746328      -0.00294160       0.00079396      -0.01340496
N        0.00165951       0.00173122      16.38713046       0.00047154       0.00132129       0.01099044
N        2.10473808       2.10493575      16.40860459       0.00543120       0.00624932      -0.00895772
N        0.00000000       6.32087470      10.00000000       0.00241067       0.00218081      -1.26270553
N        2.10695823       4.21391647      10.00000000       0.01297250      -0.01000802      -1.24157055
N        0.00000000       4.21391647      12.10695823       0.00166582       0.00523965      -0.92241514
N        2.10695823       6.32087470      12.10695823       0.01617301       0.00295625      -0.84280479
N        0.00974655       6.32428007      14.22865738      -0.00798713      -0.00231296      -0.01650931
N        2.11036578       4.21469153      14.22460096      -0.00323522       0.00031985      -0.01057340
N       -0.00467335       4.21714566      16.38754099       0.00795165      -0.01503530      -0.01451953
N        2.09629051       6.32111644      16.38613840      -0.01454730      -0.00487327      -0.01274136
N        0.00000000      10.53479117      10.00000000       0.00196972      -0.00302619      -1.26379413
N        2.10695823       8.42783294      10.00000000       0.00273385      -0.00393122      -1.25042260
N        0.00000000       8.42783294      12.10695823       0.01606554       0.00415927      -0.90537181
N        2.10695823      10.53479117      12.10695823       0.00630897      -0.00621281      -0.90071606
N        0.00442050      10.53671124      14.22838552      -0.00602152       0.00035790      -0.00895849
N        2.10970222       8.43024699      14.23523580      -0.00746211       0.00097265      -0.00645733
N        0.00405479       8.43594703      16.38810972       0.00082275      -0.01408862       0.00080064
N        2.10923995      10.53808719      16.38845250      -0.00352755      -0.00573999       0.00252200
N        4.21391647       2.10695823      10.00000000      -0.01003913       0.01329389      -1.24183460
N        6.32087470       0.00000000      10.00000000       0.00231502       0.00236156      -1.26298681
N        4.21391647       0.00000000      12.10695823       0.00432794       0.00220164      -0.92372280
N        6.32087470       2.10695823      12.10695823       0.00349619       0.01729530      -0.84197021
N        4.21441462       2.11098468      14.22420559       0.00163394      -0.00543660      -0.00766292
N        6.32393359       0.01043682      14.22834707       0.00001980      -0.01019622      -0.01334068
N        4.21736963      -0.00382980      16.38784080      -0.01882279       0.00422484      -0.01765217
N        6.32130899       2.09676895      16.38651120      -0.00896672      -0.01160750      -0.01383511
N        4.21391647       6.32087470      10.00000000      -0.00414205       0.00450920      -1.27326505
N        6.32087470       4.21391647      10.00000000       0.00483676      -0.00463056      -1.27378493
N        4.21391647       4.21391647      12.10695823       0.00576724       0.00611665      -0.74076696
N        6.32087470       6.32087470      12.10695823      -0.00267858      -0.00197255      -0.74873995
N        4.21622957       6.32207944      14.25278848       0.00288092      -0.00715229      -0.01285089
N        6.32223267       4.21629434      14.25215358      -0.00951925       0.00387285      -0.00151258
N        4.18891423       4.18959527      16.37581637      -0.00907754      -0.01418426       0.00010207
N        6.35348382       6.35476593      16.37340921       0.00283233      -0.00309072      -0.02020244
N        4.21391647      10.53479117      10.00000000      -0.00342008      -0.00157120      -1.26443254
N        6.32087470       8.42783294      10.00000000       0.00931922      -0.01545259      -1.24669167
N        4.21391647       8.42783294      12.10695823       0.00374584      -0.01211375      -0.85597218
N        6.32087470      10.53479117      12.10695823       0.00442641       0.00670775      -0.93799860
N        4.21738432      10.52842661      14.22719921      -0.01126735       0.01778252      -0.00759324
N        6.32439781       8.42669221      14.22121267       0.00063378       0.02015693       0.00099682
N        4.22333785       8.44588624      16.38275136      -0.01058857       0.00969254       0.00154189
N        6.32821172      10.54629909      16.38486082       0.00029928      -0.01690089      -0.00986944
N        8.42783294       2.10695823      10.00000000      -0.00387748       0.00267138      -1.25012049
N       10.53479117       0.00000000      10.00000000      -0.00302490       0.00195687      -1.26377588
N        8.42783294       0.00000000      12.10695823       0.00372424       0.01668260      -0.90494449
N       10.53479117       2.10695823      12.10695823      -0.00673063       0.00693041      -0.89980872
N        8.43034315       2.10979058      14.23518355      -0.00144676      -0.00509156      -0.00467838
N       10.53618452       0.00488013      14.22826630       0.00326864      -0.00822393      -0.00782490
N        8.43608506       0.00456245      16.38855775      -0.01708987      -0.00144547      -0.00086132
N       10.53774055       2.10917345      16.38901189      -0.00451717      -0.00089783       0.00018795
N        8.42783294       6.32087470      10.00000000      -0.01575186       0.00944006      -1.24683308
N       10.53479117       4.21391647      10.00000000      -0.00146733      -0.00351727      -1.26445311
N        8.42783294       4.21391647      12.10695823      -0.01257347       0.00352061      -0.85421149
N       10.53479117       6.32087470      12.10695823       0.00609737       0.00519440      -0.93744015
N        8.42588462       6.32484684      14.22100320       0.02317952      -0.00091557       0.00356175
N       10.52797875       4.21775189      14.22705204       0.01899891      -0.01289280      -0.00507150
N        8.44564593       4.22331119      16.38305341       0.00559498      -0.00500465       0.00115443
N       10.54551370       6.32836818      16.38574008      -0.01613084       0.00103693      -0.01563282
N        8.42783294      10.53479117      10.00000000       0.00006916      -0.00171415      -1.26116852
N       10.53479117       8.42783294      10.00000000      -0.00147478      -0.00006968      -1.26131611
N        8.42783294       8.42783294      12.10695823      -0.00902483      -0.00800822      -0.89430321
N       10.53479117      10.53479117      12.10695823       0.00903357       0.00968406      -0.91383383
N        8.43127306      10.54069681      14.22524486      -0.00502316      -0.00438090      -0.00693966
N       10.54048616       8.43164126      14.22523576      -0.00422098      -0.00642981      -0.00623158
N        8.43720800       8.43793894      16.40453975      -0.01021679      -0.01277144       0.00270403
N       10.54144557      10.54156555      16.38519258      -0.00940021      -0.00847590       0.01999187
S        6.05624320       4.50680451      19.03239429      -0.00920866      -0.00315783       0.00241735
S        4.50326625       6.05423263      19.03536945       0.00643881      -0.01019545      -0.01272156
Li       6.57489197       6.57991427      18.31995719      -0.00028076      -0.00001388       0.01878654
Li       3.98095272       3.97774952      18.33164072      -0.00721400      -0.00326427      -0.01836025
