152
Lattice="12.259575388456497 0.0 0.0 0.0 12.259575388456497 0.0 0.0 0.0 26.129789272297636" Properties=species:S:1:pos:R:3:forces:R:3 energy=-164387.21093123438 free_energy=-164387.21093123438 pbc="T T T"
V        0.00000000       0.00000000       9.99999956      -0.04163953      -0.02580642       2.40196443
V        2.04326297       0.00000000      12.04326254       0.10008970      -0.06077445      -0.58433513
V        0.00000000       2.04326297      12.04326254      -0.07719146       0.08362359      -0.51558152
V        2.04326297       2.04326297       9.99999956      -0.00709624      -0.03097614       2.37238465
V        0.00000000       0.00000000      14.15914756       0.00029413      -0.01583620       0.00115880
V        2.04317838       0.00000000      16.01937630       0.00597550      -0.01057366       0.00474703
V       -0.00000000       2.04317838      16.01937630       0.00110480      -0.01057418      -0.00235230
V        2.04324704       2.04324704      14.15915491       0.01138022       0.01063485      -0.00609480
V        0.00000000       4.08652472       9.99999956       0.00968406      -0.02566835       2.42843239
V        2.04326297       4.08652472      12.04326254       0.17350678       0.00389908      -0.51185907
V        0.00000000       6.12978769      12.04326254      -0.06631209       0.03000117      -0.61088486
V        2.04326297       6.12978769       9.99999956      -0.01511757       0.00697720       2.49880863
V        0.00000000       4.08651001      14.15915736      -0.01535077      -0.00951874      -0.00286138
V        2.04318942       4.08660809      16.01940081      -0.00780947      -0.00175221      -0.01271616
V       -0.00000000       6.12978769      16.01936404      -0.01394978      -0.01426679       0.01739763
V        2.04325071       6.12978769      14.15916962      -0.01753621      -0.00412174      -0.00097702
V        0.00000000       8.17305067       9.99999956      -0.06660983       0.00513861       2.38816480
V        2.04326297       8.17305067      12.04326254       0.10330821      -0.07956922      -0.19071800
V        0.00000000      10.21631242      12.04326254      -0.06642548       0.03204854      -0.70796817
V        2.04326297      10.21631242       9.99999956      -0.04343879       0.07932393       2.39832066
V       -0.00000000       8.17306415      14.15915736       0.00386900       0.00821442      -0.01165455
V        2.04318942       8.17296730      16.01940081      -0.00935830       0.01424134      -0.00025865
V       -0.00000000      10.21639701      16.01937630      -0.01008798       0.01379783      -0.00206125
V        2.04324704      10.21632835      14.15915491       0.01289177      -0.01004170      -0.00096905
V        4.08652472       0.00000000       9.99999956      -0.03714036      -0.00187331       2.45679500
V        6.12978769       0.00000000      12.04326254       0.02490473      -0.04154928      -0.53135369
V        4.08652472       2.04326297      12.04326254       0.00626475       0.15519436      -0.53203066
V        6.12978769       2.04326297       9.99999956      -0.00444595      -0.00146347       2.46015415
V        4.08651001       0.00000000      14.15915736      -0.01336279       0.00005168      -0.00139817
V        6.12978769       0.00000000      16.01936526      -0.00608606       0.00248343      -0.00975091
V        4.08660809       2.04318942      16.01940081       0.01954887       0.01011832       0.00458531
V        6.12978769       2.04325071      14.15916962       0.01043328       0.00936781      -0.00876258
V        4.08652472       4.08652472       9.99999956      -0.04681542      -0.02502815       2.43867592
V        6.12978769       4.08652472      12.04326254      -0.02278974       0.12077449      -0.52106902
V        4.08652472       6.12978769      12.04326254       0.09678995      -0.04950351      -0.55690043
V        6.12978769       6.12978769       9.99999956       0.03247663       0.03349942       2.51034105
V        4.08651124       4.08651124      14.15916595       0.00287398       0.00049931      -0.00153058
V        6.12978769       4.08657253      16.01938488      -0.00633417       0.00141565      -0.01847312
V        4.08657253       6.12978769      16.01938488       0.00439864      -0.00457733      -0.00528799
V        6.12978769       6.12978769      14.15915123      -0.00640436      -0.00632594      -0.00792697
V        4.08652472       8.17305067       9.99999956      -0.00983370      -0.02449207       2.55230197
V        6.12978769       8.17305067      12.04326254       0.01733129      -0.10573405      -0.48707210
V        4.08652472      10.21631242      12.04326254       0.00097728       0.04913275      -0.47527279
V        6.12978769      10.21631242       9.99999956       0.02883826       0.01086960       2.54299380
V        4.08651124       8.17306415      14.15916595       0.00375715      -0.00608966       0.00362886
V        6.12978769       8.17300286      16.01938488       0.00482339      -0.00353475       0.01380631
V        4.08660809      10.21638597      16.01939959       0.02344898       0.00687153       0.00152389
V        6.12978769      10.21632467      14.15916962      -0.00748962       0.00181211       0.00494397
V        8.17305067       0.00000000       9.99999956       0.01972653      -0.07057241       2.37704529
V       10.21631242       0.00000000      12.04326254       0.03671921      -0.04798450      -0.67193673
V        8.17305067       2.04326297      12.04326254      -0.07579406       0.09053523      -0.25992310
V       10.21631242       2.04326297       9.99999956       0.06472109      -0.01941183       2.42909471
V        8.17306415       0.00000000      14.15915736      -0.00243483      -0.00967635      -0.00435879
V       10.21639701       0.00000000      16.01937630       0.00281304      -0.01052558      -0.00331415
V        8.17296730       2.04318942      16.01940081      -0.00245258      -0.01875697       0.00391168
V       10.21632835       2.04324704      14.15915369      -0.00402789      -0.00731325      -0.01368624
V        8.17305067       4.08652472       9.99999956      -0.01338028      -0.02233466       2.59306630
V       10.21631242       4.08652472      12.04326254       0.05724741      -0.00061886      -0.52644494
V        8.17305067       6.12978769      12.04326254      -0.15370929       0.02492916      -0.46844934
V       10.21631242       6.12978769       9.99999956       0.02222744       0.02115169       2.47190563
V        8.17306293       4.08651124      14.15916595       0.00130226      -0.00298788      -0.01337179
V       10.21638597       4.08660809      16.01940081       0.00446986      -0.01594598       0.00814577
V        8.17300286       6.12978769      16.01938488      -0.00470358       0.01827669       0.00797890
V       10.21632467       6.12978769      14.15916962      -0.00171621      -0.00005579       0.01423697
V        8.17305067       8.17305067       9.99999956       0.00501057       0.02799520       2.43557800
V       10.21631242       8.17305067      12.04326254       0.02235574      -0.10404689      -0.46107182
V        8.17305067      10.21631242      12.04326254      -0.11716131       0.02352714      -0.49318104
V       10.21631242      10.21631242       9.99999956       0.07293500       0.04238926       2.38869213
V        8.17306415       8.17306415      14.15916595      -0.00628455       0.00519671       0.00531447
V       10.21638597       8.17296730      16.01940081      -0.01325429      -0.01437864      -0.01053535
V        8.17296730      10.21638597      16.01939959       0.01277993      -0.01915112       0.00625575
V       10.21632835      10.21632835      14.15915491       0.00134392       0.00822187      -0.00318200
N        0.00000000       2.04326297       9.99999956       0.02296175      -0.01064694      -1.38876466
N        2.04326297       0.00000000       9.99999956      -0.01656433       0.01599638      -1.38022011
N        0.00000000       0.00000000      12.04326254      -0.03863905      -0.02954198      -0.58446960
N        2.04326297       2.04326297      12.04326254       0.01394309       0.01447711      -0.29986930
N        0.00000000       2.04325194      14.11774820      -0.00695483      -0.00636811      -0.00474728
N        2.04325194       0.00000000      14.11774820       0.00773234      -0.01546776       0.00149021
N       -0.00000000      -0.00000000      16.28140143      -0.00141102       0.00651055       0.00141462
N        2.04328136       2.04328136      16.28131438       0.00491132      -0.00066900      -0.01418246
N        0.00000000       6.12978769       9.99999956      -0.00833834      -0.00678900      -1.41008733
N        2.04326297       4.08652472       9.99999956       0.03760624       0.00683219      -1.36912092
N        0.00000000       4.08652472      12.04326254      -0.03814771       0.00861885      -0.41733941
N        2.04326297       6.12978769      12.04326254      -0.05601560      -0.02845568      -0.55795227
N       -0.00000000       6.12978769      14.11774574       0.01856285       0.00329307       0.01108223
N        2.04325439       4.08651859      14.11776781       0.00917858       0.00834632      -0.00801567
N       -0.00000000       4.08648794      16.28137078       0.01019879      -0.00369339      -0.00220626
N        2.04327156       6.12978769      16.28140143       0.01042942      -0.01138536       0.00911585
N        0.00000000      10.21631242       9.99999956       0.00026868      -0.00580838      -1.38301413
N        2.04326297       8.17305067       9.99999956      -0.01321110       0.00909425      -1.39880585
N        0.00000000       8.17305067      12.04326254      -0.05459558      -0.00413022      -0.52317424
N        2.04326297      10.21631242      12.04326254      -0.00071657       0.05027767      -0.44336849
N        0.00000000      10.21632345      14.11774820      -0.00058647       0.00988486      -0.00505273
N        2.04325439       8.17305680      14.11776781      -0.02146743       0.00513372      -0.00498717
N        0.00000000       8.17308745      16.28137078       0.02051252       0.01104649      -0.00229137
N        2.04328136      10.21629403      16.28131438       0.00143879       0.00729730      -0.00147993
N        4.08652472       2.04326297       9.99999956       0.00860934       0.03531847      -1.36081188
N        6.12978769       0.00000000       9.99999956      -0.00633186       0.01939306      -1.41145670
N        4.08652472       0.00000000      12.04326254       0.00487327      -0.03205909      -0.52291405
N        6.12978769       2.04326297      12.04326254      -0.03119134      -0.04571061      -0.41046068
N        4.08651859       2.04325439      14.11776659       0.00847718       0.00262124       0.00246106
N        6.12978769       0.00000000      14.11774574       0.01004967      -0.00049957      -0.01071610
N        4.08648794      -0.00000000      16.28137078       0.01449742      -0.00247212      -0.01297919
N        6.12978769       2.04327156      16.28140265      -0.00495992       0.00274260      -0.01612210
N        4.08652472       6.12978769       9.99999956       0.05572583      -0.05114001      -1.46199533
N        6.12978769       4.08652472       9.99999956      -0.06168076       0.05379416      -1.46574529
N        4.08652472       4.08652472      12.04326254      -0.06339518      -0.04661899      -0.53514324
N        6.12978769       6.12978769      12.04326254      -0.00555950       0.01634425      -0.68589550
N        4.08651982       6.12978769      14.11776168       0.01146481      -0.01137353       0.01134988
N        6.12978769       4.08651982      14.11776168      -0.02052537      -0.00104824       0.00996971
N        4.08649652       4.08649652      16.28135239      -0.00220678      -0.02184435      -0.00887853
N        6.12978769       6.12978769      16.28143698       0.01808771       0.01131208       0.00226386
N        4.08652472      10.21631242       9.99999956       0.00238444       0.00006993      -1.40339038
N        6.12978769       8.17305067       9.99999956       0.00453208      -0.04885302      -1.50007543
N        4.08652472       8.17305067      12.04326254      -0.01810597       0.05116418      -0.69454264
N        6.12978769      10.21631242      12.04326254      -0.00964344       0.07435450      -0.74580992
N        4.08651859      10.21632100      14.11776781      -0.01454062       0.00135317       0.00425749
N        6.12978769       8.17305557      14.11776168      -0.00283901       0.00150872       0.00543917
N        4.08649652       8.17307886      16.28135239       0.00900940       0.00008999       0.01239812
N        6.12978769      10.21630383      16.28140265       0.00846330      -0.00541654       0.00397493
N        8.17305067       2.04326297       9.99999956       0.00011287      -0.01817976      -1.41136389
N       10.21631242       0.00000000       9.99999956      -0.00337766       0.00428963      -1.38500442
N        8.17305067       0.00000000      12.04326254      -0.01037492      -0.04072910      -0.45461449
N       10.21631242       2.04326297      12.04326254       0.03934405      -0.00508359      -0.55158725
N        8.17305680       2.04325439      14.11776659      -0.01148949      -0.02710765      -0.00519466
N       10.21632345      -0.00000000      14.11774820       0.00518514      -0.00793648      -0.00602975
N        8.17308745       0.00000000      16.28137078      -0.00757730      -0.00945755       0.00374558
N       10.21629403       2.04328136      16.28131438      -0.00712247       0.00202886       0.00001286
N        8.17305067       6.12978769       9.99999956      -0.04132303       0.02444219      -1.47714685
N       10.21631242       4.08652472       9.99999956       0.00878186       0.01609922      -1.39945968
N        8.17305067       4.08652472      12.04326254       0.05526098      -0.02444965      -0.84309069
N       10.21631242       6.12978769      12.04326254       0.06659594       0.01190704      -0.53621745
N        8.17305557       6.12978769      14.11776168      -0.01966714       0.00062812       0.00664399
N       10.21632100       4.08651859      14.11776781      -0.00094617      -0.01138844       0.00736004
N        8.17307886       4.08649652      16.28135239      -0.00808123       0.02227809       0.01790465
N       10.21630383       6.12978769      16.28140143       0.00533530       0.01245340      -0.00616756
N        8.17305067      10.21631242       9.99999956       0.02018753      -0.02095809      -1.37043090
N       10.21631242       8.17305067       9.99999956      -0.02307179       0.00513655      -1.36071881
N        8.17305067       8.17305067      12.04326254      -0.00866025       0.00933876      -0.27672012
N       10.21631242      10.21631242      12.04326254       0.04652154       0.03795180      -0.52690157
N        8.17305680      10.21632100      14.11776781       0.00392633       0.00511367       0.00891427
N       10.21632100       8.17305680      14.11776659       0.01155865      -0.00271740      -0.01210373
N        8.17307886       8.17307886      16.28135239       0.01581614       0.01209910      -0.02387501
N       10.21629403      10.21629403      16.28131438      -0.01614627       0.00823216      -0.01026924
S        6.31725254       3.64193245      18.55273909       0.00145936       0.00466707      -0.01248605
S        3.74965979       6.37449372      18.69527995       0.02685363      -0.00904745       0.00196767
S        3.40594543       6.59209873      20.72720036      -0.01478024      -0.01407936       0.01156791
S        5.14277051       6.13260617      21.70466979       0.03410851       0.00311721      -0.01228242
S        5.28521451       3.93266337      21.70496647       0.02185772      -0.01235081       0.00597447
S        6.89641817       3.46260060      20.53445777       0.00168459      -0.00633751       0.00072814
Li       4.08649652       4.08649652      19.28143722      -0.01429122      -0.00465935       0.00899449
Li       6.05081641       5.93341627      19.16129828      -0.00304959      -0.02098637      -0.01605834
