148
Lattice="12.259575388456497 0.0 0.0 0.0 12.259575388456497 0.0 0.0 0.0 26.129789272297636" Properties=species:S:1:pos:R:3:forces:R:3 energy=-163073.33309587277 free_energy=-163073.33309587277 pbc="T T T"
V        0.00000000       0.00000000      10.00000000      -0.02481423      -0.02801860       2.38156529
V        2.04326254       0.00000000      12.04326254       0.08044673      -0.07904522      -0.47658688
V        0.00000000       2.04326254      12.04326254      -0.07055390       0.08921034      -0.48038749
V        2.04326254       2.04326254      10.00000000       0.01910073       0.02251104       2.37456984
V       -0.05105897      -0.06252439      14.16392393      -0.00845970       0.01150543      -0.00588628
V        2.01385687       0.03265687      16.00519801       0.00042475       0.01235595      -0.00088112
V        0.03398875       2.01548825      16.00493540       0.01409093      -0.00387234       0.00021237
V        2.11207806       2.12169471      14.16571679       0.00313109      -0.01873743      -0.01568424
V        0.00000000       4.08652507      10.00000000      -0.03490658      -0.03891545       2.38329410
V        2.04326254       4.08652507      12.04326254       0.16507665      -0.03305205      -0.52707512
V        0.00000000       6.12978761      12.04326254      -0.00469792       0.07471009      -0.50354233
V        2.04326254       6.12978761      10.00000000       0.01453496       0.01821061       2.42321716
V       -0.05168126       4.02259313      14.15300648      -0.01397729       0.00830029      -0.01169055
V        1.90060032       4.09698141      15.99734821      -0.00584155      -0.00716515       0.00940869
V       -0.00611879       6.15809423      16.00863468      -0.00997279      -0.00639793       0.00232993
V        2.15752298       6.17492727      14.19705238      -0.00595647      -0.00148661      -0.01467766
V        0.00000000       8.17305015      10.00000000      -0.01648514      -0.00381989       2.42367508
V        2.04326254       8.17305015      12.04326254       0.07587223      -0.07098173      -0.43484425
V        0.00000000      10.21631269      12.04326254      -0.04501513       0.06385875      -0.63112509
V        2.04326254      10.21631269      10.00000000      -0.00727031       0.02400151       2.43290585
V       -0.06285108       8.10394809      14.14986001      -0.00689416       0.01228627      -0.00636837
V        2.07421515       8.14753677      16.01414630       0.00919786       0.01367416       0.00563997
V       -0.03082631      10.23432285      16.00912076       0.01300695      -0.00252508      -0.00503088
V        2.10215289      10.28429286      14.14667162       0.00394690      -0.00727519      -0.00358206
V        4.08652507       0.00000000      10.00000000      -0.03549228      -0.03799962       2.38037179
V        6.12978761       0.00000000      12.04326254       0.06560041      -0.01150080      -0.50763089
V        4.08652507       2.04326254      12.04326254      -0.02923730       0.17478514      -0.53369571
V        6.12978761       2.04326254      10.00000000       0.01418452       0.01573052       2.42292971
V        4.03078478      -0.05900055      14.15255251      -0.00394099      -0.01088605      -0.00730785
V        6.15933148      -0.00632645      16.00957808      -0.00115931      -0.00076979       0.00128504
V        4.09371093       1.89638790      15.99870377      -0.00417470       0.00342342       0.00995248
V        6.16413410       2.16259552      14.19824900       0.00818434      -0.02039579      -0.00465575
V        4.08652507       4.08652507      10.00000000      -0.01017900      -0.01406573       2.50130157
V        6.12978761       4.08652507      12.04326254      -0.00544405      -0.02169265      -0.43052660
V        4.08652507       6.12978761      12.04326254      -0.01775192       0.00086620      -0.42700007
V        6.12978761       6.12978761      10.00000000       0.01463883       0.01905445       2.49512552
V        4.06026975       4.04382604      14.22561794      -0.02393826       0.00331672      -0.01158950
V        6.20664152       4.03375247      16.13170120      -0.00526099      -0.00764569       0.00711990
V        4.03695210       6.20920518      16.13177072      -0.00288478      -0.01411330      -0.01306712
V        6.19112416       6.20414042      14.21212977      -0.00015221      -0.01585034       0.02234237
V        4.08652507       8.17305015      10.00000000      -0.02577197      -0.01292365       2.41981688
V        6.12978761       8.17305015      12.04326254       0.06239373      -0.16595725      -0.48807148
V        4.08652507      10.21631269      12.04326254      -0.06568192       0.01368573      -0.49016873
V        6.12978761      10.21631269      10.00000000       0.04468474       0.04943100       2.37974110
V        4.04499339       8.07006264      14.19666252       0.00144342       0.00096725       0.00070011
V        6.10430203       8.32214787      15.99349157      -0.01695951       0.00329744      -0.00182985
V        4.05637418      10.23360746      16.00883119       0.01091845      -0.01320081      -0.00126858
V        6.19722916      10.29150536      14.14855352      -0.00906571      -0.00738601      -0.01296170
V        8.17305015       0.00000000      10.00000000       0.00046974      -0.01925088       2.42329275
V       10.21631269       0.00000000      12.04326254       0.05772255      -0.04997736      -0.62435795
V        8.17305015       2.04326254      12.04326254      -0.06217827       0.08136693      -0.42922716
V       10.21631269       2.04326254      10.00000000       0.02062385      -0.00296268       2.43433230
V        8.11236476      -0.06666919      14.14984415      -0.00247314      -0.00254359      -0.00351393
V       10.23188282      -0.02913596      16.00860965       0.00059675       0.00712221      -0.00532630
V        8.15036673       2.07520979      16.01406133       0.00045020       0.00663859       0.00584746
V       10.27792619       2.11197449      14.14582972       0.00080244      -0.00902740      -0.00124313
V        8.17305015       4.08652507      10.00000000      -0.01103517      -0.02621522       2.41885169
V       10.21631269       4.08652507      12.04326254       0.00664964      -0.07365414      -0.49122031
V        8.17305015       6.12978761      12.04326254      -0.15988791       0.06475400      -0.48682604
V       10.21631269       6.12978761      10.00000000       0.04578955       0.04741448       2.37891320
V        8.07413775       4.04057466      14.19619001      -0.00336326       0.00236207       0.00404409
V       10.23255659       4.06155031      16.00876257      -0.01622777       0.00509310      -0.00267523
V        8.31861063       6.10649738      15.99334276       0.00960590      -0.01781774      -0.00413768
V       10.28399834       6.20327095      14.14832852       0.00466038      -0.01007281      -0.00379135
V        8.17305015       8.17305015      10.00000000      -0.01959412      -0.02155279       2.38608555
V       10.21631269       8.17305015      12.04326254       0.08060717      -0.08660787      -0.45430930
V        8.17305015      10.21631269      12.04326254      -0.08307234       0.08490631      -0.45839401
V       10.21631269      10.21631269      10.00000000       0.03241544       0.03449958       2.36880902
V        8.09456038       8.09164969      14.15932781       0.01891175       0.02388478      -0.01363456
V       10.20634540       8.22494639      16.00461613      -0.00353578      -0.00127167      -0.00225074
V        8.23011513      10.20493465      16.00527014      -0.00486607       0.00455085      -0.00325656
V       10.27460910      10.28261345      14.16919207      -0.00653086      -0.01523867       0.00058853
N        0.00000000       2.04326254      10.00000000       0.01394026      -0.01796378      -1.37644085
N        2.04326254       0.00000000      10.00000000      -0.01669289       0.01487975      -1.37586004
N        0.00000000       0.00000000      12.04326254      -0.02412055      -0.02859555      -0.49562384
N        2.04326254       2.04326254      12.04326254       0.00996200       0.01416266      -0.47582738
N        0.04800809       1.99226078      14.10427422       0.00352344       0.00934236      -0.00096416
N        1.99984142       0.05409127      14.10434672      -0.00094180      -0.00389188      -0.00140742
N        0.00099363       0.00272514      16.29153659       0.00319280      -0.00268886       0.00715975
N        2.06534716       2.06596644      16.30528603      -0.00259193      -0.00533607       0.01862044
N        0.00000000       6.12978761      10.00000000       0.02209375      -0.01267580      -1.37737956
N        2.04326254       4.08652507      10.00000000       0.00155346       0.01383562      -1.38574079
N        0.00000000       4.08652507      12.04326254      -0.04120090      -0.01482472      -0.49785890
N        2.04326254       6.12978761      12.04326254      -0.00267652       0.03012844      -0.43991652
N        0.05828760       6.08299861      14.10631928       0.00547774       0.00770380       0.00456499
N        2.01090791       4.13672571      14.10194910      -0.00089346      -0.00337817       0.01698702
N       -0.04201313       4.07365487      16.29520955      -0.00527925       0.00169770      -0.00493832
N        2.01879649       6.11736916      16.28808170      -0.02353099      -0.01558963       0.02717579
N        0.00000000      10.21631269      10.00000000       0.00279890      -0.00560938      -1.37116495
N        2.04326254       8.17305015      10.00000000      -0.00402480       0.00077287      -1.38041397
N        0.00000000       8.17305015      12.04326254      -0.00302156      -0.00234999      -0.58028641
N        2.04326254      10.21631269      12.04326254      -0.00709393       0.01295862      -0.60816180
N        0.04228406      10.16700839      14.10694782       0.00106392       0.00870036      -0.00747857
N        2.01424114       8.20561196      14.11294000       0.00103256       0.00216281       0.00475757
N        0.00867938       8.18784626      16.25251288       0.00660336      -0.01619152      -0.00046074
N        2.02493314      10.22232044      16.24332924       0.00482776      -0.00871347       0.00824913
N        4.08652507       2.04326254      10.00000000       0.01257064      -0.00015787      -1.38370859
N        6.12978761       0.00000000      10.00000000      -0.01080558       0.02314507      -1.37600170
N        4.08652507       0.00000000      12.04326254      -0.01053227      -0.04360694      -0.49530451
N        6.12978761       2.04326254      12.04326254       0.02613758       0.00329513      -0.43188208
N        4.12903090       2.00114579      14.10261241       0.00403792       0.01535951       0.01931233
N        6.08979631       0.06372086      14.10705458       0.00199955       0.00129609       0.00219649
N        4.07263420      -0.04378020      16.29802560       0.00347587       0.00044840      -0.01376671
N        6.11632775       2.01787087      16.29035500      -0.00794265      -0.02113498       0.01035100
N        4.08652507       6.12978761      10.00000000       0.00916135      -0.00700651      -1.45211201
N        6.12978761       4.08652507      10.00000000      -0.00562969       0.00969512      -1.44909225
N        4.08652507       4.08652507      12.04326254      -0.02864003      -0.03225295      -0.71899460
N        6.12978761       6.12978761      12.04326254       0.04363239       0.04485418      -0.76899459
N        4.15153873       6.07941274      14.11589389      -0.00014115      -0.01812396       0.01289305
N        6.08694793       4.15845751      14.11711537      -0.02292318       0.00368413      -0.00954599
N        4.04964825       4.04788795      16.18247078       0.01806123       0.02091232      -0.02463014
N        6.18406750       6.18717741      16.17466685      -0.01771644      -0.02677727       0.00223455
N        4.08652507      10.21631269      10.00000000       0.01333117      -0.01736086      -1.37950226
N        6.12978761       8.17305015      10.00000000      -0.01302007       0.00064818      -1.38094054
N        4.08652507       8.17305015      12.04326254      -0.02771109       0.01263543      -0.41310866
N        6.12978761      10.21631269      12.04326254       0.01834585       0.05724253      -0.54092488
N        4.12890961      10.16820813      14.10722283       0.00443001      -0.00348770      -0.00928091
N        6.08000219       8.23638999      14.10010728       0.00299456      -0.01023222      -0.00606780
N        4.09720791       8.22269741      16.29810540      -0.00190930      -0.01470594      -0.00630255
N        6.15782900      10.26305501      16.28400348      -0.00570168       0.02404007       0.01216337
N        8.17305015       2.04326254      10.00000000      -0.00069368      -0.00395693      -1.38023503
N       10.21631269       0.00000000      10.00000000      -0.00422766       0.00400449      -1.37178869
N        8.17305015       0.00000000      12.04326254      -0.00010156      -0.00341957      -0.57785132
N       10.21631269       2.04326254      12.04326254       0.01269174      -0.00187613      -0.61121987
N        8.19895241       2.01185590      14.11311155       0.00793777      -0.00366356       0.00356098
N       10.17576741       0.04987882      14.10680519      -0.00978228      -0.01194097      -0.00805912
N        8.18880743       0.00827802      16.25350184      -0.01648334       0.01241509      -0.00129532
N       10.22323919       2.02746351      16.24194644      -0.01697057       0.00931202       0.00893715
N        8.17305015       6.12978761      10.00000000      -0.00102099      -0.01375463      -1.38213996
N       10.21631269       4.08652507      10.00000000      -0.01645840       0.01476842      -1.37931946
N        8.17305015       4.08652507      12.04326254       0.01653682      -0.02916737      -0.42060574
N       10.21631269       6.12978761      12.04326254       0.05352445       0.02069558      -0.53887314
N        8.22732870       6.07750528      14.10005547       0.00483316       0.01417912      -0.00720783
N       10.17243632       4.13632613      14.10721077      -0.00113720      -0.01058215      -0.00906571
N        8.22028477       4.09829625      16.29658166      -0.00368979      -0.00044763      -0.00523322
N       10.26192752       6.15736330      16.28547004       0.02428921      -0.00364505       0.00848695
N        8.17305015      10.21631269      10.00000000       0.01571227      -0.01049576      -1.37754668
N       10.21631269       8.17305015      10.00000000      -0.01013015       0.01665304      -1.37804187
N        8.17305015       8.17305015      12.04326254      -0.01227059      -0.01207236      -0.53190956
N       10.21631269      10.21631269      12.04326254       0.03225140       0.03555836      -0.42760171
N        8.22517441      10.16235576      14.10487866      -0.00526922       0.00582741      -0.00720706
N       10.16496624       8.23026767      14.10456248       0.00432048      -0.00668307      -0.00831032
N        8.15732698       8.15839163      16.28448530       0.00263667       0.00146424       0.03674364
N       10.22171409      10.22027498      16.31571643      -0.01310568      -0.01319696       0.00076285
S        5.91313032       4.37423567      18.67713478      -0.02008700      -0.00377644      -0.02418303
S        4.37300185       5.90468543      18.67642101      -0.01208084      -0.00130843      -0.00654114
Li       6.51011942       6.52002760      18.11436126      -0.00299148      -0.01252641       0.02383490
Li       3.77025970       3.76273675      18.12606290       0.00677974       0.00078907      -0.00164011
