148
Lattice="13.691787681916065 0.0 0.0 0.0 13.691787681916065 0.0 0.0 0.0 26.84589886156329" Properties=species:S:1:pos:R:3:forces:R:3 energy=-118178.85956347233 free_energy=-118178.85956347233 pbc="T T T"
Zr       0.00000000       0.00000000      10.00000000      -0.00155629      -0.00144496       1.55331115
Zr       2.28196466       0.00000000      12.28196466       0.01367493       0.02834230       0.24697786
Zr       0.00000000       2.28196466      12.28196466       0.02904832       0.01229116       0.24696731
Zr       2.28196466       2.28196466      10.00000000      -0.01730507      -0.01711429       1.56262214
Zr       0.00510933       0.00448598      14.56138873      -0.00460407      -0.00430068      -0.00517332
Zr       2.28478852       0.00695280      16.75169328      -0.00162777       0.00088497      -0.00337097
Zr       0.00786675       2.28411595      16.75174327      -0.00033527      -0.00414436      -0.00307890
Zr       2.28891054       2.28851200      14.56503209      -0.00167147      -0.00312929       0.00437859
Zr       0.00000000       4.56392932      10.00000000      -0.02337338      -0.00241195       1.57386763
Zr       2.28196466       4.56392932      12.28196466       0.03243627       0.00953828       0.36954543
Zr       0.00000000       6.84589398      12.28196466      -0.02603525       0.00361420       0.24335286
Zr       2.28196466       6.84589398      10.00000000       0.04366993       0.01990420       1.65411588
Zr       0.00873767       4.56606040      14.55642310      -0.00431225       0.00084384       0.01344276
Zr       2.26445332       4.56967897      16.76168559       0.00339746      -0.00168124      -0.00977199
Zr      -0.00698098       6.85478695      16.74617022       0.00866333      -0.00684608       0.00305936
Zr       2.30903601       6.84748552      14.54476845      -0.00160977      -0.00146913       0.00618273
Zr       0.00000000       9.12785864      10.00000000       0.00066874       0.00863094       1.57853316
Zr       2.28196466       9.12785864      12.28196466       0.01484118      -0.00109735       0.29795795
Zr       0.00000000      11.40982330      12.28196466       0.00613491       0.00432948       0.25232035
Zr       2.28196466      11.40982330      10.00000000      -0.00700883      -0.00075590       1.57843520
Zr      -0.00155164       9.13107466      14.55823331       0.00304239      -0.00026405      -0.00296371
Zr       2.27941235       9.14128353      16.76301473      -0.00071091      -0.00450123       0.00192884
Zr       0.00486051      11.41340447      16.75337061       0.00160051      -0.00090811      -0.00284955
Zr       2.28310959      11.41846720      14.55792766       0.00207411      -0.00535381      -0.00258936
Zr       4.56392932       0.00000000      10.00000000      -0.00259990      -0.02358216       1.57422682
Zr       6.84589398       0.00000000      12.28196466       0.00509361      -0.02725498       0.24463558
Zr       4.56392932       2.28196466      12.28196466       0.01125038       0.03089643       0.37143468
Zr       6.84589398       2.28196466      10.00000000       0.02001501       0.04358560       1.65427760
Zr       4.56646648       0.00837331      14.55643172       0.00198952      -0.00370856       0.01450925
Zr       6.85554943      -0.00803995      16.74640373      -0.00823704       0.01106577       0.00268140
Zr       4.57046920       2.26387745      16.76215117      -0.00178152       0.00232685      -0.00969820
Zr       6.84814115       2.30832092      14.54494749      -0.00261378      -0.00201652       0.00855817
Zr       4.56392932       4.56392932      10.00000000       0.05623645       0.05656453       1.64193322
Zr       6.84589398       4.56392932      12.28196466      -0.02614889       0.04282661       0.04703139
Zr       4.56392932       6.84589398      12.28196466       0.04525502      -0.02842252       0.04663081
Zr       6.84589398       6.84589398      10.00000000      -0.05751841      -0.05705818       1.64965681
Zr       4.59246061       4.59168602      14.58302450      -0.00904051      -0.00512961       0.01964606
Zr       6.89501144       4.52884099      17.01672759      -0.01764214       0.00790357       0.02546909
Zr       4.52945328       6.89497638      17.01639113       0.00795448      -0.01723950       0.02286379
Zr       6.82608806       6.82519615      14.58041798      -0.00008999       0.00400475       0.03056733
Zr       4.56392932       9.12785864      10.00000000      -0.02040736      -0.04401163       1.65951236
Zr       6.84589398       9.12785864      12.28196466       0.01107811      -0.00946269       0.35612787
Zr       4.56392932      11.40982330      12.28196466       0.00703994       0.05336016       0.22717111
Zr       6.84589398      11.40982330      10.00000000      -0.00192473       0.01631108       1.57426435
Zr       4.56755340       9.10883497      14.54214712       0.00373427      -0.00180826       0.00236002
Zr       6.84915516       9.16410436      16.75846064       0.00206305      -0.02212074      -0.00892841
Zr       4.56207718      11.42972894      16.74541089       0.01056235      -0.01666898      -0.00044300
Zr       6.84857393      11.41124366      14.55610789       0.00200212      -0.00390859       0.01476790
Zr       9.12785864       0.00000000      10.00000000       0.00842705       0.00062401       1.57818400
Zr      11.40982330       0.00000000      12.28196466       0.00531653       0.00496377       0.25293510
Zr       9.12785864       2.28196466      12.28196466       0.00084384       0.01274676       0.30085147
Zr      11.40982330       2.28196466      10.00000000      -0.00085746      -0.00707182       1.57800480
Zr       9.13164338      -0.00243814      14.55862173      -0.00102021       0.00518103      -0.00628558
Zr      11.41480033       0.00314027      16.75350261      -0.00349644       0.00601792      -0.00336583
Zr       9.14264000       2.27795078      16.76304201      -0.00867439       0.00397107       0.00686176
Zr      11.41921021       2.28236884      14.55834673      -0.00679388       0.00361420      -0.00570142
Zr       9.12785864       4.56392932      10.00000000      -0.04413607      -0.02045184       1.65931053
Zr      11.40982330       4.56392932      12.28196466       0.05444311       0.00547156       0.22939588
Zr       9.12785864       6.84589398      12.28196466      -0.00755519       0.00910942       0.35797135
Zr      11.40982330       6.84589398      10.00000000       0.01625709      -0.00170233       1.57424121
Zr       9.10962514       4.56683109      14.54247438      -0.00175504       0.00421944       0.00576081
Zr      11.43093555       4.56124147      16.74558625      -0.02129413       0.01109457       0.00109786
Zr       9.16490599       6.84829179      16.75846879      -0.02001321       0.00205354      -0.00529467
Zr      11.41181667       6.84825490      14.55616200      -0.00442821       0.00015298       0.01490520
Zr       9.12785864       9.12785864      10.00000000       0.01241380       0.01285989       1.56524930
Zr      11.40982330       9.12785864      12.28196466      -0.00823499       0.00346996       0.24571981
Zr       9.12785864      11.40982330      12.28196466       0.00459868      -0.00904000       0.24541540
Zr      11.40982330      11.40982330      10.00000000       0.00051885       0.00081144       1.55318208
Zr       9.12940951       9.12899687      14.56514046      -0.00656634      -0.00746854       0.00021546
Zr      11.41364838       9.13399626      16.75145412      -0.00812366      -0.00511855      -0.00308995
Zr       9.13436859      11.41246770      16.75155167      -0.00113797      -0.00593616      -0.00334269
Zr      11.41094718      11.41040533      14.56145345       0.00279607       0.00236953      -0.00819616
N        0.00000000       2.28196466      10.00000000       0.00332469       0.00446858      -0.89651256
N        2.28196466       0.00000000      10.00000000       0.00438347       0.00342342      -0.89660127
N        0.00000000       0.00000000      12.28196466       0.00725000       0.00666738      -0.89398105
N        2.28196466       2.28196466      12.28196466       0.00561092       0.00505813      -0.89719416
N        0.00721512       2.28609737      14.58261458      -0.00960898      -0.00696512      -0.00239138
N        2.28664072       0.00670580      14.58264113      -0.00702040      -0.01029290      -0.00253896
N        0.00469018       0.00352668      16.91008759      -0.01441669      -0.01405416       0.00245386
N        2.28890441       2.28797485      16.91490692      -0.00531627      -0.00480231       0.00910428
N        0.00000000       6.84589398      10.00000000      -0.01899197       0.00191496      -0.90632775
N        2.28196466       4.56392932      10.00000000       0.00018255      -0.00728111      -0.87925275
N        0.00000000       4.56392932      12.28196466       0.01521527      -0.00697206      -0.96568295
N        2.28196466       6.84589398      12.28196466       0.02337930       0.00609274      -1.02448511
N        0.01494432       6.84859355      14.58800950      -0.00050625       0.00571196       0.00744617
N        2.29960332       4.57237901      14.60530669       0.00027459      -0.00608606      -0.01652834
N        0.01118894       4.57002180      16.91328441       0.00019026      -0.00056873       0.00397518
N        2.25462430       6.85457689      16.81343074      -0.00531036      -0.00470743      -0.01127866
N        0.00000000      11.40982330      10.00000000       0.00933053      -0.00889833      -0.91126812
N        2.28196466       9.12785864      10.00000000      -0.00720809       0.00501751      -0.92673331
N        0.00000000       9.12785864      12.28196466      -0.00374584       0.00842705      -0.94819405
N        2.28196466      11.40982330      12.28196466      -0.00287449       0.00974500      -0.95191392
N        0.00217082      11.41267844      14.58644451      -0.00258524       0.00188539      -0.00451640
N        2.28534619       9.13133575      14.60099916      -0.00370136      -0.00123156       0.00205868
N        0.00409401       9.13135360      16.90813766       0.00344734       0.00711630       0.01215669
N        2.28713136      11.41709593      16.90800712      -0.00866385      -0.01004016       0.01444446
N        4.56392932       2.28196466      10.00000000      -0.00760352       0.00026148      -0.87891490
N        6.84589398       0.00000000      10.00000000       0.00187613      -0.01882845      -0.90599093
N        4.56392932       0.00000000      12.28196466      -0.00644138       0.01463395      -0.96576677
N        6.84589398       2.28196466      12.28196466       0.00691601       0.02273884      -1.02294939
N        4.57293246       2.29944000      14.60575485      -0.00647944      -0.00485887      -0.01914161
N        6.84896179       0.01391772      14.58828181       0.00710087       0.00458093       0.00594850
N        4.57073170       0.01018968      16.91316718       0.00063378       0.00250194       0.00417110
N        6.85577454       2.25379176      16.81418043      -0.00720577      -0.00706256      -0.01702687
N        4.56392932       6.84589398      10.00000000       0.00998411      -0.01407165      -1.01433259
N        6.84589398       4.56392932      10.00000000      -0.01399914       0.01014609      -1.01435393
N        4.56392932       4.56392932      12.28196466       0.01904416       0.01779358      -0.78886202
N        6.84589398       6.84589398      12.28196466      -0.00939250      -0.01058317      -0.80455449
N        4.56721861       6.85205668      14.62617213      -0.00539829      -0.00176686       0.00505247
N        6.85296764       4.56637232      14.62586902      -0.00456782      -0.00415285       0.00756033
N        4.56471668       4.56481005      16.95048122      -0.00693761      -0.00629997      -0.03124147
N        6.86281035       6.86171103      16.92205342       0.00185248       0.00483496      -0.00795756
N        4.56392932      11.40982330      10.00000000      -0.00397030       0.01844638      -0.90844042
N        6.84589398       9.12785864      10.00000000       0.00995685       0.00095182      -0.88743400
N        4.56392932       9.12785864      12.28196466       0.00194478      -0.01432002      -1.04179712
N        6.84589398      11.40982330      12.28196466       0.01281926      -0.00335503      -0.97160086
N        4.56529219      11.40429155      14.58784836       0.00004011      -0.00469046       0.00633803
N        6.84426288       9.11830854      14.60379868       0.00456988      -0.00279633      -0.00884022
N        4.56485827       9.17331712      16.80046145       0.00431740       0.00232582      -0.00794137
N        6.84699317      11.41367316      16.91446440       0.00411994      -0.00997871      -0.00056693
N        9.12785864       2.28196466      10.00000000       0.00480025      -0.00694121      -0.92586890
N       11.40982330       0.00000000      10.00000000      -0.00896209       0.00930945      -0.91100716
N        9.12785864       0.00000000      12.28196466       0.00899912      -0.00435751      -0.94640482
N       11.40982330       2.28196466      12.28196466       0.01037697      -0.00354324      -0.94983904
N        9.13199597       2.28455607      14.60160036      -0.00148250      -0.00320025      -0.00444878
N       11.41331283       0.00145132      14.58634041       0.00140485      -0.00170670      -0.00259681
N        9.13251736       0.00260317      16.90842461       0.00510235       0.00637582       0.01124729
N       11.41840679       2.28577736      16.90847838      -0.01267014      -0.00606035       0.01221531
N        9.12785864       6.84589398      10.00000000       0.00069034       0.00998951      -0.88672360
N       11.40982330       4.56392932      10.00000000       0.01817616      -0.00387902      -0.90791489
N        9.12785864       4.56392932      12.28196466      -0.01364639       0.00106855      -1.03963148
N       11.40982330       6.84589398      12.28196466      -0.00269683       0.01242280      -0.97135917
N        9.11865716       6.84370091      14.60419208       0.00109118       0.00456705      -0.01335971
N       11.40527110       4.56487697      14.58809412      -0.00992009      -0.00160154       0.00438836
N        9.17378486       4.56350587      16.80223816       0.00314189       0.00721452      -0.01488926
N       11.41490025       6.84639798      16.91444905      -0.01291799       0.00241195      -0.00151798
N        9.12785864      11.40982330      10.00000000      -0.00763335      -0.00490952      -0.89653262
N       11.40982330       9.12785864      10.00000000      -0.00491338      -0.00744849      -0.89649199
N        9.12785864       9.12785864      12.28196466       0.00403560       0.00329384      -0.90197204
N       11.40982330      11.40982330      12.28196466      -0.00106855      -0.00169821      -0.89185064
N        9.12899000      11.41047579      14.58190405       0.00681239       0.00303956      -0.00022446
N       11.41104577       9.12856357      14.58185100       0.00386797       0.00629612       0.00006299
N        9.13278482       9.13176304      16.91551358      -0.00171853      -0.00162777       0.00471078
N       11.41535354      11.41424201      16.90984751       0.00916778       0.00909682       0.00327944
S        7.10362026       4.41697656      19.46034468      -0.01915086      -0.00274337       0.01827977
S        4.41690964       7.11236279      19.46051506       0.00182625      -0.02992970       0.00390268
Li       6.67551163       6.67596621      19.08027553      -0.02632270      -0.02393928       0.01625811
Li       4.83596794       4.84196020      19.16567252      -0.01910818      -0.02293090      -0.01978952
