150
Lattice="13.691787681916065 0.0 0.0 0.0 13.691787681916065 0.0 0.0 0.0 26.84589886156329" Properties=species:S:1:pos:R:3:forces:R:3 energy=-118838.58861951379 free_energy=-118838.58861951379 pbc="T T T"
Zr       0.00000000       0.00000000      10.00000000       0.03144562       0.01113982       1.56558380
Zr       2.28196466       0.00000000      12.28196466       0.01960672      -0.00850521       0.22337153
Zr       0.00000000       2.28196466      12.28196466      -0.03153201       0.01971316       0.29694056
Zr       2.28196466       2.28196466      10.00000000       0.02985076      -0.00303339       1.72892058
Zr       0.01359834       0.00442393      14.56550924       0.00358232       0.00192319      -0.00519569
Zr       2.30151695       0.05207962      16.86335437      -0.00532244      -0.00798893      -0.00043452
Zr      -0.00983570       2.29581928      16.76637605      -0.00017921      -0.00974731      -0.00341905
Zr       2.29629893       2.30086716      14.52231566      -0.01004890      -0.00858671      -0.00620279
Zr       0.00000000       4.56392932      10.00000000       0.03022975      -0.01090148       1.63296984
Zr       2.28196466       4.56392932      12.28196466       0.03148393       0.05399857       0.16667356
Zr       0.00000000       6.84589398      12.28196466      -0.01208367       0.00563277       0.36506657
Zr       2.28196466       6.84589398      10.00000000       0.04755461      -0.04906693       1.67645259
Zr       0.01384960       4.57254171      14.54760596       0.00491286      -0.00093434       0.00690161
Zr       2.26496174       4.52961787      16.92003328      -0.00634780      -0.00304650       0.00784675
Zr      -0.00523827       6.85445546      16.75613775       0.00432742      -0.00596573      -0.00152389
Zr       2.30924630       6.83170969      14.55248985       0.00276496      -0.00265878       0.01011318
Zr       0.00000000       9.12785864      10.00000000      -0.01833377      -0.00221629       1.53504320
Zr       2.28196466       9.12785864      12.28196466       0.01751333      -0.00705459       0.42891811
Zr       0.00000000      11.40982330      12.28196466       0.02563776       0.02327028       0.38297636
Zr       2.28196466      11.40982330      10.00000000      -0.00859314       0.04361131       1.59151748
Zr       0.00582023       9.13304502      14.55965793      -0.00550936       0.00624110       0.00773928
Zr       2.28148813       9.13934493      16.76958583       0.00440070      -0.01307303       0.00403329
Zr       0.01454480      11.42184404      16.76536389      -0.00766112       0.01039780      -0.00378055
Zr       2.28426832      11.42588872      14.56161043      -0.00504065      -0.01420432      -0.01202531
Zr       4.56392932       0.00000000      10.00000000      -0.03253063       0.03228406       1.67062493
Zr       6.84589398       0.00000000      12.28196466       0.01919843      -0.02661760       0.33639722
Zr       4.56392932       2.28196466      12.28196466       0.02583213       0.02040145       0.18740977
Zr       6.84589398       2.28196466      10.00000000      -0.04324570       0.05151077       1.68926337
Zr       4.55903029       0.01844928      14.54360504       0.00657020      -0.01461081      -0.00893381
Zr       6.85804132      -0.01130072      16.75117643       0.01659699      -0.00192807      -0.00194890
Zr       4.56182027       2.25393089      16.90503285      -0.00333806      -0.00970694      -0.00489667
Zr       6.82987411       2.31070085      14.54660252      -0.00306758       0.01292905       0.00911662
Zr       4.56392932       4.56392932      10.00000000       0.02179113       0.01318153       1.75828412
Zr       6.84589398       4.56392932      12.28196466      -0.04266977       0.03757796       0.04645392
Zr       4.56392932       6.84589398      12.28196466       0.03193284      -0.03937387       0.09018427
Zr       6.84589398       6.84589398      10.00000000      -0.05012314      -0.05761045       1.64336044
Zr       4.57533393       4.58106598      14.57967571       0.02586221       0.01023865      -0.00574744
Zr       6.86480891       4.52770380      17.06877925      -0.00361703       0.00446626      -0.02120337
Zr       4.52598783       6.87933069      17.04774896       0.00729679      -0.00592202       0.00395744
Zr       6.82027710       6.82006081      14.57857444      -0.00833834      -0.01625734       0.00972623
Zr       4.56392932       9.12785864      10.00000000       0.00779944      -0.04867690       1.64496712
Zr       6.84589398       9.12785864      12.28196466      -0.01267554      -0.02155381       0.41740291
Zr       4.56392932      11.40982330      12.28196466      -0.00318123       0.03483922       0.32400734
Zr       6.84589398      11.40982330      10.00000000       0.00908859       0.00512292       1.54628175
Zr       4.56510352       9.10350177      14.54095326       0.00072042      -0.00197358       0.00836920
Zr       6.84928184       9.15429694      16.76028879      -0.00235179      -0.01690089      -0.00128092
Zr       4.56522726      11.41628754      16.75070549      -0.01110434      -0.00199466       0.00095516
Zr       6.85186276      11.40764397      14.55392848      -0.00926960      -0.00549496       0.00073225
Zr       9.12785864       0.00000000      10.00000000      -0.00542863      -0.01932595       1.53736980
Zr      11.40982330       0.00000000      12.28196466       0.00749065      -0.00115751       0.35565144
Zr       9.12785864       2.28196466      12.28196466      -0.03480682       0.02577839       0.41779681
Zr      11.40982330       2.28196466      10.00000000       0.02461009      -0.00677177       1.56729589
Zr       9.13155174      -0.00047996      14.55781683       0.00478379       0.00288529      -0.00918938
Zr      11.41261081       0.00704181      16.75720486       0.00243715      -0.00083047      -0.00346045
Zr       9.13407489       2.28127408      16.76489474      -0.00570554      -0.01196514       0.00301076
Zr      11.40641854       2.28342448      14.55321374      -0.00037949       0.00877697       0.00557647
Zr       9.12785864       4.56392932      10.00000000      -0.05538053       0.00717878       1.63244739
Zr      11.40982330       4.56392932      12.28196466       0.02005023       0.01172037       0.32245516
Zr       9.12785864       6.84589398      12.28196466      -0.02687291      -0.02016593       0.42313210
Zr      11.40982330       6.84589398      10.00000000       0.00317917       0.01005764       1.53935006
Zr       9.09965349       4.56581648      14.54373160      -0.00508461       0.00750968      -0.00201960
Zr      11.41403174       4.56458706      16.74717183       0.00929222       0.00955653      -0.00141436
Zr       9.15328696       6.84664869      16.75950248      -0.00437576       0.00628583       0.00602358
Zr      11.40988040       6.84785474      14.55528047      -0.00254822       0.00056899       0.00225203
Zr       9.12785864       9.12785864      10.00000000       0.00697669       0.00628969       1.52482950
Zr      11.40982330       9.12785864      12.28196466       0.01945374       0.00782849       0.33384129
Zr       9.12785864      11.40982330      12.28196466       0.01220246       0.00553481       0.32753566
Zr      11.40982330      11.40982330      10.00000000      -0.00279582      -0.00313237       1.52171255
Zr       9.12881210       9.12735479      14.56211427      -0.00482030      -0.00318251       0.00526459
Zr      11.41603715       9.13524678      16.75445789      -0.01264957       0.00328587       0.00482365
Zr       9.13845692      11.41070623      16.75297902      -0.00409988      -0.00229728       0.00289403
Zr      11.41655440      11.41496569      14.56003347      -0.00289198      -0.00521420       0.00242146
N        0.00000000       2.28196466      10.00000000      -0.03162714      -0.01038289      -0.87081464
N        2.28196466       0.00000000      10.00000000      -0.02191428      -0.04286312      -0.90988616
N        0.00000000       0.00000000      12.28196466      -0.00252482       0.00890862      -0.98832846
N        2.28196466       2.28196466      12.28196466       0.00941589       0.00658305      -1.23989779
N        0.00480524       2.28888951      14.60743069      -0.00116317      -0.00226386      -0.00874818
N        2.28747068       0.01581748      14.64235378       0.00809255       0.00707670       0.00372270
N        0.01246257       0.01784629      16.91602716      -0.00022086       0.00384997      -0.01223691
N        2.22330123       2.30195225      16.65079157       0.00970180       0.00234305       0.00953468
N        0.00000000       6.84589398      10.00000000      -0.01347901       0.00414153      -0.83054191
N        2.28196466       4.56392932      10.00000000      -0.01608302       0.03020275      -0.96412101
N        0.00000000       4.56392932      12.28196466       0.00606266      -0.00338537      -1.10327476
N        2.28196466       6.84589398      12.28196466       0.02482014      -0.00005759      -1.02942471
N        0.01518706       6.84918535      14.60460112      -0.01216723      -0.00039338      -0.00164319
N        2.29120823       4.56841229      14.64674224      -0.00585903      -0.00542631       0.00785343
N       -0.00726853       4.57348311      16.87599292       0.00770354       0.00097522      -0.00731582
N        2.25178605       6.84032638      16.82290897      -0.01073667       0.00119942      -0.00814500
N        0.00000000      11.40982330      10.00000000       0.01872354       0.00022600      -0.82196008
N        2.28196466       9.12785864      10.00000000      -0.00835814       0.01869526      -0.85654579
N        0.00000000       9.12785864      12.28196466      -0.00355712       0.01419455      -1.00223941
N        2.28196466      11.40982330      12.28196466      -0.00049314       0.00687950      -1.00831158
N        0.00707891      11.41569851      14.59959324      -0.00654629       0.00307555       0.00010567
N        2.28862730       9.12776462      14.61511381      -0.00683425       0.00694969      -0.01309411
N        0.00770330       9.13533050      16.90936818       0.00246209      -0.01169003      -0.00140125
N        2.29534864      11.43189471      16.91108021      -0.00041369      -0.01485661      -0.00197666
N        4.56392932       2.28196466      10.00000000       0.01864770       0.00552427      -0.96904981
N        6.84589398       0.00000000      10.00000000       0.00969512      -0.01647794      -0.84899446
N        4.56392932       0.00000000      12.28196466      -0.00645450       0.01226288      -1.08982224
N        6.84589398       2.28196466      12.28196466      -0.00358463       0.02665000      -1.06743127
N        4.56111951       2.29683637      14.65128080       0.01703870      -0.01726316      -0.00926857
N        6.84343407       0.01263072      14.60418075      -0.00661442      -0.00640616       0.00023011
N        4.59998496      -0.02407883      16.82221666       0.00183654      -0.00687179      -0.00626166
N        6.83253951       2.25016282      16.81868735       0.00649358       0.00489975       0.00287167
N        4.56392932       6.84589398      10.00000000      -0.00203014      -0.00087135      -0.98455151
N        6.84589398       4.56392932      10.00000000      -0.00659951       0.00092791      -0.99208972
N        4.56392932       4.56392932      12.28196466       0.02307102       0.02418868      -0.88374729
N        6.84589398       6.84589398      12.28196466      -0.01988106      -0.02443422      -0.84704325
N        4.56308839       6.84375925      14.63751401      -0.00023551      -0.00212142      -0.01246085
N        6.84014852       4.56535779      14.63590117      -0.00172881      -0.00529004      -0.00433719
N        4.56927149       4.56403293      16.85321293       0.01341730       0.00676252       0.00134520
N        6.85579392       6.85448404      16.92526503       0.00374044       0.00112023       0.00167842
N        4.56392932      11.40982330      10.00000000      -0.00212450       0.00446164      -0.84136626
N        6.84589398       9.12785864      10.00000000       0.01506769       0.01129614      -0.83614203
N        4.56392932       9.12785864      12.28196466       0.00239987      -0.02636743      -1.09700230
N        6.84589398      11.40982330      12.28196466       0.01021834       0.00245952      -1.06737651
N        4.56675990      11.41092353      14.60589492      -0.00532090       0.00179952      -0.00387234
N        6.84351336       9.11478829      14.60896169       0.00407700       0.00162005       0.00161414
N        4.56576329       9.16759363      16.79628465      -0.01437041      -0.00640025      -0.01742514
N        6.84974380      11.40808076      16.90763204      -0.00605803       0.00327867       0.00570913
N        9.12785864       2.28196466      10.00000000       0.02299749      -0.01504918      -0.85103438
N       11.40982330       0.00000000      10.00000000      -0.00569371       0.01657487      -0.83938368
N        9.12785864       0.00000000      12.28196466       0.01091948      -0.00283773      -1.01788509
N       11.40982330       2.28196466      12.28196466      -0.00216718      -0.00978433      -1.05171360
N        9.11831128       2.28359080      14.60931326       0.00098576       0.01456813      -0.01124858
N       11.41637799       0.00547120      14.59351523       0.00559498      -0.00630717      -0.00142979
N        9.13199346       0.00464388      16.90918711       0.00423049      -0.00582741      -0.00402249
N       11.40386750       2.29126583      16.90574502       0.01293908       0.00025814       0.00286729
N        9.12785864       6.84589398      10.00000000       0.00929197       0.01268685      -0.83089261
N       11.40982330       4.56392932      10.00000000       0.01410713      -0.00120045      -0.84820899
N        9.12785864       4.56392932      12.28196466      -0.03569745       0.00809769      -1.07801265
N       11.40982330       6.84589398      12.28196466       0.00272871       0.01300258      -1.04276719
N        9.11627181       6.84362642      14.60854480      -0.00835711      -0.00549393      -0.00422638
N       11.40348905       4.56470242      14.59942140       0.00265389       0.00947452      -0.00537695
N        9.15639441       4.56452338      16.80379281      -0.01642909      -0.00455317       0.00345248
N       11.40926425       6.84708882      16.91045935       0.00397235      -0.00192421      -0.00097213
N        9.12785864      11.40982330      10.00000000      -0.01037414      -0.00445649      -0.83444767
N       11.40982330       9.12785864      10.00000000      -0.00443438      -0.00809872      -0.83796649
N        9.12785864       9.12785864      12.28196466       0.00694121       0.00138043      -0.97570537
N       11.40982330      11.40982330      12.28196466       0.01055258      -0.00041806      -0.95444954
N        9.13372831      11.41025252      14.58773662      -0.00259296      -0.00485681       0.00486556
N       11.41459692       9.13072410      14.59007177      -0.01082537       0.00206048       0.00210316
N        9.13509529       9.13049644      16.91338697      -0.02092595      -0.00129018      -0.00845276
N       11.42091749      11.41712931      16.90903430      -0.00506430       0.00231965      -0.01956969
S        4.40329429       7.13543529      19.45865208      -0.01156894      -0.00138557       0.01045333
S        7.03733492       4.40659772      19.47894553      -0.03333949      -0.01892203       0.02286251
S        3.42148466       1.57073865      19.17377633       0.02450956      -0.02451033      -0.01888115
S        2.45892289       3.45305471      19.40516845      -0.00103384      -0.00973574      -0.00262690
Li       4.60145362       4.72228190      19.48065387       0.00288041       0.01260021      -0.03958650
Li       6.62407098       6.64507776      19.13797138       0.00502136      -0.00718906      -0.00582792
