154
Lattice="13.691787681916065 0.0 0.0 0.0 13.691787681916065 0.0 0.0 0.0 26.84589886156329" Properties=species:S:1:pos:R:3:forces:R:3 energy=-120151.83010523493 free_energy=-120151.83010523493 pbc="T T T"
Zr       0.00000000       0.00000000      10.00000000      -0.01210193      -0.00844736       1.54029211
Zr       2.28196466       0.00000000      12.28196466       0.07559223      -0.00711193       0.41566536
Zr       0.00000000       2.28196466      12.28196466      -0.01399426       0.03049791       0.36201724
Zr       2.28196466       2.28196466      10.00000000       0.06437528       0.03219947       1.72351895
Zr       0.00749115       0.00588904      14.56170530       0.00097728      -0.00337354       0.00559215
Zr       2.29560436       0.00713154      16.76331465       0.00154755      -0.00034710       0.00136371
Zr       0.00401203       2.28552843      16.78269816      -0.00750634       0.01005456      -0.00530419
Zr       2.32543663       2.30188439      14.53835432      -0.01075698      -0.00559781       0.00736878
Zr       0.00000000       4.56392932      10.00000000       0.05418986      -0.01906627       1.63284360
Zr       2.28196466       4.56392932      12.28196466       0.03066426       0.01451208       0.22352245
Zr       0.00000000       6.84589398      12.28196466      -0.04107723      -0.00961798       0.39695930
Zr       2.28196466       6.84589398      10.00000000       0.08692308      -0.04257927       1.71700249
Zr       0.00287004       4.56570433      14.55296125      -0.00696409       0.00337894       0.00552607
Zr       2.26421610       4.56633953      16.89559849      -0.01158153       0.00957685       0.00575644
Zr      -0.01489576       6.85072009      16.75522802      -0.00090760      -0.00241195      -0.01539422
Zr       2.30224760       6.83269467      14.54151882       0.00194838       0.00324910       0.00875615
Zr       0.00000000       9.12785864      10.00000000      -0.01062508       0.02795612       1.56448876
Zr       2.28196466       9.12785864      12.28196466       0.02242593      -0.01034612       0.44367830
Zr       0.00000000      11.40982330      12.28196466       0.02317541       0.00119171       0.34953762
Zr       2.28196466      11.40982330      10.00000000      -0.02961679       0.01306326       1.56817444
Zr       0.00277156       9.12855261      14.55864594      -0.00023037      -0.00539392      -0.00917344
Zr       2.28158040       9.12824453      16.77604714       0.00452951       0.00665067      -0.00308198
Zr       0.01349586      11.41167977      16.75726855      -0.00199826       0.00357743      -0.00356741
Zr       2.29069349      11.41099086      14.56081527      -0.00721683       0.00300176       0.00185531
Zr       4.56392932       0.00000000      10.00000000      -0.00048002       0.07384234       1.66605814
Zr       6.84589398       0.00000000      12.28196466      -0.05296138      -0.01852814       0.40749003
Zr       4.56392932       2.28196466      12.28196466       0.05151051       0.06503297      -0.18034129
Zr       6.84589398       2.28196466      10.00000000      -0.09070312       0.09690076       1.73695039
Zr       4.56978281       0.03838545      14.56126529       0.00286498       0.00287038       0.00327918
Zr       6.84865474       0.00608022      16.75422872      -0.00112049      -0.00327970      -0.00653832
Zr       4.58777854       2.36411684      17.18763317      -0.00722583      -0.02078737      -0.03519840
Zr       6.80866699       2.31651321      14.54283170       0.01207801       0.00493523      -0.01189032
Zr       4.56392932       4.56392932      10.00000000       0.05221885      -0.02370043       1.83476647
Zr       6.84589398       4.56392932      12.28196466      -0.03804153       0.03585686      -0.14692826
Zr       4.56392932       6.84589398      12.28196466       0.00260581      -0.01363765      -0.14825881
Zr       6.84589398       6.84589398      10.00000000       0.00479125      -0.06772800       1.81694153
Zr       4.57857194       4.56979164      14.57385680       0.01002499       0.00404075      -0.00222709
Zr       6.84549558       4.57058875      17.13465507       0.00058698      -0.00093562      -0.01555029
Zr       4.53698756       6.86321363      17.05760311       0.00340543      -0.00595108      -0.00208439
Zr       6.82917574       6.82265924      14.56832200      -0.00047205      -0.00477917       0.01252899
Zr       4.56392932       9.12785864      10.00000000       0.02364464      -0.08270879       1.70102488
Zr       6.84589398       9.12785864      12.28196466      -0.00381115      -0.05688720       0.30776259
Zr       4.56392932      11.40982330      12.28196466       0.02297718       0.03781424       0.42108422
Zr       6.84589398      11.40982330      10.00000000       0.00853863      -0.02741696       1.62033338
Zr       4.57582411       9.10579182      14.54566721       0.00426957       0.00143108      -0.00114286
Zr       6.85433517       9.10473902      16.87304880      -0.00039569      -0.00284570      -0.00558829
Zr       4.57306541      11.41221060      16.76007678      -0.00458222       0.00591277      -0.01088039
Zr       6.84467781      11.39798168      14.55614382       0.00724614      -0.00165759       0.00640153
Zr       9.12785864       0.00000000      10.00000000       0.00776525      -0.00179952       1.58809303
Zr      11.40982330       0.00000000      12.28196466       0.01381274       0.01339185       0.36906900
Zr       9.12785864       2.28196466      12.28196466       0.01497179       0.01980598       0.34210893
Zr      11.40982330       2.28196466      10.00000000       0.02313813      -0.02328262       1.57833133
Zr       9.13425420      -0.00138871      14.54715424      -0.00415567       0.00206768      -0.01971933
Zr      11.42468657       0.00152374      16.75217761       0.00439864       0.01395518      -0.00656017
Zr       9.13881352       2.25975942      16.74825487       0.00030776      -0.00299045      -0.00061655
Zr      11.41959448       2.28279917      14.55635194      -0.00235950      -0.00358463      -0.01304552
Zr       9.12785864       4.56392932      10.00000000      -0.10491489       0.08019014       1.75764186
Zr      11.40982330       4.56392932      12.28196466      -0.03510559       0.04066765       0.50711590
Zr       9.12785864       6.84589398      12.28196466      -0.06026229      -0.05864301       0.04807809
Zr      11.40982330       6.84589398      10.00000000      -0.05374788       0.01615964       1.64271201
Zr       9.09384439       4.58730018      14.55557539      -0.00944700       0.00137888       0.00430634
Zr      11.40757898       4.56001156      16.76030950       0.00500928      -0.00520108      -0.00200160
Zr       9.08468606       6.84594156      17.06940120       0.00887879       0.00992214      -0.01860425
Zr      11.37290443       6.84337804      14.56277175      -0.00304573       0.00023783      -0.00499385
Zr       9.12785864       9.12785864      10.00000000      -0.02430310      -0.06704486       1.69540728
Zr      11.40982330       9.12785864      12.28196466       0.00331158      -0.05219597       0.40979322
Zr       9.12785864      11.40982330      12.28196466      -0.01370167       0.02985822       0.33794066
Zr      11.40982330      11.40982330      10.00000000       0.01774010       0.00337354       1.54128121
Zr       9.11521224       9.09937608      14.54514576       0.00070705      -0.00396078       0.01033275
Zr      11.41361860       9.13599749      16.75552795      -0.01154168       0.00327944      -0.00145370
Zr       9.13275044      11.42531955      16.74969190      -0.00125367      -0.00237673       0.00422972
Zr      11.41730976      11.41326734      14.55628063      -0.00431765      -0.00217978       0.00357743
N        0.00000000       2.28196466      10.00000000      -0.04377792       0.00102330      -0.88204291
N        2.28196466       0.00000000      10.00000000      -0.00155912      -0.01900379      -0.83874065
N        0.00000000       0.00000000      12.28196466       0.02042022      -0.00679465      -1.01283184
N        2.28196466       2.28196466      12.28196466       0.02698141       0.00505273      -1.09312328
N        0.02082909       2.28820004      14.61811979      -0.00324910      -0.00655297       0.00389728
N        2.29056166       0.01031828      14.60527609      -0.00166350       0.01881713       0.00113643
N        0.01806314       0.00566416      16.90503619      -0.00254154       0.00393919       0.00122847
N        2.29040236       2.24686965      16.70417465       0.00207797      -0.00715667       0.00868879
N        0.00000000       6.84589398      10.00000000      -0.01284960      -0.00365688      -0.84386048
N        2.28196466       4.56392932      10.00000000      -0.04223474       0.01507695      -0.94017015
N        0.00000000       4.56392932      12.28196466       0.00777990      -0.00707696      -1.09695268
N        2.28196466       6.84589398      12.28196466       0.02682123      -0.00530084      -1.09643254
N       -0.00512993       6.84618012      14.61008483       0.01082589      -0.00774056       0.00604132
N        2.28593797       4.56912884      14.65393398       0.00511881      -0.00105672       0.01125012
N       -0.00895143       4.57584461      16.87751803       0.00738189      -0.00666918       0.00055047
N        2.22895221       6.83387653      16.78524510      -0.00031265      -0.00182548       0.00043992
N        0.00000000      11.40982330      10.00000000       0.01282106      -0.01080018      -0.85695691
N        2.28196466       9.12785864      10.00000000      -0.02481680       0.02928795      -0.85550270
N        0.00000000       9.12785864      12.28196466      -0.01000391       0.00988923      -1.04157009
N        2.28196466      11.40982330      12.28196466      -0.00217053       0.00825735      -1.03191971
N        0.00835127      11.41240257      14.59317902      -0.00272100       0.00460536       0.00129866
N        2.29085757       9.11991962      14.61682021      -0.00032036      -0.00386900       0.00420530
N        0.00630881       9.12251826      16.90894065      -0.01165738      -0.00402506       0.00748397
N        2.29976905      11.41007912      16.90935341       0.00746700       0.00223789       0.00038541
N        4.56392932       2.28196466      10.00000000       0.00592716      -0.02390637      -1.03502175
N        6.84589398       0.00000000      10.00000000       0.00549008      -0.03436331      -0.83601065
N        4.56392932       0.00000000      12.28196466      -0.00493112       0.03316337      -1.00046561
N        6.84589398       2.28196466      12.28196466      -0.00771717       0.03615382      -1.07894750
N        4.56950129       2.29772200      14.67473996      -0.00390962       0.00211499       0.01866287
N        6.85131725       0.00709313      14.60330514       0.00360674       0.01505201       0.00828847
N        4.57548704       0.04826897      16.90456516       0.00878392       0.00542040      -0.00021006
N        6.90733069       2.21087217      16.67708855      -0.00331595       0.00336480       0.02642297
N        4.56392932       6.84589398      10.00000000      -0.00833629       0.01830240      -1.06025507
N        6.84589398       4.56392932      10.00000000       0.01074927      -0.01208084      -1.01633985
N        4.56392932       4.56392932      12.28196466       0.02747404       0.00878675      -0.90310898
N        6.84589398       6.84589398      12.28196466      -0.02041944      -0.02997238      -0.94580704
N        4.55813443       6.84695799      14.61528979      -0.00259476      -0.00862837       0.00979359
N        6.83747792       4.56578045      14.67993892      -0.00251145      -0.00498434      -0.00808535
N        4.53970421       4.60958307      16.76005802       0.00934365      -0.00290458       0.00028179
N        6.77539724       6.82642408      16.73596024       0.00142105       0.00318123       0.00682551
N        4.56392932      11.40982330      10.00000000       0.00672112      -0.00716926      -0.83543446
N        6.84589398       9.12785864      10.00000000      -0.00998745       0.05990696      -0.89977478
N        4.56392932       9.12785864      12.28196466       0.00170156      -0.04213678      -1.10193599
N        6.84589398      11.40982330      12.28196466       0.01469437       0.00202474      -1.07569428
N        4.56931440      11.41362522      14.61483810      -0.00260761      -0.01134345      -0.00118631
N        6.84401631       9.11402674      14.66079842       0.01215463       0.00256673       0.00510595
N        4.58173972       9.17047912      16.78987582       0.00788609      -0.00839208       0.00481362
N        6.84858635      11.40016130      16.90753545       0.00949945      -0.00195841      -0.00221243
N        9.12785864       2.28196466      10.00000000       0.03629189      -0.03459265      -0.89356145
N       11.40982330       0.00000000      10.00000000       0.01036977       0.01128123      -0.81722385
N        9.12785864       0.00000000      12.28196466      -0.00560346      -0.00212245      -1.12085468
N       11.40982330       2.28196466      12.28196466       0.00242738       0.00113437      -1.07291672
N        9.12059115       2.29312733      14.60840139      -0.00261018       0.00008202       0.00378929
N       11.41812064       0.00138123      14.58854539      -0.00357512       0.00140382      -0.00318817
N        9.12949197       0.00286139      16.89864370      -0.00964652      -0.00023988       0.00663962
N       11.41712455       2.28913378      16.90505810       0.00470975      -0.00256879       0.00242866
N        9.12785864       6.84589398      10.00000000       0.02941805       0.00397595      -0.98121164
N       11.40982330       4.56392932      10.00000000       0.02022250      -0.00747497      -0.80870836
N        9.12785864       4.56392932      12.28196466      -0.04348738       0.02065727      -0.98679479
N       11.40982330       6.84589398      12.28196466      -0.02032920       0.00928965      -1.01825558
N        9.11074741       6.84146729      14.69297552      -0.00732122      -0.00004499      -0.00176840
N       11.39675603       4.56219023      14.61027016      -0.00707722      -0.00028951       0.01528212
N        9.13292276       4.51480719      16.78983442      -0.01410122      -0.00055742       0.01044999
N       11.36884891       6.84711834      16.91089480      -0.00447218      -0.00220806       0.00620561
N        9.12785864      11.40982330      10.00000000      -0.01667643       0.02946021      -0.86711097
N       11.40982330       9.12785864      10.00000000       0.01088219      -0.00477685      -0.83599445
N        9.12785864       9.12785864      12.28196466      -0.00198463      -0.02456123      -1.05717360
N       11.40982330      11.40982330      12.28196466       0.01318102      -0.00426700      -1.02950724
N        9.12914502      11.39544964      14.60115007       0.00020440       0.00224406       0.00294417
N       11.40253137       9.12803473      14.60162209      -0.00782438      -0.00593513      -0.00051422
N        9.17043240       9.18581180      16.74506725       0.00119453      -0.01011549      -0.00155989
N       11.41561931      11.41115674      16.90129242      -0.01037826      -0.00600764       0.00241478
S        4.20618766       7.16792851      19.39236645      -0.00833243      -0.01063897       0.01189058
S        6.06364163       3.20549410      19.13575793       0.00338871      -0.00603052       0.02321500
S        8.07462431       5.89643482      19.34132994       0.03983770      -0.03133429      -0.01286760
S        8.17344496       8.01442728      19.21861800      -0.00641593       0.03826367      -0.01208984
S        5.37240302       5.38282039      22.30836026      -0.00387902      -0.03900441       0.01688366
S        3.34257469       5.17681097      22.07654074      -0.00444929       0.00136191      -0.01050964
S        2.85489383       3.33958996      21.28293399       0.01515588       0.00185659       0.01374486
S        2.60023758       3.03988442      19.10121834      -0.01390838      -0.00474600       0.00139971
Li       4.63312481       4.82507548      20.00163716      -0.00262253       0.01194097      -0.00973600
Li       6.15313243       6.92283663      20.63397878      -0.01015509       0.00227028       0.00963727
