152
Lattice="13.691787681916065 0.0 0.0 0.0 13.691787681916065 0.0 0.0 0.0 26.84589886156329" Properties=species:S:1:pos:R:3:forces:R:3 energy=-119496.5172150217 free_energy=-119496.5172150217 pbc="T T T"
Zr       0.00000000       0.00000000      10.00000000      -0.03204263      -0.00987638       1.56503898
Zr       2.28196466       0.00000000      12.28196466       0.00537515       0.06875773       0.37571196
Zr       0.00000000       2.28196466      12.28196466       0.04140402       0.04631637       0.43905160
Zr       2.28196466       2.28196466      10.00000000       0.03841794       0.02109539       1.67949369
Zr      -0.00596382       0.00479796      14.56254112       0.00414693       0.01290231       0.01413772
Zr       2.27783388      -0.01109276      16.75770002      -0.00357563      -0.01492217      -0.00534944
Zr      -0.02440132       2.28539607      16.75089054       0.00002185       0.00006736       0.00039904
Zr       2.30729260       2.31549403      14.57551307      -0.00927911       0.00262201      -0.00300305
Zr       0.00000000       4.56392932      10.00000000       0.00978125      -0.01988825       1.69508281
Zr       2.28196466       4.56392932      12.28196466       0.05716179       0.02320138       0.09758288
Zr       0.00000000       6.84589398      12.28196466       0.05950227       0.01388884       0.54221300
Zr       2.28196466       6.84589398      10.00000000       0.09572397       0.01256370       1.77619443
Zr       0.03880187       4.57166381      14.54360074       0.01347078       0.00070371      -0.01775810
Zr       2.29011071       4.60854132      17.06941851      -0.01069579      -0.00742252      -0.01012938
Zr      -0.00103127       6.86527596      16.77254976      -0.00772179       0.00887288      -0.00721349
Zr       2.31758752       6.84011045      14.57040774       0.00539520      -0.02349320      -0.01650365
Zr       0.00000000       9.12785864      10.00000000       0.04349072       0.02257300       1.62175674
Zr       2.28196466       9.12785864      12.28196466      -0.02798054       0.00856383       0.12802757
Zr       0.00000000      11.40982330      12.28196466      -0.04036092      -0.02460649       0.32575800
Zr       2.28196466      11.40982330      10.00000000       0.04322616      -0.05986325       1.70463471
Zr       0.00598860       9.12914058      14.56523437      -0.00404589      -0.00290149      -0.00364608
Zr       2.32129558       9.15934100      16.88430826       0.00423435       0.00134803       0.01422180
Zr      -0.01973899      11.41383672      16.75337819       0.00147247       0.00784521      -0.00107652
Zr       2.28818790      11.40550595      14.54255172       0.00813574      -0.01154605      -0.02305560
Zr       4.56392932       0.00000000      10.00000000      -0.00715615      -0.00452283       1.73309477
Zr       6.84589398       0.00000000      12.28196466      -0.02082439       0.02293964       0.46708691
Zr       4.56392932       2.28196466      12.28196466       0.00216101       0.05426622       0.14264455
Zr       6.84589398       2.28196466      10.00000000      -0.03034313       0.06112566       1.72915506
Zr       4.56238868       0.01348092      14.53605999       0.00429554      -0.00376050       0.01068782
Zr       6.84108302      -0.00937617      16.77446445      -0.00497920      -0.00468481       0.00528182
Zr       4.59515946       2.25194402      17.02151076      -0.00571531      -0.02472193       0.01455450
Zr       6.81875093       2.31021307      14.55729006      -0.00264541      -0.01531760       0.01088451
Zr       4.56392932       4.56392932      10.00000000       0.03668990       0.04705684       1.84984959
Zr       6.84589398       4.56392932      12.28196466      -0.05376691       0.01681347      -0.01505741
Zr       4.56392932       6.84589398      12.28196466      -0.00535946      -0.09869565      -0.15433869
Zr       6.84589398       6.84589398      10.00000000      -0.04303332      -0.03432680       1.82597098
Zr       4.55735572       4.56285908      14.58740303      -0.00554381      -0.00068983      -0.02975075
Zr       6.84998735       4.58258520      17.03879953       0.01106011       0.00106161       0.00971748
Zr       4.63782806       6.90037194      17.09818953       0.01386082      -0.01394849       0.01771799
Zr       6.82156207       6.83579122      14.55038861       0.01103646       0.01517337      -0.01541608
Zr       4.56392932       9.12785864      10.00000000      -0.00943055      -0.01366670       1.83695422
Zr       6.84589398       9.12785864      12.28196466       0.03884577      -0.00354349       0.13272549
Zr       4.56392932      11.40982330      12.28196466      -0.00644961      -0.02660475       0.06718987
Zr       6.84589398      11.40982330      10.00000000      -0.04728156      -0.05975449       1.67126231
Zr       4.56520985       9.10838749      14.50421923      -0.00122076      -0.01975121       0.02454606
Zr       6.80259121       9.13228502      16.88184748       0.00191213       0.00379392       0.00021520
Zr       4.54368370      11.39545708      16.87086358       0.00771074      -0.01583748       0.00368876
Zr       6.83105538      11.40318195      14.55917236      -0.00555564      -0.00175632       0.00154009
Zr       9.12785864       0.00000000      10.00000000       0.04929088       0.01308743       1.58328198
Zr      11.40982330       0.00000000      12.28196466      -0.02442317      -0.02370840       0.28420640
Zr       9.12785864       2.28196466      12.28196466      -0.01212069      -0.01039471       0.34152220
Zr      11.40982330       2.28196466      10.00000000      -0.01581846      -0.00905543       1.55229993
Zr       9.12368543      -0.00741375      14.55955317       0.00112563       0.00408754       0.01507541
Zr      11.40268045      -0.00410196      16.75004871       0.01379628       0.00591277       0.00917498
Zr       9.14667243       2.27086946      16.74580703      -0.00019103       0.00360674       0.01638564
Zr      11.41809050       2.27650688      14.55727067      -0.00284570      -0.00437036      -0.00135523
Zr       9.12785864       4.56392932      10.00000000      -0.04018814       0.01665432       1.74679129
Zr      11.40982330       4.56392932      12.28196466       0.02948387       0.02492736       0.23420462
Zr       9.12785864       6.84589398      12.28196466      -0.02664563      -0.00447423       0.29146822
Zr      11.40982330       6.84589398      10.00000000      -0.05301229      -0.01119124       1.57866994
Zr       9.10364301       4.57604286      14.53531721       0.00008947      -0.00237930      -0.02107199
Zr      11.42464867       4.56534417      16.74469496      -0.00393276       0.00070165       0.01251253
Zr       9.11096522       6.83327866      16.85322204       0.00245540       0.00838231       0.01083977
Zr      11.40774780       6.85250478      14.56829469      -0.00463210      -0.00036690       0.00069008
Zr       9.12785864       9.12785864      10.00000000      -0.04183391      -0.03245401       1.64948712
Zr      11.40982330       9.12785864      12.28196466      -0.00325707      -0.02546009       0.41519048
Zr       9.12785864      11.40982330      12.28196466      -0.01507181      -0.01834791       0.41593070
Zr      11.40982330      11.40982330      10.00000000       0.02906144       0.03546503       1.52706713
Zr       9.11973964       9.11479157      14.56875958      -0.01560711      -0.00212553      -0.00021186
Zr      11.40375373       9.12048022      16.75991654       0.00812906       0.00219187      -0.00343602
Zr       9.11884751      11.40598619      16.75742826       0.00291229       0.00338511      -0.00275314
Zr      11.40032918      11.40421616      14.56511010       0.00557775       0.01057495       0.00788429
N        0.00000000       2.28196466      10.00000000      -0.00689441      -0.01639927      -0.84131021
N        2.28196466       0.00000000      10.00000000      -0.00509078       0.00692012      -0.88456953
N        0.00000000       0.00000000      12.28196466      -0.00242738      -0.00049391      -0.95363939
N        2.28196466       2.28196466      12.28196466       0.02181093       0.02325177      -0.91082127
N        0.01638902       2.29129819      14.59795413       0.00325553       0.00458325      -0.00362320
N        2.28102922       0.00966782      14.61303980       0.00919684      -0.00667098       0.01232664
N       -0.00484121       0.00318644      16.91441559       0.00714921       0.00026328      -0.00543840
N        2.27347621       2.28909185      16.90913923       0.00564074      -0.00724305       0.01472728
N        0.00000000       6.84589398      10.00000000      -0.03197090       0.00787272      -0.83640557
N        2.28196466       4.56392932      10.00000000       0.00160000      -0.00683116      -1.02457047
N        0.00000000       4.56392932      12.28196466       0.03772117       0.01998441      -1.02143887
N        2.28196466       6.84589398      12.28196466       0.03101856      -0.03611809      -0.95278141
N        0.01900417       6.84718448      14.61813982      -0.00339951       0.00388494      -0.01583542
N        2.29539232       4.57705421      14.64114864      -0.00028771       0.00307453      -0.00048260
N       -0.00781150       4.57630992      16.81325834      -0.00795037       0.01051735      -0.00146064
N        2.32465803       6.89796636      16.84125536      -0.00461462       0.00642930       0.00594928
N        0.00000000      11.40982330      10.00000000      -0.00407417       0.00548725      -0.87532384
N        2.28196466       9.12785864      10.00000000      -0.03199969      -0.01271925      -0.99259494
N        0.00000000       9.12785864      12.28196466      -0.00139817       0.01958975      -0.94123304
N        2.28196466      11.40982330      12.28196466      -0.01651445      -0.00575824      -1.10203009
N        0.00328785      11.41214839      14.59332955       0.00170567      -0.00792260      -0.00511495
N        2.28554060       9.12771931      14.64446732      -0.01164735      -0.01049396      -0.02936431
N        0.01453383       9.13322827      16.91365356       0.00579321       0.00263538      -0.00901095
N        2.23607800      11.45795651      16.80799709      -0.00171750       0.00529596      -0.00066643
N        4.56392932       2.28196466      10.00000000      -0.00890064       0.00118014      -0.99216891
N        6.84589398       0.00000000      10.00000000      -0.00817662      -0.02091438      -0.87430697
N        4.56392932       0.00000000      12.28196466      -0.01116502       0.02298463      -1.10157732
N        6.84589398       2.28196466      12.28196466      -0.02394957       0.01353506      -1.03564061
N        4.56318621       2.28375577      14.63977927       0.01247731       0.00434002      -0.00702245
N        6.83908335       0.00756984      14.61792468       0.00085566       0.00076722      -0.00866462
N        4.55768475      -0.05809388      16.76279130       0.01211632      -0.01096396       0.00720115
N        6.87568696       2.31462930      16.83950382       0.01584134       0.01050578       0.00237801
N        4.56392932       6.84589398      10.00000000      -0.03031536      -0.02136690      -1.03512382
N        6.84589398       4.56392932      10.00000000      -0.01627663      -0.02922367      -1.01289843
N        4.56392932       4.56392932      12.28196466      -0.00792594       0.02016696      -0.80126167
N        6.84589398       6.84589398      12.28196466      -0.02283165      -0.01668620      -1.04147187
N        4.56813126       6.83434347      14.66943884      -0.01148949      -0.00393584       0.00164936
N        6.83833703       4.56951028      14.68460673       0.01346538      -0.01790285       0.00412379
N        4.54358653       4.53814215      16.77971760       0.00910093      -0.00187459       0.02651502
N        6.84775700       6.89568917      16.71291669      -0.00511650      -0.00451023      -0.00113257
N        4.56392932      11.40982330      10.00000000       0.02295764       0.03977754      -0.99183467
N        6.84589398       9.12785864      10.00000000       0.03642199       0.03079565      -0.98547247
N        4.56392932       9.12785864      12.28196466       0.00551579      -0.02528269      -1.39040142
N        6.84589398      11.40982330      12.28196466       0.01772801      -0.00128324      -1.06142235
N        4.55908696      11.40920844      14.62696185      -0.00204146      -0.01105986      -0.01690089
N        6.84471337       9.12432290      14.64333042       0.00296088      -0.01133728       0.00917318
N        4.56822559       9.10562194      16.57610570       0.01397626      -0.00836663      -0.00273360
N        6.82203606      11.40695701      16.90462572      -0.00153315      -0.00011621      -0.00263872
N        9.12785864       2.28196466      10.00000000       0.02301189      -0.00956785      -0.88646572
N       11.40982330       0.00000000      10.00000000       0.00015375       0.01245622      -0.88802124
N        9.12785864       0.00000000      12.28196466       0.00090580      -0.00587754      -0.95713969
N       11.40982330       2.28196466      12.28196466      -0.00036047      -0.01495456      -1.05959738
N        9.11923630       2.28767431      14.59974608      -0.01407988      -0.00901686      -0.00057130
N       11.40411556      -0.00554327      14.57945965       0.00351367       0.01275319      -0.00257187
N        9.11555709      -0.00351879      16.91230677       0.00745671      -0.00193373      -0.00273797
N       11.41377344       2.28586749      16.91271503      -0.00525251       0.00682679      -0.00109863
N        9.12785864       6.84589398      10.00000000       0.06427244       0.02791138      -0.92058889
N       11.40982330       4.56392932      10.00000000       0.02111030       0.01046413      -0.89423302
N        9.12785864       4.56392932      12.28196466      -0.02542975       0.00831958      -1.03765404
N       11.40982330       6.84589398      12.28196466      -0.00030570      -0.00355481      -1.03036188
N        9.11438794       6.84136809      14.64144764       0.00108012      -0.00046794       0.00356483
N       11.41639963       4.56416881      14.60155199      -0.01881945       0.01520628       0.01180471
N        9.20387786       4.50984486      16.72331716       0.00053376       0.00341442       0.00828898
N       11.40952715       6.83654495      16.91823354       0.00104670       0.00789791       0.00930559
N        9.12785864      11.40982330      10.00000000      -0.01423028      -0.00081041      -0.85709652
N       11.40982330       9.12785864      10.00000000      -0.00506302      -0.01808822      -0.85358465
N        9.12785864       9.12785864      12.28196466      -0.00499283       0.01124163      -0.93384421
N       11.40982330      11.40982330      12.28196466      -0.00781975      -0.00492032      -0.92573418
N        9.11281898      11.39923191      14.59009434       0.00058853       0.00073739       0.00181751
N       11.40691020       9.12741199      14.59270534       0.00514658       0.00213170      -0.00844145
N        9.10455420       9.11359433      16.91247523      -0.01100484       0.00657997       0.00808766
N       11.39554130      11.40191351      16.91134496       0.00345736       0.00083638       0.00786398
S        4.62907169       1.72510584      19.41925135      -0.01186076       0.01979698      -0.00087726
S        2.20475615       4.68021744      19.49992580      -0.00760429      -0.00172932      -0.01596706
S        3.71433281      10.09705706      19.07302462       0.00668024      -0.00418987      -0.01364047
S        5.14860603       8.51815069      19.22444540      -0.03308881      -0.00541989       0.00812597
S        5.99223611       5.71415600      19.33929771      -0.01180959       0.00580966       0.00437165
S        8.05832684       5.44925285      19.14664300      -0.00013164       0.00221835       0.00946012
Li       2.46024501       2.41749861      19.05572432      -0.02542050       0.00007585       0.00248626
Li       4.44606151       3.98774957      19.89170275      -0.00615136       0.01538677       0.00576647
