152
Lattice="13.691787681916065 0.0 0.0 0.0 13.691787681916065 0.0 0.0 0.0 26.84589886156329" Properties=species:S:1:pos:R:3:forces:R:3 energy=-119756.17231313896 free_energy=-119756.17231313896 pbc="T T T"
Zr       0.00000000       0.00000000      10.00000000      -0.05848231      -0.04002822       1.56473842
Zr       2.28196466       0.00000000      12.28196466       0.02878247       0.01495225       0.49591438
Zr       0.00000000       2.28196466      12.28196466       0.03719641      -0.01779281       0.30533598
Zr       2.28196466       2.28196466      10.00000000       0.03961761       0.05225304       1.74179744
Zr       0.00355998      -0.00614576      14.56512750       0.00178949      -0.00098499       0.01414441
Zr       2.29152370      -0.00342477      16.76276263       0.00216333      -0.00116882      -0.00205663
Zr      -0.00221296       2.27860953      16.75698707      -0.00063918       0.00130946      -0.00451280
Zr       2.30757720       2.29438153      14.55258669      -0.00026225      -0.01075184      -0.00550910
Zr       0.00000000       4.56392932      10.00000000       0.00210830       0.00005914       1.65697160
Zr       2.28196466       4.56392932      12.28196466       0.03116203      -0.00504656       0.26915413
Zr       0.00000000       6.84589398      12.28196466      -0.01053458       0.01253079       0.35654670
Zr       2.28196466       6.84589398      10.00000000       0.07409919       0.03164282       1.80246262
Zr      -0.00096461       4.56591915      14.56191268      -0.00246492       0.00058467      -0.00549856
Zr       2.27437896       4.56898832      16.88666465       0.00623158      -0.00420041      -0.01308229
Zr      -0.01759740       6.84867586      16.76156467      -0.00783749      -0.00343062      -0.00347202
Zr       2.29439986       6.84360063      14.54487025       0.00030390       0.00231271       0.00278553
Zr       0.00000000       9.12785864      10.00000000       0.05177765       0.01471082       1.64108398
Zr       2.28196466       9.12785864      12.28196466      -0.06150670       0.00576364       0.10283590
Zr       0.00000000      11.40982330      12.28196466       0.00158868       0.01131363       0.32280072
Zr       2.28196466      11.40982330      10.00000000      -0.00561118      -0.06575879       1.67515161
Zr       0.00064044       9.13007343      14.56266827       0.00425620      -0.00263410       0.00902869
Zr       2.30924278       9.13273976      16.87649287       0.00346585      -0.01058883      -0.00171415
Zr      -0.00000050      11.40494799      16.75977289       0.01303858      -0.00148353       0.00349413
Zr       2.29747478      11.40428126      14.56106671      -0.00550165      -0.00550062      -0.00083664
Zr       4.56392932       0.00000000      10.00000000       0.01541582      -0.01611002       1.69993319
Zr       6.84589398       0.00000000      12.28196466      -0.02263291       0.01127660       0.41486086
Zr       4.56392932       2.28196466      12.28196466       0.00505942       0.02016979       0.09329736
Zr       6.84589398       2.28196466      10.00000000       0.01130720       0.03462685       1.78125898
Zr       4.56905183       0.02038050      14.56805773       0.00476194       0.00303056       0.00543557
Zr       6.85800284      -0.00210216      16.75920685      -0.00084846       0.00348667       0.00175066
Zr       4.58515956       2.34018902      17.00799753      -0.00523271      -0.00027331       0.00634754
Zr       6.84717208       2.29488109      14.55092917       0.00537361       0.00349927      -0.00484370
Zr       4.56392932       4.56392932      10.00000000       0.01947636       0.03378301       1.85620613
Zr       6.84589398       4.56392932      12.28196466      -0.05720293       0.01526824       0.21231167
Zr       4.56392932       6.84589398      12.28196466      -0.03312995      -0.06182912      -0.10825784
Zr       6.84589398       6.84589398      10.00000000      -0.02820397       0.00009205       1.78979479
Zr       4.56242437       4.56515421      14.55084824       0.01333426       0.00497843      -0.02848962
Zr       6.83342417       4.56251407      16.90996362       0.01035049       0.00213170       0.01402562
Zr       4.49630223       6.86591549      17.02867202      -0.01246059      -0.01273493       0.01420123
Zr       6.82926417       6.84757412      14.57962038      -0.00413999      -0.00220832       0.00275262
Zr       4.56392932       9.12785864      10.00000000      -0.01605525      -0.03057942       1.81345999
Zr       6.84589398       9.12785864      12.28196466       0.04914998      -0.00595673       0.22093412
Zr       4.56392932      11.40982330      12.28196466       0.03585198       0.03656417       0.16306733
Zr       6.84589398      11.40982330      10.00000000      -0.04160996      -0.02994050       1.69702502
Zr       4.55921223       9.11320220      14.50397972       0.00301153      -0.00117577       0.01673865
Zr       6.79599704       9.14499095      16.87998831      -0.00918784       0.01137636       0.02489728
Zr       4.58682489      11.39078594      16.87240707       0.00050908      -0.00188539       0.01410199
Zr       6.83870690      11.39981372      14.55044065      -0.00033990      -0.00428166      -0.00030288
Zr       9.12785864       0.00000000      10.00000000       0.02624839       0.05062682       1.64156684
Zr      11.40982330       0.00000000      12.28196466       0.05052063      -0.02872822       0.31400112
Zr       9.12785864       2.28196466      12.28196466       0.01216877      -0.00939430       0.02106068
Zr      11.40982330       2.28196466      10.00000000      -0.04412116      -0.02501812       1.68893915
Zr       9.13901142       0.01185794      14.55574655      -0.00077313       0.00395616       0.00535561
Zr      11.42068707      -0.00835723      16.75516726       0.00590222      -0.00429271      -0.00519363
Zr       9.15160842       2.27590907      16.91762620       0.00095259       0.01555312       0.00864842
Zr      11.39990516       2.28939337      14.54545406       0.00314112       0.00344425       0.00421532
Zr       9.12785864       4.56392932      10.00000000      -0.04405560      -0.01408836       1.78339840
Zr      11.40982330       4.56392932      12.28196466      -0.04935952       0.04200643       0.35978089
Zr       9.12785864       6.84589398      12.28196466      -0.05279375       0.00796451       0.26650821
Zr      11.40982330       6.84589398      10.00000000      -0.01723899      -0.02430515       1.63560702
Zr       9.12019782       4.56295002      14.54568731       0.00767243       0.01094699      -0.00282256
Zr      11.40636595       4.56490913      16.83963484      -0.00514272       0.00308867      -0.01920486
Zr       9.11983357       6.84576121      16.92546195       0.01316739      -0.00414693       0.01170495
Zr      11.38371353       6.83560930      14.56234667       0.00326787       0.00437705       0.00019695
Zr       9.12785864       9.12785864      10.00000000      -0.04301610      -0.01759329       1.67252600
Zr      11.40982330       9.12785864      12.28196466      -0.02142912      -0.03134740       0.42107368
Zr       9.12785864      11.40982330      12.28196466      -0.00196381      -0.02245499       0.33101719
Zr      11.40982330      11.40982330      10.00000000       0.03367400       0.05114978       1.55121904
Zr       9.11780170       9.10731489      14.56611296      -0.00542966       0.00598964      -0.00611203
Zr      11.40438901       9.12780134      16.75619748       0.01040140      -0.00371499      -0.00537155
Zr       9.14338490      11.40238360      16.75025094      -0.01444780       0.00059315       0.00349773
Zr      11.41320108      11.40475006      14.56925369       0.00458145       0.00192293       0.00023423
N        0.00000000       2.28196466      10.00000000      -0.00976608       0.02735577      -0.90404409
N        2.28196466       0.00000000      10.00000000       0.03840534      -0.00060729      -0.83418439
N        0.00000000       0.00000000      12.28196466       0.00848258      -0.00994914      -0.92844592
N        2.28196466       2.28196466      12.28196466       0.00933002       0.00206922      -1.00465265
N        0.00615282       2.28320875      14.60770990      -0.00003702      -0.00600815      -0.00649332
N        2.29098770       0.00531219      14.60439737       0.00180826      -0.00875769      -0.00788686
N        0.01125974       0.00325072      16.91349709       0.00641465      -0.00911996      -0.00197538
N        2.25935433       2.26375089      16.81228548      -0.00410837      -0.00279068      -0.00871758
N        0.00000000       6.84589398      10.00000000      -0.02603293      -0.01323218      -0.87628261
N        2.28196466       4.56392932      10.00000000      -0.04942946      -0.02052589      -0.97771983
N        0.00000000       4.56392932      12.28196466       0.01186050       0.00624212      -1.05622949
N        2.28196466       6.84589398      12.28196466      -0.00746803      -0.00644884      -1.04239233
N       -0.00443566       6.84700855      14.60933725      -0.00382734       0.00065486      -0.00872684
N        2.28303761       4.57181719      14.63773858      -0.00068828      -0.00079756      -0.00659334
N        0.00158685       4.56180337      16.90268947       0.00424258       0.01009929       0.00836817
N        2.23341594       6.86307545      16.77176345       0.00041086       0.00867156       0.01221017
N        0.00000000      11.40982330      10.00000000      -0.00545331      -0.01897500      -0.90572508
N        2.28196466       9.12785864      10.00000000      -0.03544960       0.02814330      -1.01629229
N        0.00000000       9.12785864      12.28196466      -0.02072129      -0.00073688      -0.93550925
N        2.28196466      11.40982330      12.28196466       0.00302027       0.01759946      -0.99379462
N        0.01076551      11.40590122      14.58905285       0.00548545      -0.00217001      -0.00530239
N        2.28033276       9.12314676      14.63054601      -0.00798456      -0.00501648       0.00266392
N        0.01030414       9.12509896      16.90804807      -0.00036073       0.00065897       0.00048208
N        2.29946891      11.40409827      16.90068585       0.01800055      -0.00141128       0.00385691
N        4.56392932       2.28196466      10.00000000       0.01144989      -0.03229537      -1.01378932
N        6.84589398       0.00000000      10.00000000      -0.00213659       0.01132982      -0.84755130
N        4.56392932       0.00000000      12.28196466       0.00497920       0.00690778      -0.96667360
N        6.84589398       2.28196466      12.28196466       0.00319202       0.01039497      -1.06945884
N        4.57339540       2.28592634      14.68160064       0.00060961       0.00082378      -0.00283644
N        6.85407787       0.00090514      14.60809180       0.00483856      -0.00238624       0.00538080
N        4.57523126       0.01524280      16.91054317       0.01181011      -0.00990055       0.00352190
N        6.91243577       2.23692260      16.73572313       0.01537905       0.00310384      -0.00231039
N        4.56392932       6.84589398      10.00000000       0.03069100      -0.02502943      -1.04748414
N        6.84589398       4.56392932      10.00000000      -0.00059264       0.01208110      -0.94388231
N        4.56392932       4.56392932      12.28196466       0.00237596       0.02530865      -1.00755259
N        6.84589398       6.84589398      12.28196466      -0.01767068      -0.01595472      -0.96168540
N        4.55784536       6.83792445      14.67041542      -0.00513501       0.00067749       0.00623441
N        6.83966313       4.56925165      14.67295474       0.00370393      -0.00407443       0.00159640
N        4.58498242       4.59350534      16.70861380      -0.01021602      -0.01956018      -0.00436650
N        6.78260528       6.84813166      16.89291192       0.00521523       0.01238552       0.01101229
N        4.56392932      11.40982330      10.00000000      -0.01609305       0.05366766      -1.00289478
N        6.84589398       9.12785864      10.00000000       0.02856753      -0.02849991      -0.95766548
N        4.56392932       9.12785864      12.28196466       0.00206717      -0.01498130      -1.36850282
N        6.84589398      11.40982330      12.28196466       0.00655940      -0.00386900      -1.02280181
N        4.56737307      11.41281143      14.62977202       0.00967403      -0.00539212       0.00796348
N        6.83805501       9.12379302      14.63929929       0.00694069      -0.00213453       0.00670929
N        4.55852776       9.10215642      16.56907234       0.01387033      -0.00427266       0.00610766
N        6.88472143      11.43979481      16.83851800      -0.00428063      -0.00467452      -0.00474214
N        9.12785864       2.28196466      10.00000000       0.01833042      -0.00400526      -1.06184092
N       11.40982330       0.00000000      10.00000000      -0.00300356      -0.00753899      -0.88250648
N        9.12785864       0.00000000      12.28196466      -0.00424463      -0.03174541      -0.99683675
N       11.40982330       2.28196466      12.28196466       0.00008587       0.00834117      -1.05349461
N        9.12827712       2.28650755      14.61664249       0.00616679      -0.00102561      -0.00558984
N       11.41469889       0.00461199      14.58591965      -0.00041986      -0.00403226       0.00348487
N        9.13678584      -0.00337249      16.88801886      -0.01321084      -0.00010927      -0.00509618
N       11.43257727       2.27067007      16.82603621       0.00377464       0.01551815       0.00290509
N        9.12785864       6.84589398      10.00000000       0.01177797       0.02295661      -0.98516163
N       11.40982330       4.56392932      10.00000000       0.05929170      -0.00663705      -0.94549722
N        9.12785864       4.56392932      12.28196466      -0.02120055       0.00760532      -1.07504277
N       11.40982330       6.84589398      12.28196466      -0.01254056      -0.00153778      -1.01509030
N        9.10675542       6.83511858      14.63518862       0.00204917       0.01371529      -0.01437092
N       11.40038757       4.55922826      14.60906247      -0.00778633       0.01299975       0.01240249
N        9.09457050       4.54529896      16.71176778       0.00688259       0.00421867       0.00233739
N       11.40426755       6.85274430      16.86579341      -0.00112871      -0.00066437       0.00326582
N        9.12785864      11.40982330      10.00000000       0.00187613      -0.00440687      -0.92323507
N       11.40982330       9.12785864      10.00000000      -0.00707336       0.00016738      -0.87161888
N        9.12785864       9.12785864      12.28196466      -0.00137760       0.00564589      -0.91295400
N       11.40982330      11.40982330      12.28196466       0.00802570      -0.00315294      -0.89798760
N        9.12248972      11.40539268      14.59390507      -0.01827232       0.00276445       0.00818151
N       11.40369126       9.11833050      14.58873276       0.00508436       0.00183860       0.00047231
N        9.10814801       9.11995315      16.90421526       0.00346893       0.00546976       0.00197409
N       11.41573041      11.40410371      16.92164855      -0.00820259      -0.00124030      -0.00209416
S       10.42774939       4.52289644      19.44650327      -0.02942268      -0.00002288       0.00292103
S        9.07741067       6.11779643      19.45037649      -0.00327867      -0.00381372      -0.00574564
S        5.30206582       9.99902577      19.10296731       0.01778895       0.00735130       0.01383382
S        3.76640267       8.53299382      19.16659715      -0.01599175      -0.01984429       0.00744540
S        3.09060293       5.34513389      19.28835353       0.00978459      -0.00962364      -0.01929793
S        3.77959305       3.38140072      19.45857243       0.02131547       0.00314137      -0.02257891
S        5.83769614       3.22073680      19.23351298      -0.01176614       0.00632594      -0.00183422
S        9.32579730       2.74188764      19.48780902      -0.01794167       0.01483218      -0.00220935
