
     Program PWSCF v.7.5 starts on 15Mar2026 at  0: 8:21 

     This program is part of the open-source Quantum ESPRESSO suite
     for quantum simulation of materials; please cite
         "P. Giannozzi et al., J. Phys.:Condens. Matter 21 395502 (2009);
         "P. Giannozzi et al., J. Phys.:Condens. Matter 29 465901 (2017);
         "P. Giannozzi et al., J. Chem. Phys. 152 154105 (2020);
          URL http://www.quantum-espresso.org", 
     in publications or presentations arising from this work. More details at
     http://www.quantum-espresso.org/quote

     Parallel version (MPI & OpenMP), running on      72 processor cores
     Number of MPI processes:                72
     Threads/MPI process:                     1

     MPI processes distributed on     1 nodes
     413027 MiB available memory on the printing compute node when the environment starts

     Waiting for input...
     Reading input from standard input

     Current dimensions of program PWSCF are:
     Max number of different atomic species (ntypx) = 10
     Max number of k-points (npk) =  40000
     Max angular momentum in pseudopotentials (lmaxx) =  4

     K-points division:     npool     =       2
     R & G space division:  proc/nbgrp/npool/nimage =      36
     Subspace diagonalization in iterative solution of the eigenvalue problem:
     one sub-group per band group will be used
     ELPA distributed-memory algorithm (size of sub-group:  6*  6 procs)


     Parallelization info
     --------------------
     sticks:   dense  smooth     PW     G-vecs:    dense   smooth      PW
     Min         568     227     60               127110    32145    4358
     Max         570     228     61               127113    32149    4365
     Sum       20453    8181   2161              4576003  1157265  157021

     Using Slab Decomposition



     bravais-lattice index     =            0
     lattice parameter (alat)  =      23.8894  a.u.
     unit-cell volume          =   28386.4681 (a.u.)^3
     number of atoms/cell      =          154
     number of atomic types    =            4
     number of electrons       =      1278.00
     number of Kohn-Sham states=          767
     kinetic-energy cutoff     =      45.0000  Ry
     charge density cutoff     =     450.0000  Ry
     scf convergence threshold =      1.0E-06
     mixing beta               =       0.2000
     number of iterations used =            8  local-TF  mixing
     energy convergence thresh.=      1.0E-04
     force convergence thresh. =      7.8E-04
     Exchange-correlation=  SLA  PW   PBX  PBC
                           (   1   4   3   4   0   0   0)
     nstep                     =          195


     celldm(1)=  23.889444  celldm(2)=   0.000000  celldm(3)=   0.000000
     celldm(4)=   0.000000  celldm(5)=   0.000000  celldm(6)=   0.000000

     crystal axes: (cart. coord. in units of alat)
               a(1) = (   1.000000   0.000000   0.000000 )  
               a(2) = (   0.000000   1.000000   0.000000 )  
               a(3) = (   0.000000   0.000000   2.082060 )  

     reciprocal axes: (cart. coord. in units 2 pi/alat)
               b(1) = (  1.000000  0.000000  0.000000 )  
               b(2) = (  0.000000  1.000000  0.000000 )  
               b(3) = (  0.000000  0.000000  0.480294 )  


     PseudoPot. # 1 for Ti read from file:
     /scratch/anizami/QE_2/USPP/ti_pbe_v1.4.uspp.F.UPF
     MD5 check sum: 88a00a6731bd790ddea75d31a80cb452
     Pseudo is Ultrasoft + core correction, Zval = 12.0
     Generated by new atomic code, or converted to UPF format
     Using radial grid of  851 points,  6 beta functions with: 
                l(1) =   0
                l(2) =   0
                l(3) =   1
                l(4) =   1
                l(5) =   2
                l(6) =   2
     Q(r) pseudized with  6 coefficients,  rinner =    1.000   1.000   1.000
                                                       1.000   1.000

     PseudoPot. # 2 for N  read from file:
     /scratch/anizami/QE_2/USPP/n_pbe_v1.2.uspp.F.UPF
     MD5 check sum: 95339753478d7afb44899504a8723017
     Pseudo is Ultrasoft + core correction, Zval =  5.0
     Generated by new atomic code, or converted to UPF format
     Using radial grid of  729 points,  4 beta functions with: 
                l(1) =   0
                l(2) =   0
                l(3) =   1
                l(4) =   1
     Q(r) pseudized with  8 coefficients,  rinner =    0.900   0.900   0.900


     PseudoPot. # 3 for S  read from file:
     /scratch/anizami/QE_2/USPP/s_pbe_v1.4.uspp.F.UPF
     MD5 check sum: 88d86576ff6df21479756cfb9bdac1df
     Pseudo is Ultrasoft + core correction, Zval =  6.0
     Generated by new atomic code, or converted to UPF format
     Using radial grid of  907 points,  6 beta functions with: 
                l(1) =   0
                l(2) =   0
                l(3) =   1
                l(4) =   1
                l(5) =   2
                l(6) =   2
     Q(r) pseudized with  8 coefficients,  rinner =    1.300   1.300   1.300
                                                       1.300   1.300

     PseudoPot. # 4 for Li read from file:
     /scratch/anizami/QE_2/USPP/li_pbe_v1.4.uspp.F.UPF
     MD5 check sum: e912e257baa3777c20ea3d68f190483c
     Pseudo is Ultrasoft, Zval =  3.0
     Generated by new atomic code, or converted to UPF format
     Using radial grid of  751 points,  5 beta functions with: 
                l(1) =   0
                l(2) =   0
                l(3) =   0
                l(4) =   1
                l(5) =   1
     Q(r) pseudized with 10 coefficients,  rinner =    1.150   1.150   1.150


     atomic species   valence    mass     pseudopotential
     Ti               12.00     1.00000     Ti( 1.00)
     N                 5.00     1.00000     N ( 1.00)
     S                 6.00     1.00000     S ( 1.00)
     Li                3.00     1.00000     Li( 1.00)

     No symmetry found



   Cartesian axes

     site n.     atom                  positions (alat units)
         1        Ti     tau(   1) = (   0.0000000   0.0000000   0.7910298  )
         2        Ti     tau(   2) = (   0.1666667   0.0000000   0.9576964  )
         3        Ti     tau(   3) = (   0.0000000   0.1666667   0.9576964  )
         4        Ti     tau(   4) = (   0.1666667   0.1666667   0.7910298  )
         5        Ti     tau(   5) = (  -0.0000000  -0.0000000   1.1238430  )
         6        Ti     tau(   6) = (   0.1666662   0.0000000   1.2828747  )
         7        Ti     tau(   7) = (  -0.0000000   0.1666662   1.2828747  )
         8        Ti     tau(   8) = (   0.1666669   0.1666669   1.1238432  )
         9        Ti     tau(   9) = (   0.0000000   0.3333333   0.7910298  )
        10        Ti     tau(  10) = (   0.1666667   0.3333333   0.9576964  )
        11        Ti     tau(  11) = (   0.0000000   0.5000000   0.9576964  )
        12        Ti     tau(  12) = (   0.1666667   0.5000000   0.7910298  )
        13        Ti     tau(  13) = (  -0.0000000   0.3333335   1.1238432  )
        14        Ti     tau(  14) = (   0.1666666   0.3333330   1.2828752  )
        15        Ti     tau(  15) = (  -0.0000000   0.5000000   1.2828751  )
        16        Ti     tau(  16) = (   0.1666674   0.5000000   1.1238436  )
        17        Ti     tau(  17) = (   0.0000000   0.6666667   0.7910298  )
        18        Ti     tau(  18) = (   0.1666667   0.6666667   0.9576964  )
        19        Ti     tau(  19) = (   0.0000000   0.8333333   0.9576964  )
        20        Ti     tau(  20) = (   0.1666667   0.8333333   0.7910298  )
        21        Ti     tau(  21) = (  -0.0000000   0.6666666   1.1238431  )
        22        Ti     tau(  22) = (   0.1666666   0.6666670   1.2828753  )
        23        Ti     tau(  23) = (   0.0000000   0.8333338   1.2828747  )
        24        Ti     tau(  24) = (   0.1666669   0.8333331   1.1238431  )
        25        Ti     tau(  25) = (   0.3333333   0.0000000   0.7910298  )
        26        Ti     tau(  26) = (   0.5000000   0.0000000   0.9576964  )
        27        Ti     tau(  27) = (   0.3333333   0.1666667   0.9576964  )
        28        Ti     tau(  28) = (   0.5000000   0.1666667   0.7910298  )
        29        Ti     tau(  29) = (   0.3333334  -0.0000000   1.1238431  )
        30        Ti     tau(  30) = (   0.5000000  -0.0000000   1.2828750  )
        31        Ti     tau(  31) = (   0.3333330   0.1666666   1.2828753  )
        32        Ti     tau(  32) = (   0.5000000   0.1666674   1.1238436  )
        33        Ti     tau(  33) = (   0.3333333   0.3333333   0.7910298  )
        34        Ti     tau(  34) = (   0.5000000   0.3333333   0.9576964  )
        35        Ti     tau(  35) = (   0.3333333   0.5000000   0.9576964  )
        36        Ti     tau(  36) = (   0.5000000   0.5000000   0.7910298  )
        37        Ti     tau(  37) = (   0.3333340   0.3333340   1.1238440  )
        38        Ti     tau(  38) = (   0.5000000   0.3333334   1.2828761  )
        39        Ti     tau(  39) = (   0.3333334   0.5000000   1.2828761  )
        40        Ti     tau(  40) = (   0.5000000   0.5000000   1.1238443  )
        41        Ti     tau(  41) = (   0.3333333   0.6666667   0.7910298  )
        42        Ti     tau(  42) = (   0.5000000   0.6666667   0.9576964  )
        43        Ti     tau(  43) = (   0.3333333   0.8333333   0.9576964  )
        44        Ti     tau(  44) = (   0.5000000   0.8333333   0.7910298  )
        45        Ti     tau(  45) = (   0.3333340   0.6666660   1.1238440  )
        46        Ti     tau(  46) = (   0.5000000   0.6666666   1.2828761  )
        47        Ti     tau(  47) = (   0.3333330   0.8333334   1.2828753  )
        48        Ti     tau(  48) = (   0.5000000   0.8333326   1.1238436  )
        49        Ti     tau(  49) = (   0.6666667   0.0000000   0.7910298  )
        50        Ti     tau(  50) = (   0.8333333   0.0000000   0.9576964  )
        51        Ti     tau(  51) = (   0.6666667   0.1666667   0.9576964  )
        52        Ti     tau(  52) = (   0.8333333   0.1666667   0.7910298  )
        53        Ti     tau(  53) = (   0.6666666  -0.0000000   1.1238431  )
        54        Ti     tau(  54) = (   0.8333338  -0.0000000   1.2828747  )
        55        Ti     tau(  55) = (   0.6666670   0.1666666   1.2828753  )
        56        Ti     tau(  56) = (   0.8333331   0.1666669   1.1238431  )
        57        Ti     tau(  57) = (   0.6666667   0.3333333   0.7910298  )
        58        Ti     tau(  58) = (   0.8333333   0.3333333   0.9576964  )
        59        Ti     tau(  59) = (   0.6666667   0.5000000   0.9576964  )
        60        Ti     tau(  60) = (   0.8333333   0.5000000   0.7910298  )
        61        Ti     tau(  61) = (   0.6666660   0.3333340   1.1238440  )
        62        Ti     tau(  62) = (   0.8333335   0.3333330   1.2828753  )
        63        Ti     tau(  63) = (   0.6666666   0.5000000   1.2828761  )
        64        Ti     tau(  64) = (   0.8333326   0.5000000   1.1238436  )
        65        Ti     tau(  65) = (   0.6666667   0.6666667   0.7910298  )
        66        Ti     tau(  66) = (   0.8333333   0.6666667   0.9576964  )
        67        Ti     tau(  67) = (   0.6666667   0.8333333   0.9576964  )
        68        Ti     tau(  68) = (   0.8333333   0.8333333   0.7910298  )
        69        Ti     tau(  69) = (   0.6666660   0.6666660   1.1238440  )
        70        Ti     tau(  70) = (   0.8333334   0.6666670   1.2828752  )
        71        Ti     tau(  71) = (   0.6666670   0.8333334   1.2828753  )
        72        Ti     tau(  72) = (   0.8333331   0.8333331   1.1238431  )
        73        N      tau(  73) = (   0.0000000   0.1666667   0.7910298  )
        74        N      tau(  74) = (   0.1666667   0.0000000   0.7910298  )
        75        N      tau(  75) = (   0.0000000   0.0000000   0.9576964  )
        76        N      tau(  76) = (   0.1666667   0.1666667   0.9576964  )
        77        N      tau(  77) = (  -0.0000000   0.1666669   1.1252697  )
        78        N      tau(  78) = (   0.1666669  -0.0000000   1.1252697  )
        79        N      tau(  79) = (   0.0000000   0.0000000   1.2964479  )
        80        N      tau(  80) = (   0.1666665   0.1666665   1.2964485  )
        81        N      tau(  81) = (   0.0000000   0.5000000   0.7910298  )
        82        N      tau(  82) = (   0.1666667   0.3333333   0.7910298  )
        83        N      tau(  83) = (   0.0000000   0.3333333   0.9576964  )
        84        N      tau(  84) = (   0.1666667   0.5000000   0.9576964  )
        85        N      tau(  85) = (  -0.0000000   0.5000000   1.1252702  )
        86        N      tau(  86) = (   0.1666670   0.3333335   1.1252703  )
        87        N      tau(  87) = (   0.0000000   0.3333331   1.2964487  )
        88        N      tau(  88) = (   0.1666665   0.5000000   1.2964495  )
        89        N      tau(  89) = (   0.0000000   0.8333333   0.7910298  )
        90        N      tau(  90) = (   0.1666667   0.6666667   0.7910298  )
        91        N      tau(  91) = (   0.0000000   0.6666667   0.9576964  )
        92        N      tau(  92) = (   0.1666667   0.8333333   0.9576964  )
        93        N      tau(  93) = (  -0.0000000   0.8333331   1.1252697  )
        94        N      tau(  94) = (   0.1666670   0.6666664   1.1252703  )
        95        N      tau(  95) = (  -0.0000000   0.6666669   1.2964486  )
        96        N      tau(  96) = (   0.1666665   0.8333335   1.2964485  )
        97        N      tau(  97) = (   0.3333333   0.1666667   0.7910298  )
        98        N      tau(  98) = (   0.5000000   0.0000000   0.7910298  )
        99        N      tau(  99) = (   0.3333333   0.0000000   0.9576964  )
       100        N      tau( 100) = (   0.5000000   0.1666667   0.9576964  )
       101        N      tau( 101) = (   0.3333335   0.1666670   1.1252703  )
       102        N      tau( 102) = (   0.5000000  -0.0000000   1.1252702  )
       103        N      tau( 103) = (   0.3333331  -0.0000000   1.2964487  )
       104        N      tau( 104) = (   0.5000000   0.1666665   1.2964496  )
       105        N      tau( 105) = (   0.3333333   0.5000000   0.7910298  )
       106        N      tau( 106) = (   0.5000000   0.3333333   0.7910298  )
       107        N      tau( 107) = (   0.3333333   0.3333333   0.9576964  )
       108        N      tau( 108) = (   0.5000000   0.5000000   0.9576964  )
       109        N      tau( 109) = (   0.3333336   0.5000000   1.1252708  )
       110        N      tau( 110) = (   0.5000000   0.3333336   1.1252708  )
       111        N      tau( 111) = (   0.3333331   0.3333331   1.2964501  )
       112        N      tau( 112) = (   0.5000000   0.5000000   1.2964514  )
       113        N      tau( 113) = (   0.3333333   0.8333333   0.7910298  )
       114        N      tau( 114) = (   0.5000000   0.6666667   0.7910298  )
       115        N      tau( 115) = (   0.3333333   0.6666667   0.9576964  )
       116        N      tau( 116) = (   0.5000000   0.8333333   0.9576964  )
       117        N      tau( 117) = (   0.3333335   0.8333330   1.1252703  )
       118        N      tau( 118) = (   0.5000000   0.6666664   1.1252708  )
       119        N      tau( 119) = (   0.3333331   0.6666669   1.2964501  )
       120        N      tau( 120) = (   0.5000000   0.8333335   1.2964495  )
       121        N      tau( 121) = (   0.6666667   0.1666667   0.7910298  )
       122        N      tau( 122) = (   0.8333333   0.0000000   0.7910298  )
       123        N      tau( 123) = (   0.6666667   0.0000000   0.9576964  )
       124        N      tau( 124) = (   0.8333333   0.1666667   0.9576964  )
       125        N      tau( 125) = (   0.6666665   0.1666670   1.1252703  )
       126        N      tau( 126) = (   0.8333331  -0.0000000   1.1252697  )
       127        N      tau( 127) = (   0.6666669   0.0000000   1.2964487  )
       128        N      tau( 128) = (   0.8333334   0.1666666   1.2964485  )
       129        N      tau( 129) = (   0.6666667   0.5000000   0.7910298  )
       130        N      tau( 130) = (   0.8333333   0.3333333   0.7910298  )
       131        N      tau( 131) = (   0.6666667   0.3333333   0.9576964  )
       132        N      tau( 132) = (   0.8333333   0.5000000   0.9576964  )
       133        N      tau( 133) = (   0.6666664   0.5000000   1.1252708  )
       134        N      tau( 134) = (   0.8333330   0.3333335   1.1252703  )
       135        N      tau( 135) = (   0.6666669   0.3333331   1.2964501  )
       136        N      tau( 136) = (   0.8333335   0.5000000   1.2964495  )
       137        N      tau( 137) = (   0.6666667   0.8333333   0.7910298  )
       138        N      tau( 138) = (   0.8333333   0.6666667   0.7910298  )
       139        N      tau( 139) = (   0.6666667   0.6666667   0.9576964  )
       140        N      tau( 140) = (   0.8333333   0.8333333   0.9576964  )
       141        N      tau( 141) = (   0.6666665   0.8333330   1.1252702  )
       142        N      tau( 142) = (   0.8333330   0.6666665   1.1252702  )
       143        N      tau( 143) = (   0.6666669   0.6666668   1.2964501  )
       144        N      tau( 144) = (   0.8333335   0.8333335   1.2964485  )
       145        S      tau( 145) = (   0.2822627   0.5057119   1.4809023  )
       146        S      tau( 146) = (   0.5156080   0.3251538   1.5327361  )
       147        S      tau( 147) = (   0.5510323   0.2734232   1.6853382  )
       148        S      tau( 148) = (   0.6110527   0.3997414   1.7664007  )
       149        S      tau( 149) = (   0.4943758   0.4800062   1.8498476  )
       150        S      tau( 150) = (   0.4293450   0.5952779   1.7463842  )
       151        S      tau( 151) = (   0.2666406   0.5796602   1.7381993  )
       152        S      tau( 152) = (   0.2221590   0.4662913   1.6271355  )
       153        Li     tau( 153) = (   0.3333331   0.3333331   1.5337603  )
       154        Li     tau( 154) = (   0.4577878   0.5010404   1.5632376  )

     --------------------------------------------
     DFT-D3 Dispersion Correction (3-body terms):
     --------------------------------------------
       Reference C6 values for interpolation: 

         atom   Coordination number   C6
         Li         0.000          2326.89
         Li         0.987           170.64
         N          0.000            50.54
         N          0.994            44.25
         N          2.014            39.35
         N          2.990            31.16
         S          0.000           268.01
         S          0.995           261.99
         S          1.990           251.62
         Ti         0.000          2723.84
         Ti         1.830           604.00
         Ti         3.868           643.18

       Values used:

         atom   Coordination number  R0_AB[au]  C6      C8
         Ti        11.590            3.557    643.18  76289.64
         Ti        15.897            3.557    643.18  76289.64
         Ti        15.897            3.557    643.18  76289.64
         Ti        11.590            3.557    643.18  76289.64
         Ti        16.080            3.557    643.18  76289.64
         Ti        11.840            3.557    643.18  76289.64
         Ti        11.840            3.557    643.18  76289.64
         Ti        16.081            3.557    643.18  76289.64
         Ti        11.590            3.557    643.18  76289.64
         Ti        15.897            3.557    643.18  76289.64
         Ti        15.897            3.557    643.18  76289.64
         Ti        11.590            3.557    643.18  76289.64
         Ti        16.080            3.557    643.18  76289.64
         Ti        11.980            3.557    643.18  76289.64
         Ti        11.848            3.557    643.18  76289.64
         Ti        16.083            3.557    643.18  76289.64
         Ti        11.590            3.557    643.18  76289.64
         Ti        15.897            3.557    643.18  76289.64
         Ti        15.897            3.557    643.18  76289.64
         Ti        11.590            3.557    643.18  76289.64
         Ti        16.080            3.557    643.18  76289.64
         Ti        11.918            3.557    643.18  76289.64
         Ti        11.839            3.557    643.18  76289.64
         Ti        16.080            3.557    643.18  76289.64
         Ti        11.590            3.557    643.18  76289.64
         Ti        15.897            3.557    643.18  76289.64
         Ti        15.897            3.557    643.18  76289.64
         Ti        11.590            3.557    643.18  76289.64
         Ti        16.080            3.557    643.18  76289.64
         Ti        11.841            3.557    643.18  76289.64
         Ti        11.928            3.557    643.18  76289.64
         Ti        16.081            3.557    643.18  76289.64
         Ti        11.590            3.557    643.18  76289.64
         Ti        15.897            3.557    643.18  76289.64
         Ti        15.897            3.557    643.18  76289.64
         Ti        11.590            3.557    643.18  76289.64
         Ti        16.084            3.557    643.18  76289.64
         Ti        12.242            3.557    643.18  76289.64
         Ti        12.914            3.557    643.18  76289.64
         Ti        16.083            3.557    643.18  76289.64
         Ti        11.590            3.557    643.18  76289.64
         Ti        15.897            3.557    643.18  76289.64
         Ti        15.897            3.557    643.18  76289.64
         Ti        11.590            3.557    643.18  76289.64
         Ti        16.082            3.557    643.18  76289.64
         Ti        11.878            3.557    643.18  76289.64
         Ti        11.842            3.557    643.18  76289.64
         Ti        16.080            3.557    643.18  76289.64
         Ti        11.590            3.557    643.18  76289.64
         Ti        15.897            3.557    643.18  76289.64
         Ti        15.897            3.557    643.18  76289.64
         Ti        11.590            3.557    643.18  76289.64
         Ti        16.080            3.557    643.18  76289.64
         Ti        11.839            3.557    643.18  76289.64
         Ti        11.851            3.557    643.18  76289.64
         Ti        16.080            3.557    643.18  76289.64
         Ti        11.590            3.557    643.18  76289.64
         Ti        15.897            3.557    643.18  76289.64
         Ti        15.897            3.557    643.18  76289.64
         Ti        11.590            3.557    643.18  76289.64
         Ti        16.081            3.557    643.18  76289.64
         Ti        11.841            3.557    643.18  76289.64
         Ti        11.862            3.557    643.18  76289.64
         Ti        16.080            3.557    643.18  76289.64
         Ti        11.590            3.557    643.18  76289.64
         Ti        15.897            3.557    643.18  76289.64
         Ti        15.897            3.557    643.18  76289.64
         Ti        11.590            3.557    643.18  76289.64
         Ti        16.080            3.557    643.18  76289.64
         Ti        11.840            3.557    643.18  76289.64
         Ti        11.840            3.557    643.18  76289.64
         Ti        16.080            3.557    643.18  76289.64
         N          4.935            2.478     31.16    687.49
         N          4.935            2.478     31.16    687.49
         N          5.960            2.478     31.16    687.49
         N          5.960            2.478     31.16    687.49
         N          5.979            2.478     31.16    687.49
         N          5.979            2.478     31.16    687.49
         N          4.896            2.478     31.16    687.49
         N          4.898            2.478     31.16    687.49
         N          4.935            2.478     31.16    687.49
         N          4.935            2.478     31.16    687.49
         N          5.960            2.478     31.16    687.49
         N          5.960            2.478     31.16    687.49
         N          5.979            2.478     31.16    687.49
         N          5.979            2.478     31.16    687.49
         N          4.897            2.478     31.16    687.49
         N          4.969            2.478     31.16    687.49
         N          4.935            2.478     31.16    687.49
         N          4.935            2.478     31.16    687.49
         N          5.960            2.478     31.16    687.49
         N          5.960            2.478     31.16    687.49
         N          5.979            2.478     31.16    687.49
         N          5.979            2.478     31.16    687.49
         N          4.897            2.478     31.16    687.49
         N          4.896            2.478     31.16    687.49
         N          4.935            2.478     31.16    687.49
         N          4.935            2.478     31.16    687.49
         N          5.960            2.478     31.16    687.49
         N          5.960            2.478     31.16    687.49
         N          5.979            2.478     31.16    687.49
         N          5.979            2.478     31.16    687.49
         N          4.897            2.478     31.16    687.49
         N          4.901            2.478     31.16    687.49
         N          4.935            2.478     31.16    687.49
         N          4.935            2.478     31.16    687.49
         N          5.960            2.478     31.16    687.49
         N          5.960            2.478     31.16    687.49
         N          5.980            2.478     31.16    687.49
         N          5.980            2.478     31.16    687.49
         N          4.991            2.478     31.16    687.49
         N          4.920            2.478     31.16    687.49
         N          4.935            2.478     31.16    687.49
         N          4.935            2.478     31.16    687.49
         N          5.960            2.478     31.16    687.49
         N          5.960            2.478     31.16    687.49
         N          5.979            2.478     31.16    687.49
         N          5.979            2.478     31.16    687.49
         N          4.911            2.478     31.16    687.49
         N          4.896            2.478     31.16    687.49
         N          4.935            2.478     31.16    687.49
         N          4.935            2.478     31.16    687.49
         N          5.960            2.478     31.16    687.49
         N          5.960            2.478     31.16    687.49
         N          5.979            2.478     31.16    687.49
         N          5.979            2.478     31.16    687.49
         N          4.896            2.478     31.16    687.49
         N          4.896            2.478     31.16    687.49
         N          4.935            2.478     31.16    687.49
         N          4.935            2.478     31.16    687.49
         N          5.960            2.478     31.16    687.49
         N          5.960            2.478     31.16    687.49
         N          5.979            2.478     31.16    687.49
         N          5.979            2.478     31.16    687.49
         N          4.901            2.478     31.16    687.49
         N          4.896            2.478     31.16    687.49
         N          4.935            2.478     31.16    687.49
         N          4.935            2.478     31.16    687.49
         N          5.960            2.478     31.16    687.49
         N          5.960            2.478     31.16    687.49
         N          5.979            2.478     31.16    687.49
         N          5.979            2.478     31.16    687.49
         N          4.897            2.478     31.16    687.49
         N          4.896            2.478     31.16    687.49
         S          4.192            3.128    251.62  12327.25
         S          3.372            3.128    251.62  12327.25
         S          2.221            3.128    251.65  12328.77
         S          2.179            3.128    251.66  12329.37
         S          2.107            3.128    251.70  12331.01
         S          2.961            3.128    251.62  12327.26
         S          2.181            3.128    251.66  12329.34
         S          3.307            3.128    251.62  12327.25
         Li         4.437            3.303    170.64  12899.87
         Li         4.592            3.303    170.64  12899.87

         Molecular C6 ( Ry / a.u.^6 ) =   5558713.18


     number of k points=    10  Marzari-Vanderbilt smearing, width (Ry)=  0.0200
                       cart. coord. in units 2pi/alat
        k(    1) = (   0.0000000   0.0000000   0.0000000), wk =   0.1250000
        k(    2) = (   0.0000000   0.2500000   0.0000000), wk =   0.2500000
        k(    3) = (   0.0000000  -0.5000000   0.0000000), wk =   0.1250000
        k(    4) = (   0.2500000   0.2500000   0.0000000), wk =   0.2500000
        k(    5) = (   0.2500000  -0.5000000   0.0000000), wk =   0.2500000
        k(    6) = (  -0.5000000  -0.5000000   0.0000000), wk =   0.1250000
        k(    7) = (   0.2500000   0.0000000   0.0000000), wk =   0.2500000
        k(    8) = (  -0.5000000   0.0000000   0.0000000), wk =   0.1250000
        k(    9) = (  -0.2500000   0.2500000   0.0000000), wk =   0.2500000
        k(   10) = (  -0.5000000   0.2500000   0.0000000), wk =   0.2500000

     Dense  grid:  4576003 G-vectors     FFT dimensions: ( 162, 162, 360)

     Smooth grid:  1157265 G-vectors     FFT dimensions: ( 108, 108, 216)

     Estimated max dynamical RAM per process >     884.72 MB

     Estimated total dynamical RAM >      61.12 GB

     Atomic positions and unit cell read from directory:
     ./tmp/TiN_Li2S8_combi.save/
     Atomic positions from file used, from input discarded


     Check: negative core charge=   -0.000002

     The initial density is read from file :
     ./tmp/TiN_Li2S8_combi.save/charge-density


     negative rho (up, down):  6.648E-02 0.000E+00
     Cannot read wfcs: file not found
     Starting wfcs are 1050 randomized atomic wfcs

     total cpu time spent up to now is       51.0 secs

     per-process dynamical memory:   659.3 Mb

     Self-consistent Calculation

     iteration #  1     ecut=    45.00 Ry     beta= 0.20
     Davidson diagonalization with overlap
     c_bands:  3 eigenvalues not converged
     c_bands:  5 eigenvalues not converged
     ethr =  1.00E-05,  avg # of iterations = 44.9

     negative rho (up, down):  6.733E-02 0.000E+00

     total cpu time spent up to now is      639.0 secs

     total energy              =  -10278.88510521 Ry
     estimated scf accuracy    <       8.59119350 Ry

     iteration #  2     ecut=    45.00 Ry     beta= 0.20
     Davidson diagonalization with overlap
     ethr =  6.72E-04,  avg # of iterations =  1.0

     negative rho (up, down):  8.077E-02 0.000E+00

     total cpu time spent up to now is      722.7 secs

     total energy              =  -10278.33058949 Ry
     estimated scf accuracy    <       4.15900746 Ry

     iteration #  3     ecut=    45.00 Ry     beta= 0.20
     Davidson diagonalization with overlap
     ethr =  3.25E-04,  avg # of iterations =  2.0

     negative rho (up, down):  9.851E-02 0.000E+00

     total cpu time spent up to now is      821.3 secs

     total energy              =  -10278.16180691 Ry
     estimated scf accuracy    <       1.04181330 Ry

     iteration #  4     ecut=    45.00 Ry     beta= 0.20
     Davidson diagonalization with overlap
     ethr =  8.15E-05,  avg # of iterations =  4.4

     negative rho (up, down):  1.085E-01 0.000E+00

     total cpu time spent up to now is      926.3 secs

     total energy              =  -10278.15416534 Ry
     estimated scf accuracy    <       0.23805599 Ry

     iteration #  5     ecut=    45.00 Ry     beta= 0.20
     Davidson diagonalization with overlap
     c_bands:  3 eigenvalues not converged
     c_bands:  1 eigenvalues not converged
     c_bands:  1 eigenvalues not converged
     ethr =  1.86E-05,  avg # of iterations = 18.9

     negative rho (up, down):  1.008E-01 0.000E+00

     total cpu time spent up to now is     1092.9 secs

     total energy              =  -10278.17084566 Ry
     estimated scf accuracy    <       0.08126665 Ry

     iteration #  6     ecut=    45.00 Ry     beta= 0.20
     Davidson diagonalization with overlap
     ethr =  6.36E-06,  avg # of iterations =  8.7

     negative rho (up, down):  9.589E-02 0.000E+00

     total cpu time spent up to now is     1205.1 secs

     total energy              =  -10278.16847504 Ry
     estimated scf accuracy    <       0.03797318 Ry

     iteration #  7     ecut=    45.00 Ry     beta= 0.20
     Davidson diagonalization with overlap
     c_bands:  5 eigenvalues not converged
     ethr =  2.97E-06,  avg # of iterations = 13.4

     negative rho (up, down):  8.804E-02 0.000E+00

     total cpu time spent up to now is     1326.1 secs

     total energy              =  -10278.16581260 Ry
     estimated scf accuracy    <       0.02567394 Ry

     iteration #  8     ecut=    45.00 Ry     beta= 0.20
     Davidson diagonalization with overlap
     ethr =  2.01E-06,  avg # of iterations = 10.4

     negative rho (up, down):  7.600E-02 0.000E+00

     total cpu time spent up to now is     1437.3 secs

     total energy              =  -10278.16457212 Ry
     estimated scf accuracy    <       0.00925543 Ry

     iteration #  9     ecut=    45.00 Ry     beta= 0.20
     Davidson diagonalization with overlap
     c_bands:  2 eigenvalues not converged
     ethr =  7.24E-07,  avg # of iterations =  8.9

     negative rho (up, down):  6.875E-02 0.000E+00

     total cpu time spent up to now is     1552.0 secs

     total energy              =  -10278.16474835 Ry
     estimated scf accuracy    <       0.00261229 Ry

     iteration # 10     ecut=    45.00 Ry     beta= 0.20
     Davidson diagonalization with overlap
     ethr =  2.04E-07,  avg # of iterations =  4.8

     negative rho (up, down):  6.426E-02 0.000E+00

     total cpu time spent up to now is     1659.0 secs

     total energy              =  -10278.16483671 Ry
     estimated scf accuracy    <       0.00096830 Ry

     iteration # 11     ecut=    45.00 Ry     beta= 0.20
     Davidson diagonalization with overlap
     ethr =  7.58E-08,  avg # of iterations =  5.0

     negative rho (up, down):  6.425E-02 0.000E+00

     total cpu time spent up to now is     1770.1 secs

     total energy              =  -10278.16483270 Ry
     estimated scf accuracy    <       0.00079671 Ry

     iteration # 12     ecut=    45.00 Ry     beta= 0.20
     Davidson diagonalization with overlap
     ethr =  6.23E-08,  avg # of iterations =  4.9

     negative rho (up, down):  6.274E-02 0.000E+00

     total cpu time spent up to now is     1879.3 secs

     total energy              =  -10278.16496241 Ry
     estimated scf accuracy    <       0.00045254 Ry

     iteration # 13     ecut=    45.00 Ry     beta= 0.20
     Davidson diagonalization with overlap
     ethr =  3.54E-08,  avg # of iterations =  4.0

     negative rho (up, down):  6.277E-02 0.000E+00

     total cpu time spent up to now is     1981.4 secs

     total energy              =  -10278.16497206 Ry
     estimated scf accuracy    <       0.00033328 Ry

     iteration # 14     ecut=    45.00 Ry     beta= 0.20
     Davidson diagonalization with overlap
     ethr =  2.61E-08,  avg # of iterations =  1.1

     negative rho (up, down):  6.274E-02 0.000E+00

     total cpu time spent up to now is     2067.4 secs

     total energy              =  -10278.16499208 Ry
     estimated scf accuracy    <       0.00033804 Ry

     iteration # 15     ecut=    45.00 Ry     beta= 0.20
     Davidson diagonalization with overlap
     ethr =  2.61E-08,  avg # of iterations =  1.0

     negative rho (up, down):  6.226E-02 0.000E+00

     total cpu time spent up to now is     2151.4 secs

     total energy              =  -10278.16495468 Ry
     estimated scf accuracy    <       0.00037968 Ry

     iteration # 16     ecut=    45.00 Ry     beta= 0.20
     Davidson diagonalization with overlap
     ethr =  2.61E-08,  avg # of iterations =  3.0

     negative rho (up, down):  6.208E-02 0.000E+00

     total cpu time spent up to now is     2251.4 secs

     total energy              =  -10278.16495645 Ry
     estimated scf accuracy    <       0.00032739 Ry

     iteration # 17     ecut=    45.00 Ry     beta= 0.20
     Davidson diagonalization with overlap
     ethr =  2.56E-08,  avg # of iterations =  2.0

     negative rho (up, down):  6.193E-02 0.000E+00

     total cpu time spent up to now is     2349.0 secs

     total energy              =  -10278.16499940 Ry
     estimated scf accuracy    <       0.00027168 Ry

     iteration # 18     ecut=    45.00 Ry     beta= 0.20
     Davidson diagonalization with overlap
     ethr =  2.13E-08,  avg # of iterations =  5.0

     negative rho (up, down):  6.180E-02 0.000E+00

     total cpu time spent up to now is     2451.4 secs

     total energy              =  -10278.16501110 Ry
     estimated scf accuracy    <       0.00020949 Ry

     iteration # 19     ecut=    45.00 Ry     beta= 0.20
     Davidson diagonalization with overlap
     ethr =  1.64E-08,  avg # of iterations =  2.0

     negative rho (up, down):  6.170E-02 0.000E+00

     total cpu time spent up to now is     2548.8 secs

     total energy              =  -10278.16506500 Ry
     estimated scf accuracy    <       0.00019410 Ry

     iteration # 20     ecut=    45.00 Ry     beta= 0.20
     Davidson diagonalization with overlap
     ethr =  1.52E-08,  avg # of iterations =  5.1

     negative rho (up, down):  6.169E-02 0.000E+00

     total cpu time spent up to now is     2651.5 secs

     total energy              =  -10278.16509682 Ry
     estimated scf accuracy    <       0.00017356 Ry

     iteration # 21     ecut=    45.00 Ry     beta= 0.20
     Davidson diagonalization with overlap
     ethr =  1.36E-08,  avg # of iterations =  2.0

     negative rho (up, down):  6.185E-02 0.000E+00

     total cpu time spent up to now is     2750.0 secs

     total energy              =  -10278.16516931 Ry
     estimated scf accuracy    <       0.00014446 Ry

     iteration # 22     ecut=    45.00 Ry     beta= 0.20
     Davidson diagonalization with overlap
     ethr =  1.13E-08,  avg # of iterations =  4.0

     negative rho (up, down):  6.275E-02 0.000E+00

     total cpu time spent up to now is     2851.2 secs

     total energy              =  -10278.16523852 Ry
     estimated scf accuracy    <       0.00011489 Ry

     iteration # 23     ecut=    45.00 Ry     beta= 0.20
     Davidson diagonalization with overlap
     ethr =  8.99E-09,  avg # of iterations =  9.7

     negative rho (up, down):  6.306E-02 0.000E+00

     total cpu time spent up to now is     2968.2 secs

     total energy              =  -10278.16524155 Ry
     estimated scf accuracy    <       0.00010391 Ry

     iteration # 24     ecut=    45.00 Ry     beta= 0.20
     Davidson diagonalization with overlap
     ethr =  8.13E-09,  avg # of iterations =  3.2

     negative rho (up, down):  6.308E-02 0.000E+00

     total cpu time spent up to now is     3068.8 secs

     total energy              =  -10278.16522622 Ry
     estimated scf accuracy    <       0.00010803 Ry

     iteration # 25     ecut=    45.00 Ry     beta= 0.20
     Davidson diagonalization with overlap
     ethr =  8.13E-09,  avg # of iterations =  3.7

     negative rho (up, down):  6.308E-02 0.000E+00

     total cpu time spent up to now is     3170.1 secs

     total energy              =  -10278.16525995 Ry
     estimated scf accuracy    <       0.00010106 Ry

     iteration # 26     ecut=    45.00 Ry     beta= 0.20
     Davidson diagonalization with overlap
     ethr =  7.91E-09,  avg # of iterations =  3.6

     negative rho (up, down):  6.320E-02 0.000E+00

     total cpu time spent up to now is     3271.6 secs

     total energy              =  -10278.16522335 Ry
     estimated scf accuracy    <       0.00010835 Ry

     iteration # 27     ecut=    45.00 Ry     beta= 0.20
     Davidson diagonalization with overlap
     ethr =  7.91E-09,  avg # of iterations =  4.2

     negative rho (up, down):  6.309E-02 0.000E+00

     total cpu time spent up to now is     3373.6 secs

     total energy              =  -10278.16520216 Ry
     estimated scf accuracy    <       0.00010742 Ry

     iteration # 28     ecut=    45.00 Ry     beta= 0.20
     Davidson diagonalization with overlap
     ethr =  7.91E-09,  avg # of iterations =  5.2

     negative rho (up, down):  6.306E-02 0.000E+00

     total cpu time spent up to now is     3477.9 secs

     total energy              =  -10278.16519720 Ry
     estimated scf accuracy    <       0.00009620 Ry

     iteration # 29     ecut=    45.00 Ry     beta= 0.20
     Davidson diagonalization with overlap
     ethr =  7.53E-09,  avg # of iterations =  1.4

     negative rho (up, down):  6.302E-02 0.000E+00

     total cpu time spent up to now is     3569.8 secs

     total energy              =  -10278.16520808 Ry
     estimated scf accuracy    <       0.00009706 Ry

     iteration # 30     ecut=    45.00 Ry     beta= 0.20
     Davidson diagonalization with overlap
     ethr =  7.53E-09,  avg # of iterations =  1.0

     negative rho (up, down):  6.271E-02 0.000E+00

     total cpu time spent up to now is     3653.8 secs

     total energy              =  -10278.16523581 Ry
     estimated scf accuracy    <       0.00009004 Ry

     iteration # 31     ecut=    45.00 Ry     beta= 0.20
     Davidson diagonalization with overlap
     ethr =  7.05E-09,  avg # of iterations =  3.0

     negative rho (up, down):  6.265E-02 0.000E+00

     total cpu time spent up to now is     3754.6 secs

     total energy              =  -10278.16520936 Ry
     estimated scf accuracy    <       0.00007676 Ry

     iteration # 32     ecut=    45.00 Ry     beta= 0.20
     Davidson diagonalization with overlap
     ethr =  6.01E-09,  avg # of iterations =  3.0

     negative rho (up, down):  6.279E-02 0.000E+00

     total cpu time spent up to now is     3854.6 secs

     total energy              =  -10278.16520284 Ry
     estimated scf accuracy    <       0.00007338 Ry

     iteration # 33     ecut=    45.00 Ry     beta= 0.20
     Davidson diagonalization with overlap
     ethr =  5.74E-09,  avg # of iterations =  3.2

     negative rho (up, down):  6.279E-02 0.000E+00

     total cpu time spent up to now is     3953.7 secs

     total energy              =  -10278.16521719 Ry
     estimated scf accuracy    <       0.00007333 Ry

     iteration # 34     ecut=    45.00 Ry     beta= 0.20
     Davidson diagonalization with overlap
     ethr =  5.74E-09,  avg # of iterations =  2.1

     negative rho (up, down):  6.320E-02 0.000E+00

     total cpu time spent up to now is     4051.9 secs

     total energy              =  -10278.16527911 Ry
     estimated scf accuracy    <       0.00006531 Ry

     iteration # 35     ecut=    45.00 Ry     beta= 0.20
     Davidson diagonalization with overlap
     ethr =  5.11E-09,  avg # of iterations =  5.9

     negative rho (up, down):  6.289E-02 0.000E+00

     total cpu time spent up to now is     4162.5 secs

     total energy              =  -10278.16523444 Ry
     estimated scf accuracy    <       0.00008187 Ry

     iteration # 36     ecut=    45.00 Ry     beta= 0.20
     Davidson diagonalization with overlap
     ethr =  5.11E-09,  avg # of iterations =  5.5

     negative rho (up, down):  6.334E-02 0.000E+00

     total cpu time spent up to now is     4268.7 secs

     total energy              =  -10278.16521032 Ry
     estimated scf accuracy    <       0.00006283 Ry

     iteration # 37     ecut=    45.00 Ry     beta= 0.20
     Davidson diagonalization with overlap
     ethr =  4.92E-09,  avg # of iterations =  7.2

     negative rho (up, down):  6.323E-02 0.000E+00

     total cpu time spent up to now is     4385.8 secs

     total energy              =  -10278.16515320 Ry
     estimated scf accuracy    <       0.00008114 Ry

     iteration # 38     ecut=    45.00 Ry     beta= 0.20
     Davidson diagonalization with overlap
     c_bands:  4 eigenvalues not converged
     ethr =  4.92E-09,  avg # of iterations = 11.5

     negative rho (up, down):  6.373E-02 0.000E+00

     total cpu time spent up to now is     4512.7 secs

     total energy              =  -10278.16560372 Ry
     estimated scf accuracy    <       0.00025789 Ry

     iteration # 39     ecut=    45.00 Ry     beta= 0.20
     Davidson diagonalization with overlap
     ethr =  4.92E-09,  avg # of iterations = 14.3

     negative rho (up, down):  6.398E-02 0.000E+00

     total cpu time spent up to now is     4667.7 secs

     total energy              =  -10278.16558709 Ry
     estimated scf accuracy    <       0.00008976 Ry

     iteration # 40     ecut=    45.00 Ry     beta= 0.20
     Davidson diagonalization with overlap
     ethr =  4.92E-09,  avg # of iterations = 12.7

     negative rho (up, down):  6.391E-02 0.000E+00

     total cpu time spent up to now is     4820.4 secs

     total energy              =  -10278.16530503 Ry
     estimated scf accuracy    <       0.00090606 Ry

     iteration # 41     ecut=    45.00 Ry     beta= 0.20
     Davidson diagonalization with overlap
     ethr =  4.92E-09,  avg # of iterations =  7.4

     negative rho (up, down):  6.410E-02 0.000E+00

     total cpu time spent up to now is     4944.1 secs

     total energy              =  -10278.16527158 Ry
     estimated scf accuracy    <       0.00020605 Ry

     iteration # 42     ecut=    45.00 Ry     beta= 0.20
     Davidson diagonalization with overlap
     c_bands:  1 eigenvalues not converged
     c_bands:  1 eigenvalues not converged
     ethr =  4.92E-09,  avg # of iterations = 14.4

     negative rho (up, down):  6.462E-02 0.000E+00

     total cpu time spent up to now is     5071.1 secs

     total energy              =  -10278.16523323 Ry
     estimated scf accuracy    <       0.00007439 Ry

     iteration # 43     ecut=    45.00 Ry     beta= 0.20
     Davidson diagonalization with overlap
     c_bands:  1 eigenvalues not converged
     c_bands:  1 eigenvalues not converged
     c_bands:  1 eigenvalues not converged
     ethr =  4.92E-09,  avg # of iterations = 19.8

     negative rho (up, down):  6.514E-02 0.000E+00

     total cpu time spent up to now is     5209.7 secs

     total energy              =  -10278.16519157 Ry
     estimated scf accuracy    <       0.00004680 Ry

     iteration # 44     ecut=    45.00 Ry     beta= 0.20
     Davidson diagonalization with overlap
     c_bands:  1 eigenvalues not converged
     c_bands:  1 eigenvalues not converged
     ethr =  3.66E-09,  avg # of iterations = 18.4

     negative rho (up, down):  6.546E-02 0.000E+00

     total cpu time spent up to now is     5352.0 secs

     total energy              =  -10278.16500909 Ry
     estimated scf accuracy    <       0.00016969 Ry

     iteration # 45     ecut=    45.00 Ry     beta= 0.20
     Davidson diagonalization with overlap
     c_bands:  1 eigenvalues not converged
     c_bands:  1 eigenvalues not converged
     ethr =  3.66E-09,  avg # of iterations = 15.8

     negative rho (up, down):  6.547E-02 0.000E+00

     total cpu time spent up to now is     5509.2 secs

     total energy              =  -10278.16483803 Ry
     estimated scf accuracy    <       0.00078176 Ry

     iteration # 46     ecut=    45.00 Ry     beta= 0.20
     Davidson diagonalization with overlap
     ethr =  3.66E-09,  avg # of iterations =  6.0

     negative rho (up, down):  6.578E-02 0.000E+00

     total cpu time spent up to now is     5618.3 secs

     total energy              =  -10278.16455549 Ry
     estimated scf accuracy    <       0.00079355 Ry

     iteration # 47     ecut=    45.00 Ry     beta= 0.20
     Davidson diagonalization with overlap
     ethr =  3.66E-09,  avg # of iterations =  6.9

     negative rho (up, down):  6.560E-02 0.000E+00

     total cpu time spent up to now is     5737.9 secs

     total energy              =  -10278.16458865 Ry
     estimated scf accuracy    <       0.00024909 Ry

     iteration # 48     ecut=    45.00 Ry     beta= 0.20
     Davidson diagonalization with overlap
     ethr =  3.66E-09,  avg # of iterations =  4.4

     negative rho (up, down):  6.553E-02 0.000E+00

     total cpu time spent up to now is     5840.2 secs

     total energy              =  -10278.16445269 Ry
     estimated scf accuracy    <       0.00053856 Ry

     iteration # 49     ecut=    45.00 Ry     beta= 0.20
     Davidson diagonalization with overlap
     ethr =  3.66E-09,  avg # of iterations =  6.1

     negative rho (up, down):  6.551E-02 0.000E+00

     total cpu time spent up to now is     5951.8 secs

     total energy              =  -10278.16451920 Ry
     estimated scf accuracy    <       0.00001017 Ry

     iteration # 50     ecut=    45.00 Ry     beta= 0.20
     Davidson diagonalization with overlap
     ethr =  7.96E-10,  avg # of iterations =  7.8

     negative rho (up, down):  6.583E-02 0.000E+00

     total cpu time spent up to now is     6088.0 secs

     total energy              =  -10278.16444039 Ry
     estimated scf accuracy    <       0.00076990 Ry

     iteration # 51     ecut=    45.00 Ry     beta= 0.20
     Davidson diagonalization with overlap
     ethr =  7.96E-10,  avg # of iterations =  7.5

     negative rho (up, down):  6.610E-02 0.000E+00

     total cpu time spent up to now is     6223.8 secs

     total energy              =  -10278.16451473 Ry
     estimated scf accuracy    <       0.00000151 Ry

     iteration # 52     ecut=    45.00 Ry     beta= 0.20
     Davidson diagonalization with overlap
     ethr =  1.18E-10,  avg # of iterations =  7.8

     negative rho (up, down):  6.620E-02 0.000E+00

     total cpu time spent up to now is     6359.3 secs

     total energy              =  -10278.16438101 Ry
     estimated scf accuracy    <       0.00048848 Ry

     iteration # 53     ecut=    45.00 Ry     beta= 0.20
     Davidson diagonalization with overlap
     ethr =  1.18E-10,  avg # of iterations = 11.1

     negative rho (up, down):  6.622E-02 0.000E+00

     total cpu time spent up to now is     6530.9 secs

     total energy              =  -10278.16456032 Ry
     estimated scf accuracy    <       0.00040976 Ry

     iteration # 54     ecut=    45.00 Ry     beta= 0.20
     Davidson diagonalization with overlap
     ethr =  1.18E-10,  avg # of iterations =  3.0

     negative rho (up, down):  6.632E-02 0.000E+00

     total cpu time spent up to now is     6631.5 secs

     total energy              =  -10278.16447532 Ry
     estimated scf accuracy    <       0.00037578 Ry

     iteration # 55     ecut=    45.00 Ry     beta= 0.20
     Davidson diagonalization with overlap
     ethr =  1.18E-10,  avg # of iterations =  8.0

     negative rho (up, down):  6.626E-02 0.000E+00

     total cpu time spent up to now is     6776.8 secs

     End of self-consistent calculation

          k = 0.0000 0.0000 0.0000 (144607 PWs)   bands (ev):

   -54.2183 -54.2095 -54.1925 -54.1907 -54.1888 -54.1856 -54.1800 -54.1787
   -54.1774 -54.1759 -54.1620 -54.1607 -54.1585 -54.1564 -54.1540 -54.1523
   -54.1497 -54.1476 -54.1337 -54.1163 -54.1022 -54.0949 -54.0871 -54.0840
   -54.0797 -54.0762 -54.0735 -54.0639 -54.0593 -54.0531 -54.0512 -54.0471
   -54.0456 -54.0418 -54.0393 -54.0373 -54.0264 -54.0231 -54.0208 -54.0193
   -54.0173 -54.0099 -54.0086 -54.0077 -54.0051 -53.9892 -53.9880 -53.9870
   -53.9836 -53.9810 -53.9806 -53.9802 -53.9785 -53.9760 -53.9739 -53.9641
   -53.9624 -53.9547 -53.9435 -53.9380 -53.9347 -53.9339 -53.9327 -53.9312
   -53.9280 -53.9269 -53.9258 -53.9187 -53.9168 -53.9139 -53.9105 -53.9002
   -42.5990 -41.8827 -30.7168 -30.7160 -30.7153 -30.7150 -30.7139 -30.7119
   -30.7110 -30.7104 -30.7094 -30.7092 -30.7064 -30.7049 -30.6837 -30.6613
   -30.6608 -30.6597 -30.6592 -30.6585 -30.6580 -30.6564 -30.6525 -30.6475
   -30.6463 -30.6438 -30.6419 -30.6381 -30.6378 -30.6310 -30.6289 -30.6268
   -30.6263 -30.6175 -30.6150 -30.6098 -30.6089 -30.6022 -30.5995 -30.5944
   -30.5927 -30.5918 -30.5891 -30.5876 -30.5871 -30.5850 -30.5820 -30.5818
   -30.5796 -30.5645 -30.5620 -30.5599 -30.5564 -30.5552 -30.5539 -30.5533
   -30.5462 -30.5452 -30.5429 -30.5404 -30.5365 -30.5272 -30.5268 -30.5262
   -30.5250 -30.4915 -30.4897 -30.4892 -30.4869 -30.4866 -30.4858 -30.4830
   -30.4825 -30.4734 -30.4720 -30.4709 -30.4655 -30.4600 -30.4584 -30.4575
   -30.4570 -30.4562 -30.4409 -30.4395 -30.4362 -30.4272 -30.4250 -30.4229
   -30.4123 -30.4116 -30.4091 -30.4076 -30.4052 -30.3922 -30.3908 -30.3893
   -30.3891 -30.3815 -30.3785 -30.3784 -30.3775 -30.3735 -30.3697 -30.3692
   -30.3665 -30.3652 -30.3645 -30.3621 -30.3609 -30.3590 -30.3574 -30.3559
   -30.3497 -30.3333 -30.3321 -30.3282 -30.3273 -30.3235 -30.3212 -30.3090
   -30.3089 -30.3066 -30.3059 -30.3056 -30.3040 -30.3008 -30.3002 -30.2991
   -30.2984 -30.2846 -30.2813 -30.2805 -30.2744 -30.2713 -30.2700 -30.2684
   -30.2683 -30.2616 -30.2608 -30.2591 -30.2550 -30.2531 -30.2504 -30.2500
   -30.2484 -30.2478 -30.2474 -30.2447 -30.2415 -30.2371 -30.2364 -30.2362
   -30.2356 -30.2337 -30.2323 -30.2265 -30.2254 -30.2204 -30.2192 -30.2160
   -30.2147 -30.2066 -30.2055 -30.2053 -30.1968 -30.1951 -30.1932 -30.1913
   -30.1874 -30.1857 -30.1846 -30.1829 -30.1803 -30.1796 -30.1780 -30.1771
   -30.1765 -30.1759 -30.1753 -30.1716 -30.1713 -30.1709 -30.1684 -30.1652
   -30.1635 -30.1631 -30.1514 -30.1498 -30.1481 -30.1475 -30.1458 -30.1428
   -30.1418 -30.1410 -30.1390 -30.1377 -30.1366 -30.1355 -30.1332 -30.1306
   -30.1248 -30.1218 -30.1177 -30.1144 -30.0988 -30.0966 -30.0919 -30.0911
   -30.0894 -30.0883 -30.0863 -30.0845 -30.0799 -30.0767 -30.0697 -30.0679
   -30.0625 -30.0614 -13.2427 -13.2331 -12.6331 -12.6298 -12.6272 -12.6089
   -12.4862 -12.3557 -12.0775 -12.0724 -12.0656 -12.0522 -12.0402 -11.9862
   -11.9842 -11.9810 -11.9684 -11.9583 -11.9524 -11.9511 -11.9432 -11.9010
   -11.8477 -11.7082 -11.7025 -11.6979 -11.6891 -11.6704 -11.5981 -11.5942
   -11.5868 -11.5727 -11.5600 -11.5579 -11.5468 -11.5062 -11.5013 -11.4980
   -11.4929 -11.4578 -11.3939 -11.3926 -11.3920 -11.3868 -11.3115 -11.2364
   -11.2007 -11.1885 -11.1787 -11.1427 -11.0521 -11.0505 -11.0501 -11.0465
   -11.0101 -10.9793 -10.9786 -10.9771 -10.9737 -10.8352 -10.8324 -10.8213
   -10.8092 -10.7754 -10.7749 -10.7743 -10.7703 -10.7605 -10.7529 -10.7495
   -10.7310 -10.5636 -10.5620 -10.5522 -10.5435  -9.8440  -8.6717  -8.0477
    -7.0556  -6.0271  -3.7077  -3.6946  -3.6726  -3.6617  -3.6123  -3.6110
    -3.6061  -3.6037  -3.4570  -3.4414  -3.4326  -3.4273  -3.3938  -3.3876
    -3.3813  -3.3780  -3.0544  -2.9789  -2.9773  -2.9602  -2.9569  -2.8531
    -2.8496  -2.8431  -2.8399  -2.8074  -2.8009  -2.7916  -2.7912  -2.7069
    -2.6949  -2.6904  -2.6866  -2.6779  -2.6697  -2.6662  -2.6613  -2.5171
    -2.4961  -2.4763  -2.4639  -2.4620  -2.4548  -2.3669  -2.3597  -2.3584
    -2.3556  -2.2724  -2.2696  -2.2629  -2.2620  -2.2431  -2.2372  -2.2280
    -2.2235  -2.1493  -2.1450  -2.0479  -2.0388  -2.0344  -2.0256  -1.9547
    -1.9028  -1.8532  -1.7741  -1.7633  -1.7465  -1.7417  -1.7072  -1.7068
    -1.6980  -1.6930  -1.6839  -1.6810  -1.6806  -1.6773  -1.6757  -1.6709
    -1.6599  -1.6558  -1.6514  -1.6468  -1.5875  -1.5776  -1.5764  -1.5677
    -1.5339  -1.5255  -1.5110  -1.5084  -1.4989  -1.4913  -1.4844  -1.4808
    -1.4622  -1.4519  -1.4355  -1.4348  -1.4324  -1.4302  -1.4284  -1.4235
    -1.4015  -1.4006  -1.3984  -1.3903  -1.3886  -1.3819  -1.3787  -1.3771
    -1.3247  -1.3151  -1.3067  -1.2942  -1.2426  -1.2327  -1.2282  -1.2260
    -1.2086  -1.2068  -1.2010  -1.1972  -1.1561  -1.1457  -1.1356  -1.1291
    -1.0963  -1.0731  -1.0690  -1.0688  -1.0651  -1.0605  -1.0277  -1.0257
    -1.0254  -1.0246  -0.9897  -0.9536  -0.9399  -0.9393  -0.9152  -0.8971
    -0.8828  -0.8628  -0.8554  -0.8530  -0.8480  -0.8378  -0.8369  -0.8357
    -0.8350  -0.8293  -0.8260  -0.8221  -0.8161  -0.8159  -0.7857  -0.7705
    -0.7686  -0.7683  -0.7638  -0.7586  -0.7391  -0.7314  -0.7233  -0.7079
    -0.7034  -0.6949  -0.6899  -0.6831  -0.6694  -0.6398  -0.6344  -0.6298
    -0.6157  -0.6101  -0.5918  -0.5800  -0.5678  -0.5224  -0.4883  -0.4768
    -0.4711  -0.4451  -0.4406  -0.3551  -0.3505  -0.3446  -0.3284  -0.1697
    -0.0579  -0.0512  -0.0466  -0.0426  -0.0408  -0.0346  -0.0323  -0.0224
    -0.0165  -0.0090  -0.0014   0.0307   0.0416   0.0650   0.1341   0.1817
     0.2026   0.2263   0.2915   0.2924   0.3098   0.4384   0.4773   0.4815
     0.4939   0.4982   0.5568   0.5598   0.5976   0.6339   0.7575   0.8936
     0.9413   1.2676   1.3316   1.3347   1.3668   1.4148   1.4629   1.4752
     1.6730   1.6747   1.7301   1.7466   1.8189   1.8595   1.9294   2.0225
     2.0380   2.2683   2.2874   2.3258   2.8398   2.8698   2.8909   2.8990
     2.9102   3.3113   3.3165   3.3485   3.3778   3.4092   3.4130   3.4204
     3.4682   3.4723   3.4749   3.4801   3.4991   3.5230   3.5301   3.5402
     3.5458   3.5474   3.5535   3.5582   3.5631   3.5843   3.6007   3.6068
     3.6679   3.6774   3.6811   3.6839   3.6981   3.7069   3.7086   4.0158
     4.0381   4.0420   4.0437   4.0640   4.0695   4.1003   4.1230   4.1659
     4.1704   4.1737   4.1775   4.2223   4.2322   4.2532   4.2649   4.2713
     4.2735   4.2854   4.3006   4.3336   4.3558   4.3562   4.3579   4.3667
     4.3756   4.3791   4.3850   4.3906   4.4116   4.4194   4.4236   4.4272
     4.4410   4.4423   4.4765   4.4892   4.5003   4.5072   4.5103   4.5207
     4.5417   4.5607   4.5779   4.5828   4.6052   4.6060   4.6516   4.6951
     4.7068   4.7405   4.7556   4.7664   4.7721   4.7745   4.7836   4.8469
     4.8471   4.8503   4.8616   4.8763   4.9206   4.9334   4.9388   4.9423
     4.9482   5.0103   5.0179   5.0284   5.0365   5.0464   5.0664   5.0722
     5.0799   5.0829   5.0858   5.0895   5.0908   5.0953   5.1128   5.1278
     5.1283   5.1312   5.1471   5.2287   5.2361   5.2416   5.2431   5.2433
     5.2559   5.2782   5.3415   5.3500   5.3623   5.3938   5.3946   5.4034
     5.4101   5.4124   5.4181   5.4212   5.4282   5.4345   5.4364   5.4587
     5.4615   5.4737   5.4771   5.4901   5.5022   5.5031   5.5054   5.5082
     5.5086   5.5129   5.5185   5.5218   5.5230   5.5323   5.5551

          k = 0.0000 0.2500 0.0000 (144769 PWs)   bands (ev):

   -54.2183 -54.2081 -54.1981 -54.1893 -54.1883 -54.1833 -54.1825 -54.1786
   -54.1735 -54.1727 -54.1643 -54.1635 -54.1605 -54.1559 -54.1549 -54.1520
   -54.1505 -54.1431 -54.1348 -54.1155 -54.1039 -54.0943 -54.0877 -54.0847
   -54.0805 -54.0745 -54.0712 -54.0630 -54.0596 -54.0549 -54.0524 -54.0484
   -54.0464 -54.0402 -54.0386 -54.0354 -54.0275 -54.0270 -54.0216 -54.0177
   -54.0138 -54.0124 -54.0092 -54.0042 -54.0011 -53.9920 -53.9905 -53.9885
   -53.9858 -53.9821 -53.9803 -53.9798 -53.9764 -53.9749 -53.9720 -53.9641
   -53.9630 -53.9547 -53.9435 -53.9379 -53.9353 -53.9340 -53.9324 -53.9312
   -53.9279 -53.9264 -53.9251 -53.9211 -53.9162 -53.9139 -53.9091 -53.9009
   -42.5990 -41.8827 -30.7309 -30.7295 -30.7281 -30.7262 -30.7208 -30.7196
   -30.6955 -30.6942 -30.6938 -30.6929 -30.6896 -30.6885 -30.6816 -30.6805
   -30.6790 -30.6668 -30.6610 -30.6595 -30.6499 -30.6494 -30.6474 -30.6404
   -30.6390 -30.6358 -30.6352 -30.6333 -30.6324 -30.6317 -30.6272 -30.6264
   -30.6244 -30.6170 -30.6159 -30.6121 -30.6070 -30.6052 -30.5992 -30.5979
   -30.5957 -30.5951 -30.5930 -30.5906 -30.5888 -30.5860 -30.5838 -30.5813
   -30.5804 -30.5793 -30.5755 -30.5729 -30.5681 -30.5665 -30.5637 -30.5600
   -30.5551 -30.5442 -30.5396 -30.5253 -30.5227 -30.5181 -30.5174 -30.5142
   -30.5119 -30.5106 -30.5099 -30.5034 -30.5015 -30.4938 -30.4926 -30.4708
   -30.4665 -30.4661 -30.4649 -30.4623 -30.4546 -30.4531 -30.4499 -30.4479
   -30.4442 -30.4386 -30.4366 -30.4354 -30.4337 -30.4327 -30.4297 -30.4283
   -30.4270 -30.4184 -30.4135 -30.4117 -30.4076 -30.4046 -30.3991 -30.3967
   -30.3878 -30.3844 -30.3825 -30.3815 -30.3796 -30.3703 -30.3687 -30.3663
   -30.3618 -30.3578 -30.3563 -30.3550 -30.3532 -30.3519 -30.3487 -30.3472
   -30.3421 -30.3407 -30.3384 -30.3321 -30.3251 -30.3241 -30.3221 -30.3192
   -30.3140 -30.3105 -30.3095 -30.3069 -30.2993 -30.2970 -30.2949 -30.2934
   -30.2858 -30.2835 -30.2793 -30.2785 -30.2767 -30.2760 -30.2731 -30.2719
   -30.2710 -30.2676 -30.2633 -30.2629 -30.2618 -30.2609 -30.2583 -30.2550
   -30.2541 -30.2513 -30.2500 -30.2474 -30.2454 -30.2444 -30.2426 -30.2397
   -30.2345 -30.2291 -30.2259 -30.2178 -30.2167 -30.2152 -30.2126 -30.2103
   -30.2093 -30.2069 -30.2056 -30.2044 -30.2019 -30.1978 -30.1970 -30.1930
   -30.1910 -30.1894 -30.1888 -30.1861 -30.1848 -30.1821 -30.1805 -30.1783
   -30.1769 -30.1764 -30.1712 -30.1668 -30.1656 -30.1645 -30.1633 -30.1609
   -30.1587 -30.1559 -30.1551 -30.1543 -30.1527 -30.1515 -30.1498 -30.1492
   -30.1484 -30.1448 -30.1399 -30.1347 -30.1325 -30.1251 -30.1226 -30.1201
   -30.1184 -30.1138 -30.1115 -30.1074 -30.1002 -30.0991 -30.0985 -30.0964
   -30.0919 -30.0890 -30.0867 -30.0843 -30.0826 -30.0786 -30.0742 -30.0682
   -30.0651 -30.0627 -13.2377 -13.1929 -12.8646 -12.5892 -12.5769 -12.4482
   -12.3787 -12.3554 -12.2873 -12.2744 -12.1682 -12.0310 -12.0084 -11.9496
   -11.9446 -11.9409 -11.9322 -11.9182 -11.8971 -11.8566 -11.8432 -11.8133
   -11.8035 -11.7819 -11.7114 -11.7088 -11.7012 -11.6895 -11.6791 -11.6670
   -11.6491 -11.6293 -11.5853 -11.5688 -11.5634 -11.5602 -11.5304 -11.4383
   -11.4309 -11.4218 -11.3987 -11.3679 -11.3603 -11.3544 -11.2946 -11.2305
   -11.2163 -11.1498 -11.1434 -11.1306 -11.1259 -11.0981 -11.0482 -11.0257
   -11.0232 -11.0072 -10.9906 -10.9121 -10.9039 -10.8735 -10.8623 -10.8592
   -10.8411 -10.8394 -10.8211 -10.7997 -10.7925 -10.7295 -10.7263 -10.6439
   -10.6366 -10.6137 -10.6081 -10.5118 -10.5065  -9.8440  -8.6717  -8.0477
    -7.0556  -6.0271  -3.8399  -3.8382  -3.7581  -3.7562  -3.7051  -3.6985
    -3.6393  -3.6371  -3.4378  -3.4304  -3.3673  -3.3636  -3.1481  -3.1386
    -3.0713  -3.0608  -3.0555  -3.0390  -3.0300  -3.0072  -2.9627  -2.9607
    -2.9124  -2.8828  -2.8748  -2.8389  -2.7864  -2.7768  -2.7664  -2.7588
    -2.7496  -2.7398  -2.7317  -2.6633  -2.6586  -2.6414  -2.5948  -2.5559
    -2.5384  -2.5323  -2.5171  -2.5042  -2.4932  -2.4734  -2.4519  -2.4458
    -2.3972  -2.3343  -2.3282  -2.2408  -2.1465  -2.1359  -2.1315  -2.1238
    -2.1136  -2.1046  -2.0936  -2.0771  -2.0014  -1.9966  -1.9952  -1.9580
    -1.9394  -1.9134  -1.8681  -1.8503  -1.8038  -1.8008  -1.7626  -1.7530
    -1.7262  -1.7210  -1.7173  -1.7128  -1.7013  -1.6906  -1.6787  -1.6621
    -1.6536  -1.6429  -1.6335  -1.6155  -1.6128  -1.6058  -1.5965  -1.5853
    -1.5787  -1.5720  -1.5613  -1.5597  -1.5298  -1.5274  -1.5246  -1.5198
    -1.5146  -1.5043  -1.4957  -1.4792  -1.4754  -1.4713  -1.4182  -1.4130
    -1.3835  -1.3763  -1.3413  -1.3386  -1.3315  -1.3245  -1.3195  -1.3165
    -1.3035  -1.2922  -1.2771  -1.2695  -1.2460  -1.2200  -1.1878  -1.1742
    -1.1655  -1.1561  -1.1508  -1.1483  -1.1400  -1.1349  -1.1340  -1.1248
    -1.1162  -1.1073  -1.1021  -1.0925  -1.0513  -1.0183  -1.0180  -1.0061
    -0.9942  -0.9838  -0.9698  -0.9572  -0.9335  -0.9283  -0.9266  -0.9230
    -0.9191  -0.9050  -0.9002  -0.8718  -0.8645  -0.8628  -0.8555  -0.8354
    -0.8242  -0.8195  -0.8020  -0.7992  -0.7834  -0.7742  -0.7626  -0.7572
    -0.7473  -0.7324  -0.7263  -0.7235  -0.7169  -0.6944  -0.6572  -0.6499
    -0.6305  -0.6161  -0.6041  -0.5974  -0.5956  -0.5900  -0.5836  -0.5816
    -0.5732  -0.5610  -0.5110  -0.5052  -0.4424  -0.4158  -0.3997  -0.3932
    -0.3675  -0.3620  -0.3445  -0.3075  -0.2863  -0.2772  -0.1922  -0.1875
    -0.1455  -0.1370  -0.1236  -0.1137  -0.1094  -0.0899  -0.0764  -0.0655
    -0.0449  -0.0378  -0.0137   0.0049   0.0342   0.0589   0.0741   0.1100
     0.1258   0.1647   0.2349   0.2664   0.2885   0.3132   0.3244   0.3358
     0.3622   0.3851   0.4612   0.4729   0.6046   0.7485   0.7888   0.9362
     0.9494   1.0777   1.2652   1.2894   1.3470   1.3849   1.4238   1.4845
     1.6522   1.6988   1.8187   1.8438   1.8829   1.8991   2.0434   2.1161
     2.1393   2.2883   2.3273   2.5339   2.6246   2.6557   2.8581   2.9577
     2.9690   2.9898   3.0292   3.0561   3.0917   3.1714   3.3225   3.3458
     3.3884   3.4039   3.4195   3.4272   3.4410   3.4475   3.4675   3.4893
     3.5784   3.6257   3.6307   3.6504   3.6564   3.6662   3.6872   3.6978
     3.7108   3.7224   3.7252   3.7422   3.7818   3.8427   3.8503   3.8979
     3.9394   3.9611   3.9775   4.0044   4.0233   4.0350   4.0489   4.0603
     4.0695   4.0874   4.0952   4.1001   4.1125   4.1376   4.1489   4.1708
     4.2278   4.2319   4.2456   4.2622   4.2846   4.3115   4.3295   4.3550
     4.3810   4.4027   4.4150   4.4303   4.4391   4.4446   4.4597   4.4896
     4.4990   4.5243   4.5470   4.5671   4.5988   4.6058   4.6198   4.6376
     4.6607   4.6676   4.6754   4.6910   4.7303   4.7373   4.7404   4.7472
     4.7571   4.7825   4.8088   4.8153   4.8385   4.8594   4.8659   4.8724
     4.8853   4.8952   4.9044   4.9289   4.9398   4.9520   4.9676   4.9801
     4.9852   5.0242   5.0338   5.0553   5.0616   5.0657   5.0783   5.0962
     5.1227   5.1293   5.1329   5.1504   5.1725   5.1898   5.2041   5.2223
     5.2322   5.2397   5.2563   5.2727   5.2814   5.2833   5.2886   5.2939
     5.2986   5.3007   5.3097   5.3186   5.3293   5.3378   5.3427   5.3552
     5.3619   5.3678   5.3735   5.3758   5.3907   5.3979   5.4022   5.4067
     5.4123   5.4152   5.4179   5.4237   5.4272   5.4347   5.4454   5.4508
     5.4530   5.4610   5.4730   5.4761   5.4867   5.4882   5.5107

          k = 0.0000-0.5000 0.0000 (144664 PWs)   bands (ev):

   -54.2183 -54.2047 -54.2036 -54.1881 -54.1868 -54.1858 -54.1846 -54.1709
   -54.1693 -54.1691 -54.1686 -54.1680 -54.1666 -54.1546 -54.1534 -54.1528
   -54.1512 -54.1384 -54.1377 -54.1145 -54.1057 -54.0938 -54.0878 -54.0858
   -54.0810 -54.0734 -54.0673 -54.0619 -54.0606 -54.0576 -54.0539 -54.0491
   -54.0460 -54.0401 -54.0371 -54.0324 -54.0317 -54.0279 -54.0212 -54.0165
   -54.0149 -54.0146 -54.0040 -54.0002 -53.9975 -53.9966 -53.9948 -53.9920
   -53.9854 -53.9820 -53.9802 -53.9793 -53.9764 -53.9746 -53.9691 -53.9645
   -53.9638 -53.9547 -53.9435 -53.9377 -53.9359 -53.9340 -53.9322 -53.9315
   -53.9268 -53.9264 -53.9244 -53.9229 -53.9163 -53.9139 -53.9074 -53.9019
   -42.5990 -41.8827 -30.7355 -30.7352 -30.7338 -30.7332 -30.7159 -30.7147
   -30.7138 -30.7128 -30.6761 -30.6755 -30.6736 -30.6714 -30.6707 -30.6694
   -30.6664 -30.6653 -30.6652 -30.6635 -30.6465 -30.6456 -30.6455 -30.6421
   -30.6415 -30.6410 -30.6408 -30.6396 -30.6390 -30.6383 -30.6300 -30.6295
   -30.6180 -30.6149 -30.6142 -30.6120 -30.6109 -30.6100 -30.6063 -30.6019
   -30.6011 -30.5972 -30.5949 -30.5927 -30.5910 -30.5876 -30.5844 -30.5808
   -30.5789 -30.5739 -30.5716 -30.5662 -30.5606 -30.5582 -30.5567 -30.5558
   -30.5510 -30.5500 -30.5468 -30.5454 -30.5443 -30.5429 -30.5401 -30.5364
   -30.5198 -30.5179 -30.4789 -30.4781 -30.4775 -30.4767 -30.4744 -30.4725
   -30.4703 -30.4644 -30.4615 -30.4583 -30.4525 -30.4509 -30.4483 -30.4479
   -30.4452 -30.4419 -30.4414 -30.4405 -30.4383 -30.4351 -30.4298 -30.4279
   -30.4161 -30.4146 -30.4136 -30.4116 -30.4061 -30.4052 -30.4036 -30.3992
   -30.3914 -30.3874 -30.3862 -30.3819 -30.3798 -30.3747 -30.3694 -30.3653
   -30.3622 -30.3611 -30.3587 -30.3572 -30.3543 -30.3521 -30.3488 -30.3397
   -30.3314 -30.3307 -30.3296 -30.3262 -30.3247 -30.3179 -30.3150 -30.3135
   -30.3117 -30.3104 -30.3093 -30.3078 -30.3061 -30.3037 -30.2973 -30.2917
   -30.2898 -30.2846 -30.2838 -30.2827 -30.2816 -30.2810 -30.2800 -30.2776
   -30.2768 -30.2763 -30.2746 -30.2678 -30.2657 -30.2574 -30.2547 -30.2532
   -30.2517 -30.2511 -30.2472 -30.2434 -30.2416 -30.2394 -30.2380 -30.2364
   -30.2348 -30.2323 -30.2310 -30.2268 -30.2225 -30.2214 -30.2192 -30.2151
   -30.2041 -30.2025 -30.2002 -30.1993 -30.1953 -30.1949 -30.1938 -30.1927
   -30.1907 -30.1897 -30.1880 -30.1866 -30.1863 -30.1843 -30.1822 -30.1810
   -30.1735 -30.1719 -30.1692 -30.1682 -30.1674 -30.1669 -30.1637 -30.1635
   -30.1622 -30.1610 -30.1592 -30.1582 -30.1558 -30.1550 -30.1534 -30.1519
   -30.1431 -30.1347 -30.1270 -30.1232 -30.1201 -30.1189 -30.1179 -30.1167
   -30.1152 -30.1117 -30.1076 -30.1046 -30.1044 -30.1012 -30.0995 -30.0983
   -30.0962 -30.0930 -30.0904 -30.0898 -30.0850 -30.0800 -30.0710 -30.0703
   -30.0677 -30.0667 -13.2374 -13.0699 -13.0562 -12.4731 -12.4676 -12.4651
   -12.4469 -12.3571 -12.3403 -12.3276 -12.1703 -12.1605 -11.9889 -11.9628
   -11.8776 -11.8706 -11.8551 -11.8499 -11.8478 -11.8430 -11.8372 -11.8270
   -11.8192 -11.7881 -11.7139 -11.7114 -11.6940 -11.6915 -11.6890 -11.6879
   -11.6727 -11.6482 -11.6315 -11.6263 -11.6230 -11.5831 -11.5375 -11.5082
   -11.3923 -11.3919 -11.3866 -11.3480 -11.3017 -11.2673 -11.2670 -11.2645
   -11.2600 -11.1643 -11.1629 -11.1116 -11.1079 -11.0710 -11.0596 -11.0469
   -11.0204 -10.9566 -10.9560 -10.9548 -10.9519 -10.9461 -10.9294 -10.8844
   -10.8748 -10.7530 -10.7516 -10.7505 -10.7466 -10.7454 -10.7370 -10.7297
   -10.7072 -10.5334 -10.5271 -10.5237 -10.5206  -9.8440  -8.6718  -8.0477
    -7.0556  -6.0272  -3.8647  -3.8613  -3.8317  -3.8284  -3.7737  -3.7698
    -3.7689  -3.7660  -3.2030  -3.1944  -3.1897  -3.1654  -3.1046  -3.0970
    -3.0939  -3.0864  -3.0575  -2.9982  -2.9914  -2.9457  -2.9419  -2.9361
    -2.9331  -2.8930  -2.8908  -2.8899  -2.8863  -2.8527  -2.8512  -2.7558
    -2.7484  -2.7411  -2.7404  -2.7169  -2.7143  -2.7086  -2.6976  -2.5478
    -2.5356  -2.5072  -2.4929  -2.4878  -2.4816  -2.4790  -2.4686  -2.4563
    -2.3460  -2.3423  -2.2960  -2.2855  -2.2735  -2.2595  -2.1987  -2.1860
    -2.1368  -2.1210  -2.0175  -1.9960  -1.9373  -1.8804  -1.8616  -1.8561
    -1.8539  -1.8356  -1.8073  -1.8035  -1.7922  -1.7905  -1.7889  -1.7804
    -1.7745  -1.7695  -1.7658  -1.7500  -1.7456  -1.7415  -1.7243  -1.7125
    -1.6877  -1.6795  -1.6731  -1.6722  -1.6657  -1.6590  -1.6546  -1.6505
    -1.6486  -1.6408  -1.6086  -1.6012  -1.5923  -1.5834  -1.5568  -1.5531
    -1.5496  -1.5388  -1.5070  -1.5045  -1.4996  -1.4782  -1.3799  -1.3761
    -1.3486  -1.3415  -1.3383  -1.3287  -1.3205  -1.3162  -1.2903  -1.2834
    -1.2817  -1.2776  -1.2756  -1.2699  -1.2302  -1.2288  -1.2246  -1.2155
    -1.2070  -1.1926  -1.1821  -1.1655  -1.1178  -1.1173  -1.1167  -1.1157
    -1.0826  -1.0768  -1.0637  -1.0634  -1.0501  -1.0226  -0.9994  -0.9733
    -0.9621  -0.9503  -0.9389  -0.9141  -0.8937  -0.8901  -0.8885  -0.8816
    -0.8791  -0.8740  -0.8712  -0.8684  -0.8596  -0.8397  -0.8170  -0.8142
    -0.8023  -0.7920  -0.7890  -0.7800  -0.7743  -0.7572  -0.7458  -0.7027
    -0.6893  -0.6743  -0.6579  -0.6476  -0.6392  -0.6230  -0.6055  -0.6046
    -0.5891  -0.5840  -0.5753  -0.5709  -0.5554  -0.5440  -0.5303  -0.5040
    -0.4738  -0.4630  -0.3915  -0.3879  -0.3872  -0.3798  -0.3748  -0.3426
    -0.3383  -0.3161  -0.3112  -0.2983  -0.2739  -0.2279  -0.2131  -0.1875
    -0.1638  -0.1371  -0.1309  -0.1289  -0.1159  -0.1095  -0.1089  -0.0811
    -0.0646  -0.0472  -0.0406  -0.0294  -0.0147  -0.0116  -0.0038   0.0030
     0.0248   0.0431   0.1090   0.1367   0.1560   0.1611   0.2573   0.3611
     0.4879   0.5225   0.5525   0.6144   0.6237   0.6382   0.6521   0.6654
     0.6970   0.9357   1.0414   1.0598   1.2640   1.3840   1.5338   1.5657
     1.8072   1.8419   1.9054   1.9527   1.9768   2.2197   2.2502   2.2851
     2.2944   2.3448   2.3764   2.4347   2.4444   2.4504   2.4606   2.4776
     2.5631   3.0076   3.0215   3.2351   3.2428   3.2584   3.2902   3.3338
     3.3565   3.3674   3.3922   3.4048   3.4083   3.4271   3.4388   3.5135
     3.5225   3.5522   3.5546   3.5765   3.5797   3.5993   3.6100   3.6430
     3.7378   3.7482   3.7819   3.8038   3.8050   3.8176   3.8326   3.8467
     3.8481   3.8522   3.8594   3.8659   3.8693   3.8720   3.8804   3.9031
     3.9141   3.9392   4.1100   4.1112   4.1157   4.1253   4.2491   4.2840
     4.3039   4.3130   4.3366   4.3415   4.3574   4.3697   4.3786   4.3821
     4.3887   4.3961   4.3982   4.4160   4.4235   4.4474   4.4533   4.4643
     4.4801   4.4931   4.5167   4.5635   4.6425   4.6583   4.6601   4.6733
     4.6862   4.6957   4.7771   4.8026   4.8132   4.8269   4.8338   4.8348
     4.8417   4.8469   4.8801   4.9271   4.9335   4.9443   4.9531   4.9584
     4.9830   5.0038   5.0247   5.0339   5.0379   5.0548   5.0611   5.0796
     5.0863   5.0881   5.0906   5.0974   5.1014   5.1200   5.1298   5.1378
     5.1399   5.1457   5.1587   5.1684   5.1738   5.1769   5.1809   5.1879
     5.1984   5.2096   5.2158   5.2226   5.2238   5.2285   5.2315   5.2421
     5.2503   5.2516   5.2614   5.2673   5.2796   5.2834   5.2951   5.2985
     5.3005   5.3084   5.3217   5.3412   5.3630   5.3643   5.3727   5.3739
     5.3797   5.3838   5.3933   5.3981   5.4423   5.4450   5.4550   5.4636
     5.5002   5.5157   5.5477   5.5584   5.5708   5.5927   5.6020

          k = 0.2500 0.2500 0.0000 (144726 PWs)   bands (ev):

   -54.2183 -54.2068 -54.1978 -54.1957 -54.1886 -54.1811 -54.1783 -54.1763
   -54.1749 -54.1704 -54.1659 -54.1637 -54.1609 -54.1602 -54.1586 -54.1506
   -54.1453 -54.1433 -54.1358 -54.1148 -54.1048 -54.0925 -54.0911 -54.0870
   -54.0764 -54.0725 -54.0707 -54.0631 -54.0599 -54.0561 -54.0538 -54.0499
   -54.0458 -54.0399 -54.0372 -54.0340 -54.0277 -54.0274 -54.0257 -54.0195
   -54.0113 -54.0089 -54.0062 -54.0057 -53.9991 -53.9929 -53.9907 -53.9903
   -53.9886 -53.9871 -53.9793 -53.9773 -53.9755 -53.9734 -53.9710 -53.9643
   -53.9637 -53.9547 -53.9435 -53.9380 -53.9354 -53.9343 -53.9326 -53.9305
   -53.9280 -53.9259 -53.9249 -53.9211 -53.9191 -53.9110 -53.9089 -53.9017
   -42.5990 -41.8827 -30.7451 -30.7437 -30.7416 -30.7252 -30.7067 -30.7049
   -30.7023 -30.7007 -30.6863 -30.6841 -30.6799 -30.6764 -30.6748 -30.6673
   -30.6655 -30.6622 -30.6599 -30.6574 -30.6546 -30.6508 -30.6498 -30.6472
   -30.6463 -30.6456 -30.6337 -30.6334 -30.6322 -30.6314 -30.6289 -30.6271
   -30.6254 -30.6173 -30.6101 -30.6083 -30.6063 -30.6055 -30.6026 -30.6010
   -30.5998 -30.5978 -30.5971 -30.5951 -30.5940 -30.5922 -30.5893 -30.5856
   -30.5761 -30.5739 -30.5689 -30.5676 -30.5651 -30.5623 -30.5605 -30.5569
   -30.5532 -30.5432 -30.5419 -30.5406 -30.5387 -30.5375 -30.5365 -30.5314
   -30.5139 -30.5129 -30.5095 -30.5016 -30.4799 -30.4778 -30.4731 -30.4685
   -30.4669 -30.4639 -30.4619 -30.4562 -30.4530 -30.4520 -30.4510 -30.4500
   -30.4445 -30.4435 -30.4416 -30.4398 -30.4394 -30.4308 -30.4246 -30.4230
   -30.4204 -30.4158 -30.4133 -30.4103 -30.4000 -30.3989 -30.3945 -30.3930
   -30.3917 -30.3878 -30.3815 -30.3809 -30.3794 -30.3763 -30.3741 -30.3736
   -30.3719 -30.3666 -30.3635 -30.3614 -30.3589 -30.3568 -30.3527 -30.3412
   -30.3295 -30.3250 -30.3218 -30.3200 -30.3178 -30.3163 -30.3141 -30.3131
   -30.3118 -30.3102 -30.3087 -30.3050 -30.3032 -30.3025 -30.3023 -30.2955
   -30.2943 -30.2873 -30.2864 -30.2820 -30.2809 -30.2769 -30.2753 -30.2711
   -30.2695 -30.2691 -30.2677 -30.2672 -30.2668 -30.2643 -30.2567 -30.2539
   -30.2481 -30.2475 -30.2449 -30.2441 -30.2437 -30.2417 -30.2392 -30.2381
   -30.2319 -30.2306 -30.2278 -30.2250 -30.2240 -30.2216 -30.2192 -30.2176
   -30.2163 -30.2141 -30.2115 -30.2069 -30.2009 -30.1965 -30.1949 -30.1926
   -30.1901 -30.1864 -30.1843 -30.1823 -30.1801 -30.1770 -30.1766 -30.1738
   -30.1731 -30.1707 -30.1700 -30.1688 -30.1670 -30.1652 -30.1637 -30.1627
   -30.1616 -30.1595 -30.1591 -30.1549 -30.1524 -30.1504 -30.1475 -30.1460
   -30.1450 -30.1433 -30.1383 -30.1375 -30.1317 -30.1293 -30.1238 -30.1140
   -30.1123 -30.1103 -30.1098 -30.1063 -30.1043 -30.1017 -30.0990 -30.0957
   -30.0942 -30.0923 -30.0871 -30.0852 -30.0777 -30.0758 -30.0748 -30.0734
   -30.0654 -30.0642 -13.2375 -13.1482 -12.8257 -12.8170 -12.5082 -12.4094
   -12.3566 -12.3427 -12.3329 -12.1359 -12.1285 -12.0578 -12.0489 -12.0067
   -11.9869 -11.9711 -11.9173 -11.9132 -11.8975 -11.8711 -11.7800 -11.7786
   -11.7750 -11.7703 -11.7631 -11.7467 -11.7351 -11.7093 -11.6538 -11.6504
   -11.6373 -11.6234 -11.5936 -11.5653 -11.5467 -11.5294 -11.5270 -11.4918
   -11.4823 -11.4347 -11.3859 -11.3573 -11.3476 -11.3161 -11.2931 -11.2708
   -11.2005 -11.1977 -11.1958 -11.0788 -11.0760 -11.0734 -11.0211 -11.0195
   -10.9853 -10.9837 -10.9812 -10.9703 -10.9641 -10.9307 -10.8623 -10.8390
   -10.8365 -10.8342 -10.7998 -10.7865 -10.7547 -10.7517 -10.7189 -10.7070
   -10.6560 -10.6184 -10.6040 -10.4944 -10.4420  -9.8440  -8.6718  -8.0477
    -7.0556  -6.0271  -4.0171  -3.9451  -3.9306  -3.8678  -3.5827  -3.5601
    -3.4982  -3.4924  -3.3992  -3.3918  -3.3331  -3.3267  -3.1945  -3.1375
    -3.1292  -3.1245  -3.1144  -3.0462  -3.0189  -2.9951  -2.9904  -2.9238
    -2.9090  -2.9051  -2.8935  -2.8030  -2.7949  -2.7897  -2.7518  -2.7511
    -2.7439  -2.7375  -2.7043  -2.6381  -2.6289  -2.6235  -2.6166  -2.5708
    -2.5660  -2.5214  -2.4972  -2.4903  -2.4524  -2.4434  -2.4406  -2.4349
    -2.3624  -2.3016  -2.2895  -2.2536  -2.2498  -2.1987  -2.1935  -2.1477
    -2.1461  -2.1143  -2.1098  -2.0976  -2.0796  -2.0634  -2.0536  -1.9744
    -1.9268  -1.8797  -1.8716  -1.8576  -1.8419  -1.8136  -1.8099  -1.7854
    -1.7798  -1.7752  -1.7653  -1.7383  -1.7126  -1.7104  -1.6905  -1.6858
    -1.6777  -1.6504  -1.6494  -1.6394  -1.6183  -1.6151  -1.6083  -1.6039
    -1.5950  -1.5899  -1.5826  -1.5359  -1.5260  -1.5160  -1.5107  -1.5023
    -1.4912  -1.4792  -1.4451  -1.4426  -1.4371  -1.4323  -1.4221  -1.4200
    -1.3794  -1.3734  -1.3510  -1.3397  -1.3379  -1.3247  -1.3228  -1.3109
    -1.3010  -1.2860  -1.2790  -1.2677  -1.2540  -1.2353  -1.2118  -1.1921
    -1.1874  -1.1853  -1.1742  -1.1727  -1.1604  -1.1472  -1.1334  -1.0944
    -1.0815  -1.0577  -1.0545  -1.0445  -1.0230  -1.0143  -0.9967  -0.9780
    -0.9654  -0.9611  -0.9591  -0.9518  -0.9508  -0.9384  -0.8856  -0.8827
    -0.8544  -0.8455  -0.8343  -0.8219  -0.8147  -0.8121  -0.7891  -0.7838
    -0.7760  -0.7667  -0.7597  -0.7560  -0.7518  -0.7414  -0.7143  -0.7072
    -0.7027  -0.6951  -0.6834  -0.6769  -0.6731  -0.6654  -0.6568  -0.6413
    -0.6189  -0.6118  -0.5939  -0.5837  -0.5682  -0.5473  -0.5303  -0.5129
    -0.4890  -0.4622  -0.4490  -0.4407  -0.4366  -0.4201  -0.4146  -0.3819
    -0.3451  -0.3406  -0.3020  -0.2943  -0.2452  -0.2374  -0.2179  -0.2004
    -0.1903  -0.1728  -0.1647  -0.1442  -0.1294  -0.1246  -0.1020  -0.0901
    -0.0788  -0.0742  -0.0449   0.0003   0.0182   0.0302   0.0401   0.0669
     0.0909   0.1345   0.1486   0.2197   0.2268   0.2390   0.2741   0.3017
     0.3126   0.3821   0.4349   0.5666   0.5856   0.6062   0.6793   0.7115
     0.9369   1.0090   1.0260   1.2619   1.3050   1.3804   1.5352   1.6699
     1.7109   1.7693   1.8207   1.8770   1.9418   2.0033   2.0401   2.2155
     2.2681   2.2920   2.3505   2.6881   2.6966   2.7108   2.7360   2.7416
     2.8293   2.8592   2.9022   2.9132   3.0896   3.1005   3.1283   3.1402
     3.2107   3.2404   3.2485   3.3111   3.3382   3.3982   3.4191   3.4710
     3.4843   3.5220   3.5352   3.6074   3.6136   3.6408   3.6793   3.6953
     3.7316   3.7398   3.7748   3.7888   3.8602   3.8805   3.8941   3.9184
     3.9195   3.9612   3.9704   3.9966   4.0019   4.0370   4.0502   4.0554
     4.0899   4.0925   4.0998   4.1070   4.1243   4.1325   4.1508   4.1713
     4.1747   4.2166   4.2366   4.2766   4.2838   4.3163   4.3321   4.3944
     4.3998   4.4037   4.4153   4.4281   4.4898   4.5003   4.5138   4.5311
     4.5370   4.5601   4.5766   4.5799   4.5950   4.6558   4.6817   4.6926
     4.6999   4.7098   4.7236   4.7497   4.7639   4.7657   4.7775   4.7828
     4.7884   4.8114   4.8517   4.8695   4.9164   4.9355   4.9486   4.9580
     4.9619   4.9692   5.0025   5.0178   5.0269   5.0361   5.0395   5.0467
     5.0482   5.0557   5.0636   5.0728   5.0791   5.0887   5.0974   5.1065
     5.1240   5.1334   5.1416   5.1529   5.1547   5.1666   5.1686   5.2095
     5.2321   5.2478   5.2517   5.2617   5.2654   5.2759   5.2847   5.2900
     5.2986   5.3106   5.3160   5.3208   5.3357   5.3389   5.3544   5.3603
     5.3624   5.3697   5.3712   5.3752   5.3780   5.3892   5.3911   5.3950
     5.3983   5.4039   5.4168   5.4215   5.4231   5.4295   5.4335   5.4383
     5.4406   5.4455   5.4494   5.4522   5.4604   5.4744   5.4885

          k = 0.2500-0.5000 0.0000 (144610 PWs)   bands (ev):

   -54.2183 -54.2036 -54.2025 -54.1940 -54.1925 -54.1796 -54.1775 -54.1710
   -54.1696 -54.1691 -54.1685 -54.1677 -54.1665 -54.1603 -54.1597 -54.1474
   -54.1466 -54.1393 -54.1385 -54.1142 -54.1045 -54.0963 -54.0913 -54.0843
   -54.0771 -54.0724 -54.0671 -54.0622 -54.0603 -54.0577 -54.0556 -54.0513
   -54.0459 -54.0383 -54.0359 -54.0322 -54.0307 -54.0285 -54.0254 -54.0219
   -54.0104 -54.0076 -54.0035 -54.0002 -53.9975 -53.9964 -53.9953 -53.9924
   -53.9897 -53.9878 -53.9786 -53.9768 -53.9750 -53.9728 -53.9689 -53.9654
   -53.9641 -53.9547 -53.9435 -53.9378 -53.9359 -53.9344 -53.9325 -53.9306
   -53.9272 -53.9255 -53.9248 -53.9226 -53.9191 -53.9107 -53.9074 -53.9028
   -42.5990 -41.8827 -30.7513 -30.7506 -30.7422 -30.7409 -30.7081 -30.7078
   -30.6791 -30.6771 -30.6756 -30.6751 -30.6747 -30.6730 -30.6722 -30.6710
   -30.6684 -30.6667 -30.6598 -30.6585 -30.6548 -30.6536 -30.6523 -30.6517
   -30.6418 -30.6401 -30.6329 -30.6322 -30.6310 -30.6297 -30.6230 -30.6201
   -30.6188 -30.6187 -30.6173 -30.6156 -30.6124 -30.6091 -30.6067 -30.6053
   -30.6038 -30.6010 -30.5986 -30.5962 -30.5948 -30.5924 -30.5888 -30.5861
   -30.5843 -30.5836 -30.5807 -30.5710 -30.5647 -30.5592 -30.5550 -30.5523
   -30.5503 -30.5488 -30.5486 -30.5452 -30.5414 -30.5342 -30.5303 -30.5280
   -30.5186 -30.5162 -30.4990 -30.4968 -30.4961 -30.4912 -30.4852 -30.4839
   -30.4665 -30.4567 -30.4556 -30.4506 -30.4475 -30.4444 -30.4434 -30.4391
   -30.4366 -30.4359 -30.4341 -30.4324 -30.4312 -30.4309 -30.4293 -30.4183
   -30.4163 -30.4135 -30.4115 -30.4093 -30.4081 -30.4064 -30.4056 -30.3960
   -30.3949 -30.3934 -30.3922 -30.3915 -30.3861 -30.3750 -30.3729 -30.3659
   -30.3623 -30.3600 -30.3563 -30.3547 -30.3514 -30.3511 -30.3487 -30.3463
   -30.3437 -30.3424 -30.3291 -30.3258 -30.3218 -30.3178 -30.3095 -30.3034
   -30.3024 -30.3002 -30.2994 -30.2982 -30.2967 -30.2940 -30.2920 -30.2915
   -30.2895 -30.2888 -30.2874 -30.2852 -30.2831 -30.2826 -30.2791 -30.2769
   -30.2747 -30.2712 -30.2697 -30.2690 -30.2650 -30.2640 -30.2620 -30.2576
   -30.2549 -30.2525 -30.2502 -30.2485 -30.2438 -30.2424 -30.2395 -30.2359
   -30.2354 -30.2328 -30.2314 -30.2280 -30.2263 -30.2245 -30.2231 -30.2165
   -30.2144 -30.2104 -30.2069 -30.2036 -30.2008 -30.1979 -30.1953 -30.1932
   -30.1892 -30.1881 -30.1845 -30.1835 -30.1816 -30.1768 -30.1752 -30.1743
   -30.1734 -30.1721 -30.1704 -30.1662 -30.1655 -30.1643 -30.1628 -30.1624
   -30.1616 -30.1597 -30.1589 -30.1578 -30.1477 -30.1468 -30.1463 -30.1444
   -30.1415 -30.1385 -30.1345 -30.1326 -30.1303 -30.1291 -30.1250 -30.1219
   -30.1168 -30.1111 -30.1103 -30.1091 -30.1066 -30.1021 -30.0972 -30.0914
   -30.0898 -30.0873 -30.0862 -30.0844 -30.0815 -30.0799 -30.0749 -30.0708
   -30.0694 -30.0660 -13.2374 -13.0256 -13.0121 -12.7038 -12.6899 -12.3565
   -12.3023 -12.2927 -12.2316 -12.2171 -12.1325 -12.1233 -12.0329 -12.0220
   -11.9645 -11.9416 -11.8912 -11.8758 -11.8666 -11.8617 -11.8559 -11.8510
   -11.8397 -11.7944 -11.7227 -11.7178 -11.6907 -11.6801 -11.6784 -11.6737
   -11.6630 -11.6479 -11.5743 -11.5617 -11.5182 -11.5084 -11.5006 -11.4907
   -11.4813 -11.4389 -11.4322 -11.4239 -11.3413 -11.3263 -11.3044 -11.2404
   -11.1955 -11.1429 -11.1411 -11.1118 -11.1093 -11.0815 -11.0779 -11.0133
   -11.0118 -10.9441 -10.9429 -10.9267 -10.9114 -10.8964 -10.8803 -10.8769
   -10.8746 -10.8538 -10.8459 -10.7981 -10.7774 -10.7250 -10.7054 -10.6534
   -10.6517 -10.6487 -10.6426 -10.4349 -10.4329  -9.8440  -8.6718  -8.0478
    -7.0556  -6.0271  -4.0578  -4.0570  -3.9731  -3.9706  -3.5615  -3.5546
    -3.4868  -3.4817  -3.3133  -3.3010  -3.2161  -3.2121  -3.1494  -3.1486
    -3.1127  -3.1076  -3.0812  -3.0672  -3.0415  -3.0043  -3.0000  -2.9530
    -2.9489  -2.9403  -2.9360  -2.9333  -2.9241  -2.8679  -2.8579  -2.7213
    -2.7154  -2.6767  -2.6745  -2.5757  -2.5689  -2.5629  -2.5545  -2.5285
    -2.5241  -2.5111  -2.4906  -2.4821  -2.4019  -2.3956  -2.3780  -2.3728
    -2.3528  -2.3485  -2.3159  -2.3116  -2.3088  -2.2901  -2.2263  -2.2122
    -2.2015  -2.1987  -2.0889  -2.0871  -2.0684  -2.0502  -2.0441  -2.0332
    -1.9795  -1.9683  -1.9292  -1.9088  -1.9052  -1.8769  -1.8720  -1.8393
    -1.7867  -1.7841  -1.7389  -1.7318  -1.6901  -1.6818  -1.6598  -1.6551
    -1.6341  -1.6286  -1.6215  -1.6167  -1.5912  -1.5889  -1.5791  -1.5687
    -1.5629  -1.5581  -1.5482  -1.5382  -1.5320  -1.5234  -1.5000  -1.4973
    -1.4946  -1.4829  -1.4693  -1.4660  -1.4629  -1.4606  -1.4578  -1.4507
    -1.4191  -1.4163  -1.4054  -1.3983  -1.3866  -1.3788  -1.3733  -1.3674
    -1.3644  -1.3556  -1.3392  -1.3329  -1.2868  -1.2799  -1.2462  -1.2456
    -1.1688  -1.1620  -1.1558  -1.1538  -1.1294  -1.0744  -1.0488  -1.0434
    -1.0207  -1.0179  -1.0133  -1.0105  -0.9816  -0.9562  -0.9380  -0.9172
    -0.9147  -0.8852  -0.8650  -0.8542  -0.8396  -0.8360  -0.8346  -0.8267
    -0.8203  -0.8151  -0.8101  -0.8023  -0.7942  -0.7909  -0.7877  -0.7757
    -0.7655  -0.7534  -0.7450  -0.7396  -0.7312  -0.7275  -0.7163  -0.6870
    -0.6786  -0.6678  -0.6536  -0.6420  -0.6384  -0.6290  -0.6160  -0.6046
    -0.5548  -0.5390  -0.5342  -0.5324  -0.5198  -0.5110  -0.4987  -0.4893
    -0.4810  -0.4737  -0.4316  -0.4273  -0.4142  -0.3830  -0.3559  -0.3429
    -0.3287  -0.3076  -0.2966  -0.2822  -0.2546  -0.2468  -0.2363  -0.2048
    -0.1941  -0.1891  -0.1742  -0.1597  -0.1469  -0.1308  -0.1208  -0.1103
    -0.1021  -0.0786  -0.0671  -0.0332   0.0103   0.0150   0.0208   0.0320
     0.0528   0.0756   0.1160   0.1261   0.2077   0.2355   0.2536   0.2734
     0.3080   0.4274   0.4598   0.4717   0.4762   0.5053   0.6149   0.6435
     0.6558   0.9063   0.9228   0.9440   1.2597   1.3814   1.6907   1.7385
     1.8336   1.8671   1.9423   2.0419   2.0623   2.2186   2.2508   2.2699
     2.2981   2.3351   2.4044   2.4777   2.5075   2.5198   2.5236   2.6188
     2.6539   2.8322   2.8702   2.9056   2.9148   3.0371   3.0514   3.0920
     3.1022   3.2796   3.2903   3.2949   3.3002   3.3397   3.4265   3.4522
     3.4610   3.4733   3.4749   3.5357   3.5547   3.5986   3.6202   3.6391
     3.7154   3.7282   3.7499   3.7552   3.7733   3.7839   3.8015   3.8362
     3.8629   3.8702   3.8967   3.9268   3.9604   3.9809   3.9873   3.9980
     4.0344   4.0685   4.0790   4.1011   4.1658   4.1901   4.1983   4.2076
     4.2109   4.2212   4.2948   4.3035   4.3215   4.3362   4.3948   4.4089
     4.4466   4.4522   4.5086   4.5236   4.5602   4.5656   4.5704   4.5858
     4.6150   4.6308   4.6559   4.6595   4.6716   4.6925   4.7003   4.7414
     4.7526   4.7712   4.7920   4.7991   4.8329   4.8407   4.8613   4.9005
     4.9066   4.9184   4.9202   4.9269   4.9395   4.9428   4.9638   4.9696
     4.9810   4.9887   4.9934   5.0029   5.0216   5.0412   5.0622   5.0687
     5.0786   5.0899   5.0990   5.1051   5.1108   5.1173   5.1200   5.1239
     5.1291   5.1373   5.1439   5.1473   5.1580   5.1612   5.1720   5.1842
     5.1899   5.1942   5.2032   5.2088   5.2185   5.2329   5.2391   5.2442
     5.2504   5.2611   5.2765   5.2819   5.2975   5.3049   5.3222   5.3351
     5.3532   5.3567   5.3643   5.3726   5.3781   5.3856   5.3928   5.4008
     5.4032   5.4053   5.4065   5.4092   5.4184   5.4239   5.4410   5.4486
     5.4548   5.4734   5.4837   5.4876   5.4997   5.5075   5.5335

          k =-0.5000-0.5000 0.0000 (144656 PWs)   bands (ev):

   -54.2183 -54.2014 -54.2004 -54.1982 -54.1964 -54.1741 -54.1726 -54.1710
   -54.1700 -54.1689 -54.1685 -54.1674 -54.1664 -54.1657 -54.1645 -54.1443
   -54.1431 -54.1411 -54.1399 -54.1139 -54.1025 -54.0990 -54.0941 -54.0821
   -54.0769 -54.0686 -54.0667 -54.0628 -54.0600 -54.0590 -54.0574 -54.0525
   -54.0459 -54.0370 -54.0344 -54.0316 -54.0295 -54.0287 -54.0281 -54.0260
   -54.0066 -54.0032 -54.0009 -53.9986 -53.9979 -53.9969 -53.9963 -53.9956
   -53.9939 -53.9902 -53.9782 -53.9761 -53.9745 -53.9691 -53.9683 -53.9678
   -53.9643 -53.9547 -53.9435 -53.9379 -53.9358 -53.9347 -53.9324 -53.9301
   -53.9271 -53.9251 -53.9243 -53.9236 -53.9202 -53.9090 -53.9064 -53.9046
   -42.5990 -41.8827 -30.7544 -30.7543 -30.7539 -30.7526 -30.6811 -30.6809
   -30.6793 -30.6791 -30.6773 -30.6768 -30.6758 -30.6752 -30.6719 -30.6693
   -30.6676 -30.6674 -30.6657 -30.6639 -30.6417 -30.6413 -30.6407 -30.6390
   -30.6338 -30.6322 -30.6318 -30.6290 -30.6280 -30.6265 -30.6247 -30.6237
   -30.6225 -30.6219 -30.6214 -30.6212 -30.6143 -30.6139 -30.6113 -30.6097
   -30.6086 -30.6072 -30.6028 -30.6009 -30.5973 -30.5926 -30.5916 -30.5890
   -30.5874 -30.5868 -30.5863 -30.5850 -30.5831 -30.5678 -30.5610 -30.5545
   -30.5537 -30.5460 -30.5332 -30.5327 -30.5234 -30.5214 -30.5200 -30.5192
   -30.5162 -30.5142 -30.5139 -30.5135 -30.5131 -30.5126 -30.4819 -30.4724
   -30.4722 -30.4709 -30.4589 -30.4484 -30.4474 -30.4378 -30.4353 -30.4302
   -30.4297 -30.4292 -30.4284 -30.4276 -30.4273 -30.4265 -30.4256 -30.4255
   -30.4251 -30.4244 -30.4236 -30.4216 -30.4070 -30.3994 -30.3973 -30.3866
   -30.3848 -30.3832 -30.3805 -30.3797 -30.3781 -30.3776 -30.3762 -30.3759
   -30.3735 -30.3727 -30.3722 -30.3697 -30.3686 -30.3578 -30.3326 -30.3322
   -30.3294 -30.3262 -30.3243 -30.3230 -30.3219 -30.3204 -30.3156 -30.3137
   -30.3046 -30.2970 -30.2951 -30.2934 -30.2926 -30.2915 -30.2903 -30.2887
   -30.2882 -30.2880 -30.2880 -30.2870 -30.2859 -30.2789 -30.2774 -30.2763
   -30.2714 -30.2687 -30.2652 -30.2647 -30.2629 -30.2621 -30.2617 -30.2612
   -30.2602 -30.2591 -30.2429 -30.2410 -30.2401 -30.2395 -30.2383 -30.2355
   -30.2352 -30.2345 -30.2320 -30.2316 -30.2299 -30.2289 -30.2284 -30.2279
   -30.2263 -30.2256 -30.2242 -30.2223 -30.2181 -30.1970 -30.1946 -30.1869
   -30.1795 -30.1789 -30.1772 -30.1751 -30.1741 -30.1738 -30.1704 -30.1701
   -30.1673 -30.1669 -30.1643 -30.1629 -30.1625 -30.1615 -30.1602 -30.1594
   -30.1579 -30.1546 -30.1533 -30.1532 -30.1521 -30.1514 -30.1498 -30.1485
   -30.1461 -30.1442 -30.1433 -30.1403 -30.1388 -30.1373 -30.1356 -30.1276
   -30.1145 -30.1094 -30.1081 -30.1075 -30.1062 -30.0991 -30.0930 -30.0894
   -30.0887 -30.0869 -30.0842 -30.0827 -30.0811 -30.0795 -30.0743 -30.0707
   -30.0696 -30.0672 -13.2373 -12.8994 -12.8976 -12.8943 -12.8736 -12.3562
   -12.1943 -12.1931 -12.1911 -12.1759 -12.0357 -12.0325 -12.0281 -12.0266
   -12.0229 -12.0217 -12.0135 -11.9868 -11.9056 -11.9002 -11.8910 -11.8233
   -11.8130 -11.8048 -11.8023 -11.7968 -11.5962 -11.5950 -11.5911 -11.5884
   -11.5869 -11.5854 -11.5822 -11.5802 -11.5792 -11.5781 -11.5720 -11.5428
   -11.4361 -11.4081 -11.4013 -11.4004 -11.3936 -11.3447 -11.3434 -11.3353
   -11.2587 -11.0865 -11.0862 -11.0851 -11.0822 -11.0015 -10.9992 -10.9979
   -10.9965 -10.9961 -10.9951 -10.9946 -10.9906 -10.8746 -10.8718 -10.8662
   -10.8368 -10.7863 -10.7819 -10.7748 -10.7744 -10.7726 -10.7597 -10.7453
   -10.7359 -10.6152 -10.6101 -10.4001 -10.3989  -9.8441  -8.6718  -8.0478
    -7.0556  -6.0271  -4.1345  -4.1335  -4.0457  -4.0435  -3.2897  -3.2887
    -3.2862  -3.2808  -3.2716  -3.2704  -3.2629  -3.2501  -3.2243  -3.2203
    -3.1893  -3.1889  -3.1862  -3.1852  -3.1842  -3.1746  -3.1659  -3.1628
    -3.0570  -3.0209  -3.0049  -2.6821  -2.6542  -2.6436  -2.6367  -2.6296
    -2.6214  -2.6182  -2.6168  -2.6135  -2.6086  -2.6057  -2.5947  -2.5136
    -2.4845  -2.4836  -2.4824  -2.4806  -2.4780  -2.4721  -2.4646  -2.4628
    -2.2881  -2.2720  -2.2403  -2.2381  -2.2329  -2.2287  -2.2242  -2.2212
    -2.1776  -2.1657  -2.1634  -2.1625  -2.1612  -2.1605  -2.1586  -2.1554
    -2.1059  -2.1051  -2.0857  -2.0736  -1.9315  -1.9132  -1.9103  -1.8446
    -1.8223  -1.8196  -1.7299  -1.7162  -1.6809  -1.6791  -1.6173  -1.6113
    -1.6087  -1.6075  -1.6010  -1.5972  -1.5953  -1.5901  -1.5716  -1.5702
    -1.5651  -1.5608  -1.5545  -1.5542  -1.5415  -1.5372  -1.4485  -1.4440
    -1.4384  -1.4368  -1.4324  -1.4299  -1.4240  -1.4197  -1.4188  -1.4103
    -1.4075  -1.3852  -1.3756  -1.3718  -1.3520  -1.3493  -1.3473  -1.3407
    -1.3393  -1.3371  -1.3332  -1.3284  -1.3235  -1.3173  -1.2884  -1.2880
    -1.2320  -1.2315  -1.2186  -1.1970  -1.1452  -1.1315  -1.1252  -1.1245
    -1.0792  -1.0717  -1.0539  -1.0495  -0.9715  -0.9421  -0.9341  -0.9268
    -0.8866  -0.8593  -0.8574  -0.8402  -0.8364  -0.8347  -0.8162  -0.7906
    -0.7821  -0.7734  -0.7710  -0.7653  -0.7560  -0.7514  -0.7486  -0.7305
    -0.6926  -0.6735  -0.6600  -0.6527  -0.6516  -0.6498  -0.6417  -0.6408
    -0.5960  -0.5696  -0.5552  -0.5459  -0.5252  -0.5185  -0.5153  -0.4989
    -0.4927  -0.4797  -0.4750  -0.4703  -0.4681  -0.4555  -0.4507  -0.4467
    -0.4304  -0.3977  -0.3916  -0.3831  -0.3801  -0.3733  -0.3663  -0.3592
    -0.3537  -0.3491  -0.3379  -0.3183  -0.2947  -0.2758  -0.2733  -0.2702
    -0.2647  -0.2580  -0.2392  -0.2248  -0.2153  -0.2023  -0.1869  -0.1707
    -0.0503  -0.0419  -0.0384  -0.0306  -0.0166   0.0122   0.0245   0.0327
     0.0685   0.0861   0.0914   0.1202   0.1327   0.2097   0.2504   0.2720
     0.3252   0.3642   0.3672   0.3710   0.3755   0.4346   0.5700   0.5760
     0.5859   0.6128   0.6599   0.9347   1.2563   1.3792   1.7573   1.7953
     1.8814   2.1931   2.2193   2.2498   2.2650   2.2755   2.2811   2.2898
     2.2980   2.3526   2.3581   2.3804   2.3863   2.3920   2.4158   2.7723
     2.7817   2.7929   2.8059   2.8106   2.8146   2.8197   2.8251   2.8365
     2.8419   2.8840   2.8850   3.3264   3.3394   3.3445   3.3499   3.3607
     3.6096   3.6198   3.6227   3.6318   3.6371   3.6416   3.6465   3.6479
     3.6558   3.6758   3.6772   3.6798   3.6844   3.6911   3.7123   3.7421
     3.7464   3.7597   3.7660   3.8080   3.9315   3.9429   3.9493   3.9594
     3.9699   3.9789   4.0213   4.0298   4.0467   4.0683   4.0798   4.1582
     4.4985   4.4991   4.5090   4.5107   4.5125   4.5154   4.5187   4.5258
     4.5725   4.5803   4.5920   4.5925   4.6086   4.6113   4.6841   4.7222
     4.7399   4.7520   4.7589   4.7705   4.7732   4.7798   4.7820   4.7872
     4.7877   4.7912   4.8142   4.8400   4.8415   4.8443   4.8493   4.8508
     4.8833   4.8901   4.8930   4.9037   4.9136   4.9206   4.9315   4.9613
     4.9758   4.9834   4.9867   4.9890   4.9903   5.0018   5.0042   5.0093
     5.0182   5.0425   5.0506   5.0691   5.1041   5.1049   5.1092   5.1141
     5.1154   5.1204   5.1257   5.1281   5.1310   5.1318   5.1533   5.1593
     5.1700   5.1725   5.1808   5.1841   5.1902   5.1963   5.2050   5.2184
     5.2306   5.2375   5.2717   5.2920   5.3008   5.3189   5.3584   5.3595
     5.3614   5.3657   5.3718   5.3760   5.3851   5.3890   5.3923   5.3943
     5.3998   5.3999   5.4049   5.4111   5.4410   5.4434   5.4527   5.4534
     5.4599   5.4703   5.4986   5.5118   5.5194   5.5342   5.5458

          k = 0.2500 0.0000 0.0000 (144769 PWs)   bands (ev):

   -54.2183 -54.2081 -54.1981 -54.1894 -54.1879 -54.1839 -54.1823 -54.1785
   -54.1736 -54.1726 -54.1645 -54.1634 -54.1604 -54.1562 -54.1548 -54.1519
   -54.1505 -54.1432 -54.1348 -54.1156 -54.1035 -54.0953 -54.0872 -54.0846
   -54.0799 -54.0744 -54.0719 -54.0630 -54.0598 -54.0549 -54.0527 -54.0469
   -54.0455 -54.0428 -54.0381 -54.0348 -54.0279 -54.0268 -54.0213 -54.0181
   -54.0135 -54.0128 -54.0092 -54.0038 -54.0014 -53.9920 -53.9905 -53.9884
   -53.9854 -53.9828 -53.9805 -53.9792 -53.9765 -53.9751 -53.9718 -53.9641
   -53.9631 -53.9547 -53.9435 -53.9381 -53.9349 -53.9340 -53.9327 -53.9311
   -53.9278 -53.9272 -53.9246 -53.9200 -53.9168 -53.9147 -53.9083 -53.9010
   -42.5990 -41.8827 -30.7312 -30.7294 -30.7283 -30.7258 -30.7208 -30.7193
   -30.6957 -30.6942 -30.6939 -30.6928 -30.6901 -30.6882 -30.6819 -30.6806
   -30.6786 -30.6667 -30.6615 -30.6590 -30.6501 -30.6497 -30.6469 -30.6403
   -30.6391 -30.6359 -30.6352 -30.6334 -30.6324 -30.6317 -30.6271 -30.6265
   -30.6246 -30.6172 -30.6153 -30.6117 -30.6072 -30.6049 -30.6006 -30.5972
   -30.5967 -30.5949 -30.5925 -30.5909 -30.5889 -30.5857 -30.5840 -30.5809
   -30.5804 -30.5793 -30.5760 -30.5723 -30.5682 -30.5672 -30.5631 -30.5588
   -30.5560 -30.5442 -30.5394 -30.5257 -30.5223 -30.5183 -30.5175 -30.5143
   -30.5120 -30.5108 -30.5099 -30.5037 -30.5011 -30.4936 -30.4927 -30.4708
   -30.4667 -30.4656 -30.4646 -30.4628 -30.4542 -30.4531 -30.4494 -30.4480
   -30.4449 -30.4383 -30.4366 -30.4355 -30.4345 -30.4323 -30.4298 -30.4283
   -30.4271 -30.4179 -30.4135 -30.4115 -30.4081 -30.4045 -30.3991 -30.3964
   -30.3884 -30.3849 -30.3833 -30.3809 -30.3786 -30.3709 -30.3689 -30.3659
   -30.3632 -30.3573 -30.3561 -30.3552 -30.3531 -30.3522 -30.3481 -30.3470
   -30.3419 -30.3409 -30.3389 -30.3318 -30.3248 -30.3239 -30.3219 -30.3197
   -30.3142 -30.3101 -30.3086 -30.3065 -30.2994 -30.2977 -30.2948 -30.2934
   -30.2866 -30.2837 -30.2793 -30.2783 -30.2768 -30.2757 -30.2734 -30.2729
   -30.2710 -30.2680 -30.2633 -30.2630 -30.2616 -30.2601 -30.2577 -30.2556
   -30.2541 -30.2512 -30.2499 -30.2465 -30.2452 -30.2443 -30.2429 -30.2390
   -30.2349 -30.2292 -30.2259 -30.2175 -30.2162 -30.2152 -30.2129 -30.2104
   -30.2093 -30.2074 -30.2054 -30.2042 -30.2021 -30.1977 -30.1966 -30.1930
   -30.1911 -30.1896 -30.1892 -30.1864 -30.1853 -30.1826 -30.1802 -30.1776
   -30.1769 -30.1763 -30.1713 -30.1667 -30.1660 -30.1646 -30.1637 -30.1599
   -30.1587 -30.1562 -30.1550 -30.1539 -30.1531 -30.1513 -30.1502 -30.1492
   -30.1478 -30.1451 -30.1408 -30.1336 -30.1320 -30.1244 -30.1224 -30.1208
   -30.1185 -30.1143 -30.1111 -30.1081 -30.0996 -30.0992 -30.0985 -30.0971
   -30.0912 -30.0894 -30.0865 -30.0841 -30.0828 -30.0785 -30.0741 -30.0682
   -30.0654 -30.0625 -13.2377 -13.1929 -12.8647 -12.5869 -12.5792 -12.4478
   -12.3789 -12.3554 -12.2851 -12.2770 -12.1678 -12.0291 -12.0107 -11.9495
   -11.9459 -11.9419 -11.9324 -11.9148 -11.8975 -11.8546 -11.8456 -11.8132
   -11.8029 -11.7830 -11.7128 -11.7097 -11.6970 -11.6895 -11.6787 -11.6670
   -11.6518 -11.6288 -11.5832 -11.5717 -11.5625 -11.5595 -11.5304 -11.4372
   -11.4340 -11.4201 -11.3984 -11.3680 -11.3599 -11.3543 -11.2961 -11.2307
   -11.2163 -11.1508 -11.1397 -11.1305 -11.1264 -11.0981 -11.0482 -11.0256
   -11.0236 -11.0090 -10.9905 -10.9131 -10.9025 -10.8735 -10.8622 -10.8593
   -10.8409 -10.8395 -10.8216 -10.7998 -10.7909 -10.7294 -10.7264 -10.6431
   -10.6373 -10.6136 -10.6088 -10.5117 -10.5067  -9.8440  -8.6717  -8.0477
    -7.0556  -6.0271  -3.8406  -3.8381  -3.7578  -3.7567  -3.7037  -3.6987
    -3.6390  -3.6371  -3.4384  -3.4305  -3.3673  -3.3637  -3.1470  -3.1399
    -3.0712  -3.0611  -3.0567  -3.0393  -3.0274  -3.0078  -2.9628  -2.9609
    -2.9123  -2.8830  -2.8746  -2.8386  -2.7872  -2.7753  -2.7669  -2.7590
    -2.7498  -2.7408  -2.7306  -2.6638  -2.6583  -2.6420  -2.5943  -2.5557
    -2.5386  -2.5319  -2.5154  -2.5040  -2.4926  -2.4721  -2.4538  -2.4478
    -2.3968  -2.3347  -2.3279  -2.2411  -2.1461  -2.1361  -2.1319  -2.1237
    -2.1118  -2.1046  -2.0946  -2.0769  -2.0022  -1.9977  -1.9926  -1.9583
    -1.9397  -1.9138  -1.8691  -1.8487  -1.8044  -1.8016  -1.7606  -1.7546
    -1.7251  -1.7218  -1.7182  -1.7133  -1.6997  -1.6875  -1.6790  -1.6634
    -1.6545  -1.6429  -1.6338  -1.6160  -1.6120  -1.6056  -1.5972  -1.5858
    -1.5786  -1.5716  -1.5615  -1.5593  -1.5308  -1.5264  -1.5242  -1.5196
    -1.5124  -1.5061  -1.4959  -1.4786  -1.4754  -1.4721  -1.4178  -1.4136
    -1.3853  -1.3767  -1.3401  -1.3387  -1.3326  -1.3244  -1.3206  -1.3158
    -1.3023  -1.2928  -1.2752  -1.2705  -1.2445  -1.2243  -1.1868  -1.1757
    -1.1645  -1.1556  -1.1507  -1.1486  -1.1395  -1.1349  -1.1342  -1.1265
    -1.1175  -1.1075  -1.1022  -1.0918  -1.0501  -1.0183  -1.0179  -1.0057
    -0.9935  -0.9819  -0.9711  -0.9573  -0.9345  -0.9292  -0.9251  -0.9220
    -0.9173  -0.9064  -0.9026  -0.8738  -0.8651  -0.8599  -0.8551  -0.8269
    -0.8228  -0.8179  -0.8071  -0.7986  -0.7852  -0.7725  -0.7641  -0.7554
    -0.7492  -0.7373  -0.7257  -0.7223  -0.7173  -0.6886  -0.6637  -0.6518
    -0.6361  -0.6273  -0.6078  -0.5966  -0.5939  -0.5867  -0.5825  -0.5762
    -0.5657  -0.5560  -0.5116  -0.5051  -0.4301  -0.4136  -0.4029  -0.3934
    -0.3795  -0.3671  -0.3542  -0.2993  -0.2847  -0.2782  -0.1951  -0.1816
    -0.1460  -0.1333  -0.1247  -0.1160  -0.1001  -0.0875  -0.0787  -0.0650
    -0.0454  -0.0382  -0.0211   0.0036   0.0330   0.0680   0.0821   0.0991
     0.1222   0.1631   0.2281   0.2701   0.2840   0.3122   0.3235   0.3381
     0.3612   0.4042   0.4543   0.4800   0.5978   0.7496   0.7863   0.9364
     0.9488   1.0780   1.2664   1.2921   1.3475   1.3739   1.4212   1.4913
     1.6494   1.6983   1.8128   1.8493   1.8842   1.9137   2.0264   2.1191
     2.1465   2.2875   2.3265   2.5335   2.6285   2.6539   2.8567   2.9563
     2.9732   2.9806   3.0297   3.0558   3.0937   3.1725   3.3263   3.3435
     3.3871   3.4036   3.4209   3.4262   3.4372   3.4475   3.4674   3.4959
     3.5789   3.6249   3.6296   3.6483   3.6551   3.6658   3.6844   3.7012
     3.7147   3.7216   3.7260   3.7434   3.7845   3.8434   3.8502   3.8977
     3.9387   3.9614   3.9768   4.0005   4.0239   4.0361   4.0479   4.0614
     4.0694   4.0879   4.0943   4.0992   4.1112   4.1402   4.1483   4.1685
     4.2280   4.2311   4.2448   4.2581   4.2853   4.3070   4.3365   4.3544
     4.3817   4.4061   4.4160   4.4299   4.4379   4.4462   4.4641   4.4896
     4.4992   4.5238   4.5480   4.5676   4.5971   4.6084   4.6198   4.6379
     4.6568   4.6677   4.6798   4.6907   4.7308   4.7373   4.7390   4.7449
     4.7554   4.7817   4.8058   4.8138   4.8437   4.8566   4.8683   4.8730
     4.8858   4.8912   4.9060   4.9300   4.9348   4.9524   4.9686   4.9806
     4.9876   5.0179   5.0406   5.0526   5.0580   5.0695   5.0770   5.1002
     5.1237   5.1289   5.1334   5.1483   5.1706   5.1865   5.2027   5.2270
     5.2322   5.2451   5.2553   5.2739   5.2798   5.2827   5.2897   5.2948
     5.2980   5.3007   5.3086   5.3178   5.3286   5.3386   5.3445   5.3561
     5.3625   5.3689   5.3728   5.3789   5.3933   5.3980   5.4022   5.4052
     5.4100   5.4163   5.4174   5.4230   5.4268   5.4397   5.4447   5.4486
     5.4539   5.4580   5.4708   5.4754   5.4861   5.4900   5.5053

          k =-0.5000 0.0000 0.0000 (144664 PWs)   bands (ev):

   -54.2183 -54.2044 -54.2039 -54.1879 -54.1865 -54.1855 -54.1853 -54.1711
   -54.1696 -54.1689 -54.1681 -54.1675 -54.1671 -54.1548 -54.1538 -54.1521
   -54.1512 -54.1384 -54.1377 -54.1147 -54.1049 -54.0955 -54.0877 -54.0845
   -54.0804 -54.0735 -54.0682 -54.0622 -54.0611 -54.0571 -54.0540 -54.0467
   -54.0453 -54.0433 -54.0368 -54.0321 -54.0313 -54.0282 -54.0208 -54.0167
   -54.0154 -54.0143 -54.0035 -54.0005 -53.9976 -53.9971 -53.9944 -53.9918
   -53.9849 -53.9831 -53.9803 -53.9787 -53.9762 -53.9750 -53.9689 -53.9644
   -53.9639 -53.9547 -53.9435 -53.9381 -53.9350 -53.9341 -53.9328 -53.9311
   -53.9273 -53.9273 -53.9241 -53.9208 -53.9172 -53.9151 -53.9060 -53.9025
   -42.5990 -41.8827 -30.7360 -30.7355 -30.7334 -30.7328 -30.7156 -30.7148
   -30.7137 -30.7129 -30.6762 -30.6759 -30.6734 -30.6714 -30.6708 -30.6696
   -30.6657 -30.6652 -30.6648 -30.6641 -30.6467 -30.6461 -30.6449 -30.6435
   -30.6416 -30.6412 -30.6405 -30.6397 -30.6380 -30.6374 -30.6302 -30.6293
   -30.6179 -30.6153 -30.6144 -30.6115 -30.6107 -30.6101 -30.6065 -30.6028
   -30.5999 -30.5988 -30.5950 -30.5927 -30.5911 -30.5867 -30.5843 -30.5809
   -30.5792 -30.5740 -30.5710 -30.5660 -30.5603 -30.5581 -30.5571 -30.5563
   -30.5503 -30.5489 -30.5473 -30.5453 -30.5445 -30.5434 -30.5395 -30.5373
   -30.5205 -30.5171 -30.4789 -30.4778 -30.4776 -30.4769 -30.4742 -30.4719
   -30.4707 -30.4645 -30.4609 -30.4594 -30.4528 -30.4512 -30.4486 -30.4474
   -30.4449 -30.4420 -30.4417 -30.4401 -30.4378 -30.4354 -30.4290 -30.4270
   -30.4174 -30.4150 -30.4135 -30.4106 -30.4063 -30.4053 -30.4044 -30.4001
   -30.3912 -30.3871 -30.3856 -30.3827 -30.3792 -30.3750 -30.3704 -30.3664
   -30.3617 -30.3603 -30.3593 -30.3569 -30.3533 -30.3519 -30.3477 -30.3395
   -30.3320 -30.3311 -30.3299 -30.3263 -30.3244 -30.3179 -30.3148 -30.3132
   -30.3118 -30.3104 -30.3082 -30.3073 -30.3069 -30.3043 -30.2970 -30.2920
   -30.2908 -30.2846 -30.2838 -30.2829 -30.2818 -30.2810 -30.2800 -30.2774
   -30.2772 -30.2764 -30.2743 -30.2680 -30.2659 -30.2572 -30.2548 -30.2529
   -30.2518 -30.2505 -30.2470 -30.2431 -30.2420 -30.2394 -30.2374 -30.2362
   -30.2342 -30.2326 -30.2305 -30.2273 -30.2229 -30.2210 -30.2190 -30.2136
   -30.2050 -30.2023 -30.2004 -30.1991 -30.1965 -30.1954 -30.1940 -30.1930
   -30.1909 -30.1899 -30.1877 -30.1864 -30.1861 -30.1846 -30.1824 -30.1798
   -30.1739 -30.1722 -30.1690 -30.1680 -30.1677 -30.1668 -30.1641 -30.1635
   -30.1629 -30.1607 -30.1594 -30.1578 -30.1559 -30.1551 -30.1526 -30.1513
   -30.1443 -30.1336 -30.1268 -30.1222 -30.1204 -30.1196 -30.1178 -30.1159
   -30.1150 -30.1117 -30.1087 -30.1055 -30.1042 -30.1013 -30.0996 -30.0984
   -30.0958 -30.0925 -30.0906 -30.0899 -30.0853 -30.0786 -30.0720 -30.0694
   -30.0686 -30.0665 -13.2374 -13.0682 -13.0579 -12.4696 -12.4675 -12.4650
   -12.4510 -12.3572 -12.3391 -12.3281 -12.1708 -12.1601 -11.9867 -11.9663
   -11.8759 -11.8734 -11.8535 -11.8496 -11.8492 -11.8456 -11.8328 -11.8267
   -11.8177 -11.7890 -11.7135 -11.7117 -11.6986 -11.6921 -11.6891 -11.6862
   -11.6693 -11.6494 -11.6300 -11.6281 -11.6232 -11.5806 -11.5382 -11.5088
   -11.3954 -11.3915 -11.3843 -11.3477 -11.3029 -11.2669 -11.2667 -11.2650
   -11.2597 -11.1643 -11.1629 -11.1120 -11.1077 -11.0650 -11.0616 -11.0472
   -11.0231 -10.9564 -10.9559 -10.9548 -10.9523 -10.9467 -10.9294 -10.8849
   -10.8750 -10.7529 -10.7518 -10.7498 -10.7461 -10.7405 -10.7375 -10.7293
   -10.7110 -10.5321 -10.5308 -10.5244 -10.5183  -9.8440  -8.6718  -8.0477
    -7.0556  -6.0271  -3.8663  -3.8629  -3.8307  -3.8257  -3.7744  -3.7719
    -3.7676  -3.7645  -3.2028  -3.1940  -3.1893  -3.1678  -3.1059  -3.0960
    -3.0935  -3.0870  -3.0570  -2.9990  -2.9911  -2.9455  -2.9421  -2.9358
    -2.9335  -2.8948  -2.8909  -2.8887  -2.8850  -2.8544  -2.8498  -2.7547
    -2.7502  -2.7412  -2.7387  -2.7170  -2.7127  -2.7084  -2.6982  -2.5465
    -2.5368  -2.5076  -2.4925  -2.4872  -2.4807  -2.4795  -2.4706  -2.4558
    -2.3474  -2.3415  -2.2961  -2.2842  -2.2740  -2.2599  -2.1982  -2.1865
    -2.1346  -2.1232  -2.0161  -1.9967  -1.9363  -1.8785  -1.8613  -1.8586
    -1.8509  -1.8365  -1.8076  -1.8051  -1.7942  -1.7910  -1.7884  -1.7818
    -1.7763  -1.7689  -1.7646  -1.7492  -1.7432  -1.7415  -1.7239  -1.7149
    -1.6846  -1.6802  -1.6753  -1.6700  -1.6661  -1.6585  -1.6553  -1.6511
    -1.6490  -1.6395  -1.6075  -1.6010  -1.5934  -1.5841  -1.5580  -1.5530
    -1.5495  -1.5381  -1.5059  -1.5048  -1.4994  -1.4789  -1.3787  -1.3761
    -1.3505  -1.3398  -1.3326  -1.3308  -1.3182  -1.3165  -1.2920  -1.2849
    -1.2831  -1.2783  -1.2758  -1.2711  -1.2294  -1.2285  -1.2254  -1.2141
    -1.2098  -1.1909  -1.1855  -1.1647  -1.1178  -1.1171  -1.1167  -1.1160
    -1.0830  -1.0760  -1.0705  -1.0617  -1.0480  -1.0228  -0.9998  -0.9747
    -0.9619  -0.9490  -0.9426  -0.9101  -0.8981  -0.8921  -0.8848  -0.8818
    -0.8791  -0.8779  -0.8720  -0.8687  -0.8469  -0.8420  -0.8185  -0.8131
    -0.7995  -0.7915  -0.7862  -0.7804  -0.7743  -0.7591  -0.7472  -0.7035
    -0.6968  -0.6826  -0.6636  -0.6498  -0.6223  -0.6141  -0.6078  -0.6057
    -0.5864  -0.5854  -0.5835  -0.5667  -0.5580  -0.5426  -0.5309  -0.4987
    -0.4719  -0.4680  -0.3918  -0.3857  -0.3849  -0.3786  -0.3753  -0.3432
    -0.3202  -0.3181  -0.3091  -0.3019  -0.2719  -0.2291  -0.2168  -0.1865
    -0.1673  -0.1549  -0.1337  -0.1290  -0.1178  -0.1134  -0.1087  -0.0932
    -0.0582  -0.0437  -0.0357  -0.0328  -0.0154  -0.0117  -0.0022   0.0026
     0.0271   0.0647   0.1062   0.1382   0.1529   0.1592   0.2581   0.3513
     0.4936   0.5347   0.5780   0.6068   0.6186   0.6318   0.6440   0.6545
     0.6992   0.9378   1.0387   1.0615   1.2682   1.3733   1.5318   1.5682
     1.8007   1.8529   1.9034   1.9515   1.9772   2.2453   2.2576   2.2634
     2.2968   2.3501   2.3814   2.4318   2.4443   2.4464   2.4516   2.4953
     2.5397   3.0116   3.0173   3.2330   3.2460   3.2575   3.2879   3.3353
     3.3561   3.3690   3.3867   3.4061   3.4121   3.4274   3.4534   3.5102
     3.5219   3.5527   3.5553   3.5741   3.5790   3.5991   3.6097   3.6360
     3.7381   3.7471   3.7837   3.8045   3.8074   3.8188   3.8315   3.8456
     3.8499   3.8508   3.8608   3.8678   3.8718   3.8724   3.8776   3.8981
     3.9157   3.9330   4.1089   4.1132   4.1170   4.1255   4.2495   4.2858
     4.3045   4.3132   4.3359   4.3416   4.3605   4.3707   4.3783   4.3819
     4.3917   4.3953   4.3967   4.4170   4.4292   4.4381   4.4544   4.4616
     4.4891   4.4930   4.5140   4.5592   4.6413   4.6578   4.6633   4.6774
     4.6864   4.6950   4.7753   4.8011   4.8189   4.8285   4.8345   4.8359
     4.8393   4.8457   4.8683   4.9208   4.9411   4.9480   4.9526   4.9619
     4.9763   5.0078   5.0263   5.0316   5.0374   5.0566   5.0595   5.0747
     5.0864   5.0877   5.0907   5.0912   5.1045   5.1224   5.1308   5.1357
     5.1412   5.1432   5.1609   5.1666   5.1722   5.1765   5.1829   5.1950
     5.1994   5.2072   5.2176   5.2188   5.2235   5.2311   5.2337   5.2436
     5.2511   5.2519   5.2653   5.2676   5.2794   5.2799   5.2946   5.2993
     5.3010   5.3109   5.3223   5.3452   5.3632   5.3698   5.3733   5.3760
     5.3797   5.3833   5.3910   5.3938   5.4409   5.4452   5.4539   5.4635
     5.4871   5.5087   5.5457   5.5582   5.5675   5.5950   5.6050

          k =-0.2500 0.2500 0.0000 (144726 PWs)   bands (ev):

   -54.2183 -54.2068 -54.1987 -54.1943 -54.1889 -54.1819 -54.1779 -54.1765
   -54.1739 -54.1707 -54.1654 -54.1644 -54.1619 -54.1596 -54.1580 -54.1501
   -54.1466 -54.1424 -54.1359 -54.1151 -54.1021 -54.0991 -54.0883 -54.0824
   -54.0796 -54.0734 -54.0709 -54.0620 -54.0598 -54.0552 -54.0547 -54.0495
   -54.0466 -54.0396 -54.0369 -54.0343 -54.0279 -54.0268 -54.0264 -54.0187
   -54.0118 -54.0104 -54.0052 -54.0046 -53.9997 -53.9927 -53.9919 -53.9895
   -53.9882 -53.9873 -53.9793 -53.9769 -53.9758 -53.9726 -53.9720 -53.9642
   -53.9638 -53.9547 -53.9435 -53.9380 -53.9354 -53.9342 -53.9325 -53.9309
   -53.9278 -53.9268 -53.9240 -53.9212 -53.9182 -53.9129 -53.9076 -53.9019
   -42.5990 -41.8827 -30.7448 -30.7440 -30.7424 -30.7246 -30.7069 -30.7039
   -30.7021 -30.7011 -30.6858 -30.6832 -30.6793 -30.6767 -30.6760 -30.6684
   -30.6639 -30.6631 -30.6598 -30.6594 -30.6538 -30.6512 -30.6494 -30.6476
   -30.6462 -30.6453 -30.6342 -30.6331 -30.6319 -30.6314 -30.6291 -30.6277
   -30.6255 -30.6141 -30.6129 -30.6082 -30.6064 -30.6037 -30.6031 -30.6019
   -30.6003 -30.5990 -30.5974 -30.5958 -30.5940 -30.5924 -30.5865 -30.5845
   -30.5740 -30.5723 -30.5711 -30.5663 -30.5651 -30.5633 -30.5622 -30.5561
   -30.5542 -30.5417 -30.5412 -30.5405 -30.5389 -30.5378 -30.5369 -30.5329
   -30.5135 -30.5128 -30.5080 -30.5059 -30.4800 -30.4784 -30.4728 -30.4687
   -30.4667 -30.4651 -30.4582 -30.4537 -30.4530 -30.4525 -30.4506 -30.4497
   -30.4458 -30.4440 -30.4411 -30.4403 -30.4378 -30.4320 -30.4242 -30.4236
   -30.4210 -30.4160 -30.4150 -30.4108 -30.4003 -30.3959 -30.3942 -30.3932
   -30.3916 -30.3858 -30.3842 -30.3821 -30.3801 -30.3781 -30.3749 -30.3733
   -30.3725 -30.3651 -30.3633 -30.3626 -30.3582 -30.3562 -30.3494 -30.3419
   -30.3286 -30.3238 -30.3206 -30.3191 -30.3176 -30.3162 -30.3155 -30.3140
   -30.3116 -30.3094 -30.3088 -30.3062 -30.3036 -30.3021 -30.3017 -30.2963
   -30.2953 -30.2862 -30.2854 -30.2831 -30.2819 -30.2776 -30.2731 -30.2719
   -30.2702 -30.2697 -30.2686 -30.2663 -30.2661 -30.2650 -30.2551 -30.2540
   -30.2487 -30.2482 -30.2465 -30.2455 -30.2428 -30.2419 -30.2394 -30.2384
   -30.2319 -30.2283 -30.2278 -30.2262 -30.2253 -30.2208 -30.2186 -30.2165
   -30.2163 -30.2145 -30.2099 -30.2082 -30.2043 -30.1954 -30.1942 -30.1910
   -30.1899 -30.1876 -30.1817 -30.1815 -30.1791 -30.1764 -30.1760 -30.1750
   -30.1732 -30.1719 -30.1702 -30.1695 -30.1672 -30.1651 -30.1639 -30.1633
   -30.1614 -30.1594 -30.1579 -30.1540 -30.1520 -30.1513 -30.1479 -30.1453
   -30.1445 -30.1424 -30.1419 -30.1392 -30.1350 -30.1298 -30.1173 -30.1159
   -30.1139 -30.1095 -30.1086 -30.1060 -30.1020 -30.1008 -30.0993 -30.0969
   -30.0955 -30.0937 -30.0837 -30.0832 -30.0792 -30.0788 -30.0757 -30.0709
   -30.0672 -30.0635 -13.2375 -13.1482 -12.8280 -12.8146 -12.5082 -12.4093
   -12.3563 -12.3455 -12.3305 -12.1372 -12.1271 -12.0634 -12.0425 -12.0067
   -11.9918 -11.9639 -11.9231 -11.9132 -11.8949 -11.8713 -11.7813 -11.7785
   -11.7725 -11.7685 -11.7656 -11.7439 -11.7397 -11.7099 -11.6535 -11.6500
   -11.6374 -11.6179 -11.5971 -11.5658 -11.5451 -11.5301 -11.5267 -11.4920
   -11.4831 -11.4370 -11.3860 -11.3489 -11.3445 -11.3331 -11.2922 -11.2647
   -11.2001 -11.1979 -11.1956 -11.0767 -11.0763 -11.0717 -11.0219 -11.0190
   -10.9870 -10.9836 -10.9805 -10.9700 -10.9670 -10.9306 -10.8578 -10.8465
   -10.8368 -10.8351 -10.7965 -10.7904 -10.7618 -10.7389 -10.7187 -10.7062
   -10.6560 -10.6172 -10.6069 -10.4957 -10.4410  -9.8440  -8.6718  -8.0477
    -7.0556  -6.0271  -4.0162  -3.9456  -3.9306  -3.8678  -3.5930  -3.5520
    -3.4957  -3.4941  -3.4049  -3.3856  -3.3349  -3.3234  -3.1895  -3.1370
    -3.1301  -3.1276  -3.1064  -3.0595  -3.0172  -2.9995  -2.9881  -2.9283
    -2.9080  -2.9074  -2.8892  -2.8027  -2.8012  -2.7808  -2.7533  -2.7481
    -2.7451  -2.7319  -2.7102  -2.6357  -2.6272  -2.6255  -2.6150  -2.5763
    -2.5521  -2.5244  -2.4978  -2.4903  -2.4502  -2.4452  -2.4425  -2.4371
    -2.3623  -2.3040  -2.2898  -2.2584  -2.2476  -2.2037  -2.1890  -2.1485
    -2.1476  -2.1156  -2.1112  -2.0936  -2.0767  -2.0685  -2.0550  -1.9720
    -1.9262  -1.8763  -1.8725  -1.8621  -1.8364  -1.8123  -1.8093  -1.7852
    -1.7750  -1.7722  -1.7708  -1.7391  -1.7203  -1.7106  -1.6873  -1.6839
    -1.6796  -1.6502  -1.6474  -1.6406  -1.6176  -1.6159  -1.6079  -1.6013
    -1.5911  -1.5874  -1.5866  -1.5351  -1.5260  -1.5188  -1.5139  -1.5008
    -1.4940  -1.4761  -1.4535  -1.4402  -1.4381  -1.4262  -1.4233  -1.4173
    -1.3826  -1.3691  -1.3497  -1.3446  -1.3417  -1.3237  -1.3198  -1.3141
    -1.2944  -1.2843  -1.2825  -1.2691  -1.2548  -1.2346  -1.2117  -1.1928
    -1.1870  -1.1852  -1.1740  -1.1709  -1.1650  -1.1488  -1.1304  -1.1058
    -1.0715  -1.0584  -1.0549  -1.0453  -1.0208  -1.0114  -0.9847  -0.9790
    -0.9768  -0.9608  -0.9584  -0.9565  -0.9483  -0.9369  -0.8877  -0.8826
    -0.8529  -0.8371  -0.8357  -0.8258  -0.8146  -0.8098  -0.7909  -0.7852
    -0.7788  -0.7653  -0.7572  -0.7477  -0.7462  -0.7373  -0.7234  -0.7089
    -0.7053  -0.6904  -0.6808  -0.6740  -0.6708  -0.6644  -0.6590  -0.6441
    -0.6211  -0.6143  -0.6033  -0.5915  -0.5565  -0.5516  -0.5352  -0.5133
    -0.5079  -0.4683  -0.4527  -0.4440  -0.4363  -0.4121  -0.3958  -0.3783
    -0.3576  -0.3373  -0.3024  -0.2759  -0.2463  -0.2412  -0.2161  -0.1956
    -0.1908  -0.1730  -0.1636  -0.1423  -0.1267  -0.1217  -0.1156  -0.0939
    -0.0717  -0.0618  -0.0380  -0.0027   0.0150   0.0263   0.0379   0.0657
     0.0923   0.1345   0.1450   0.1726   0.2281   0.2384   0.2922   0.3024
     0.3325   0.3909   0.4289   0.5728   0.5912   0.6089   0.6649   0.7078
     0.9376   1.0099   1.0258   1.2617   1.3030   1.3834   1.5350   1.6692
     1.7184   1.7738   1.8135   1.8761   1.9305   2.0074   2.0395   2.2286
     2.2701   2.2952   2.3332   2.6829   2.6965   2.7150   2.7298   2.7503
     2.8280   2.8584   2.9038   2.9090   3.0981   3.1098   3.1261   3.1357
     3.2100   3.2406   3.2488   3.3119   3.3382   3.4047   3.4090   3.4639
     3.4848   3.5307   3.5353   3.6092   3.6136   3.6417   3.6761   3.6866
     3.7279   3.7560   3.7653   3.7813   3.8786   3.8860   3.8982   3.9214
     3.9272   3.9641   3.9686   3.9986   4.0023   4.0352   4.0454   4.0550
     4.0747   4.0872   4.0942   4.1059   4.1114   4.1207   4.1464   4.1586
     4.1814   4.2017   4.2558   4.2678   4.2991   4.3092   4.3680   4.3911
     4.3977   4.4002   4.4121   4.4336   4.4906   4.5011   4.5200   4.5298
     4.5416   4.5626   4.5673   4.5838   4.6045   4.6599   4.6860   4.6898
     4.7022   4.7100   4.7209   4.7418   4.7504   4.7643   4.7763   4.7848
     4.8071   4.8198   4.8416   4.8659   4.9025   4.9352   4.9494   4.9590
     4.9615   4.9875   4.9962   5.0158   5.0203   5.0318   5.0363   5.0449
     5.0466   5.0605   5.0706   5.0734   5.0782   5.0884   5.1023   5.1064
     5.1212   5.1246   5.1509   5.1542   5.1562   5.1587   5.1694   5.2056
     5.2213   5.2419   5.2515   5.2570   5.2670   5.2766   5.2810   5.2881
     5.2977   5.3132   5.3187   5.3269   5.3324   5.3524   5.3581   5.3598
     5.3621   5.3699   5.3730   5.3767   5.3797   5.3858   5.3950   5.3988
     5.4009   5.4058   5.4083   5.4161   5.4288   5.4308   5.4344   5.4374
     5.4405   5.4423   5.4504   5.4555   5.4690   5.4819   5.4851

          k =-0.5000 0.2500 0.0000 (144610 PWs)   bands (ev):

   -54.2183 -54.2033 -54.2028 -54.1937 -54.1927 -54.1790 -54.1783 -54.1710
   -54.1697 -54.1690 -54.1683 -54.1674 -54.1669 -54.1604 -54.1597 -54.1474
   -54.1466 -54.1393 -54.1385 -54.1143 -54.1040 -54.0973 -54.0910 -54.0838
   -54.0772 -54.0715 -54.0683 -54.0621 -54.0609 -54.0575 -54.0556 -54.0502
   -54.0461 -54.0392 -54.0358 -54.0316 -54.0309 -54.0287 -54.0251 -54.0221
   -54.0106 -54.0075 -54.0032 -54.0004 -53.9976 -53.9968 -53.9948 -53.9922
   -53.9893 -53.9883 -53.9788 -53.9763 -53.9753 -53.9728 -53.9688 -53.9654
   -53.9641 -53.9547 -53.9435 -53.9380 -53.9354 -53.9345 -53.9326 -53.9304
   -53.9278 -53.9261 -53.9243 -53.9208 -53.9204 -53.9116 -53.9062 -53.9033
   -42.5990 -41.8827 -30.7512 -30.7507 -30.7421 -30.7410 -30.7083 -30.7075
   -30.6787 -30.6779 -30.6755 -30.6752 -30.6742 -30.6731 -30.6723 -30.6712
   -30.6680 -30.6666 -30.6598 -30.6586 -30.6545 -30.6539 -30.6527 -30.6514
   -30.6420 -30.6400 -30.6328 -30.6323 -30.6311 -30.6295 -30.6223 -30.6203
   -30.6189 -30.6187 -30.6172 -30.6155 -30.6126 -30.6091 -30.6071 -30.6053
   -30.6040 -30.6018 -30.5980 -30.5969 -30.5944 -30.5926 -30.5891 -30.5854
   -30.5845 -30.5834 -30.5808 -30.5699 -30.5641 -30.5606 -30.5554 -30.5520
   -30.5505 -30.5491 -30.5477 -30.5458 -30.5410 -30.5342 -30.5302 -30.5282
   -30.5187 -30.5162 -30.4987 -30.4967 -30.4963 -30.4911 -30.4853 -30.4841
   -30.4658 -30.4572 -30.4555 -30.4513 -30.4478 -30.4441 -30.4432 -30.4387
   -30.4363 -30.4356 -30.4346 -30.4330 -30.4312 -30.4308 -30.4284 -30.4180
   -30.4162 -30.4134 -30.4122 -30.4096 -30.4080 -30.4067 -30.4053 -30.3964
   -30.3947 -30.3936 -30.3925 -30.3913 -30.3852 -30.3757 -30.3733 -30.3668
   -30.3620 -30.3593 -30.3565 -30.3544 -30.3516 -30.3513 -30.3484 -30.3465
   -30.3437 -30.3420 -30.3286 -30.3260 -30.3218 -30.3170 -30.3097 -30.3034
   -30.3021 -30.3007 -30.2994 -30.2985 -30.2971 -30.2939 -30.2926 -30.2912
   -30.2897 -30.2892 -30.2874 -30.2855 -30.2832 -30.2823 -30.2792 -30.2767
   -30.2748 -30.2708 -30.2695 -30.2693 -30.2650 -30.2637 -30.2619 -30.2577
   -30.2546 -30.2527 -30.2501 -30.2486 -30.2435 -30.2422 -30.2389 -30.2360
   -30.2354 -30.2325 -30.2314 -30.2291 -30.2262 -30.2244 -30.2229 -30.2165
   -30.2145 -30.2104 -30.2075 -30.2021 -30.2003 -30.1980 -30.1955 -30.1936
   -30.1900 -30.1879 -30.1852 -30.1830 -30.1817 -30.1762 -30.1751 -30.1746
   -30.1737 -30.1726 -30.1704 -30.1660 -30.1654 -30.1647 -30.1627 -30.1618
   -30.1612 -30.1601 -30.1588 -30.1581 -30.1479 -30.1469 -30.1464 -30.1449
   -30.1411 -30.1385 -30.1345 -30.1322 -30.1301 -30.1287 -30.1249 -30.1221
   -30.1167 -30.1114 -30.1098 -30.1088 -30.1066 -30.1040 -30.0970 -30.0910
   -30.0897 -30.0871 -30.0866 -30.0842 -30.0805 -30.0799 -30.0760 -30.0706
   -30.0692 -30.0662 -13.2374 -13.0239 -13.0138 -12.7022 -12.6915 -12.3565
   -12.3012 -12.2941 -12.2297 -12.2184 -12.1331 -12.1229 -12.0319 -12.0232
   -11.9625 -11.9460 -11.8887 -11.8756 -11.8665 -11.8611 -11.8555 -11.8510
   -11.8400 -11.7961 -11.7214 -11.7189 -11.6897 -11.6802 -11.6781 -11.6738
   -11.6642 -11.6472 -11.5732 -11.5624 -11.5201 -11.5065 -11.5012 -11.4905
   -11.4809 -11.4393 -11.4330 -11.4234 -11.3419 -11.3252 -11.3063 -11.2386
   -11.1956 -11.1429 -11.1411 -11.1114 -11.1096 -11.0818 -11.0777 -11.0132
   -11.0118 -10.9441 -10.9430 -10.9264 -10.9117 -10.8963 -10.8815 -10.8778
   -10.8748 -10.8546 -10.8442 -10.7971 -10.7756 -10.7251 -10.7064 -10.6533
   -10.6510 -10.6489 -10.6437 -10.4348 -10.4330  -9.8440  -8.6718  -8.0478
    -7.0556  -6.0271  -4.0584  -4.0565  -3.9730  -3.9707  -3.5614  -3.5541
    -3.4859  -3.4825  -3.3122  -3.3027  -3.2157  -3.2129  -3.1495  -3.1485
    -3.1142  -3.1064  -3.0803  -3.0671  -3.0423  -3.0034  -3.0006  -2.9536
    -2.9486  -2.9392  -2.9363  -2.9343  -2.9236  -2.8676  -2.8582  -2.7208
    -2.7159  -2.6768  -2.6742  -2.5757  -2.5682  -2.5623  -2.5557  -2.5290
    -2.5236  -2.5112  -2.4899  -2.4813  -2.4015  -2.3966  -2.3780  -2.3719
    -2.3534  -2.3497  -2.3156  -2.3116  -2.3085  -2.2905  -2.2257  -2.2116
    -2.2022  -2.1990  -2.0887  -2.0872  -2.0672  -2.0496  -2.0441  -2.0338
    -1.9803  -1.9682  -1.9282  -1.9084  -1.9068  -1.8775  -1.8712  -1.8396
    -1.7867  -1.7839  -1.7396  -1.7310  -1.6896  -1.6812  -1.6590  -1.6549
    -1.6348  -1.6284  -1.6220  -1.6173  -1.5909  -1.5872  -1.5807  -1.5689
    -1.5634  -1.5577  -1.5487  -1.5398  -1.5315  -1.5218  -1.5007  -1.4982
    -1.4935  -1.4839  -1.4684  -1.4649  -1.4630  -1.4612  -1.4585  -1.4492
    -1.4195  -1.4172  -1.4061  -1.3962  -1.3880  -1.3775  -1.3737  -1.3688
    -1.3626  -1.3545  -1.3391  -1.3342  -1.2881  -1.2788  -1.2460  -1.2459
    -1.1687  -1.1609  -1.1573  -1.1540  -1.1285  -1.0761  -1.0498  -1.0443
    -1.0202  -1.0180  -1.0134  -1.0105  -0.9869  -0.9592  -0.9343  -0.9167
    -0.9152  -0.8794  -0.8664  -0.8529  -0.8423  -0.8362  -0.8315  -0.8254
    -0.8195  -0.8167  -0.8083  -0.8017  -0.7988  -0.7882  -0.7817  -0.7756
    -0.7663  -0.7595  -0.7484  -0.7389  -0.7309  -0.7258  -0.7164  -0.6910
    -0.6758  -0.6660  -0.6512  -0.6488  -0.6380  -0.6304  -0.6162  -0.6071
    -0.5512  -0.5390  -0.5349  -0.5323  -0.5186  -0.5119  -0.4990  -0.4908
    -0.4825  -0.4566  -0.4459  -0.4283  -0.4094  -0.3802  -0.3515  -0.3406
    -0.3311  -0.3030  -0.2892  -0.2838  -0.2567  -0.2451  -0.2382  -0.2120
    -0.2011  -0.1875  -0.1751  -0.1599  -0.1474  -0.1344  -0.1214  -0.1126
    -0.1071  -0.0766  -0.0671  -0.0216   0.0046   0.0166   0.0181   0.0341
     0.0529   0.0737   0.1160   0.1250   0.2152   0.2364   0.2539   0.2640
     0.3139   0.4388   0.4592   0.4710   0.4783   0.5008   0.6058   0.6435
     0.6564   0.9076   0.9273   0.9396   1.2604   1.3793   1.6922   1.7331
     1.8202   1.8894   1.9348   2.0407   2.0630   2.2331   2.2518   2.2674
     2.2972   2.3547   2.3820   2.4790   2.5040   2.5190   2.5231   2.6242
     2.6430   2.8298   2.8746   2.9052   2.9155   3.0390   3.0491   3.0957
     3.0985   3.2820   3.2901   3.2943   3.3003   3.3398   3.4286   3.4533
     3.4637   3.4734   3.4787   3.5332   3.5550   3.5979   3.6198   3.6335
     3.7150   3.7252   3.7495   3.7522   3.7750   3.7825   3.7990   3.8391
     3.8646   3.8701   3.8999   3.9229   3.9624   3.9814   3.9866   3.9997
     4.0343   4.0694   4.0808   4.0990   4.1702   4.1893   4.1991   4.2063
     4.2112   4.2212   4.2951   4.3051   4.3207   4.3364   4.3947   4.4073
     4.4465   4.4519   4.5095   4.5221   4.5606   4.5637   4.5729   4.5848
     4.6144   4.6277   4.6575   4.6613   4.6746   4.6915   4.7016   4.7366
     4.7499   4.7785   4.7919   4.8001   4.8314   4.8434   4.8641   4.9020
     4.9066   4.9134   4.9219   4.9244   4.9353   4.9432   4.9599   4.9733
     4.9807   4.9901   4.9924   5.0011   5.0238   5.0399   5.0602   5.0678
     5.0795   5.0892   5.1003   5.1061   5.1104   5.1132   5.1215   5.1248
     5.1293   5.1363   5.1420   5.1493   5.1570   5.1646   5.1702   5.1840
     5.1898   5.1986   5.2045   5.2076   5.2195   5.2359   5.2377   5.2448
     5.2493   5.2605   5.2774   5.2839   5.2988   5.3075   5.3254   5.3369
     5.3521   5.3605   5.3639   5.3708   5.3739   5.3831   5.3918   5.4001
     5.4026   5.4056   5.4061   5.4086   5.4177   5.4200   5.4375   5.4485
     5.4546   5.4754   5.4824   5.4878   5.5008   5.5065   5.5478

     the Fermi energy is     3.6726 ev

!    total energy              =  -10278.16450926 Ry
     estimated scf accuracy    <       0.00000021 Ry
     smearing contrib. (-TS)   =      -0.04298607 Ry
     internal energy E=F+TS    =  -10278.12152319 Ry

     The total energy is F=E-TS. E is the sum of the following terms:
     one-electron contribution = -127558.04793890 Ry
     hartree contribution      =   63903.98815447 Ry
     xc contribution           =   -1768.22742669 Ry
     ewald contribution        =   55147.83295873 Ry
     DFT-D3 Dispersion         =      -3.66727080 Ry

     convergence has been achieved in  55 iterations

     negative rho (up, down):  6.626E-02 0.000E+00

     Forces acting on atoms (cartesian axes, Ry/au):

     atom    1 type  1   force =     0.00033454   -0.00011587    0.07508774
     atom    2 type  1   force =     0.00027262    0.00124052    0.01083745
     atom    3 type  1   force =     0.00096790    0.00110115    0.01053235
     atom    4 type  1   force =     0.00035046    0.00041938    0.07488064
     atom    5 type  1   force =    -0.00122523   -0.00108867   -0.00038732
     atom    6 type  1   force =     0.00076774    0.00002147    0.00159003
     atom    7 type  1   force =    -0.00046350   -0.00149673   -0.00041097
     atom    8 type  1   force =    -0.00149452   -0.00069001    0.00010730
     atom    9 type  1   force =     0.00004153   -0.00007837    0.07621656
     atom   10 type  1   force =    -0.00018568    0.00073150    0.01286296
     atom   11 type  1   force =    -0.00068826    0.00016814    0.01085166
     atom   12 type  1   force =     0.00283835    0.00022767    0.07778877
     atom   13 type  1   force =    -0.00057524    0.00024150    0.00056757
     atom   14 type  1   force =    -0.00036504   -0.00191550    0.00360361
     atom   15 type  1   force =    -0.00363186   -0.00106373    0.00065370
     atom   16 type  1   force =    -0.00052770   -0.00079139   -0.00361720
     atom   17 type  1   force =     0.00051267    0.00033859    0.07493156
     atom   18 type  1   force =     0.00036259   -0.00021031    0.01351176
     atom   19 type  1   force =     0.00070279   -0.00041040    0.01037495
     atom   20 type  1   force =    -0.00018008   -0.00038109    0.07501483
     atom   21 type  1   force =    -0.00096890    0.00087818   -0.00102317
     atom   22 type  1   force =     0.00207431    0.00096650   -0.00096491
     atom   23 type  1   force =     0.00127794    0.00261121    0.00118517
     atom   24 type  1   force =    -0.00122751    0.00043247   -0.00022762
     atom   25 type  1   force =     0.00024035   -0.00035257    0.07644618
     atom   26 type  1   force =    -0.00005674    0.00004252    0.01073287
     atom   27 type  1   force =     0.00099762    0.00109647    0.01327438
     atom   28 type  1   force =     0.00036687    0.00184818    0.07468101
     atom   29 type  1   force =     0.00026351    0.00162074   -0.00052381
     atom   30 type  1   force =     0.00065968    0.00220182    0.00069393
     atom   31 type  1   force =    -0.00094771   -0.00053823    0.00063931
     atom   32 type  1   force =    -0.00023182   -0.00039609   -0.00352019
     atom   33 type  1   force =     0.00156087    0.00271130    0.07627725
     atom   34 type  1   force =    -0.00113505    0.00125066    0.00758844
     atom   35 type  1   force =     0.00023703   -0.00025247   -0.01022391
     atom   36 type  1   force =    -0.00284458   -0.00166689    0.07739346
     atom   37 type  1   force =    -0.00074719    0.00042439    0.00016739
     atom   38 type  1   force =     0.00032945    0.00069628    0.00173804
     atom   39 type  1   force =     0.00077608   -0.00095036    0.00260478
     atom   40 type  1   force =    -0.00073515   -0.00068909    0.00011704
     atom   41 type  1   force =    -0.00030075   -0.00250293    0.07791983
     atom   42 type  1   force =    -0.00027427    0.00094278    0.01213332
     atom   43 type  1   force =    -0.00004890    0.00143104    0.00964917
     atom   44 type  1   force =    -0.00021867   -0.00029368    0.07605944
     atom   45 type  1   force =     0.00073365   -0.00073341   -0.00217829
     atom   46 type  1   force =    -0.00055089    0.00055677    0.00033059
     atom   47 type  1   force =    -0.00080927   -0.00103665   -0.00103492
     atom   48 type  1   force =    -0.00093870   -0.00063385   -0.00057540
     atom   49 type  1   force =    -0.00032174    0.00062394    0.07540419
     atom   50 type  1   force =    -0.00002544    0.00054093    0.01094687
     atom   51 type  1   force =    -0.00182980    0.00206560    0.01086529
     atom   52 type  1   force =    -0.00059443    0.00057398    0.07544226
     atom   53 type  1   force =     0.00143109    0.00019096    0.00164725
     atom   54 type  1   force =    -0.00074843   -0.00018801    0.00045404
     atom   55 type  1   force =     0.00053007    0.00078483    0.00163982
     atom   56 type  1   force =     0.00019878   -0.00068716   -0.00040810
     atom   57 type  1   force =    -0.00148797   -0.00060231    0.07452464
     atom   58 type  1   force =     0.00094171    0.00012890    0.01070652
     atom   59 type  1   force =    -0.00047601   -0.00037618    0.01252270
     atom   60 type  1   force =     0.00001079   -0.00040601    0.07696112
     atom   61 type  1   force =     0.00254267   -0.00031726   -0.00134688
     atom   62 type  1   force =    -0.00140440    0.00080038    0.00024222
     atom   63 type  1   force =    -0.00019657    0.00073781    0.00188363
     atom   64 type  1   force =    -0.00076828   -0.00007102    0.00139556
     atom   65 type  1   force =    -0.00043438   -0.00013902    0.07483865
     atom   66 type  1   force =    -0.00074727    0.00013518    0.01089760
     atom   67 type  1   force =    -0.00052065   -0.00047248    0.00990969
     atom   68 type  1   force =     0.00018641   -0.00031977    0.07517899
     atom   69 type  1   force =     0.00142524    0.00029860    0.00007621
     atom   70 type  1   force =     0.00032527   -0.00058846    0.00007162
     atom   71 type  1   force =    -0.00236255   -0.00096813    0.00010921
     atom   72 type  1   force =     0.00155636    0.00067450   -0.00008212
     atom   73 type  2   force =     0.00006330    0.00006765   -0.05005758
     atom   74 type  2   force =    -0.00007096    0.00006506   -0.04963049
     atom   75 type  2   force =    -0.00020813    0.00023480   -0.03373214
     atom   76 type  2   force =     0.00054507    0.00069972   -0.03306596
     atom   77 type  2   force =    -0.00225106    0.00024193   -0.00166896
     atom   78 type  2   force =    -0.00060740    0.00023921    0.00208296
     atom   79 type  2   force =     0.00158146    0.00015476   -0.00006118
     atom   80 type  2   force =     0.00015267   -0.00034641   -0.00501652
     atom   81 type  2   force =    -0.00109060   -0.00005556   -0.05124069
     atom   82 type  2   force =    -0.00001008   -0.00027812   -0.04914179
     atom   83 type  2   force =     0.00057949   -0.00007945   -0.03400043
     atom   84 type  2   force =     0.00161945    0.00001814   -0.03456207
     atom   85 type  2   force =     0.00095551    0.00096999    0.00012747
     atom   86 type  2   force =    -0.00137355    0.00156777    0.00217060
     atom   87 type  2   force =     0.00044256    0.00286224   -0.00389818
     atom   88 type  2   force =     0.00235036    0.00057407   -0.00155051
     atom   89 type  2   force =     0.00021088   -0.00029146   -0.05016232
     atom   90 type  2   force =    -0.00046218    0.00035031   -0.04954654
     atom   91 type  2   force =     0.00025455    0.00048142   -0.03429038
     atom   92 type  2   force =    -0.00031667   -0.00017591   -0.03429704
     atom   93 type  2   force =    -0.00020995   -0.00133958   -0.00058209
     atom   94 type  2   force =     0.00078005   -0.00117436   -0.00114687
     atom   95 type  2   force =     0.00169220   -0.00231202    0.00022152
     atom   96 type  2   force =    -0.00061461    0.00017714   -0.00008342
     atom   97 type  2   force =    -0.00028582   -0.00094691   -0.05028184
     atom   98 type  2   force =     0.00007439    0.00006248   -0.04977969
     atom   99 type  2   force =     0.00010212    0.00109629   -0.03428959
     atom  100 type  2   force =     0.00050310    0.00091795   -0.03176759
     atom  101 type  2   force =     0.00014867    0.00007128    0.00013722
     atom  102 type  2   force =    -0.00099171   -0.00073502    0.00035768
     atom  103 type  2   force =     0.00026893    0.00030912   -0.00189412
     atom  104 type  2   force =     0.00081768   -0.00088397   -0.00033082
     atom  105 type  2   force =     0.00002163   -0.00021048   -0.05471624
     atom  106 type  2   force =    -0.00006251   -0.00030329   -0.05086791
     atom  107 type  2   force =    -0.00002912    0.00198393   -0.02861364
     atom  108 type  2   force =    -0.00180989    0.00014583   -0.03118832
     atom  109 type  2   force =    -0.00033291   -0.00052594   -0.00067836
     atom  110 type  2   force =     0.00003900   -0.00018703   -0.00036918
     atom  111 type  2   force =     0.00220892   -0.00037596   -0.00398982
     atom  112 type  2   force =     0.00077914   -0.00018073   -0.00108197
     atom  113 type  2   force =     0.00016147    0.00105369   -0.05104822
     atom  114 type  2   force =     0.00036444    0.00030027   -0.04957346
     atom  115 type  2   force =     0.00009970   -0.00106511   -0.03567948
     atom  116 type  2   force =     0.00014966   -0.00007206   -0.03457092
     atom  117 type  2   force =    -0.00068532   -0.00173287   -0.00110078
     atom  118 type  2   force =    -0.00178366    0.00096341    0.00159900
     atom  119 type  2   force =     0.00019964   -0.00049881   -0.00150706
     atom  120 type  2   force =    -0.00023117   -0.00054480   -0.00093764
     atom  121 type  2   force =     0.00009506   -0.00004850   -0.04962058
     atom  122 type  2   force =     0.00003626    0.00003312   -0.05000921
     atom  123 type  2   force =     0.00012608    0.00066985   -0.03449824
     atom  124 type  2   force =    -0.00031175    0.00020696   -0.03389200
     atom  125 type  2   force =     0.00025161    0.00133112   -0.00069908
     atom  126 type  2   force =     0.00139427    0.00033771   -0.00137099
     atom  127 type  2   force =    -0.00083175   -0.00020445    0.00043322
     atom  128 type  2   force =    -0.00010333    0.00090865    0.00135647
     atom  129 type  2   force =     0.00110276    0.00029785   -0.05079996
     atom  130 type  2   force =    -0.00007996   -0.00021364   -0.04970109
     atom  131 type  2   force =    -0.00049218   -0.00044337   -0.03253034
     atom  132 type  2   force =    -0.00072064    0.00014529   -0.03469037
     atom  133 type  2   force =    -0.00022021   -0.00010102    0.00219256
     atom  134 type  2   force =     0.00153805   -0.00177588   -0.00104547
     atom  135 type  2   force =    -0.00127822    0.00069343   -0.00101836
     atom  136 type  2   force =    -0.00002989   -0.00016284   -0.00469805
     atom  137 type  2   force =    -0.00013209   -0.00022698   -0.05009793
     atom  138 type  2   force =    -0.00005381    0.00003560   -0.04947025
     atom  139 type  2   force =    -0.00033036    0.00006371   -0.03390564
     atom  140 type  2   force =     0.00017224    0.00027532   -0.03423880
     atom  141 type  2   force =     0.00035530   -0.00099895   -0.00018784
     atom  142 type  2   force =     0.00061905    0.00078957   -0.00053839
     atom  143 type  2   force =    -0.00132275   -0.00111733   -0.00305194
     atom  144 type  2   force =    -0.00044540    0.00043499    0.00125378
     atom  145 type  3   force =     0.00068257    0.00240439   -0.00619194
     atom  146 type  3   force =    -0.00242903   -0.00532752   -0.00214450
     atom  147 type  3   force =     0.00166528   -0.00329799   -0.00375597
     atom  148 type  3   force =    -0.00483911   -0.00137912    0.00123930
     atom  149 type  3   force =     0.00738637   -0.00032965   -0.00068156
     atom  150 type  3   force =    -0.00657938    0.00055440   -0.00030485
     atom  151 type  3   force =     0.00457756    0.00383867    0.00268817
     atom  152 type  3   force =     0.00323120   -0.00258731   -0.00692245
     atom  153 type  4   force =    -0.00327719   -0.00528064   -0.00016013
     atom  154 type  4   force =     0.00397888    0.00084925    0.00412944

     Total force =     0.028090     Total SCF correction =     0.001262
     Energy error            =      1.0E-02 Ry
     Gradient error          =      7.4E-03 Ry/Bohr

     number of scf cycles    =  60
     number of bfgs steps    =  59

     energy             old  =  -10278.1545555542 Ry
     energy             new  =  -10278.1645092552 Ry

     CASE: energy            _new < energy            _old

     new trust radius        =       0.2715765096 bohr
     new conv_thr            =       0.0000010000 Ry


ATOMIC_POSITIONS (angstrom)
Ti               0.0000000000        0.0000000000       10.0000000000    0   0   0
Ti               2.1069582300        0.0000000000       12.1069582300    0   0   0
Ti               0.0000000000        2.1069582300       12.1069582300    0   0   0
Ti               2.1069582300        2.1069582300       10.0000000000    0   0   0
Ti               0.0068801308        0.0091438856       14.2110992121
Ti               2.1013062530        0.0062963198       16.2232727019
Ti               0.0081778492        2.1216278948       16.2334609513
Ti               2.1139505988        2.1102698396       14.2151086327
Ti               0.0000000000        4.2139164700       10.0000000000    0   0   0
Ti               2.1069582300        4.2139164700       12.1069582300    0   0   0
Ti               0.0000000000        6.3208747000       12.1069582300    0   0   0
Ti               2.1069582300        6.3208747000       10.0000000000    0   0   0
Ti              -0.0026526526        4.2140676990       14.2054737028
Ti               2.1045238449        4.2257041090       16.2215682997
Ti              -0.0095385706        6.3243557363       16.2212988516
Ti               2.1379702921        6.3270787413       14.2042417037
Ti               0.0000000000        8.4278329400       10.0000000000    0   0   0
Ti               2.1069582300        8.4278329400       12.1069582300    0   0   0
Ti               0.0000000000       10.5347911700       12.1069582300    0   0   0
Ti               2.1069582300       10.5347911700       10.0000000000    0   0   0
Ti               0.0012278240        8.4244428140       14.2138780086
Ti               2.1058957654        8.4276205099       16.2437663287
Ti               0.0006592822       10.5242809458       16.2216679171
Ti               2.1124336163       10.5380820644       14.2131507185
Ti               4.2139164700        0.0000000000       10.0000000000    0   0   0
Ti               6.3208747000        0.0000000000       12.1069582300    0   0   0
Ti               4.2139164700        2.1069582300       12.1069582300    0   0   0
Ti               6.3208747000        2.1069582300       10.0000000000    0   0   0
Ti               4.2146075114        0.0061788252       14.2132960487
Ti               6.3214874384       -0.0021862073       16.2213780349
Ti               4.2158827671        2.1117684588       16.2356945927
Ti               6.3184456079        2.1316785111       14.2257371365
Ti               4.2139164700        4.2139164700       10.0000000000    0   0   0
Ti               6.3208747000        4.2139164700       12.1069582300    0   0   0
Ti               4.2139164700        6.3208747000       12.1069582300    0   0   0
Ti               6.3208747000        6.3208747000       10.0000000000    0   0   0
Ti               4.2400051467        4.2510780297       14.2299858943
Ti               6.3248285861        4.2269067388       16.3625307093
Ti               4.1888104320        6.3502009678       16.5952826199
Ti               6.2870346143        6.3051509444       14.2210246267
Ti               4.2139164700        8.4278329400       10.0000000000    0   0   0
Ti               6.3208747000        8.4278329400       12.1069582300    0   0   0
Ti               4.2139164700       10.5347911700       12.1069582300    0   0   0
Ti               6.3208747000       10.5347911700       10.0000000000    0   0   0
Ti               4.2085580699        8.4037221025       14.2057170937
Ti               6.3166946193        8.4332579557       16.2181156207
Ti               4.2131189994       10.5563328597       16.2232620982
Ti               6.3243300497       10.5449403335       14.2067816623
Ti               8.4278329400        0.0000000000       10.0000000000    0   0   0
Ti              10.5347911700        0.0000000000       12.1069582300    0   0   0
Ti               8.4278329400        2.1069582300       12.1069582300    0   0   0
Ti              10.5347911700        2.1069582300       10.0000000000    0   0   0
Ti               8.4227117957        0.0008783755       14.2068692248
Ti              10.5388484106        0.0064619932       16.2230888361
Ti               8.4262800621        2.1065960861       16.2315541609
Ti              10.5386749434        2.1152091583       14.2111420580
Ti               8.4278329400        4.2139164700       10.0000000000    0   0   0
Ti              10.5347911700        4.2139164700       12.1069582300    0   0   0
Ti               8.4278329400        6.3208747000       12.1069582300    0   0   0
Ti              10.5347911700        6.3208747000       10.0000000000    0   0   0
Ti               8.3976224100        4.2177356443       14.2238415539
Ti              10.5348626603        4.2151409982       16.2307084199
Ti               8.4382828038        6.3224242486       16.2248236895
Ti              10.5340083178        6.3201794884       14.2069955999
Ti               8.4278329400        8.4278329400       10.0000000000    0   0   0
Ti              10.5347911700        8.4278329400       12.1069582300    0   0   0
Ti               8.4278329400       10.5347911700       12.1069582300    0   0   0
Ti              10.5347911700       10.5347911700       10.0000000000    0   0   0
Ti               8.4259041188        8.4287280135       14.2131154127
Ti              10.5294033274        8.4263192935       16.2247020796
Ti               8.4328852225       10.5419940081       16.2235048421
Ti              10.5275177788       10.5323155277       14.2083680988
N                0.0000000000        2.1069582300       10.0000000000    0   0   0
N                2.1069582300        0.0000000000       10.0000000000    0   0   0
N                0.0000000000        0.0000000000       12.1069582300    0   0   0
N                2.1069582300        2.1069582300       12.1069582300    0   0   0
N                0.0078148906        2.1124147448       14.2368068495
N                2.1112308783        0.0030302251       14.2248319749
N               -0.0061396761        0.0005837482       16.3840015371
N                2.1074281838        2.1128602703       16.3995805110
N                0.0000000000        6.3208747000       10.0000000000    0   0   0
N                2.1069582300        4.2139164700       10.0000000000    0   0   0
N                0.0000000000        4.2139164700       12.1069582300    0   0   0
N                2.1069582300        6.3208747000       12.1069582300    0   0   0
N                0.0050837527        6.3179254789       14.2303994927
N                2.1169752187        4.2140114656       14.2257933462
N               -0.0016187444        4.2122022404       16.3933405902
N                2.0727805051        6.3207562835       16.3018220176
N                0.0000000000       10.5347911700       10.0000000000    0   0   0
N                2.1069582300        8.4278329400       10.0000000000    0   0   0
N                0.0000000000        8.4278329400       12.1069582300    0   0   0
N                2.1069582300       10.5347911700       12.1069582300    0   0   0
N               -0.0000533677       10.5386991210       14.2319343407
N                2.1034984283        8.4355201049       14.2394135027
N               -0.0053109667        8.4323271895       16.3859118240
N                2.1105091114       10.5383478632       16.3849837570
N                4.2139164700        2.1069582300       10.0000000000    0   0   0
N                6.3208747000        0.0000000000       10.0000000000    0   0   0
N                4.2139164700        0.0000000000       12.1069582300    0   0   0
N                6.3208747000        2.1069582300       12.1069582300    0   0   0
N                4.2144508468        2.1225457132       14.2382184150
N                6.3219675647        0.0135043189       14.2271335014
N                4.2140713176        0.0091626431       16.3905264261
N                6.3196041399        2.1014379633       16.3599103806
N                4.2139164700        6.3208747000       10.0000000000    0   0   0
N                6.3208747000        4.2139164700       10.0000000000    0   0   0
N                4.2139164700        4.2139164700       12.1069582300    0   0   0
N                6.3208747000        6.3208747000       12.1069582300    0   0   0
N                4.2126601608        6.3272750944       14.2653033608
N                6.3199756096        4.2181939391       14.2415437551
N                4.1874872786        4.2231488442       16.3782052917
N                6.3147214639        6.3542043942       16.3365225645
N                4.2139164700       10.5347911700       10.0000000000    0   0   0
N                6.3208747000        8.4278329400       10.0000000000    0   0   0
N                4.2139164700        8.4278329400       12.1069582300    0   0   0
N                6.3208747000       10.5347911700       12.1069582300    0   0   0
N                4.2179415044       10.5362201536       14.2342145408
N                6.3223340808        8.4248624902       14.2272211549
N                4.2168363594        8.4643894094       16.3034537995
N                6.3207436499       10.5410442309       16.3891076513
N                8.4278329400        2.1069582300       10.0000000000    0   0   0
N               10.5347911700        0.0000000000       10.0000000000    0   0   0
N                8.4278329400        0.0000000000       12.1069582300    0   0   0
N               10.5347911700        2.1069582300       12.1069582300    0   0   0
N                8.4282790889        2.1057486557       14.2360400157
N               10.5333334020        0.0029844602       14.2328781998
N                8.4317687390        0.0027489578       16.3858103153
N               10.5366812469        2.1053418417       16.3806636549
N                8.4278329400        6.3208747000       10.0000000000    0   0   0
N               10.5347911700        4.2139164700       10.0000000000    0   0   0
N                8.4278329400        4.2139164700       12.1069582300    0   0   0
N               10.5347911700        6.3208747000       12.1069582300    0   0   0
N                8.4182347127        6.3237954428       14.2297113150
N               10.5225828117        4.2204452841       14.2350145159
N                8.4438036292        4.2167229415       16.3602056415
N               10.5320192620        6.3220964671       16.4001148320
N                8.4278329400       10.5347911700       10.0000000000    0   0   0
N               10.5347911700        8.4278329400       10.0000000000    0   0   0
N                8.4278329400        8.4278329400       12.1069582300    0   0   0
N               10.5347911700       10.5347911700       12.1069582300    0   0   0
N                8.4251370740       10.5389046749       14.2275981067
N               10.5330791596        8.4245767214       14.2301107946
N                8.4286584385        8.4338632110       16.4017194335
N               10.5376896314       10.5367047973       16.3801075383
S                3.8054686173        6.7173060973       18.8381069831
S                6.2150331226        4.3811254786       18.8562081572
S                7.8007943675        3.5314447847       19.9481942799
S                8.2040932260        5.0342117602       21.3217600256
S                6.9366958688        4.8276912544       22.9232961496
S                5.0693301567        5.9021010410       22.2798663371
S                3.3081552878        4.9223208973       22.6267308239
S                2.7665184274        3.4122176936       21.3832245848
Li               3.9182830883        4.5764281662       19.7639003123
Li               5.7737221122        6.3937400243       19.9520813284



     Writing config-only to output data dir ./tmp/TiN_Li2S8_combi.save/ :
     XML data file
     NEW-OLD atomic charge density approx. for the potential

     Check: negative core charge=   -0.000002

     negative rho (up, down):  6.625E-02 0.000E+00

     total cpu time spent up to now is     6812.7 secs

     per-process dynamical memory:   683.1 Mb

     Self-consistent Calculation

     iteration #  1     ecut=    45.00 Ry     beta= 0.20
     Davidson diagonalization with overlap
     ethr =  1.00E-06,  avg # of iterations = 10.5

     negative rho (up, down):  6.630E-02 0.000E+00

     total cpu time spent up to now is     7071.4 secs

     total energy              =  -10278.16652120 Ry
     estimated scf accuracy    <       0.02180043 Ry

     iteration #  2     ecut=    45.00 Ry     beta= 0.20
     Davidson diagonalization with overlap
     ethr =  1.71E-06,  avg # of iterations =  1.0

     negative rho (up, down):  6.642E-02 0.000E+00

     total cpu time spent up to now is     7155.5 secs

     total energy              =  -10278.16542200 Ry
     estimated scf accuracy    <       0.01147416 Ry

     iteration #  3     ecut=    45.00 Ry     beta= 0.20
     Davidson diagonalization with overlap
     ethr =  8.98E-07,  avg # of iterations =  2.8

     negative rho (up, down):  6.650E-02 0.000E+00

     total cpu time spent up to now is     7255.6 secs

     total energy              =  -10278.16547010 Ry
     estimated scf accuracy    <       0.00194441 Ry

     iteration #  4     ecut=    45.00 Ry     beta= 0.20
     Davidson diagonalization with overlap
     ethr =  1.52E-07,  avg # of iterations =  5.3

     negative rho (up, down):  6.658E-02 0.000E+00

     total cpu time spent up to now is     7361.4 secs

     total energy              =  -10278.16555344 Ry
     estimated scf accuracy    <       0.00047139 Ry

     iteration #  5     ecut=    45.00 Ry     beta= 0.20
     Davidson diagonalization with overlap
     ethr =  3.69E-08,  avg # of iterations =  4.9

     negative rho (up, down):  6.671E-02 0.000E+00

     total cpu time spent up to now is     7467.6 secs

     total energy              =  -10278.16554401 Ry
     estimated scf accuracy    <       0.00021044 Ry

     iteration #  6     ecut=    45.00 Ry     beta= 0.20
     Davidson diagonalization with overlap
     ethr =  1.65E-08,  avg # of iterations =  3.2

     negative rho (up, down):  6.683E-02 0.000E+00

     total cpu time spent up to now is     7571.2 secs

     total energy              =  -10278.16554694 Ry
     estimated scf accuracy    <       0.00010616 Ry

     iteration #  7     ecut=    45.00 Ry     beta= 0.20
     Davidson diagonalization with overlap
     ethr =  8.31E-09,  avg # of iterations =  3.9

     negative rho (up, down):  6.691E-02 0.000E+00

     total cpu time spent up to now is     7676.0 secs

     total energy              =  -10278.16554241 Ry
     estimated scf accuracy    <       0.00009407 Ry

     iteration #  8     ecut=    45.00 Ry     beta= 0.20
     Davidson diagonalization with overlap
     ethr =  7.36E-09,  avg # of iterations =  2.4

     negative rho (up, down):  6.711E-02 0.000E+00

     total cpu time spent up to now is     7773.0 secs

     total energy              =  -10278.16553805 Ry
     estimated scf accuracy    <       0.00006070 Ry

     iteration #  9     ecut=    45.00 Ry     beta= 0.20
     Davidson diagonalization with overlap
     ethr =  4.75E-09,  avg # of iterations =  3.2

     negative rho (up, down):  6.719E-02 0.000E+00

     total cpu time spent up to now is     7872.6 secs

     total energy              =  -10278.16553369 Ry
     estimated scf accuracy    <       0.00004312 Ry

     iteration # 10     ecut=    45.00 Ry     beta= 0.20
     Davidson diagonalization with overlap
     ethr =  3.37E-09,  avg # of iterations =  3.0

     negative rho (up, down):  6.729E-02 0.000E+00

     total cpu time spent up to now is     7973.1 secs

     total energy              =  -10278.16553222 Ry
     estimated scf accuracy    <       0.00002796 Ry

     iteration # 11     ecut=    45.00 Ry     beta= 0.20
     Davidson diagonalization with overlap
     ethr =  2.19E-09,  avg # of iterations =  5.2

     negative rho (up, down):  6.723E-02 0.000E+00

     total cpu time spent up to now is     8078.4 secs

     total energy              =  -10278.16553108 Ry
     estimated scf accuracy    <       0.00002094 Ry

     iteration # 12     ecut=    45.00 Ry     beta= 0.20
     Davidson diagonalization with overlap
     ethr =  1.64E-09,  avg # of iterations =  3.1

     negative rho (up, down):  6.702E-02 0.000E+00

     total cpu time spent up to now is     8178.6 secs

     total energy              =  -10278.16552885 Ry
     estimated scf accuracy    <       0.00001141 Ry

     iteration # 13     ecut=    45.00 Ry     beta= 0.20
     Davidson diagonalization with overlap
     ethr =  8.93E-10,  avg # of iterations =  5.9

     negative rho (up, down):  6.700E-02 0.000E+00

     total cpu time spent up to now is     8292.8 secs

     total energy              =  -10278.16553041 Ry
     estimated scf accuracy    <       0.00000412 Ry

     iteration # 14     ecut=    45.00 Ry     beta= 0.20
     Davidson diagonalization with overlap
     ethr =  3.22E-10,  avg # of iterations =  5.3

     negative rho (up, down):  6.675E-02 0.000E+00

     total cpu time spent up to now is     8396.4 secs

     total energy              =  -10278.16553060 Ry
     estimated scf accuracy    <       0.00000221 Ry

     iteration # 15     ecut=    45.00 Ry     beta= 0.20
     Davidson diagonalization with overlap
     ethr =  1.73E-10,  avg # of iterations =  5.2

     negative rho (up, down):  6.622E-02 0.000E+00

     total cpu time spent up to now is     8508.5 secs

     End of self-consistent calculation

          k = 0.0000 0.0000 0.0000 (144607 PWs)   bands (ev):

   -54.2235 -54.2095 -54.1926 -54.1906 -54.1886 -54.1858 -54.1800 -54.1788
   -54.1776 -54.1758 -54.1618 -54.1608 -54.1587 -54.1563 -54.1540 -54.1522
   -54.1495 -54.1478 -54.1337 -54.1152 -54.1007 -54.0961 -54.0879 -54.0855
   -54.0803 -54.0761 -54.0737 -54.0651 -54.0581 -54.0544 -54.0525 -54.0459
   -54.0435 -54.0407 -54.0394 -54.0368 -54.0269 -54.0229 -54.0202 -54.0187
   -54.0168 -54.0095 -54.0081 -54.0070 -54.0046 -53.9886 -53.9877 -53.9864
   -53.9833 -53.9800 -53.9796 -53.9791 -53.9778 -53.9751 -53.9729 -53.9630
   -53.9617 -53.9541 -53.9433 -53.9382 -53.9342 -53.9336 -53.9320 -53.9311
   -53.9287 -53.9267 -53.9264 -53.9183 -53.9177 -53.9145 -53.9103 -53.9006
   -42.5837 -41.9085 -30.7167 -30.7160 -30.7151 -30.7146 -30.7137 -30.7118
   -30.7110 -30.7103 -30.7093 -30.7090 -30.7064 -30.7044 -30.6836 -30.6612
   -30.6607 -30.6596 -30.6590 -30.6585 -30.6578 -30.6562 -30.6526 -30.6473
   -30.6463 -30.6438 -30.6417 -30.6379 -30.6376 -30.6311 -30.6287 -30.6267
   -30.6261 -30.6170 -30.6149 -30.6102 -30.6089 -30.6023 -30.5994 -30.5948
   -30.5927 -30.5926 -30.5895 -30.5884 -30.5875 -30.5852 -30.5829 -30.5817
   -30.5798 -30.5637 -30.5617 -30.5591 -30.5563 -30.5550 -30.5539 -30.5532
   -30.5462 -30.5452 -30.5430 -30.5405 -30.5367 -30.5273 -30.5269 -30.5262
   -30.5249 -30.4915 -30.4901 -30.4891 -30.4869 -30.4868 -30.4855 -30.4830
   -30.4819 -30.4735 -30.4724 -30.4702 -30.4660 -30.4608 -30.4586 -30.4575
   -30.4568 -30.4563 -30.4410 -30.4399 -30.4375 -30.4278 -30.4251 -30.4231
   -30.4120 -30.4114 -30.4092 -30.4076 -30.4059 -30.3921 -30.3907 -30.3893
   -30.3888 -30.3813 -30.3793 -30.3790 -30.3780 -30.3733 -30.3694 -30.3689
   -30.3663 -30.3656 -30.3650 -30.3620 -30.3607 -30.3595 -30.3576 -30.3559
   -30.3467 -30.3335 -30.3316 -30.3279 -30.3271 -30.3227 -30.3206 -30.3089
   -30.3088 -30.3065 -30.3058 -30.3055 -30.3042 -30.3006 -30.3000 -30.2985
   -30.2982 -30.2839 -30.2815 -30.2805 -30.2742 -30.2713 -30.2692 -30.2680
   -30.2677 -30.2617 -30.2599 -30.2593 -30.2549 -30.2526 -30.2501 -30.2497
   -30.2485 -30.2476 -30.2473 -30.2445 -30.2416 -30.2368 -30.2362 -30.2357
   -30.2353 -30.2334 -30.2318 -30.2254 -30.2252 -30.2200 -30.2188 -30.2155
   -30.2141 -30.2058 -30.2051 -30.2044 -30.1963 -30.1943 -30.1930 -30.1905
   -30.1871 -30.1851 -30.1842 -30.1822 -30.1800 -30.1791 -30.1778 -30.1768
   -30.1767 -30.1759 -30.1754 -30.1713 -30.1706 -30.1705 -30.1682 -30.1644
   -30.1629 -30.1619 -30.1510 -30.1496 -30.1477 -30.1470 -30.1456 -30.1427
   -30.1413 -30.1407 -30.1394 -30.1374 -30.1364 -30.1354 -30.1332 -30.1303
   -30.1254 -30.1218 -30.1185 -30.1135 -30.0994 -30.0968 -30.0919 -30.0907
   -30.0893 -30.0883 -30.0862 -30.0845 -30.0798 -30.0769 -30.0701 -30.0686
   -30.0632 -30.0612 -13.2390 -13.2024 -12.6336 -12.6295 -12.6273 -12.6077
   -12.4861 -12.3356 -12.0776 -12.0728 -12.0664 -12.0518 -12.0384 -11.9872
   -11.9845 -11.9814 -11.9678 -11.9579 -11.9521 -11.9507 -11.9438 -11.8991
   -11.8478 -11.7080 -11.7034 -11.6985 -11.6891 -11.6692 -11.5992 -11.5936
   -11.5856 -11.5717 -11.5602 -11.5580 -11.5476 -11.5065 -11.5013 -11.4993
   -11.4941 -11.4531 -11.3939 -11.3926 -11.3922 -11.3861 -11.2930 -11.2363
   -11.2012 -11.1879 -11.1756 -11.1361 -11.0519 -11.0504 -11.0500 -11.0463
   -11.0088 -10.9793 -10.9782 -10.9774 -10.9738 -10.8375 -10.8319 -10.8215
   -10.8045 -10.7754 -10.7748 -10.7742 -10.7701 -10.7585 -10.7523 -10.7475
   -10.7296 -10.5632 -10.5592 -10.5527 -10.5431  -9.8189  -8.6761  -8.0547
    -7.0566  -6.0424  -3.7071  -3.6943  -3.6711  -3.6605  -3.6127  -3.6108
    -3.6071  -3.6040  -3.4565  -3.4413  -3.4320  -3.4269  -3.3939  -3.3873
    -3.3812  -3.3781  -3.0241  -2.9788  -2.9768  -2.9588  -2.9542  -2.8530
    -2.8498  -2.8431  -2.8398  -2.8074  -2.8014  -2.7919  -2.7912  -2.7068
    -2.6929  -2.6896  -2.6863  -2.6772  -2.6695  -2.6661  -2.6603  -2.5132
    -2.4942  -2.4756  -2.4639  -2.4622  -2.4537  -2.3664  -2.3601  -2.3585
    -2.3555  -2.2717  -2.2694  -2.2631  -2.2618  -2.2417  -2.2357  -2.2279
    -2.2226  -2.1487  -2.1444  -2.0479  -2.0389  -2.0334  -2.0246  -1.9515
    -1.8985  -1.8469  -1.7725  -1.7625  -1.7450  -1.7409  -1.7070  -1.7069
    -1.6973  -1.6930  -1.6846  -1.6830  -1.6811  -1.6771  -1.6764  -1.6705
    -1.6599  -1.6562  -1.6520  -1.6451  -1.5873  -1.5780  -1.5768  -1.5688
    -1.5330  -1.5255  -1.5103  -1.5076  -1.4985  -1.4905  -1.4845  -1.4799
    -1.4617  -1.4522  -1.4360  -1.4348  -1.4327  -1.4309  -1.4292  -1.4238
    -1.4005  -1.3994  -1.3977  -1.3897  -1.3886  -1.3819  -1.3784  -1.3776
    -1.3254  -1.3137  -1.3051  -1.2940  -1.2429  -1.2327  -1.2289  -1.2260
    -1.2078  -1.2057  -1.1999  -1.1967  -1.1567  -1.1453  -1.1359  -1.1296
    -1.0953  -1.0730  -1.0688  -1.0685  -1.0647  -1.0613  -1.0273  -1.0256
    -1.0251  -1.0248  -0.9837  -0.9533  -0.9399  -0.9348  -0.9126  -0.8931
    -0.8768  -0.8622  -0.8555  -0.8532  -0.8477  -0.8376  -0.8367  -0.8358
    -0.8349  -0.8296  -0.8292  -0.8225  -0.8159  -0.8149  -0.7858  -0.7709
    -0.7688  -0.7684  -0.7636  -0.7583  -0.7369  -0.7308  -0.7237  -0.7070
    -0.7026  -0.6955  -0.6892  -0.6824  -0.6667  -0.6410  -0.6352  -0.6293
    -0.6154  -0.6101  -0.5915  -0.5795  -0.5677  -0.5201  -0.4877  -0.4768
    -0.4699  -0.4438  -0.4396  -0.3550  -0.3517  -0.3446  -0.3251  -0.1710
    -0.0597  -0.0504  -0.0466  -0.0418  -0.0398  -0.0337  -0.0314  -0.0232
    -0.0158  -0.0089  -0.0025   0.0321   0.0426   0.0634   0.1354   0.1799
     0.2053   0.2260   0.2919   0.2931   0.3080   0.4428   0.4776   0.4822
     0.4970   0.4997   0.5564   0.5591   0.5991   0.6337   0.7581   0.8955
     0.9564   1.2609   1.3313   1.3346   1.3599   1.4156   1.4643   1.4767
     1.6737   1.6753   1.7301   1.7393   1.8147   1.8601   1.9292   2.0124
     2.0405   2.2672   2.2691   2.3181   2.8399   2.8695   2.8911   2.8990
     2.9103   3.2988   3.3167   3.3328   3.3792   3.4085   3.4134   3.4208
     3.4673   3.4712   3.4754   3.4793   3.4988   3.5230   3.5300   3.5417
     3.5459   3.5474   3.5544   3.5578   3.5639   3.5841   3.6032   3.6073
     3.6692   3.6786   3.6815   3.6834   3.6981   3.7069   3.7096   4.0151
     4.0374   4.0418   4.0437   4.0638   4.0698   4.1007   4.1232   4.1661
     4.1705   4.1739   4.1771   4.2230   4.2321   4.2536   4.2654   4.2735
     4.2739   4.2871   4.3004   4.3342   4.3558   4.3565   4.3581   4.3661
     4.3744   4.3785   4.3847   4.3900   4.4112   4.4209   4.4253   4.4285
     4.4416   4.4431   4.4782   4.4894   4.5011   4.5087   4.5112   4.5229
     4.5422   4.5617   4.5801   4.5839   4.6051   4.6063   4.6507   4.6958
     4.7078   4.7399   4.7562   4.7661   4.7737   4.7748   4.7846   4.8451
     4.8475   4.8504   4.8647   4.8738   4.9193   4.9337   4.9366   4.9420
     4.9472   4.9665   5.0140   5.0266   5.0329   5.0465   5.0651   5.0720
     5.0798   5.0821   5.0860   5.0877   5.0885   5.0943   5.1123   5.1242
     5.1295   5.1312   5.1464   5.2279   5.2369   5.2415   5.2431   5.2431
     5.2552   5.2781   5.3395   5.3505   5.3604   5.3895   5.3947   5.4027
     5.4098   5.4131   5.4182   5.4212   5.4286   5.4344   5.4369   5.4580
     5.4611   5.4716   5.4780   5.4905   5.5020   5.5029   5.5054   5.5083
     5.5086   5.5131   5.5191   5.5215   5.5232   5.5324   5.5500

          k = 0.0000 0.2500 0.0000 (144769 PWs)   bands (ev):

   -54.2235 -54.2081 -54.1981 -54.1892 -54.1883 -54.1834 -54.1824 -54.1787
   -54.1737 -54.1726 -54.1644 -54.1634 -54.1605 -54.1561 -54.1548 -54.1522
   -54.1503 -54.1432 -54.1348 -54.1142 -54.1036 -54.0942 -54.0886 -54.0862
   -54.0803 -54.0755 -54.0713 -54.0643 -54.0589 -54.0555 -54.0522 -54.0487
   -54.0437 -54.0402 -54.0380 -54.0347 -54.0278 -54.0269 -54.0213 -54.0172
   -54.0134 -54.0120 -54.0085 -54.0039 -54.0005 -53.9914 -53.9900 -53.9879
   -53.9852 -53.9814 -53.9794 -53.9789 -53.9755 -53.9738 -53.9713 -53.9630
   -53.9623 -53.9541 -53.9433 -53.9381 -53.9349 -53.9335 -53.9319 -53.9310
   -53.9285 -53.9271 -53.9250 -53.9210 -53.9165 -53.9147 -53.9088 -53.9013
   -42.5837 -41.9085 -30.7307 -30.7294 -30.7279 -30.7262 -30.7205 -30.7194
   -30.6953 -30.6941 -30.6937 -30.6928 -30.6895 -30.6884 -30.6814 -30.6804
   -30.6790 -30.6667 -30.6609 -30.6595 -30.6499 -30.6492 -30.6474 -30.6405
   -30.6388 -30.6356 -30.6351 -30.6331 -30.6322 -30.6316 -30.6271 -30.6263
   -30.6243 -30.6172 -30.6158 -30.6119 -30.6070 -30.6050 -30.5989 -30.5981
   -30.5962 -30.5955 -30.5936 -30.5913 -30.5889 -30.5859 -30.5843 -30.5815
   -30.5804 -30.5792 -30.5754 -30.5727 -30.5685 -30.5668 -30.5637 -30.5594
   -30.5547 -30.5443 -30.5396 -30.5253 -30.5229 -30.5180 -30.5174 -30.5140
   -30.5116 -30.5104 -30.5097 -30.5035 -30.5015 -30.4938 -30.4925 -30.4713
   -30.4667 -30.4663 -30.4653 -30.4629 -30.4548 -30.4533 -30.4499 -30.4478
   -30.4447 -30.4388 -30.4368 -30.4354 -30.4341 -30.4329 -30.4295 -30.4283
   -30.4270 -30.4185 -30.4134 -30.4116 -30.4084 -30.4047 -30.3992 -30.3970
   -30.3879 -30.3842 -30.3823 -30.3821 -30.3799 -30.3706 -30.3691 -30.3666
   -30.3616 -30.3577 -30.3558 -30.3545 -30.3530 -30.3516 -30.3485 -30.3467
   -30.3421 -30.3407 -30.3373 -30.3321 -30.3252 -30.3237 -30.3216 -30.3189
   -30.3138 -30.3104 -30.3093 -30.3065 -30.2992 -30.2966 -30.2944 -30.2930
   -30.2852 -30.2834 -30.2790 -30.2781 -30.2762 -30.2760 -30.2730 -30.2719
   -30.2708 -30.2672 -30.2632 -30.2627 -30.2615 -30.2607 -30.2581 -30.2547
   -30.2539 -30.2508 -30.2496 -30.2466 -30.2453 -30.2441 -30.2424 -30.2396
   -30.2339 -30.2286 -30.2253 -30.2175 -30.2167 -30.2147 -30.2123 -30.2098
   -30.2090 -30.2066 -30.2051 -30.2040 -30.2013 -30.1972 -30.1962 -30.1923
   -30.1906 -30.1889 -30.1882 -30.1858 -30.1845 -30.1819 -30.1796 -30.1781
   -30.1765 -30.1761 -30.1707 -30.1663 -30.1654 -30.1643 -30.1628 -30.1600
   -30.1582 -30.1557 -30.1545 -30.1539 -30.1525 -30.1512 -30.1494 -30.1490
   -30.1483 -30.1446 -30.1395 -30.1350 -30.1324 -30.1250 -30.1224 -30.1197
   -30.1185 -30.1138 -30.1107 -30.1075 -30.1007 -30.0991 -30.0987 -30.0964
   -30.0919 -30.0888 -30.0865 -30.0844 -30.0826 -30.0787 -30.0748 -30.0687
   -30.0657 -30.0627 -13.2052 -13.1910 -12.8644 -12.5898 -12.5758 -12.4483
   -12.3781 -12.3357 -12.2879 -12.2734 -12.1684 -12.0304 -12.0081 -11.9506
   -11.9443 -11.9401 -11.9326 -11.9190 -11.8961 -11.8569 -11.8420 -11.8132
   -11.8034 -11.7822 -11.7119 -11.7089 -11.7020 -11.6892 -11.6793 -11.6664
   -11.6484 -11.6280 -11.5856 -11.5681 -11.5639 -11.5610 -11.5287 -11.4390
   -11.4308 -11.4225 -11.3971 -11.3663 -11.3602 -11.3527 -11.2757 -11.2302
   -11.2162 -11.1486 -11.1404 -11.1305 -11.1253 -11.0980 -11.0481 -11.0257
   -11.0230 -11.0053 -10.9895 -10.9115 -10.9029 -10.8736 -10.8623 -10.8589
   -10.8410 -10.8391 -10.8205 -10.7998 -10.7878 -10.7294 -10.7262 -10.6435
   -10.6341 -10.6135 -10.6074 -10.5115 -10.5053  -9.8189  -8.6762  -8.0547
    -7.0566  -6.0424  -3.8388  -3.8374  -3.7586  -3.7567  -3.7043  -3.6980
    -3.6396  -3.6373  -3.4372  -3.4293  -3.3675  -3.3640  -3.1470  -3.1381
    -3.0643  -3.0580  -3.0545  -3.0322  -3.0231  -2.9993  -2.9626  -2.9598
    -2.9126  -2.8829  -2.8750  -2.8381  -2.7853  -2.7758  -2.7662  -2.7588
    -2.7489  -2.7389  -2.7314  -2.6632  -2.6587  -2.6414  -2.5942  -2.5541
    -2.5369  -2.5327  -2.5153  -2.5025  -2.4935  -2.4716  -2.4515  -2.4432
    -2.3968  -2.3339  -2.3282  -2.2404  -2.1459  -2.1362  -2.1319  -2.1239
    -2.1134  -2.1043  -2.0936  -2.0767  -2.0011  -1.9965  -1.9939  -1.9562
    -1.9389  -1.9080  -1.8677  -1.8449  -1.8024  -1.7994  -1.7627  -1.7520
    -1.7265  -1.7215  -1.7173  -1.7133  -1.7017  -1.6898  -1.6769  -1.6615
    -1.6526  -1.6417  -1.6335  -1.6161  -1.6131  -1.6066  -1.5958  -1.5851
    -1.5787  -1.5719  -1.5616  -1.5601  -1.5299  -1.5280  -1.5251  -1.5195
    -1.5147  -1.5044  -1.4959  -1.4787  -1.4749  -1.4715  -1.4180  -1.4118
    -1.3837  -1.3758  -1.3411  -1.3384  -1.3309  -1.3244  -1.3195  -1.3170
    -1.3025  -1.2926  -1.2767  -1.2684  -1.2463  -1.2188  -1.1867  -1.1736
    -1.1657  -1.1562  -1.1508  -1.1481  -1.1400  -1.1348  -1.1339  -1.1245
    -1.1165  -1.1069  -1.1018  -1.0916  -1.0518  -1.0182  -1.0179  -1.0039
    -0.9928  -0.9814  -0.9685  -0.9556  -0.9325  -0.9274  -0.9254  -0.9210
    -0.9164  -0.9047  -0.8941  -0.8776  -0.8643  -0.8631  -0.8557  -0.8348
    -0.8237  -0.8187  -0.8017  -0.7977  -0.7820  -0.7738  -0.7629  -0.7572
    -0.7468  -0.7322  -0.7253  -0.7227  -0.7169  -0.6938  -0.6550  -0.6496
    -0.6303  -0.6151  -0.6035  -0.5969  -0.5958  -0.5898  -0.5841  -0.5815
    -0.5726  -0.5608  -0.5111  -0.5050  -0.4423  -0.4162  -0.3990  -0.3934
    -0.3664  -0.3613  -0.3430  -0.3077  -0.2855  -0.2764  -0.1920  -0.1881
    -0.1455  -0.1369  -0.1237  -0.1142  -0.1080  -0.0905  -0.0761  -0.0654
    -0.0434  -0.0373  -0.0142   0.0053   0.0353   0.0592   0.0744   0.1100
     0.1269   0.1649   0.2344   0.2658   0.2902   0.3134   0.3254   0.3351
     0.3632   0.3840   0.4644   0.4768   0.6057   0.7491   0.7902   0.9449
     0.9564   1.0778   1.2578   1.2898   1.3476   1.3800   1.4232   1.4859
     1.6536   1.6958   1.8119   1.8305   1.8837   1.9043   2.0449   2.1113
     2.1393   2.2691   2.3206   2.5338   2.6243   2.6556   2.8580   2.9574
     2.9684   2.9911   3.0295   3.0574   3.0911   3.1713   3.3036   3.3353
     3.3893   3.4045   3.4201   3.4277   3.4409   3.4485   3.4671   3.4890
     3.5788   3.6257   3.6305   3.6521   3.6566   3.6667   3.6867   3.6980
     3.7123   3.7223   3.7254   3.7418   3.7829   3.8438   3.8501   3.8980
     3.9403   3.9611   3.9779   4.0058   4.0237   4.0342   4.0489   4.0603
     4.0696   4.0871   4.0956   4.0999   4.1141   4.1377   4.1501   4.1717
     4.2282   4.2319   4.2458   4.2631   4.2844   4.3131   4.3306   4.3559
     4.3812   4.4029   4.4152   4.4315   4.4392   4.4447   4.4593   4.4899
     4.4991   4.5258   4.5471   4.5674   4.5986   4.6059   4.6200   4.6377
     4.6611   4.6687   4.6753   4.6918   4.7306   4.7376   4.7410   4.7478
     4.7580   4.7830   4.8066   4.8157   4.8353   4.8599   4.8655   4.8721
     4.8859   4.8959   4.9032   4.9291   4.9396   4.9447   4.9615   4.9748
     4.9816   5.0075   5.0249   5.0475   5.0610   5.0655   5.0759   5.0943
     5.1218   5.1292   5.1327   5.1495   5.1722   5.1893   5.2042   5.2203
     5.2332   5.2393   5.2552   5.2716   5.2809   5.2831   5.2883   5.2939
     5.2984   5.3013   5.3103   5.3182   5.3295   5.3378   5.3425   5.3544
     5.3622   5.3671   5.3733   5.3744   5.3912   5.3978   5.4029   5.4063
     5.4118   5.4155   5.4176   5.4229   5.4266   5.4346   5.4458   5.4509
     5.4525   5.4612   5.4732   5.4761   5.4865   5.4882   5.5104

          k = 0.0000-0.5000 0.0000 (144664 PWs)   bands (ev):

   -54.2235 -54.2047 -54.2036 -54.1878 -54.1871 -54.1859 -54.1844 -54.1713
   -54.1695 -54.1690 -54.1685 -54.1680 -54.1662 -54.1547 -54.1534 -54.1529
   -54.1509 -54.1386 -54.1376 -54.1126 -54.1064 -54.0926 -54.0896 -54.0866
   -54.0811 -54.0737 -54.0689 -54.0633 -54.0608 -54.0561 -54.0527 -54.0505
   -54.0435 -54.0401 -54.0366 -54.0319 -54.0305 -54.0290 -54.0209 -54.0161
   -54.0144 -54.0140 -54.0035 -53.9999 -53.9969 -53.9961 -53.9941 -53.9913
   -53.9849 -53.9814 -53.9793 -53.9784 -53.9755 -53.9735 -53.9684 -53.9638
   -53.9627 -53.9541 -53.9433 -53.9379 -53.9353 -53.9335 -53.9321 -53.9309
   -53.9278 -53.9271 -53.9240 -53.9228 -53.9164 -53.9148 -53.9071 -53.9024
   -42.5837 -41.9085 -30.7353 -30.7351 -30.7337 -30.7331 -30.7157 -30.7145
   -30.7136 -30.7126 -30.6759 -30.6755 -30.6734 -30.6713 -30.6706 -30.6696
   -30.6664 -30.6651 -30.6650 -30.6633 -30.6460 -30.6456 -30.6454 -30.6420
   -30.6415 -30.6411 -30.6406 -30.6395 -30.6390 -30.6383 -30.6299 -30.6294
   -30.6177 -30.6145 -30.6140 -30.6120 -30.6109 -30.6100 -30.6064 -30.6021
   -30.6016 -30.5977 -30.5949 -30.5936 -30.5915 -30.5871 -30.5843 -30.5808
   -30.5798 -30.5741 -30.5714 -30.5658 -30.5607 -30.5581 -30.5563 -30.5561
   -30.5506 -30.5500 -30.5471 -30.5455 -30.5443 -30.5423 -30.5398 -30.5363
   -30.5196 -30.5178 -30.4788 -30.4783 -30.4775 -30.4767 -30.4744 -30.4732
   -30.4701 -30.4659 -30.4619 -30.4581 -30.4528 -30.4505 -30.4490 -30.4481
   -30.4454 -30.4421 -30.4415 -30.4404 -30.4382 -30.4355 -30.4300 -30.4278
   -30.4158 -30.4147 -30.4137 -30.4117 -30.4059 -30.4051 -30.4035 -30.3993
   -30.3917 -30.3876 -30.3864 -30.3820 -30.3803 -30.3757 -30.3699 -30.3648
   -30.3623 -30.3615 -30.3587 -30.3570 -30.3527 -30.3515 -30.3490 -30.3392
   -30.3313 -30.3307 -30.3295 -30.3261 -30.3234 -30.3173 -30.3149 -30.3132
   -30.3113 -30.3103 -30.3084 -30.3078 -30.3058 -30.3031 -30.2972 -30.2917
   -30.2900 -30.2841 -30.2833 -30.2826 -30.2814 -30.2807 -30.2799 -30.2771
   -30.2765 -30.2759 -30.2739 -30.2678 -30.2650 -30.2576 -30.2545 -30.2531
   -30.2515 -30.2509 -30.2469 -30.2426 -30.2412 -30.2393 -30.2379 -30.2360
   -30.2345 -30.2323 -30.2308 -30.2262 -30.2225 -30.2207 -30.2183 -30.2151
   -30.2036 -30.2017 -30.1999 -30.1983 -30.1945 -30.1940 -30.1930 -30.1923
   -30.1904 -30.1897 -30.1879 -30.1864 -30.1859 -30.1839 -30.1817 -30.1807
   -30.1732 -30.1713 -30.1687 -30.1680 -30.1670 -30.1662 -30.1635 -30.1631
   -30.1620 -30.1605 -30.1589 -30.1580 -30.1553 -30.1549 -30.1532 -30.1512
   -30.1425 -30.1355 -30.1269 -30.1229 -30.1196 -30.1184 -30.1175 -30.1164
   -30.1148 -30.1117 -30.1071 -30.1045 -30.1042 -30.1016 -30.0995 -30.0982
   -30.0960 -30.0931 -30.0909 -30.0904 -30.0851 -30.0800 -30.0713 -30.0702
   -30.0688 -30.0669 -13.2034 -13.0692 -13.0562 -12.4737 -12.4669 -12.4647
   -12.4466 -12.3415 -12.3383 -12.3253 -12.1702 -12.1599 -11.9885 -11.9619
   -11.8780 -11.8714 -11.8558 -11.8499 -11.8477 -11.8434 -11.8379 -11.8258
   -11.8193 -11.7868 -11.7137 -11.7115 -11.6938 -11.6924 -11.6887 -11.6872
   -11.6733 -11.6474 -11.6321 -11.6257 -11.6243 -11.5814 -11.5365 -11.5072
   -11.3929 -11.3923 -11.3870 -11.3455 -11.2844 -11.2671 -11.2664 -11.2639
   -11.2567 -11.1642 -11.1627 -11.1114 -11.1077 -11.0680 -11.0593 -11.0446
   -11.0197 -10.9566 -10.9559 -10.9546 -10.9519 -10.9449 -10.9297 -10.8835
   -10.8730 -10.7529 -10.7513 -10.7502 -10.7458 -10.7418 -10.7359 -10.7308
   -10.7064 -10.5317 -10.5276 -10.5235 -10.5189  -9.8189  -8.6762  -8.0547
    -7.0566  -6.0424  -3.8636  -3.8601  -3.8312  -3.8279  -3.7744  -3.7700
    -3.7693  -3.7662  -3.2029  -3.1936  -3.1892  -3.1634  -3.1042  -3.0966
    -3.0936  -3.0866  -3.0328  -2.9970  -2.9881  -2.9459  -2.9418  -2.9361
    -2.9322  -2.8923  -2.8904  -2.8895  -2.8856  -2.8524  -2.8514  -2.7546
    -2.7465  -2.7409  -2.7399  -2.7167  -2.7140  -2.7075  -2.6974  -2.5473
    -2.5342  -2.5033  -2.4912  -2.4873  -2.4812  -2.4789  -2.4667  -2.4566
    -2.3456  -2.3421  -2.2953  -2.2851  -2.2731  -2.2595  -2.1992  -2.1864
    -2.1356  -2.1215  -2.0186  -1.9962  -1.9314  -1.8771  -1.8627  -1.8550
    -1.8535  -1.8338  -1.8054  -1.8014  -1.7915  -1.7907  -1.7878  -1.7793
    -1.7740  -1.7692  -1.7643  -1.7491  -1.7459  -1.7418  -1.7248  -1.7129
    -1.6874  -1.6789  -1.6742  -1.6713  -1.6660  -1.6600  -1.6549  -1.6499
    -1.6478  -1.6409  -1.6082  -1.6004  -1.5921  -1.5833  -1.5575  -1.5534
    -1.5497  -1.5384  -1.5070  -1.5043  -1.4987  -1.4778  -1.3801  -1.3760
    -1.3478  -1.3412  -1.3392  -1.3265  -1.3203  -1.3158  -1.2913  -1.2834
    -1.2820  -1.2779  -1.2753  -1.2698  -1.2301  -1.2290  -1.2255  -1.2164
    -1.2075  -1.1910  -1.1805  -1.1626  -1.1177  -1.1172  -1.1167  -1.1154
    -1.0822  -1.0743  -1.0640  -1.0625  -1.0499  -1.0237  -0.9962  -0.9726
    -0.9615  -0.9495  -0.9290  -0.9125  -0.8927  -0.8916  -0.8869  -0.8813
    -0.8785  -0.8739  -0.8728  -0.8708  -0.8596  -0.8368  -0.8172  -0.8137
    -0.8023  -0.7913  -0.7889  -0.7795  -0.7734  -0.7569  -0.7450  -0.7005
    -0.6897  -0.6747  -0.6571  -0.6475  -0.6374  -0.6230  -0.6059  -0.6052
    -0.5884  -0.5833  -0.5745  -0.5710  -0.5554  -0.5432  -0.5267  -0.5037
    -0.4737  -0.4619  -0.3917  -0.3880  -0.3867  -0.3797  -0.3753  -0.3423
    -0.3393  -0.3159  -0.3118  -0.2975  -0.2741  -0.2295  -0.2118  -0.1881
    -0.1635  -0.1368  -0.1307  -0.1282  -0.1160  -0.1100  -0.1093  -0.0818
    -0.0652  -0.0456  -0.0401  -0.0285  -0.0151  -0.0111  -0.0041   0.0039
     0.0289   0.0454   0.1080   0.1368   0.1574   0.1621   0.2575   0.3636
     0.4876   0.5210   0.5568   0.6148   0.6227   0.6385   0.6538   0.6659
     0.7005   0.9497   1.0437   1.0594   1.2565   1.3790   1.5352   1.5675
     1.7915   1.8283   1.9140   1.9524   1.9773   2.2112   2.2510   2.2755
     2.2873   2.3405   2.3771   2.4355   2.4450   2.4513   2.4617   2.4783
     2.5610   3.0067   3.0222   3.2346   3.2430   3.2582   3.2906   3.3071
     3.3552   3.3686   3.3919   3.4036   3.4082   3.4259   3.4371   3.5153
     3.5208   3.5528   3.5553   3.5781   3.5809   3.5996   3.6114   3.6450
     3.7381   3.7482   3.7813   3.8039   3.8047   3.8170   3.8327   3.8469
     3.8482   3.8523   3.8599   3.8661   3.8709   3.8731   3.8821   3.9059
     3.9162   3.9403   4.1104   4.1115   4.1166   4.1254   4.2472   4.2842
     4.3032   4.3136   4.3366   4.3416   4.3569   4.3700   4.3778   4.3836
     4.3898   4.3962   4.3996   4.4161   4.4243   4.4463   4.4538   4.4643
     4.4820   4.4949   4.5165   4.5650   4.6430   4.6590   4.6604   4.6740
     4.6860   4.6970   4.7765   4.8018   4.8112   4.8270   4.8333   4.8348
     4.8418   4.8478   4.8770   4.9185   4.9251   4.9429   4.9502   4.9583
     4.9769   4.9925   5.0169   5.0259   5.0377   5.0537   5.0592   5.0783
     5.0856   5.0883   5.0907   5.0973   5.1005   5.1195   5.1280   5.1374
     5.1386   5.1455   5.1583   5.1679   5.1739   5.1753   5.1813   5.1867
     5.1992   5.2100   5.2159   5.2220   5.2233   5.2293   5.2314   5.2417
     5.2497   5.2510   5.2613   5.2669   5.2793   5.2844   5.2962   5.2992
     5.2999   5.3091   5.3215   5.3389   5.3626   5.3629   5.3725   5.3742
     5.3793   5.3837   5.3933   5.3974   5.4415   5.4452   5.4534   5.4639
     5.5024   5.5167   5.5472   5.5580   5.5705   5.5905   5.6007

          k = 0.2500 0.2500 0.0000 (144726 PWs)   bands (ev):

   -54.2235 -54.2068 -54.1978 -54.1956 -54.1885 -54.1811 -54.1784 -54.1762
   -54.1750 -54.1705 -54.1658 -54.1638 -54.1610 -54.1600 -54.1585 -54.1506
   -54.1452 -54.1434 -54.1358 -54.1132 -54.1049 -54.0937 -54.0909 -54.0875
   -54.0767 -54.0737 -54.0713 -54.0643 -54.0588 -54.0572 -54.0537 -54.0487
   -54.0442 -54.0395 -54.0367 -54.0336 -54.0283 -54.0269 -54.0251 -54.0193
   -54.0108 -54.0082 -54.0060 -54.0053 -53.9986 -53.9922 -53.9900 -53.9898
   -53.9881 -53.9863 -53.9784 -53.9764 -53.9745 -53.9726 -53.9703 -53.9635
   -53.9628 -53.9541 -53.9433 -53.9381 -53.9351 -53.9336 -53.9321 -53.9302
   -53.9287 -53.9261 -53.9255 -53.9208 -53.9197 -53.9114 -53.9088 -53.9021
   -42.5837 -41.9085 -30.7450 -30.7436 -30.7414 -30.7251 -30.7066 -30.7048
   -30.7022 -30.7006 -30.6861 -30.6840 -30.6798 -30.6764 -30.6747 -30.6672
   -30.6655 -30.6620 -30.6598 -30.6573 -30.6546 -30.6507 -30.6497 -30.6471
   -30.6463 -30.6454 -30.6336 -30.6333 -30.6320 -30.6311 -30.6287 -30.6271
   -30.6253 -30.6166 -30.6104 -30.6083 -30.6064 -30.6057 -30.6030 -30.6012
   -30.5998 -30.5980 -30.5972 -30.5952 -30.5943 -30.5930 -30.5901 -30.5856
   -30.5757 -30.5736 -30.5689 -30.5677 -30.5650 -30.5624 -30.5606 -30.5565
   -30.5529 -30.5432 -30.5419 -30.5405 -30.5385 -30.5373 -30.5363 -30.5316
   -30.5140 -30.5127 -30.5092 -30.5019 -30.4799 -30.4785 -30.4730 -30.4685
   -30.4669 -30.4643 -30.4624 -30.4566 -30.4531 -30.4521 -30.4510 -30.4501
   -30.4443 -30.4436 -30.4418 -30.4401 -30.4396 -30.4309 -30.4247 -30.4233
   -30.4206 -30.4158 -30.4136 -30.4104 -30.3997 -30.3993 -30.3946 -30.3930
   -30.3918 -30.3880 -30.3819 -30.3810 -30.3798 -30.3764 -30.3740 -30.3737
   -30.3715 -30.3667 -30.3639 -30.3619 -30.3585 -30.3547 -30.3518 -30.3409
   -30.3293 -30.3248 -30.3216 -30.3194 -30.3177 -30.3163 -30.3139 -30.3132
   -30.3112 -30.3098 -30.3088 -30.3046 -30.3031 -30.3023 -30.3021 -30.2953
   -30.2933 -30.2869 -30.2861 -30.2816 -30.2805 -30.2768 -30.2751 -30.2707
   -30.2694 -30.2690 -30.2672 -30.2668 -30.2665 -30.2640 -30.2563 -30.2539
   -30.2481 -30.2472 -30.2450 -30.2442 -30.2433 -30.2415 -30.2386 -30.2378
   -30.2319 -30.2297 -30.2273 -30.2245 -30.2237 -30.2212 -30.2189 -30.2171
   -30.2158 -30.2138 -30.2109 -30.2067 -30.2006 -30.1958 -30.1944 -30.1923
   -30.1897 -30.1859 -30.1836 -30.1814 -30.1796 -30.1765 -30.1758 -30.1733
   -30.1728 -30.1705 -30.1697 -30.1685 -30.1669 -30.1646 -30.1634 -30.1624
   -30.1613 -30.1594 -30.1588 -30.1545 -30.1525 -30.1500 -30.1473 -30.1459
   -30.1449 -30.1431 -30.1379 -30.1372 -30.1314 -30.1289 -30.1233 -30.1134
   -30.1116 -30.1101 -30.1095 -30.1064 -30.1049 -30.1018 -30.0993 -30.0955
   -30.0942 -30.0928 -30.0871 -30.0849 -30.0777 -30.0760 -30.0751 -30.0742
   -30.0656 -30.0645 -13.2036 -13.1477 -12.8257 -12.8165 -12.5080 -12.4095
   -12.3438 -12.3376 -12.3302 -12.1367 -12.1282 -12.0577 -12.0488 -12.0052
   -11.9867 -11.9709 -11.9174 -11.9137 -11.8974 -11.8706 -11.7805 -11.7785
   -11.7748 -11.7707 -11.7635 -11.7475 -11.7346 -11.7077 -11.6542 -11.6504
   -11.6375 -11.6231 -11.5928 -11.5654 -11.5460 -11.5296 -11.5270 -11.4927
   -11.4823 -11.4327 -11.3866 -11.3544 -11.3471 -11.3112 -11.2916 -11.2555
   -11.2003 -11.1974 -11.1956 -11.0772 -11.0758 -11.0725 -11.0209 -11.0195
   -10.9856 -10.9830 -10.9811 -10.9699 -10.9610 -10.9305 -10.8631 -10.8374
   -10.8363 -10.8339 -10.8005 -10.7838 -10.7528 -10.7501 -10.7187 -10.7058
   -10.6558 -10.6177 -10.6032 -10.4937 -10.4412  -9.8190  -8.6762  -8.0547
    -7.0566  -6.0424  -4.0161  -3.9443  -3.9310  -3.8682  -3.5825  -3.5590
    -3.4986  -3.4926  -3.3985  -3.3912  -3.3332  -3.3266  -3.1934  -3.1377
    -3.1288  -3.1237  -3.1114  -3.0241  -3.0162  -2.9924  -2.9902  -2.9226
    -2.9086  -2.9034  -2.8932  -2.8023  -2.7943  -2.7889  -2.7517  -2.7510
    -2.7439  -2.7376  -2.7038  -2.6380  -2.6285  -2.6231  -2.6159  -2.5704
    -2.5639  -2.5205  -2.4931  -2.4901  -2.4517  -2.4431  -2.4404  -2.4348
    -2.3619  -2.3006  -2.2884  -2.2533  -2.2495  -2.1986  -2.1939  -2.1476
    -2.1460  -2.1136  -2.1094  -2.0965  -2.0808  -2.0633  -2.0536  -1.9740
    -1.9210  -1.8783  -1.8720  -1.8523  -1.8411  -1.8122  -1.8097  -1.7860
    -1.7792  -1.7750  -1.7654  -1.7372  -1.7120  -1.7108  -1.6894  -1.6847
    -1.6778  -1.6506  -1.6491  -1.6397  -1.6176  -1.6156  -1.6077  -1.6037
    -1.5954  -1.5902  -1.5812  -1.5364  -1.5258  -1.5167  -1.5107  -1.5015
    -1.4912  -1.4782  -1.4455  -1.4424  -1.4370  -1.4320  -1.4218  -1.4194
    -1.3795  -1.3737  -1.3508  -1.3405  -1.3366  -1.3245  -1.3230  -1.3115
    -1.2995  -1.2851  -1.2780  -1.2675  -1.2549  -1.2352  -1.2108  -1.1927
    -1.1876  -1.1857  -1.1742  -1.1728  -1.1598  -1.1476  -1.1333  -1.0941
    -1.0818  -1.0573  -1.0531  -1.0420  -1.0216  -1.0144  -0.9950  -0.9780
    -0.9639  -0.9609  -0.9584  -0.9514  -0.9465  -0.9342  -0.8866  -0.8832
    -0.8530  -0.8456  -0.8331  -0.8221  -0.8143  -0.8118  -0.7886  -0.7830
    -0.7744  -0.7654  -0.7593  -0.7560  -0.7510  -0.7403  -0.7143  -0.7071
    -0.7017  -0.6937  -0.6828  -0.6766  -0.6732  -0.6659  -0.6560  -0.6414
    -0.6190  -0.6116  -0.5934  -0.5834  -0.5666  -0.5479  -0.5302  -0.5113
    -0.4885  -0.4622  -0.4493  -0.4410  -0.4365  -0.4194  -0.4128  -0.3819
    -0.3447  -0.3410  -0.3019  -0.2940  -0.2443  -0.2372  -0.2191  -0.2004
    -0.1903  -0.1732  -0.1642  -0.1448  -0.1284  -0.1226  -0.1025  -0.0903
    -0.0776  -0.0724  -0.0446   0.0008   0.0189   0.0309   0.0397   0.0679
     0.0917   0.1339   0.1502   0.2185   0.2257   0.2385   0.2752   0.3011
     0.3129   0.3826   0.4421   0.5670   0.5857   0.6064   0.6823   0.7125
     0.9508   1.0101   1.0259   1.2544   1.3055   1.3748   1.5350   1.6694
     1.7093   1.7694   1.8124   1.8743   1.9386   2.0032   2.0409   2.2133
     2.2650   2.2743   2.3459   2.6883   2.6968   2.7104   2.7364   2.7414
     2.8292   2.8593   2.9016   2.9134   3.0908   3.1003   3.1297   3.1396
     3.2102   3.2404   3.2486   3.3079   3.3112   3.3994   3.4199   3.4710
     3.4846   3.5234   3.5364   3.6078   3.6141   3.6415   3.6804   3.6959
     3.7314   3.7406   3.7753   3.7893   3.8603   3.8804   3.8938   3.9184
     3.9205   3.9613   3.9717   3.9979   4.0024   4.0374   4.0517   4.0551
     4.0896   4.0936   4.0994   4.1065   4.1238   4.1341   4.1520   4.1713
     4.1750   4.2165   4.2376   4.2770   4.2837   4.3164   4.3328   4.3951
     4.4005   4.4045   4.4156   4.4275   4.4898   4.5002   4.5150   4.5320
     4.5377   4.5608   4.5774   4.5807   4.5965   4.6544   4.6820   4.6919
     4.7000   4.7100   4.7231   4.7485   4.7640   4.7662   4.7775   4.7823
     4.7893   4.8123   4.8504   4.8649   4.9127   4.9336   4.9487   4.9576
     4.9593   4.9660   4.9884   5.0050   5.0209   5.0287   5.0360   5.0451
     5.0475   5.0544   5.0644   5.0729   5.0783   5.0881   5.0963   5.1060
     5.1246   5.1317   5.1414   5.1529   5.1546   5.1668   5.1686   5.2066
     5.2327   5.2472   5.2515   5.2611   5.2648   5.2755   5.2851   5.2903
     5.2991   5.3099   5.3154   5.3218   5.3355   5.3385   5.3543   5.3600
     5.3620   5.3692   5.3705   5.3749   5.3787   5.3894   5.3909   5.3966
     5.3974   5.4039   5.4154   5.4204   5.4232   5.4293   5.4328   5.4385
     5.4401   5.4452   5.4493   5.4525   5.4611   5.4742   5.4889

          k = 0.2500-0.5000 0.0000 (144610 PWs)   bands (ev):

   -54.2235 -54.2036 -54.2025 -54.1940 -54.1925 -54.1796 -54.1775 -54.1714
   -54.1697 -54.1692 -54.1684 -54.1677 -54.1662 -54.1602 -54.1598 -54.1474
   -54.1465 -54.1394 -54.1384 -54.1122 -54.1054 -54.0963 -54.0920 -54.0845
   -54.0771 -54.0736 -54.0685 -54.0634 -54.0607 -54.0571 -54.0543 -54.0510
   -54.0442 -54.0381 -54.0355 -54.0313 -54.0303 -54.0293 -54.0248 -54.0216
   -54.0099 -54.0073 -54.0030 -53.9999 -53.9969 -53.9959 -53.9947 -53.9916
   -53.9889 -53.9872 -53.9775 -53.9760 -53.9739 -53.9720 -53.9682 -53.9647
   -53.9629 -53.9541 -53.9433 -53.9380 -53.9355 -53.9337 -53.9322 -53.9302
   -53.9279 -53.9266 -53.9244 -53.9224 -53.9196 -53.9112 -53.9072 -53.9034
   -42.5837 -41.9085 -30.7511 -30.7504 -30.7420 -30.7407 -30.7080 -30.7077
   -30.6789 -30.6770 -30.6755 -30.6750 -30.6746 -30.6729 -30.6721 -30.6708
   -30.6684 -30.6667 -30.6596 -30.6584 -30.6547 -30.6536 -30.6523 -30.6516
   -30.6417 -30.6400 -30.6327 -30.6320 -30.6306 -30.6297 -30.6226 -30.6199
   -30.6187 -30.6185 -30.6172 -30.6156 -30.6125 -30.6091 -30.6069 -30.6056
   -30.6040 -30.6013 -30.5990 -30.5964 -30.5957 -30.5922 -30.5897 -30.5863
   -30.5842 -30.5836 -30.5805 -30.5700 -30.5641 -30.5596 -30.5549 -30.5524
   -30.5505 -30.5490 -30.5485 -30.5449 -30.5414 -30.5341 -30.5302 -30.5280
   -30.5186 -30.5160 -30.4989 -30.4968 -30.4961 -30.4914 -30.4853 -30.4838
   -30.4680 -30.4571 -30.4559 -30.4510 -30.4477 -30.4446 -30.4435 -30.4392
   -30.4368 -30.4360 -30.4340 -30.4324 -30.4314 -30.4310 -30.4293 -30.4187
   -30.4163 -30.4138 -30.4116 -30.4093 -30.4080 -30.4065 -30.4057 -30.3958
   -30.3948 -30.3933 -30.3920 -30.3914 -30.3867 -30.3755 -30.3732 -30.3657
   -30.3628 -30.3593 -30.3563 -30.3546 -30.3514 -30.3511 -30.3483 -30.3460
   -30.3432 -30.3413 -30.3290 -30.3258 -30.3215 -30.3172 -30.3092 -30.3033
   -30.3022 -30.2998 -30.2992 -30.2977 -30.2965 -30.2932 -30.2920 -30.2914
   -30.2893 -30.2886 -30.2871 -30.2851 -30.2830 -30.2824 -30.2790 -30.2767
   -30.2741 -30.2709 -30.2695 -30.2687 -30.2649 -30.2637 -30.2616 -30.2571
   -30.2546 -30.2520 -30.2499 -30.2481 -30.2435 -30.2420 -30.2391 -30.2357
   -30.2349 -30.2328 -30.2312 -30.2276 -30.2257 -30.2245 -30.2228 -30.2159
   -30.2139 -30.2101 -30.2064 -30.2031 -30.2004 -30.1972 -30.1954 -30.1926
   -30.1882 -30.1879 -30.1833 -30.1827 -30.1809 -30.1763 -30.1749 -30.1740
   -30.1731 -30.1719 -30.1700 -30.1658 -30.1653 -30.1639 -30.1626 -30.1622
   -30.1616 -30.1596 -30.1587 -30.1577 -30.1474 -30.1465 -30.1458 -30.1442
   -30.1411 -30.1383 -30.1341 -30.1324 -30.1299 -30.1288 -30.1246 -30.1217
   -30.1168 -30.1108 -30.1098 -30.1091 -30.1064 -30.1022 -30.0977 -30.0921
   -30.0897 -30.0875 -30.0861 -30.0843 -30.0816 -30.0800 -30.0755 -30.0711
   -30.0696 -30.0666 -13.2033 -13.0249 -13.0121 -12.7033 -12.6901 -12.3366
   -12.3026 -12.2926 -12.2311 -12.2171 -12.1324 -12.1228 -12.0333 -12.0222
   -11.9639 -11.9404 -11.8913 -11.8758 -11.8664 -11.8618 -11.8556 -11.8515
   -11.8396 -11.7932 -11.7229 -11.7186 -11.6911 -11.6801 -11.6781 -11.6737
   -11.6634 -11.6474 -11.5742 -11.5620 -11.5181 -11.5074 -11.4998 -11.4904
   -11.4816 -11.4385 -11.4321 -11.4227 -11.3413 -11.3250 -11.2876 -11.2382
   -11.1892 -11.1429 -11.1408 -11.1115 -11.1093 -11.0814 -11.0778 -11.0132
   -11.0116 -10.9439 -10.9428 -10.9245 -10.9115 -10.8960 -10.8803 -10.8770
   -10.8747 -10.8533 -10.8437 -10.7953 -10.7761 -10.7235 -10.7046 -10.6533
   -10.6507 -10.6485 -10.6419 -10.4339 -10.4323  -9.8190  -8.6762  -8.0548
    -7.0566  -6.0424  -4.0568  -4.0562  -3.9736  -3.9710  -3.5612  -3.5536
    -3.4875  -3.4816  -3.3123  -3.3006  -3.2163  -3.2124  -3.1493  -3.1485
    -3.1095  -3.1074  -3.0774  -3.0653  -3.0224  -3.0042  -2.9967  -2.9518
    -2.9481  -2.9395  -2.9356  -2.9325  -2.9217  -2.8677  -2.8581  -2.7212
    -2.7145  -2.6768  -2.6744  -2.5750  -2.5686  -2.5626  -2.5532  -2.5260
    -2.5221  -2.5103  -2.4910  -2.4781  -2.4015  -2.3952  -2.3777  -2.3728
    -2.3521  -2.3487  -2.3156  -2.3119  -2.3087  -2.2894  -2.2261  -2.2121
    -2.2015  -2.1984  -2.0891  -2.0872  -2.0687  -2.0504  -2.0440  -2.0334
    -1.9787  -1.9681  -1.9242  -1.9075  -1.9039  -1.8752  -1.8705  -1.8339
    -1.7873  -1.7846  -1.7389  -1.7312  -1.6895  -1.6809  -1.6595  -1.6554
    -1.6341  -1.6289  -1.6206  -1.6155  -1.5909  -1.5885  -1.5797  -1.5693
    -1.5630  -1.5573  -1.5477  -1.5379  -1.5317  -1.5229  -1.5002  -1.4975
    -1.4940  -1.4830  -1.4692  -1.4655  -1.4636  -1.4606  -1.4572  -1.4506
    -1.4187  -1.4159  -1.4047  -1.3983  -1.3872  -1.3780  -1.3737  -1.3675
    -1.3641  -1.3555  -1.3388  -1.3331  -1.2863  -1.2800  -1.2462  -1.2454
    -1.1686  -1.1620  -1.1560  -1.1539  -1.1288  -1.0730  -1.0480  -1.0423
    -1.0208  -1.0181  -1.0133  -1.0104  -0.9759  -0.9534  -0.9344  -0.9170
    -0.9141  -0.8852  -0.8641  -0.8534  -0.8387  -0.8354  -0.8331  -0.8275
    -0.8202  -0.8143  -0.8103  -0.8018  -0.7934  -0.7906  -0.7865  -0.7746
    -0.7659  -0.7528  -0.7446  -0.7395  -0.7303  -0.7273  -0.7160  -0.6871
    -0.6773  -0.6673  -0.6535  -0.6424  -0.6382  -0.6271  -0.6158  -0.6054
    -0.5531  -0.5392  -0.5335  -0.5322  -0.5198  -0.5109  -0.4986  -0.4881
    -0.4811  -0.4736  -0.4323  -0.4270  -0.4134  -0.3821  -0.3559  -0.3428
    -0.3283  -0.3076  -0.2958  -0.2816  -0.2544  -0.2475  -0.2358  -0.2032
    -0.1933  -0.1891  -0.1746  -0.1605  -0.1467  -0.1316  -0.1197  -0.1096
    -0.1009  -0.0791  -0.0669  -0.0318   0.0103   0.0151   0.0212   0.0330
     0.0528   0.0755   0.1165   0.1264   0.2099   0.2337   0.2531   0.2750
     0.3081   0.4281   0.4630   0.4724   0.4779   0.5075   0.6166   0.6433
     0.6570   0.9084   0.9253   0.9550   1.2518   1.3764   1.6921   1.7342
     1.8235   1.8590   1.9467   2.0417   2.0626   2.2094   2.2516   2.2655
     2.2842   2.3359   2.4043   2.4761   2.5076   2.5200   2.5247   2.6196
     2.6533   2.8327   2.8693   2.9051   2.9151   3.0376   3.0510   3.0913
     3.1030   3.2788   3.2908   3.2939   3.3003   3.3115   3.4276   3.4513
     3.4614   3.4732   3.4753   3.5372   3.5553   3.5985   3.6214   3.6407
     3.7164   3.7294   3.7504   3.7554   3.7735   3.7855   3.8021   3.8365
     3.8643   3.8714   3.8969   3.9268   3.9596   3.9813   3.9875   3.9985
     4.0363   4.0688   4.0808   4.1010   4.1656   4.1900   4.1986   4.2084
     4.2117   4.2217   4.2947   4.3039   4.3215   4.3360   4.3952   4.4092
     4.4467   4.4525   4.5092   4.5246   4.5609   4.5666   4.5696   4.5856
     4.6158   4.6317   4.6557   4.6596   4.6705   4.6925   4.7004   4.7422
     4.7529   4.7701   4.7925   4.7994   4.8311   4.8393   4.8582   4.8977
     4.9054   4.9167   4.9187   4.9263   4.9357   4.9410   4.9569   4.9670
     4.9803   4.9836   4.9937   4.9973   5.0105   5.0322   5.0609   5.0665
     5.0775   5.0885   5.0984   5.1052   5.1110   5.1160   5.1186   5.1234
     5.1288   5.1369   5.1441   5.1476   5.1573   5.1612   5.1722   5.1841
     5.1896   5.1937   5.2028   5.2084   5.2182   5.2327   5.2394   5.2442
     5.2511   5.2615   5.2756   5.2822   5.2963   5.3034   5.3220   5.3346
     5.3530   5.3568   5.3639   5.3722   5.3784   5.3851   5.3932   5.4008
     5.4034   5.4052   5.4065   5.4092   5.4178   5.4251   5.4404   5.4485
     5.4540   5.4736   5.4833   5.4880   5.5007   5.5073   5.5329

          k =-0.5000-0.5000 0.0000 (144656 PWs)   bands (ev):

   -54.2235 -54.2014 -54.2005 -54.1982 -54.1964 -54.1743 -54.1725 -54.1711
   -54.1699 -54.1697 -54.1684 -54.1673 -54.1661 -54.1658 -54.1643 -54.1443
   -54.1431 -54.1413 -54.1398 -54.1116 -54.1037 -54.0993 -54.0945 -54.0818
   -54.0770 -54.0711 -54.0679 -54.0637 -54.0602 -54.0595 -54.0561 -54.0506
   -54.0449 -54.0361 -54.0345 -54.0310 -54.0299 -54.0286 -54.0274 -54.0257
   -54.0064 -54.0030 -54.0004 -53.9979 -53.9974 -53.9967 -53.9958 -53.9948
   -53.9928 -53.9895 -53.9771 -53.9752 -53.9736 -53.9684 -53.9677 -53.9671
   -53.9631 -53.9541 -53.9433 -53.9381 -53.9355 -53.9339 -53.9323 -53.9297
   -53.9276 -53.9259 -53.9247 -53.9232 -53.9205 -53.9087 -53.9070 -53.9050
   -42.5837 -41.9085 -30.7542 -30.7540 -30.7538 -30.7524 -30.6812 -30.6807
   -30.6793 -30.6791 -30.6773 -30.6766 -30.6757 -30.6749 -30.6718 -30.6690
   -30.6676 -30.6673 -30.6656 -30.6641 -30.6415 -30.6412 -30.6406 -30.6388
   -30.6334 -30.6325 -30.6315 -30.6291 -30.6277 -30.6263 -30.6247 -30.6237
   -30.6225 -30.6218 -30.6212 -30.6211 -30.6140 -30.6135 -30.6112 -30.6096
   -30.6086 -30.6072 -30.6035 -30.6014 -30.5979 -30.5933 -30.5916 -30.5889
   -30.5875 -30.5871 -30.5864 -30.5849 -30.5836 -30.5665 -30.5609 -30.5546
   -30.5536 -30.5456 -30.5332 -30.5327 -30.5236 -30.5217 -30.5204 -30.5192
   -30.5160 -30.5142 -30.5140 -30.5133 -30.5130 -30.5125 -30.4832 -30.4722
   -30.4721 -30.4707 -30.4593 -30.4490 -30.4478 -30.4381 -30.4360 -30.4302
   -30.4297 -30.4292 -30.4285 -30.4275 -30.4273 -30.4266 -30.4259 -30.4252
   -30.4250 -30.4245 -30.4238 -30.4216 -30.4074 -30.4002 -30.3981 -30.3864
   -30.3847 -30.3828 -30.3810 -30.3795 -30.3783 -30.3771 -30.3761 -30.3759
   -30.3734 -30.3728 -30.3719 -30.3694 -30.3685 -30.3558 -30.3328 -30.3323
   -30.3296 -30.3261 -30.3241 -30.3229 -30.3222 -30.3204 -30.3154 -30.3124
   -30.3042 -30.2970 -30.2946 -30.2935 -30.2925 -30.2913 -30.2902 -30.2884
   -30.2880 -30.2879 -30.2873 -30.2867 -30.2853 -30.2784 -30.2771 -30.2760
   -30.2717 -30.2686 -30.2656 -30.2635 -30.2626 -30.2618 -30.2616 -30.2601
   -30.2599 -30.2585 -30.2426 -30.2408 -30.2398 -30.2394 -30.2379 -30.2349
   -30.2346 -30.2341 -30.2318 -30.2311 -30.2292 -30.2288 -30.2285 -30.2278
   -30.2260 -30.2253 -30.2240 -30.2217 -30.2174 -30.1967 -30.1943 -30.1857
   -30.1781 -30.1780 -30.1766 -30.1741 -30.1736 -30.1727 -30.1702 -30.1698
   -30.1671 -30.1664 -30.1648 -30.1630 -30.1626 -30.1612 -30.1602 -30.1593
   -30.1577 -30.1546 -30.1529 -30.1525 -30.1516 -30.1514 -30.1500 -30.1484
   -30.1460 -30.1440 -30.1429 -30.1403 -30.1383 -30.1369 -30.1353 -30.1268
   -30.1130 -30.1095 -30.1077 -30.1073 -30.1061 -30.0995 -30.0940 -30.0903
   -30.0891 -30.0868 -30.0842 -30.0826 -30.0813 -30.0794 -30.0744 -30.0707
   -30.0702 -30.0677 -13.2033 -12.8993 -12.8966 -12.8943 -12.8736 -12.3361
   -12.1946 -12.1935 -12.1920 -12.1754 -12.0349 -12.0323 -12.0286 -12.0266
   -12.0224 -12.0212 -12.0137 -11.9861 -11.9043 -11.8995 -11.8908 -11.8215
   -11.8141 -11.8056 -11.8021 -11.7980 -11.5969 -11.5954 -11.5922 -11.5881
   -11.5867 -11.5849 -11.5821 -11.5801 -11.5788 -11.5780 -11.5728 -11.5421
   -11.4357 -11.4060 -11.4011 -11.3993 -11.3925 -11.3455 -11.3437 -11.3280
   -11.2395 -11.0864 -11.0862 -11.0850 -11.0818 -11.0012 -10.9990 -10.9979
   -10.9964 -10.9959 -10.9950 -10.9945 -10.9904 -10.8769 -10.8702 -10.8650
   -10.8336 -10.7858 -10.7815 -10.7772 -10.7729 -10.7678 -10.7577 -10.7443
   -10.7347 -10.6152 -10.6098 -10.3994 -10.3982  -9.8190  -8.6763  -8.0548
    -7.0566  -6.0424  -4.1337  -4.1324  -4.0461  -4.0439  -3.2904  -3.2890
    -3.2856  -3.2799  -3.2713  -3.2702  -3.2613  -3.2483  -3.2242  -3.2200
    -3.1894  -3.1892  -3.1873  -3.1852  -3.1839  -3.1742  -3.1651  -3.1621
    -3.0389  -3.0200  -2.9904  -2.6809  -2.6541  -2.6415  -2.6353  -2.6290
    -2.6215  -2.6177  -2.6161  -2.6136  -2.6093  -2.6070  -2.5930  -2.5080
    -2.4844  -2.4836  -2.4823  -2.4806  -2.4779  -2.4709  -2.4639  -2.4618
    -2.2858  -2.2726  -2.2411  -2.2384  -2.2308  -2.2280  -2.2239  -2.2203
    -2.1778  -2.1661  -2.1636  -2.1626  -2.1616  -2.1609  -2.1585  -2.1558
    -2.1052  -2.1049  -2.0862  -2.0759  -1.9237  -1.9111  -1.9089  -1.8383
    -1.8231  -1.8202  -1.7298  -1.7149  -1.6818  -1.6796  -1.6167  -1.6104
    -1.6080  -1.6065  -1.6007  -1.5964  -1.5947  -1.5896  -1.5721  -1.5708
    -1.5647  -1.5607  -1.5546  -1.5543  -1.5412  -1.5366  -1.4472  -1.4432
    -1.4376  -1.4355  -1.4317  -1.4305  -1.4233  -1.4201  -1.4178  -1.4106
    -1.4077  -1.3851  -1.3756  -1.3725  -1.3521  -1.3499  -1.3472  -1.3417
    -1.3392  -1.3373  -1.3334  -1.3293  -1.3237  -1.3172  -1.2884  -1.2878
    -1.2320  -1.2308  -1.2174  -1.1956  -1.1445  -1.1318  -1.1260  -1.1244
    -1.0783  -1.0708  -1.0540  -1.0494  -0.9636  -0.9416  -0.9335  -0.9233
    -0.8872  -0.8584  -0.8573  -0.8399  -0.8370  -0.8345  -0.8158  -0.7878
    -0.7809  -0.7732  -0.7701  -0.7646  -0.7554  -0.7508  -0.7496  -0.7284
    -0.6915  -0.6728  -0.6592  -0.6529  -0.6516  -0.6506  -0.6424  -0.6420
    -0.5956  -0.5690  -0.5543  -0.5456  -0.5247  -0.5174  -0.5139  -0.4987
    -0.4931  -0.4804  -0.4739  -0.4695  -0.4680  -0.4537  -0.4498  -0.4455
    -0.4308  -0.3987  -0.3918  -0.3834  -0.3806  -0.3736  -0.3674  -0.3584
    -0.3516  -0.3472  -0.3356  -0.3173  -0.2924  -0.2765  -0.2731  -0.2696
    -0.2649  -0.2570  -0.2381  -0.2253  -0.2140  -0.2025  -0.1881  -0.1716
    -0.0509  -0.0424  -0.0387  -0.0300  -0.0163   0.0126   0.0233   0.0341
     0.0696   0.0875   0.0924   0.1185   0.1328   0.2114   0.2494   0.2735
     0.3253   0.3648   0.3672   0.3710   0.3757   0.4396   0.5720   0.5740
     0.5896   0.6152   0.6615   0.9478   1.2482   1.3745   1.7515   1.7829
     1.8845   2.1855   2.2179   2.2513   2.2630   2.2739   2.2818   2.2839
     2.2890   2.3523   2.3561   2.3819   2.3852   2.3922   2.4143   2.7709
     2.7825   2.7924   2.8066   2.8102   2.8153   2.8208   2.8258   2.8364
     2.8432   2.8829   2.8866   3.3084   3.3273   3.3426   3.3501   3.3616
     3.6105   3.6211   3.6236   3.6320   3.6367   3.6424   3.6475   3.6482
     3.6566   3.6763   3.6776   3.6810   3.6835   3.6912   3.7139   3.7418
     3.7470   3.7602   3.7684   3.8083   3.9309   3.9435   3.9496   3.9606
     3.9713   3.9797   4.0233   4.0301   4.0490   4.0688   4.0811   4.1588
     4.4979   4.4989   4.5100   4.5105   4.5122   4.5149   4.5183   4.5262
     4.5730   4.5806   4.5919   4.5928   4.6097   4.6132   4.6821   4.7205
     4.7367   4.7521   4.7582   4.7691   4.7739   4.7807   4.7822   4.7871
     4.7876   4.7924   4.8130   4.8391   4.8404   4.8442   4.8498   4.8514
     4.8792   4.8879   4.8919   4.9033   4.9115   4.9179   4.9322   4.9482
     4.9741   4.9805   4.9857   4.9899   4.9911   4.9915   5.0054   5.0105
     5.0188   5.0274   5.0472   5.0680   5.1020   5.1044   5.1080   5.1133
     5.1155   5.1175   5.1254   5.1278   5.1292   5.1319   5.1545   5.1593
     5.1707   5.1712   5.1801   5.1837   5.1897   5.1961   5.2035   5.2213
     5.2310   5.2379   5.2695   5.2928   5.3010   5.3142   5.3580   5.3597
     5.3618   5.3651   5.3722   5.3766   5.3846   5.3886   5.3931   5.3945
     5.3998   5.4002   5.4052   5.4102   5.4409   5.4422   5.4525   5.4532
     5.4599   5.4697   5.4994   5.5106   5.5217   5.5334   5.5434

          k = 0.2500 0.0000 0.0000 (144769 PWs)   bands (ev):

   -54.2235 -54.2081 -54.1981 -54.1894 -54.1879 -54.1837 -54.1825 -54.1786
   -54.1738 -54.1725 -54.1643 -54.1635 -54.1604 -54.1563 -54.1547 -54.1520
   -54.1504 -54.1432 -54.1348 -54.1143 -54.1029 -54.0958 -54.0881 -54.0854
   -54.0803 -54.0740 -54.0731 -54.0644 -54.0582 -54.0563 -54.0534 -54.0460
   -54.0444 -54.0405 -54.0384 -54.0346 -54.0279 -54.0267 -54.0209 -54.0177
   -54.0131 -54.0123 -54.0085 -54.0034 -54.0009 -53.9913 -53.9900 -53.9880
   -53.9849 -53.9820 -53.9796 -53.9783 -53.9756 -53.9740 -53.9711 -53.9630
   -53.9624 -53.9541 -53.9433 -53.9382 -53.9345 -53.9336 -53.9320 -53.9310
   -53.9286 -53.9272 -53.9251 -53.9202 -53.9173 -53.9147 -53.9085 -53.9014
   -42.5837 -41.9085 -30.7312 -30.7293 -30.7280 -30.7256 -30.7207 -30.7191
   -30.6955 -30.6940 -30.6939 -30.6926 -30.6899 -30.6881 -30.6817 -30.6805
   -30.6784 -30.6666 -30.6614 -30.6590 -30.6501 -30.6496 -30.6469 -30.6402
   -30.6390 -30.6357 -30.6351 -30.6333 -30.6323 -30.6315 -30.6271 -30.6265
   -30.6245 -30.6172 -30.6152 -30.6114 -30.6073 -30.6049 -30.6006 -30.5977
   -30.5966 -30.5952 -30.5930 -30.5915 -30.5888 -30.5861 -30.5844 -30.5812
   -30.5804 -30.5792 -30.5759 -30.5728 -30.5683 -30.5671 -30.5627 -30.5581
   -30.5559 -30.5442 -30.5394 -30.5256 -30.5224 -30.5184 -30.5175 -30.5141
   -30.5117 -30.5107 -30.5097 -30.5037 -30.5012 -30.4935 -30.4926 -30.4717
   -30.4669 -30.4655 -30.4652 -30.4629 -30.4547 -30.4531 -30.4492 -30.4480
   -30.4453 -30.4385 -30.4368 -30.4358 -30.4348 -30.4323 -30.4298 -30.4283
   -30.4273 -30.4183 -30.4132 -30.4113 -30.4086 -30.4047 -30.3991 -30.3965
   -30.3887 -30.3847 -30.3833 -30.3810 -30.3788 -30.3715 -30.3692 -30.3664
   -30.3627 -30.3571 -30.3560 -30.3549 -30.3529 -30.3517 -30.3479 -30.3462
   -30.3420 -30.3408 -30.3379 -30.3317 -30.3246 -30.3234 -30.3216 -30.3195
   -30.3141 -30.3098 -30.3081 -30.3060 -30.2993 -30.2974 -30.2946 -30.2931
   -30.2860 -30.2837 -30.2790 -30.2778 -30.2762 -30.2758 -30.2733 -30.2728
   -30.2709 -30.2678 -30.2631 -30.2629 -30.2614 -30.2595 -30.2577 -30.2554
   -30.2538 -30.2506 -30.2494 -30.2460 -30.2450 -30.2441 -30.2427 -30.2387
   -30.2346 -30.2286 -30.2251 -30.2175 -30.2158 -30.2147 -30.2127 -30.2101
   -30.2090 -30.2071 -30.2050 -30.2037 -30.2014 -30.1972 -30.1961 -30.1925
   -30.1906 -30.1891 -30.1884 -30.1859 -30.1849 -30.1821 -30.1793 -30.1774
   -30.1766 -30.1760 -30.1708 -30.1664 -30.1658 -30.1645 -30.1634 -30.1591
   -30.1579 -30.1559 -30.1546 -30.1536 -30.1528 -30.1512 -30.1498 -30.1488
   -30.1478 -30.1452 -30.1409 -30.1331 -30.1317 -30.1243 -30.1221 -30.1206
   -30.1185 -30.1143 -30.1104 -30.1084 -30.1003 -30.0991 -30.0984 -30.0971
   -30.0910 -30.0893 -30.0864 -30.0843 -30.0827 -30.0786 -30.0747 -30.0688
   -30.0658 -30.0627 -13.2052 -13.1910 -12.8645 -12.5869 -12.5788 -12.4478
   -12.3783 -12.3357 -12.2851 -12.2768 -12.1678 -12.0281 -12.0108 -11.9504
   -11.9463 -11.9408 -11.9330 -11.9152 -11.8966 -11.8544 -11.8452 -11.8133
   -11.8026 -11.7832 -11.7133 -11.7101 -11.6971 -11.6892 -11.6789 -11.6663
   -11.6515 -11.6279 -11.5830 -11.5714 -11.5629 -11.5602 -11.5283 -11.4380
   -11.4346 -11.4207 -11.3966 -11.3666 -11.3599 -11.3523 -11.2770 -11.2304
   -11.2162 -11.1491 -11.1382 -11.1302 -11.1253 -11.0980 -11.0481 -11.0255
   -11.0234 -11.0070 -10.9894 -10.9116 -10.9024 -10.8728 -10.8622 -10.8590
   -10.8408 -10.8395 -10.8209 -10.7991 -10.7880 -10.7293 -10.7262 -10.6411
   -10.6365 -10.6128 -10.6084 -10.5100 -10.5069  -9.8189  -8.6762  -8.0547
    -7.0566  -6.0424  -3.8396  -3.8373  -3.7582  -3.7570  -3.7028  -3.6982
    -3.6394  -3.6374  -3.4378  -3.4295  -3.3676  -3.3640  -3.1454  -3.1399
    -3.0646  -3.0583  -3.0556  -3.0312  -3.0217  -2.9998  -2.9627  -2.9600
    -2.9125  -2.8830  -2.8749  -2.8378  -2.7864  -2.7739  -2.7668  -2.7590
    -2.7492  -2.7401  -2.7301  -2.6638  -2.6583  -2.6420  -2.5936  -2.5537
    -2.5382  -2.5311  -2.5140  -2.5023  -2.4923  -2.4694  -2.4534  -2.4468
    -2.3963  -2.3343  -2.3281  -2.2406  -2.1456  -2.1362  -2.1321  -2.1241
    -2.1114  -2.1042  -2.0944  -2.0769  -2.0016  -1.9971  -1.9920  -1.9565
    -1.9391  -1.9086  -1.8686  -1.8429  -1.8033  -1.8003  -1.7603  -1.7541
    -1.7260  -1.7223  -1.7187  -1.7129  -1.6999  -1.6859  -1.6774  -1.6628
    -1.6533  -1.6419  -1.6337  -1.6166  -1.6129  -1.6065  -1.5972  -1.5860
    -1.5781  -1.5712  -1.5620  -1.5593  -1.5315  -1.5270  -1.5244  -1.5197
    -1.5119  -1.5062  -1.4958  -1.4780  -1.4753  -1.4719  -1.4171  -1.4139
    -1.3848  -1.3758  -1.3404  -1.3390  -1.3317  -1.3242  -1.3210  -1.3162
    -1.3010  -1.2929  -1.2741  -1.2700  -1.2446  -1.2240  -1.1856  -1.1758
    -1.1647  -1.1555  -1.1509  -1.1485  -1.1395  -1.1349  -1.1342  -1.1264
    -1.1172  -1.1069  -1.1018  -1.0908  -1.0496  -1.0182  -1.0179  -1.0033
    -0.9925  -0.9802  -0.9691  -0.9554  -0.9311  -0.9286  -0.9236  -0.9210
    -0.9167  -0.9064  -0.8973  -0.8782  -0.8654  -0.8601  -0.8556  -0.8272
    -0.8220  -0.8174  -0.8060  -0.7975  -0.7849  -0.7707  -0.7638  -0.7554
    -0.7491  -0.7375  -0.7246  -0.7221  -0.7172  -0.6862  -0.6628  -0.6521
    -0.6351  -0.6265  -0.6071  -0.5967  -0.5936  -0.5863  -0.5824  -0.5754
    -0.5648  -0.5557  -0.5119  -0.5050  -0.4303  -0.4139  -0.4025  -0.3932
    -0.3784  -0.3670  -0.3542  -0.2990  -0.2839  -0.2772  -0.1947  -0.1816
    -0.1457  -0.1336  -0.1243  -0.1155  -0.0997  -0.0869  -0.0786  -0.0643
    -0.0448  -0.0378  -0.0208   0.0028   0.0334   0.0681   0.0839   0.0977
     0.1231   0.1653   0.2236   0.2712   0.2832   0.3122   0.3230   0.3395
     0.3607   0.4071   0.4599   0.4815   0.5981   0.7505   0.7879   0.9456
     0.9549   1.0781   1.2596   1.2925   1.3468   1.3678   1.4209   1.4929
     1.6490   1.6995   1.8045   1.8419   1.8847   1.9148   2.0260   2.1178
     2.1444   2.2682   2.3196   2.5333   2.6293   2.6534   2.8567   2.9551
     2.9728   2.9805   3.0303   3.0569   3.0938   3.1729   3.3044   3.3372
     3.3873   3.4040   3.4208   3.4259   3.4372   3.4481   3.4674   3.4974
     3.5795   3.6249   3.6291   3.6481   3.6556   3.6664   3.6850   3.7025
     3.7157   3.7213   3.7259   3.7441   3.7859   3.8441   3.8502   3.8978
     3.9395   3.9615   3.9768   4.0012   4.0245   4.0357   4.0476   4.0612
     4.0690   4.0877   4.0946   4.0991   4.1122   4.1409   4.1498   4.1683
     4.2285   4.2313   4.2446   4.2574   4.2867   4.3072   4.3382   4.3549
     4.3820   4.4064   4.4170   4.4308   4.4379   4.4470   4.4652   4.4896
     4.5002   4.5254   4.5493   4.5667   4.5985   4.6091   4.6192   4.6385
     4.6568   4.6684   4.6811   4.6918   4.7302   4.7373   4.7395   4.7449
     4.7568   4.7818   4.8031   4.8145   4.8405   4.8560   4.8677   4.8724
     4.8855   4.8900   4.9065   4.9290   4.9332   4.9474   4.9685   4.9733
     4.9827   5.0055   5.0227   5.0501   5.0568   5.0678   5.0738   5.0985
     5.1229   5.1287   5.1329   5.1470   5.1703   5.1863   5.2030   5.2262
     5.2330   5.2450   5.2541   5.2735   5.2794   5.2829   5.2896   5.2949
     5.2984   5.3002   5.3091   5.3173   5.3273   5.3385   5.3448   5.3557
     5.3630   5.3687   5.3725   5.3769   5.3934   5.3976   5.4025   5.4056
     5.4100   5.4161   5.4180   5.4222   5.4260   5.4401   5.4443   5.4487
     5.4542   5.4574   5.4709   5.4754   5.4857   5.4893   5.5042

          k =-0.5000 0.0000 0.0000 (144664 PWs)   bands (ev):

   -54.2235 -54.2044 -54.2039 -54.1880 -54.1862 -54.1858 -54.1853 -54.1716
   -54.1696 -54.1687 -54.1681 -54.1674 -54.1671 -54.1550 -54.1536 -54.1523
   -54.1511 -54.1385 -54.1377 -54.1129 -54.1054 -54.0955 -54.0886 -54.0853
   -54.0805 -54.0734 -54.0702 -54.0638 -54.0592 -54.0581 -54.0543 -54.0458
   -54.0450 -54.0404 -54.0374 -54.0318 -54.0308 -54.0286 -54.0205 -54.0164
   -54.0149 -54.0137 -54.0031 -54.0003 -53.9969 -53.9965 -53.9936 -53.9912
   -53.9845 -53.9823 -53.9794 -53.9780 -53.9753 -53.9739 -53.9682 -53.9638
   -53.9628 -53.9541 -53.9433 -53.9383 -53.9348 -53.9335 -53.9322 -53.9309
   -53.9283 -53.9269 -53.9247 -53.9211 -53.9176 -53.9149 -53.9063 -53.9028
   -42.5837 -41.9085 -30.7361 -30.7352 -30.7332 -30.7326 -30.7154 -30.7145
   -30.7136 -30.7129 -30.6760 -30.6758 -30.6734 -30.6713 -30.6706 -30.6697
   -30.6656 -30.6651 -30.6649 -30.6639 -30.6466 -30.6462 -30.6445 -30.6433
   -30.6419 -30.6411 -30.6405 -30.6395 -30.6378 -30.6374 -30.6301 -30.6291
   -30.6177 -30.6148 -30.6142 -30.6113 -30.6109 -30.6101 -30.6066 -30.6030
   -30.6007 -30.5996 -30.5948 -30.5932 -30.5910 -30.5865 -30.5846 -30.5814
   -30.5803 -30.5739 -30.5707 -30.5652 -30.5603 -30.5579 -30.5569 -30.5561
   -30.5502 -30.5491 -30.5476 -30.5453 -30.5444 -30.5432 -30.5393 -30.5369
   -30.5206 -30.5167 -30.4789 -30.4778 -30.4777 -30.4768 -30.4741 -30.4731
   -30.4707 -30.4650 -30.4614 -30.4597 -30.4529 -30.4509 -30.4489 -30.4480
   -30.4449 -30.4423 -30.4419 -30.4399 -30.4373 -30.4356 -30.4294 -30.4275
   -30.4173 -30.4152 -30.4132 -30.4106 -30.4059 -30.4057 -30.4045 -30.4002
   -30.3912 -30.3873 -30.3856 -30.3828 -30.3791 -30.3760 -30.3715 -30.3657
   -30.3620 -30.3608 -30.3591 -30.3567 -30.3515 -30.3510 -30.3483 -30.3392
   -30.3319 -30.3310 -30.3297 -30.3258 -30.3233 -30.3175 -30.3145 -30.3128
   -30.3112 -30.3103 -30.3080 -30.3069 -30.3067 -30.3037 -30.2968 -30.2922
   -30.2910 -30.2841 -30.2837 -30.2827 -30.2815 -30.2808 -30.2799 -30.2770
   -30.2769 -30.2760 -30.2736 -30.2678 -30.2653 -30.2573 -30.2547 -30.2528
   -30.2517 -30.2501 -30.2466 -30.2424 -30.2413 -30.2392 -30.2370 -30.2364
   -30.2336 -30.2330 -30.2305 -30.2263 -30.2229 -30.2205 -30.2183 -30.2132
   -30.2043 -30.2018 -30.2001 -30.1984 -30.1959 -30.1947 -30.1935 -30.1925
   -30.1907 -30.1897 -30.1875 -30.1863 -30.1854 -30.1843 -30.1823 -30.1790
   -30.1737 -30.1717 -30.1684 -30.1675 -30.1670 -30.1663 -30.1637 -30.1633
   -30.1625 -30.1604 -30.1590 -30.1576 -30.1565 -30.1554 -30.1521 -30.1503
   -30.1443 -30.1334 -30.1266 -30.1218 -30.1200 -30.1192 -30.1175 -30.1155
   -30.1145 -30.1115 -30.1089 -30.1053 -30.1037 -30.1015 -30.0995 -30.0981
   -30.0962 -30.0923 -30.0911 -30.0908 -30.0856 -30.0788 -30.0723 -30.0697
   -30.0688 -30.0670 -13.2034 -13.0677 -13.0579 -12.4695 -12.4672 -12.4649
   -12.4508 -12.3417 -12.3372 -12.3254 -12.1711 -12.1591 -11.9859 -11.9659
   -11.8770 -11.8736 -11.8546 -11.8499 -11.8492 -11.8458 -11.8327 -11.8256
   -11.8180 -11.7872 -11.7135 -11.7116 -11.6991 -11.6924 -11.6897 -11.6854
   -11.6694 -11.6486 -11.6304 -11.6280 -11.6242 -11.5782 -11.5380 -11.5069
   -11.3964 -11.3922 -11.3846 -11.3450 -11.2853 -11.2670 -11.2665 -11.2643
   -11.2561 -11.1642 -11.1627 -11.1119 -11.1074 -11.0651 -11.0621 -11.0437
   -11.0194 -10.9564 -10.9558 -10.9548 -10.9521 -10.9472 -10.9279 -10.8841
   -10.8725 -10.7530 -10.7516 -10.7496 -10.7460 -10.7409 -10.7375 -10.7267
   -10.7089 -10.5318 -10.5283 -10.5239 -10.5184  -9.8189  -8.6762  -8.0547
    -7.0566  -6.0424  -3.8655  -3.8617  -3.8303  -3.8249  -3.7746  -3.7718
    -3.7680  -3.7653  -3.2021  -3.1932  -3.1883  -3.1666  -3.1051  -3.0963
    -3.0937  -3.0866  -3.0326  -2.9972  -2.9880  -2.9455  -2.9421  -2.9358
    -2.9327  -2.8940  -2.8905  -2.8884  -2.8841  -2.8547  -2.8497  -2.7537
    -2.7490  -2.7395  -2.7385  -2.7163  -2.7118  -2.7078  -2.6983  -2.5457
    -2.5356  -2.5033  -2.4908  -2.4869  -2.4809  -2.4791  -2.4694  -2.4554
    -2.3472  -2.3407  -2.2950  -2.2840  -2.2737  -2.2604  -2.1990  -2.1868
    -2.1336  -2.1235  -2.0162  -1.9976  -1.9303  -1.8745  -1.8628  -1.8578
    -1.8499  -1.8343  -1.8054  -1.8039  -1.7938  -1.7909  -1.7868  -1.7809
    -1.7766  -1.7685  -1.7635  -1.7478  -1.7427  -1.7413  -1.7251  -1.7154
    -1.6846  -1.6800  -1.6758  -1.6686  -1.6655  -1.6593  -1.6560  -1.6507
    -1.6482  -1.6398  -1.6076  -1.6010  -1.5931  -1.5834  -1.5588  -1.5534
    -1.5503  -1.5376  -1.5055  -1.5049  -1.4987  -1.4780  -1.3790  -1.3763
    -1.3505  -1.3385  -1.3318  -1.3305  -1.3189  -1.3163  -1.2929  -1.2851
    -1.2835  -1.2783  -1.2756  -1.2707  -1.2295  -1.2288  -1.2260  -1.2146
    -1.2100  -1.1894  -1.1838  -1.1620  -1.1177  -1.1170  -1.1165  -1.1158
    -1.0816  -1.0746  -1.0698  -1.0622  -1.0476  -1.0221  -0.9973  -0.9740
    -0.9617  -0.9487  -0.9363  -0.9073  -0.8936  -0.8919  -0.8843  -0.8812
    -0.8799  -0.8770  -0.8723  -0.8694  -0.8496  -0.8452  -0.8187  -0.8126
    -0.7995  -0.7911  -0.7859  -0.7798  -0.7735  -0.7566  -0.7470  -0.7017
    -0.6948  -0.6830  -0.6653  -0.6494  -0.6203  -0.6137  -0.6076  -0.6064
    -0.5851  -0.5840  -0.5829  -0.5657  -0.5581  -0.5416  -0.5284  -0.4974
    -0.4707  -0.4679  -0.3917  -0.3858  -0.3841  -0.3793  -0.3753  -0.3430
    -0.3198  -0.3190  -0.3078  -0.3022  -0.2723  -0.2297  -0.2159  -0.1863
    -0.1660  -0.1548  -0.1337  -0.1298  -0.1189  -0.1137  -0.1083  -0.0927
    -0.0573  -0.0426  -0.0384  -0.0323  -0.0139  -0.0100  -0.0010   0.0014
     0.0292   0.0657   0.1059   0.1375   0.1534   0.1606   0.2562   0.3549
     0.4936   0.5365   0.5776   0.6073   0.6194   0.6332   0.6457   0.6547
     0.7025   0.9518   1.0393   1.0624   1.2610   1.3655   1.5325   1.5698
     1.7924   1.8438   1.9047   1.9511   1.9772   2.2400   2.2527   2.2628
     2.2822   2.3515   2.3808   2.4310   2.4449   2.4474   2.4518   2.4934
     2.5387   3.0125   3.0162   3.2319   3.2462   3.2567   3.2884   3.3067
     3.3561   3.3702   3.3862   3.4067   3.4119   3.4277   3.4555   3.5100
     3.5204   3.5535   3.5563   3.5754   3.5796   3.5994   3.6102   3.6366
     3.7381   3.7470   3.7833   3.8049   3.8089   3.8194   3.8309   3.8461
     3.8499   3.8506   3.8620   3.8684   3.8730   3.8736   3.8790   3.8996
     3.9152   3.9350   4.1086   4.1135   4.1178   4.1264   4.2484   4.2856
     4.3039   4.3136   4.3357   4.3414   4.3602   4.3713   4.3787   4.3820
     4.3918   4.3954   4.3976   4.4187   4.4291   4.4395   4.4556   4.4619
     4.4904   4.4955   4.5151   4.5597   4.6412   4.6577   4.6649   4.6800
     4.6865   4.6956   4.7738   4.8000   4.8193   4.8282   4.8346   4.8361
     4.8399   4.8442   4.8620   4.9146   4.9396   4.9441   4.9504   4.9580
     4.9661   4.9970   5.0154   5.0275   5.0358   5.0532   5.0582   5.0728
     5.0861   5.0876   5.0902   5.0913   5.1034   5.1234   5.1302   5.1359
     5.1396   5.1426   5.1601   5.1662   5.1712   5.1770   5.1831   5.1944
     5.2001   5.2079   5.2175   5.2197   5.2228   5.2309   5.2341   5.2440
     5.2506   5.2516   5.2655   5.2672   5.2787   5.2803   5.2949   5.3001
     5.3007   5.3116   5.3226   5.3435   5.3628   5.3693   5.3731   5.3749
     5.3794   5.3830   5.3903   5.3926   5.4406   5.4453   5.4527   5.4637
     5.4860   5.5092   5.5447   5.5583   5.5684   5.5935   5.6024

          k =-0.2500 0.2500 0.0000 (144726 PWs)   bands (ev):

   -54.2235 -54.2068 -54.1987 -54.1943 -54.1889 -54.1818 -54.1781 -54.1765
   -54.1741 -54.1707 -54.1654 -54.1642 -54.1620 -54.1595 -54.1582 -54.1500
   -54.1466 -54.1425 -54.1359 -54.1135 -54.1020 -54.0994 -54.0891 -54.0834
   -54.0791 -54.0749 -54.0712 -54.0635 -54.0590 -54.0560 -54.0543 -54.0492
   -54.0445 -54.0382 -54.0373 -54.0339 -54.0283 -54.0266 -54.0258 -54.0183
   -54.0114 -54.0101 -54.0046 -54.0039 -53.9993 -53.9920 -53.9915 -53.9892
   -53.9875 -53.9864 -53.9784 -53.9761 -53.9747 -53.9718 -53.9712 -53.9632
   -53.9629 -53.9541 -53.9432 -53.9381 -53.9350 -53.9337 -53.9321 -53.9307
   -53.9282 -53.9275 -53.9240 -53.9213 -53.9186 -53.9131 -53.9077 -53.9023
   -42.5837 -41.9085 -30.7446 -30.7438 -30.7422 -30.7244 -30.7069 -30.7037
   -30.7020 -30.7010 -30.6858 -30.6829 -30.6791 -30.6767 -30.6759 -30.6683
   -30.6637 -30.6630 -30.6598 -30.6593 -30.6539 -30.6511 -30.6494 -30.6475
   -30.6461 -30.6451 -30.6341 -30.6329 -30.6317 -30.6313 -30.6290 -30.6277
   -30.6251 -30.6138 -30.6126 -30.6082 -30.6065 -30.6040 -30.6033 -30.6021
   -30.6005 -30.5994 -30.5976 -30.5961 -30.5939 -30.5931 -30.5874 -30.5848
   -30.5740 -30.5721 -30.5708 -30.5662 -30.5651 -30.5632 -30.5621 -30.5556
   -30.5539 -30.5417 -30.5413 -30.5403 -30.5388 -30.5377 -30.5368 -30.5330
   -30.5135 -30.5127 -30.5076 -30.5061 -30.4800 -30.4792 -30.4727 -30.4688
   -30.4667 -30.4655 -30.4587 -30.4540 -30.4536 -30.4525 -30.4506 -30.4497
   -30.4455 -30.4441 -30.4411 -30.4407 -30.4383 -30.4324 -30.4243 -30.4236
   -30.4211 -30.4162 -30.4146 -30.4110 -30.4004 -30.3958 -30.3945 -30.3933
   -30.3915 -30.3862 -30.3840 -30.3821 -30.3808 -30.3782 -30.3747 -30.3732
   -30.3726 -30.3649 -30.3638 -30.3629 -30.3582 -30.3553 -30.3469 -30.3422
   -30.3288 -30.3237 -30.3207 -30.3190 -30.3175 -30.3160 -30.3153 -30.3137
   -30.3114 -30.3092 -30.3080 -30.3056 -30.3034 -30.3019 -30.3015 -30.2960
   -30.2947 -30.2860 -30.2851 -30.2829 -30.2816 -30.2773 -30.2730 -30.2713
   -30.2700 -30.2694 -30.2684 -30.2661 -30.2658 -30.2647 -30.2549 -30.2534
   -30.2485 -30.2479 -30.2461 -30.2455 -30.2424 -30.2416 -30.2391 -30.2378
   -30.2319 -30.2282 -30.2271 -30.2260 -30.2249 -30.2203 -30.2179 -30.2162
   -30.2157 -30.2144 -30.2096 -30.2082 -30.2036 -30.1944 -30.1937 -30.1908
   -30.1895 -30.1871 -30.1811 -30.1806 -30.1788 -30.1757 -30.1755 -30.1744
   -30.1727 -30.1716 -30.1699 -30.1691 -30.1672 -30.1645 -30.1637 -30.1632
   -30.1611 -30.1589 -30.1580 -30.1538 -30.1517 -30.1507 -30.1475 -30.1453
   -30.1446 -30.1421 -30.1418 -30.1392 -30.1344 -30.1295 -30.1174 -30.1151
   -30.1130 -30.1096 -30.1083 -30.1065 -30.1024 -30.1008 -30.0993 -30.0972
   -30.0958 -30.0937 -30.0838 -30.0832 -30.0792 -30.0787 -30.0761 -30.0713
   -30.0678 -30.0637 -13.2036 -13.1477 -12.8280 -12.8141 -12.5080 -12.4094
   -12.3454 -12.3379 -12.3284 -12.1377 -12.1270 -12.0627 -12.0434 -12.0056
   -11.9912 -11.9640 -11.9228 -11.9138 -11.8943 -11.8711 -11.7817 -11.7784
   -11.7721 -11.7684 -11.7663 -11.7434 -11.7402 -11.7084 -11.6542 -11.6509
   -11.6373 -11.6171 -11.5964 -11.5657 -11.5448 -11.5302 -11.5267 -11.4923
   -11.4837 -11.4346 -11.3867 -11.3476 -11.3439 -11.3261 -11.2911 -11.2493
   -11.2001 -11.1974 -11.1953 -11.0764 -11.0756 -11.0703 -11.0216 -11.0190
   -10.9867 -10.9834 -10.9804 -10.9698 -10.9640 -10.9305 -10.8593 -10.8443
   -10.8367 -10.8349 -10.7956 -10.7883 -10.7598 -10.7377 -10.7185 -10.7056
   -10.6558 -10.6160 -10.6061 -10.4948 -10.4403  -9.8190  -8.6762  -8.0547
    -7.0566  -6.0424  -4.0153  -3.9447  -3.9310  -3.8682  -3.5923  -3.5511
    -3.4954  -3.4951  -3.4046  -3.3850  -3.3346  -3.3236  -3.1891  -3.1369
    -3.1291  -3.1272  -3.1054  -3.0348  -3.0140  -2.9978  -2.9883  -2.9269
    -2.9073  -2.9064  -2.8885  -2.8017  -2.8004  -2.7800  -2.7533  -2.7482
    -2.7451  -2.7315  -2.7090  -2.6357  -2.6266  -2.6252  -2.6148  -2.5748
    -2.5520  -2.5230  -2.4926  -2.4904  -2.4496  -2.4450  -2.4421  -2.4368
    -2.3618  -2.3027  -2.2897  -2.2577  -2.2472  -2.2035  -2.1893  -2.1483
    -2.1475  -2.1157  -2.1111  -2.0926  -2.0771  -2.0686  -2.0543  -1.9718
    -1.9196  -1.8749  -1.8728  -1.8579  -1.8348  -1.8113  -1.8089  -1.7858
    -1.7743  -1.7714  -1.7712  -1.7382  -1.7193  -1.7113  -1.6866  -1.6836
    -1.6785  -1.6506  -1.6477  -1.6407  -1.6177  -1.6151  -1.6085  -1.6004
    -1.5908  -1.5873  -1.5861  -1.5358  -1.5257  -1.5189  -1.5141  -1.5004
    -1.4940  -1.4753  -1.4533  -1.4406  -1.4382  -1.4254  -1.4231  -1.4168
    -1.3829  -1.3696  -1.3489  -1.3447  -1.3420  -1.3239  -1.3198  -1.3145
    -1.2933  -1.2840  -1.2815  -1.2685  -1.2559  -1.2344  -1.2104  -1.1933
    -1.1874  -1.1852  -1.1738  -1.1704  -1.1648  -1.1491  -1.1306  -1.1051
    -1.0716  -1.0585  -1.0542  -1.0436  -1.0187  -1.0106  -0.9846  -0.9781
    -0.9752  -0.9594  -0.9567  -0.9561  -0.9452  -0.9333  -0.8865  -0.8836
    -0.8511  -0.8369  -0.8348  -0.8259  -0.8148  -0.8099  -0.7907  -0.7851
    -0.7788  -0.7642  -0.7557  -0.7475  -0.7452  -0.7363  -0.7223  -0.7081
    -0.7047  -0.6900  -0.6810  -0.6736  -0.6702  -0.6634  -0.6585  -0.6435
    -0.6211  -0.6144  -0.6033  -0.5915  -0.5555  -0.5511  -0.5352  -0.5132
    -0.5058  -0.4699  -0.4519  -0.4437  -0.4360  -0.4116  -0.3957  -0.3785
    -0.3569  -0.3380  -0.3024  -0.2758  -0.2453  -0.2412  -0.2155  -0.1941
    -0.1901  -0.1730  -0.1632  -0.1415  -0.1265  -0.1224  -0.1154  -0.0936
    -0.0711  -0.0611  -0.0374  -0.0018   0.0146   0.0266   0.0377   0.0665
     0.0928   0.1322   0.1461   0.1723   0.2289   0.2376   0.2948   0.3021
     0.3317   0.3926   0.4334   0.5717   0.5923   0.6113   0.6669   0.7092
     0.9514   1.0109   1.0258   1.2539   1.3039   1.3777   1.5349   1.6702
     1.7139   1.7722   1.8096   1.8720   1.9294   2.0048   2.0405   2.2269
     2.2606   2.2845   2.3282   2.6825   2.6963   2.7152   2.7300   2.7503
     2.8288   2.8578   2.9031   2.9086   3.0997   3.1104   3.1264   3.1352
     3.2099   3.2407   3.2489   3.3079   3.3123   3.4048   3.4108   3.4646
     3.4851   3.5318   3.5362   3.6096   3.6141   3.6428   3.6774   3.6874
     3.7274   3.7568   3.7653   3.7816   3.8787   3.8857   3.8979   3.9219
     3.9271   3.9653   3.9696   3.9990   4.0037   4.0357   4.0462   4.0552
     4.0754   4.0878   4.0942   4.1064   4.1113   4.1213   4.1473   4.1583
     4.1816   4.2018   4.2553   4.2685   4.2994   4.3080   4.3691   4.3914
     4.3984   4.4008   4.4120   4.4342   4.4907   4.5011   4.5221   4.5304
     4.5421   4.5632   4.5677   4.5850   4.6055   4.6584   4.6863   4.6901
     4.7025   4.7100   4.7215   4.7411   4.7502   4.7643   4.7768   4.7844
     4.8074   4.8207   4.8414   4.8623   4.8981   4.9275   4.9495   4.9561
     4.9598   4.9794   4.9955   5.0031   5.0151   5.0213   5.0362   5.0435
     5.0468   5.0596   5.0688   5.0712   5.0786   5.0874   5.1011   5.1062
     5.1203   5.1254   5.1509   5.1536   5.1555   5.1583   5.1689   5.2058
     5.2189   5.2409   5.2524   5.2563   5.2660   5.2768   5.2801   5.2882
     5.2973   5.3124   5.3176   5.3274   5.3328   5.3519   5.3577   5.3594
     5.3626   5.3701   5.3736   5.3765   5.3798   5.3848   5.3938   5.3981
     5.4013   5.4061   5.4081   5.4168   5.4288   5.4307   5.4342   5.4369
     5.4405   5.4427   5.4504   5.4551   5.4687   5.4811   5.4841

          k =-0.5000 0.2500 0.0000 (144610 PWs)   bands (ev):

   -54.2235 -54.2033 -54.2028 -54.1938 -54.1926 -54.1791 -54.1782 -54.1715
   -54.1697 -54.1687 -54.1684 -54.1673 -54.1669 -54.1604 -54.1596 -54.1474
   -54.1466 -54.1394 -54.1385 -54.1123 -54.1046 -54.0976 -54.0917 -54.0838
   -54.0774 -54.0724 -54.0699 -54.0635 -54.0593 -54.0588 -54.0552 -54.0487
   -54.0450 -54.0378 -54.0361 -54.0311 -54.0305 -54.0291 -54.0246 -54.0217
   -54.0101 -54.0072 -54.0027 -54.0001 -53.9969 -53.9964 -53.9942 -53.9916
   -53.9886 -53.9875 -53.9777 -53.9755 -53.9743 -53.9720 -53.9681 -53.9647
   -53.9629 -53.9541 -53.9433 -53.9382 -53.9352 -53.9338 -53.9322 -53.9301
   -53.9283 -53.9264 -53.9247 -53.9210 -53.9207 -53.9116 -53.9065 -53.9037
   -42.5837 -41.9085 -30.7510 -30.7506 -30.7419 -30.7408 -30.7082 -30.7073
   -30.6786 -30.6777 -30.6754 -30.6750 -30.6741 -30.6731 -30.6723 -30.6711
   -30.6679 -30.6667 -30.6596 -30.6586 -30.6545 -30.6537 -30.6529 -30.6510
   -30.6421 -30.6397 -30.6326 -30.6320 -30.6311 -30.6294 -30.6221 -30.6200
   -30.6188 -30.6185 -30.6172 -30.6154 -30.6126 -30.6089 -30.6074 -30.6057
   -30.6043 -30.6020 -30.5983 -30.5971 -30.5950 -30.5926 -30.5900 -30.5854
   -30.5844 -30.5834 -30.5807 -30.5692 -30.5638 -30.5606 -30.5555 -30.5521
   -30.5505 -30.5488 -30.5476 -30.5456 -30.5411 -30.5340 -30.5302 -30.5283
   -30.5188 -30.5159 -30.4988 -30.4967 -30.4963 -30.4912 -30.4854 -30.4842
   -30.4673 -30.4573 -30.4557 -30.4515 -30.4482 -30.4441 -30.4434 -30.4389
   -30.4365 -30.4356 -30.4348 -30.4331 -30.4311 -30.4307 -30.4284 -30.4186
   -30.4166 -30.4135 -30.4124 -30.4096 -30.4079 -30.4068 -30.4055 -30.3962
   -30.3948 -30.3934 -30.3923 -30.3913 -30.3852 -30.3761 -30.3742 -30.3666
   -30.3623 -30.3586 -30.3567 -30.3542 -30.3519 -30.3507 -30.3485 -30.3461
   -30.3434 -30.3407 -30.3284 -30.3259 -30.3216 -30.3162 -30.3092 -30.3032
   -30.3017 -30.3004 -30.2993 -30.2981 -30.2970 -30.2932 -30.2927 -30.2911
   -30.2897 -30.2889 -30.2873 -30.2854 -30.2832 -30.2822 -30.2791 -30.2766
   -30.2744 -30.2704 -30.2693 -30.2689 -30.2646 -30.2634 -30.2614 -30.2571
   -30.2541 -30.2522 -30.2501 -30.2484 -30.2431 -30.2418 -30.2384 -30.2357
   -30.2351 -30.2323 -30.2312 -30.2289 -30.2258 -30.2242 -30.2225 -30.2161
   -30.2140 -30.2102 -30.2075 -30.2014 -30.1995 -30.1973 -30.1954 -30.1932
   -30.1893 -30.1873 -30.1843 -30.1824 -30.1810 -30.1758 -30.1748 -30.1743
   -30.1733 -30.1722 -30.1700 -30.1659 -30.1648 -30.1641 -30.1624 -30.1616
   -30.1612 -30.1601 -30.1587 -30.1580 -30.1477 -30.1464 -30.1460 -30.1449
   -30.1403 -30.1385 -30.1345 -30.1318 -30.1296 -30.1283 -30.1244 -30.1219
   -30.1160 -30.1112 -30.1094 -30.1089 -30.1066 -30.1043 -30.0971 -30.0917
   -30.0894 -30.0875 -30.0868 -30.0841 -30.0806 -30.0801 -30.0764 -30.0706
   -30.0698 -30.0666 -13.2033 -13.0234 -13.0138 -12.7017 -12.6915 -12.3367
   -12.3017 -12.2939 -12.2293 -12.2182 -12.1334 -12.1220 -12.0324 -12.0233
   -11.9615 -11.9455 -11.8886 -11.8754 -11.8663 -11.8607 -11.8560 -11.8513
   -11.8399 -11.7952 -11.7218 -11.7193 -11.6902 -11.6799 -11.6781 -11.6736
   -11.6648 -11.6467 -11.5733 -11.5626 -11.5201 -11.5054 -11.5007 -11.4898
   -11.4813 -11.4388 -11.4328 -11.4221 -11.3425 -11.3236 -11.2892 -11.2379
   -11.1882 -11.1428 -11.1409 -11.1114 -11.1094 -11.0818 -11.0775 -11.0132
   -11.0116 -10.9441 -10.9428 -10.9269 -10.9089 -10.8973 -10.8806 -10.8768
   -10.8743 -10.8540 -10.8418 -10.7969 -10.7733 -10.7253 -10.7039 -10.6533
   -10.6507 -10.6485 -10.6425 -10.4342 -10.4321  -9.8190  -8.6762  -8.0548
    -7.0566  -6.0424  -4.0576  -4.0554  -3.9735  -3.9711  -3.5611  -3.5530
    -3.4861  -3.4828  -3.3111  -3.3025  -3.2158  -3.2133  -3.1493  -3.1485
    -3.1112  -3.1060  -3.0773  -3.0646  -3.0228  -3.0032  -2.9973  -2.9532
    -2.9477  -2.9384  -2.9355  -2.9332  -2.9215  -2.8674  -2.8585  -2.7206
    -2.7152  -2.6768  -2.6742  -2.5745  -2.5684  -2.5618  -2.5545  -2.5261
    -2.5218  -2.5109  -2.4904  -2.4765  -2.4012  -2.3963  -2.3779  -2.3713
    -2.3527  -2.3499  -2.3152  -2.3117  -2.3083  -2.2906  -2.2252  -2.2117
    -2.2020  -2.1991  -2.0890  -2.0873  -2.0667  -2.0496  -2.0444  -2.0344
    -1.9794  -1.9677  -1.9220  -1.9080  -1.9058  -1.8760  -1.8697  -1.8341
    -1.7875  -1.7844  -1.7396  -1.7301  -1.6891  -1.6803  -1.6585  -1.6550
    -1.6357  -1.6285  -1.6209  -1.6163  -1.5906  -1.5868  -1.5808  -1.5693
    -1.5635  -1.5567  -1.5487  -1.5398  -1.5313  -1.5212  -1.5006  -1.4982
    -1.4935  -1.4839  -1.4688  -1.4649  -1.4632  -1.4608  -1.4589  -1.4487
    -1.4193  -1.4166  -1.4057  -1.3966  -1.3877  -1.3772  -1.3737  -1.3689
    -1.3626  -1.3534  -1.3397  -1.3332  -1.2885  -1.2782  -1.2460  -1.2457
    -1.1686  -1.1608  -1.1574  -1.1539  -1.1285  -1.0760  -1.0483  -1.0434
    -1.0198  -1.0180  -1.0130  -1.0103  -0.9837  -0.9565  -0.9277  -0.9166
    -0.9144  -0.8818  -0.8661  -0.8507  -0.8418  -0.8356  -0.8317  -0.8254
    -0.8197  -0.8167  -0.8083  -0.8014  -0.7981  -0.7875  -0.7807  -0.7746
    -0.7651  -0.7583  -0.7487  -0.7382  -0.7304  -0.7256  -0.7157  -0.6903
    -0.6750  -0.6653  -0.6509  -0.6482  -0.6386  -0.6295  -0.6166  -0.6077
    -0.5496  -0.5383  -0.5342  -0.5312  -0.5182  -0.5126  -0.4984  -0.4896
    -0.4825  -0.4562  -0.4451  -0.4285  -0.4087  -0.3795  -0.3514  -0.3408
    -0.3304  -0.3022  -0.2883  -0.2832  -0.2564  -0.2455  -0.2384  -0.2120
    -0.2008  -0.1875  -0.1752  -0.1589  -0.1465  -0.1351  -0.1215  -0.1124
    -0.1064  -0.0766  -0.0673  -0.0208   0.0042   0.0161   0.0192   0.0344
     0.0547   0.0736   0.1155   0.1257   0.2164   0.2366   0.2512   0.2651
     0.3142   0.4443   0.4594   0.4714   0.4803   0.5015   0.6088   0.6437
     0.6569   0.9088   0.9299   0.9515   1.2525   1.3736   1.6891   1.7308
     1.8115   1.8956   1.9271   2.0405   2.0632   2.2282   2.2512   2.2621
     2.2835   2.3532   2.3803   2.4800   2.5042   2.5195   2.5240   2.6239
     2.6419   2.8298   2.8745   2.9050   2.9157   3.0391   3.0487   3.0968
     3.0976   3.2817   3.2907   3.2945   3.3004   3.3104   3.4294   3.4548
     3.4643   3.4733   3.4804   3.5334   3.5559   3.5975   3.6204   3.6343
     3.7157   3.7260   3.7491   3.7523   3.7753   3.7829   3.7994   3.8406
     3.8662   3.8712   3.9003   3.9234   3.9625   3.9814   3.9865   4.0009
     4.0360   4.0694   4.0812   4.0997   4.1711   4.1891   4.1993   4.2071
     4.2119   4.2221   4.2956   4.3057   4.3205   4.3364   4.3949   4.4071
     4.4465   4.4523   4.5098   4.5228   4.5612   4.5643   4.5727   4.5841
     4.6161   4.6279   4.6574   4.6619   4.6744   4.6912   4.7022   4.7357
     4.7503   4.7799   4.7911   4.8009   4.8299   4.8431   4.8608   4.8998
     4.9053   4.9102   4.9216   4.9234   4.9280   4.9408   4.9538   4.9727
     4.9784   4.9871   4.9915   4.9963   5.0084   5.0342   5.0583   5.0657
     5.0776   5.0870   5.0996   5.1057   5.1103   5.1128   5.1215   5.1251
     5.1293   5.1360   5.1415   5.1496   5.1560   5.1643   5.1697   5.1842
     5.1894   5.1985   5.2037   5.2075   5.2197   5.2362   5.2377   5.2452
     5.2493   5.2611   5.2775   5.2845   5.2982   5.3061   5.3244   5.3367
     5.3525   5.3603   5.3638   5.3710   5.3729   5.3829   5.3915   5.3997
     5.4030   5.4051   5.4062   5.4087   5.4186   5.4203   5.4354   5.4484
     5.4540   5.4761   5.4820   5.4875   5.5007   5.5066   5.5468

     the Fermi energy is     3.6729 ev

!    total energy              =  -10278.16553124 Ry
     estimated scf accuracy    <       0.00000077 Ry
     smearing contrib. (-TS)   =      -0.04259353 Ry
     internal energy E=F+TS    =  -10278.12293770 Ry

     The total energy is F=E-TS. E is the sum of the following terms:
     one-electron contribution = -127572.88396493 Ry
     hartree contribution      =   63911.23562222 Ry
     xc contribution           =   -1768.21239800 Ry
     ewald contribution        =   55155.40503877 Ry
     DFT-D3 Dispersion         =      -3.66723575 Ry

     convergence has been achieved in  15 iterations

     negative rho (up, down):  6.622E-02 0.000E+00

     Forces acting on atoms (cartesian axes, Ry/au):

     atom    1 type  1   force =     0.00031230   -0.00013292    0.07519416
     atom    2 type  1   force =     0.00025072    0.00111017    0.01110520
     atom    3 type  1   force =     0.00093292    0.00089198    0.01069079
     atom    4 type  1   force =     0.00044964    0.00040289    0.07494401
     atom    5 type  1   force =    -0.00156336   -0.00149109    0.00006107
     atom    6 type  1   force =     0.00099150   -0.00008171    0.00133280
     atom    7 type  1   force =    -0.00142950   -0.00281085   -0.00166440
     atom    8 type  1   force =    -0.00146245   -0.00102768    0.00046686
     atom    9 type  1   force =     0.00006091   -0.00009262    0.07636890
     atom   10 type  1   force =    -0.00020152    0.00060927    0.01268553
     atom   11 type  1   force =    -0.00078041    0.00024046    0.01090714
     atom   12 type  1   force =     0.00291498    0.00016880    0.07800755
     atom   13 type  1   force =    -0.00019723    0.00068099    0.00157767
     atom   14 type  1   force =     0.00006774   -0.00122107    0.00398721
     atom   15 type  1   force =    -0.00229909   -0.00146010    0.00020081
     atom   16 type  1   force =    -0.00072677   -0.00140196   -0.00174065
     atom   17 type  1   force =     0.00042223    0.00035460    0.07499255
     atom   18 type  1   force =     0.00037476   -0.00008011    0.01371644
     atom   19 type  1   force =     0.00073685   -0.00042899    0.01080328
     atom   20 type  1   force =    -0.00015552   -0.00032921    0.07508768
     atom   21 type  1   force =    -0.00157763    0.00107001   -0.00108091
     atom   22 type  1   force =     0.00295902   -0.00000937   -0.00036607
     atom   23 type  1   force =     0.00011257    0.00411241    0.00056022
     atom   24 type  1   force =    -0.00155635    0.00099729   -0.00049556
     atom   25 type  1   force =     0.00023919   -0.00026524    0.07640531
     atom   26 type  1   force =    -0.00000167   -0.00014251    0.01053854
     atom   27 type  1   force =     0.00111170    0.00081610    0.01306687
     atom   28 type  1   force =     0.00034508    0.00178405    0.07490600
     atom   29 type  1   force =     0.00030226    0.00190276   -0.00073579
     atom   30 type  1   force =     0.00025481    0.00257724    0.00053105
     atom   31 type  1   force =    -0.00078190   -0.00175361    0.00034265
     atom   32 type  1   force =    -0.00087918   -0.00004649   -0.00331929
     atom   33 type  1   force =     0.00152236    0.00275112    0.07635044
     atom   34 type  1   force =    -0.00095022    0.00125165    0.00751234
     atom   35 type  1   force =     0.00040469   -0.00024466   -0.01063920
     atom   36 type  1   force =    -0.00291391   -0.00168493    0.07739166
     atom   37 type  1   force =    -0.00082438    0.00046874    0.00054049
     atom   38 type  1   force =     0.00022173    0.00081346    0.00149689
     atom   39 type  1   force =     0.00023018   -0.00018415    0.00148619
     atom   40 type  1   force =    -0.00068935   -0.00067607   -0.00077977
     atom   41 type  1   force =    -0.00026200   -0.00254864    0.07792532
     atom   42 type  1   force =    -0.00026863    0.00078383    0.01243398
     atom   43 type  1   force =    -0.00019039    0.00139793    0.01000814
     atom   44 type  1   force =    -0.00019986   -0.00022023    0.07616536
     atom   45 type  1   force =     0.00158179   -0.00074716   -0.00102264
     atom   46 type  1   force =    -0.00058667    0.00125968    0.00063937
     atom   47 type  1   force =     0.00000029   -0.00222086   -0.00157920
     atom   48 type  1   force =    -0.00136893   -0.00120751    0.00025155
     atom   49 type  1   force =    -0.00027390    0.00059634    0.07524699
     atom   50 type  1   force =     0.00010492    0.00045264    0.01113389
     atom   51 type  1   force =    -0.00161179    0.00189999    0.01075977
     atom   52 type  1   force =    -0.00066101    0.00053534    0.07548813
     atom   53 type  1   force =     0.00148474    0.00031201    0.00148120
     atom   54 type  1   force =     0.00007548   -0.00057099   -0.00034757
     atom   55 type  1   force =     0.00061348    0.00185945    0.00155129
     atom   56 type  1   force =     0.00026931   -0.00064219   -0.00000108
     atom   57 type  1   force =    -0.00144130   -0.00059985    0.07448157
     atom   58 type  1   force =     0.00095941   -0.00004808    0.01080389
     atom   59 type  1   force =    -0.00039768   -0.00050898    0.01253308
     atom   60 type  1   force =    -0.00001304   -0.00037304    0.07706277
     atom   61 type  1   force =     0.00274955    0.00007761   -0.00140461
     atom   62 type  1   force =    -0.00157756   -0.00045060   -0.00051662
     atom   63 type  1   force =    -0.00136347    0.00107621    0.00224642
     atom   64 type  1   force =    -0.00138980   -0.00013357    0.00174970
     atom   65 type  1   force =    -0.00037118   -0.00012390    0.07486262
     atom   66 type  1   force =    -0.00081053    0.00015956    0.01105389
     atom   67 type  1   force =    -0.00042344   -0.00063693    0.00992293
     atom   68 type  1   force =     0.00015971   -0.00029317    0.07524842
     atom   69 type  1   force =     0.00172932    0.00026465    0.00054898
     atom   70 type  1   force =     0.00018425    0.00076919   -0.00031208
     atom   71 type  1   force =    -0.00246724   -0.00215027   -0.00021716
     atom   72 type  1   force =     0.00239396    0.00061157    0.00023233
     atom   73 type  2   force =     0.00005032    0.00007879   -0.05000329
     atom   74 type  2   force =    -0.00005788    0.00005155   -0.04951510
     atom   75 type  2   force =    -0.00023791    0.00018928   -0.03337215
     atom   76 type  2   force =     0.00054000    0.00061566   -0.03335794
     atom   77 type  2   force =    -0.00263855   -0.00016654   -0.00246244
     atom   78 type  2   force =    -0.00059425    0.00011943    0.00152033
     atom   79 type  2   force =     0.00296050    0.00053503   -0.00011935
     atom   80 type  2   force =    -0.00026297   -0.00015098   -0.00463662
     atom   81 type  2   force =    -0.00114840   -0.00005021   -0.05132666
     atom   82 type  2   force =     0.00001393   -0.00029033   -0.04935638
     atom   83 type  2   force =     0.00049374   -0.00017932   -0.03433127
     atom   84 type  2   force =     0.00167439    0.00003611   -0.03515155
     atom   85 type  2   force =     0.00132065    0.00125812   -0.00028536
     atom   86 type  2   force =    -0.00186214    0.00280385    0.00331161
     atom   87 type  2   force =     0.00087136    0.00338593   -0.00375622
     atom   88 type  2   force =     0.00184485    0.00018047   -0.00232701
     atom   89 type  2   force =     0.00017100   -0.00027396   -0.05005402
     atom   90 type  2   force =    -0.00041747    0.00036387   -0.04946003
     atom   91 type  2   force =     0.00022381    0.00051814   -0.03438696
     atom   92 type  2   force =    -0.00033287   -0.00016629   -0.03415109
     atom   93 type  2   force =    -0.00026138   -0.00143962   -0.00149669
     atom   94 type  2   force =     0.00115018   -0.00213264   -0.00177957
     atom   95 type  2   force =     0.00182391   -0.00284540    0.00073883
     atom   96 type  2   force =    -0.00112572    0.00069611    0.00054927
     atom   97 type  2   force =    -0.00034878   -0.00099631   -0.05041919
     atom   98 type  2   force =     0.00006931    0.00005203   -0.04979892
     atom   99 type  2   force =     0.00013123    0.00095660   -0.03428748
     atom  100 type  2   force =     0.00061631    0.00072721   -0.03239464
     atom  101 type  2   force =     0.00051640    0.00021793    0.00036714
     atom  102 type  2   force =    -0.00192235   -0.00112605    0.00063395
     atom  103 type  2   force =     0.00017874    0.00003748   -0.00146662
     atom  104 type  2   force =     0.00063796   -0.00157911    0.00015846
     atom  105 type  2   force =     0.00007462   -0.00020174   -0.05484036
     atom  106 type  2   force =    -0.00004827   -0.00023506   -0.05104857
     atom  107 type  2   force =    -0.00002893    0.00195995   -0.02934988
     atom  108 type  2   force =    -0.00180594    0.00011145   -0.03126490
     atom  109 type  2   force =    -0.00055994   -0.00047585   -0.00140293
     atom  110 type  2   force =    -0.00003309   -0.00005304   -0.00011510
     atom  111 type  2   force =     0.00219899   -0.00014088   -0.00400082
     atom  112 type  2   force =     0.00105391   -0.00021737   -0.00071746
     atom  113 type  2   force =     0.00017916    0.00104710   -0.05099563
     atom  114 type  2   force =     0.00026906    0.00024081   -0.04954100
     atom  115 type  2   force =     0.00012842   -0.00108379   -0.03537606
     atom  116 type  2   force =     0.00007841   -0.00010411   -0.03469502
     atom  117 type  2   force =    -0.00078138   -0.00213058   -0.00158323
     atom  118 type  2   force =    -0.00235681    0.00159852    0.00233201
     atom  119 type  2   force =     0.00058454   -0.00032823   -0.00266842
     atom  120 type  2   force =    -0.00006328   -0.00002333   -0.00102217
     atom  121 type  2   force =     0.00013094   -0.00007816   -0.04963666
     atom  122 type  2   force =    -0.00000313    0.00003274   -0.04986986
     atom  123 type  2   force =     0.00025847    0.00059555   -0.03431645
     atom  124 type  2   force =    -0.00024760    0.00011417   -0.03354340
     atom  125 type  2   force =    -0.00011989    0.00241913   -0.00053105
     atom  126 type  2   force =     0.00172045    0.00016032   -0.00184879
     atom  127 type  2   force =    -0.00084339   -0.00004751    0.00020807
     atom  128 type  2   force =    -0.00021471    0.00149214    0.00066106
     atom  129 type  2   force =     0.00110378    0.00027968   -0.05082975
     atom  130 type  2   force =    -0.00013985   -0.00020089   -0.04961272
     atom  131 type  2   force =    -0.00031043   -0.00055113   -0.03272865
     atom  132 type  2   force =    -0.00064392    0.00005952   -0.03492738
     atom  133 type  2   force =    -0.00063123   -0.00041007    0.00260478
     atom  134 type  2   force =     0.00183402   -0.00209926   -0.00162671
     atom  135 type  2   force =    -0.00155802    0.00156566   -0.00106994
     atom  136 type  2   force =    -0.00065278    0.00010950   -0.00443931
     atom  137 type  2   force =    -0.00011606   -0.00016384   -0.05008925
     atom  138 type  2   force =    -0.00001975    0.00004137   -0.04939362
     atom  139 type  2   force =    -0.00034267    0.00000689   -0.03396520
     atom  140 type  2   force =     0.00022291    0.00028485   -0.03398708
     atom  141 type  2   force =     0.00083983   -0.00165264   -0.00007389
     atom  142 type  2   force =     0.00075124    0.00107080   -0.00130258
     atom  143 type  2   force =    -0.00152252   -0.00138081   -0.00346777
     atom  144 type  2   force =    -0.00074939    0.00042234    0.00117389
     atom  145 type  3   force =     0.00135155    0.00328767   -0.00509065
     atom  146 type  3   force =    -0.00113827   -0.00665169    0.00063401
     atom  147 type  3   force =     0.00108144   -0.00145370   -0.00398115
     atom  148 type  3   force =    -0.00714305   -0.00349019    0.00290336
     atom  149 type  3   force =     0.00704333    0.00133666   -0.00279740
     atom  150 type  3   force =    -0.00640070   -0.00145148   -0.00105347
     atom  151 type  3   force =     0.00460820    0.00294509    0.00271816
     atom  152 type  3   force =     0.00458812   -0.00054533   -0.00571665
     atom  153 type  4   force =    -0.00354215   -0.00595237   -0.00066694
     atom  154 type  4   force =     0.00498240    0.00249567    0.00350220

     Total force =     0.030811     Total SCF correction =     0.002538
     Energy error            =      1.0E-03 Ry
     Gradient error          =      7.1E-03 Ry/Bohr

     number of scf cycles    =  61
     number of bfgs steps    =  60

     energy             old  =  -10278.1645092552 Ry
     energy             new  =  -10278.1655312363 Ry

     CASE: energy            _new < energy            _old

     new trust radius        =       0.1131883971 bohr
     new conv_thr            =       0.0000010000 Ry


ATOMIC_POSITIONS (angstrom)
Ti               0.0000000000        0.0000000000       10.0000000000    0   0   0
Ti               2.1069582300        0.0000000000       12.1069582300    0   0   0
Ti               0.0000000000        2.1069582300       12.1069582300    0   0   0
Ti               2.1069582300        2.1069582300       10.0000000000    0   0   0
Ti               0.0063297895        0.0088626366       14.2116945614
Ti               2.1012968307        0.0065018586       16.2246559446
Ti               0.0087589963        2.1222486203       16.2352071323
Ti               2.1123245851        2.1091359338       14.2137782580
Ti               0.0000000000        4.2139164700       10.0000000000    0   0   0
Ti               2.1069582300        4.2139164700       12.1069582300    0   0   0
Ti               0.0000000000        6.3208747000       12.1069582300    0   0   0
Ti               2.1069582300        6.3208747000       10.0000000000    0   0   0
Ti              -0.0037325863        4.2129788767       14.2039935742
Ti               2.1037115878        4.2240916317       16.2201918927
Ti              -0.0113281138        6.3236102508       16.2207818431
Ti               2.1383832987        6.3269457324       14.1999531223
Ti               0.0000000000        8.4278329400       10.0000000000    0   0   0
Ti               2.1069582300        8.4278329400       12.1069582300    0   0   0
Ti               0.0000000000       10.5347911700       12.1069582300    0   0   0
Ti               2.1069582300       10.5347911700       10.0000000000    0   0   0
Ti               0.0013231636        8.4244443688       14.2128891830
Ti               2.1073335728        8.4272338684       16.2412299411
Ti               0.0026063386       10.5225830763       16.2235128351
Ti               2.1121938826       10.5382025173       14.2130015976
Ti               4.2139164700        0.0000000000       10.0000000000    0   0   0
Ti               6.3208747000        0.0000000000       12.1069582300    0   0   0
Ti               4.2139164700        2.1069582300       12.1069582300    0   0   0
Ti               6.3208747000        2.1069582300       10.0000000000    0   0   0
Ti               4.2146430998        0.0062744564       14.2131327234
Ti               6.3220843697       -0.0023075367       16.2210477355
Ti               4.2161791172        2.1125830677       16.2339999107
Ti               6.3204060096        2.1297763081       14.2216638453
Ti               4.2139164700        4.2139164700       10.0000000000    0   0   0
Ti               6.3208747000        4.2139164700       12.1069582300    0   0   0
Ti               4.2139164700        6.3208747000       12.1069582300    0   0   0
Ti               6.3208747000        6.3208747000       10.0000000000    0   0   0
Ti               4.2403586487        4.2508720272       14.2283899469
Ti               6.3264990697        4.2253249913       16.3578970049
Ti               4.1883751873        6.3448217013       16.5995477459
Ti               6.2868651848        6.3038599554       14.2215354970
Ti               4.2139164700        8.4278329400       10.0000000000    0   0   0
Ti               6.3208747000        8.4278329400       12.1069582300    0   0   0
Ti               4.2139164700       10.5347911700       12.1069582300    0   0   0
Ti               6.3208747000       10.5347911700       10.0000000000    0   0   0
Ti               4.2080119653        8.4021950683       14.2044112869
Ti               6.3153528436        8.4306865683       16.2178053031
Ti               4.2119656547       10.5563752606       16.2231211204
Ti               6.3243912636       10.5441993487       14.2055913512
Ti               8.4278329400        0.0000000000       10.0000000000    0   0   0
Ti              10.5347911700        0.0000000000       12.1069582300    0   0   0
Ti               8.4278329400        2.1069582300       12.1069582300    0   0   0
Ti              10.5347911700        2.1069582300       10.0000000000    0   0   0
Ti               8.4244973305       -0.0003600261       14.2089617022
Ti              10.5383922440        0.0056442129       16.2258800089
Ti               8.4274561893        2.1041816456       16.2323443266
Ti              10.5394633624        2.1137851115       14.2118323035
Ti               8.4278329400        4.2139164700       10.0000000000    0   0   0
Ti              10.5347911700        4.2139164700       12.1069582300    0   0   0
Ti               8.4278329400        6.3208747000       12.1069582300    0   0   0
Ti              10.5347911700        6.3208747000       10.0000000000    0   0   0
Ti               8.3998334844        4.2153746998       14.2227288657
Ti              10.5338555417        4.2154694723       16.2317642585
Ti               8.4404987311        6.3211429751       16.2240888697
Ti              10.5345848953        6.3196093038       14.2064019030
Ti               8.4278329400        8.4278329400       10.0000000000    0   0   0
Ti              10.5347911700        8.4278329400       12.1069582300    0   0   0
Ti               8.4278329400       10.5347911700       12.1069582300    0   0   0
Ti              10.5347911700       10.5347911700       10.0000000000    0   0   0
Ti               8.4263842269        8.4290852105       14.2124458137
Ti              10.5293760516        8.4238999272       16.2250681495
Ti               8.4313049475       10.5413863787       16.2242991442
Ti              10.5269929138       10.5324495591       14.2092066140
N                0.0000000000        2.1069582300       10.0000000000    0   0   0
N                2.1069582300        0.0000000000       10.0000000000    0   0   0
N                0.0000000000        0.0000000000       12.1069582300    0   0   0
N                2.1069582300        2.1069582300       12.1069582300    0   0   0
N                0.0069461032        2.1124877349       14.2377529807
N                2.1108874062        0.0028229299       14.2270251236
N               -0.0065546123       -0.0005606217       16.3852559933
N                2.1083310282        2.1126450480       16.3954473724
N                0.0000000000        6.3208747000       10.0000000000    0   0   0
N                2.1069582300        4.2139164700       10.0000000000    0   0   0
N                0.0000000000        4.2139164700       12.1069582300    0   0   0
N                2.1069582300        6.3208747000       12.1069582300    0   0   0
N                0.0056614039        6.3174918283       14.2303899230
N                2.1165765204        4.2132871230       14.2244688376
N               -0.0012124626        4.2129626259       16.3906060458
N                2.0752234144        6.3208394463       16.3003273196
N                0.0000000000       10.5347911700       10.0000000000    0   0   0
N                2.1069582300        8.4278329400       10.0000000000    0   0   0
N                0.0000000000        8.4278329400       12.1069582300    0   0   0
N                2.1069582300       10.5347911700       12.1069582300    0   0   0
N               -0.0004481990       10.5379143762       14.2336141757
N                2.1034761219        8.4356339039       14.2379192874
N               -0.0041809410        8.4305060490       16.3853455128
N                2.1109335714       10.5371525865       16.3844246041
N                4.2139164700        2.1069582300       10.0000000000    0   0   0
N                6.3208747000        0.0000000000       10.0000000000    0   0   0
N                4.2139164700        0.0000000000       12.1069582300    0   0   0
N                6.3208747000        2.1069582300       12.1069582300    0   0   0
N                4.2145513501        2.1219775790       14.2371699238
N                6.3226022722        0.0125875070       14.2266953087
N                4.2145057345        0.0093307497       16.3883661814
N                6.3210349224        2.1000139090       16.3550495828
N                4.2139164700        6.3208747000       10.0000000000    0   0   0
N                6.3208747000        4.2139164700       10.0000000000    0   0   0
N                4.2139164700        4.2139164700       12.1069582300    0   0   0
N                6.3208747000        6.3208747000       12.1069582300    0   0   0
N                4.2130118526        6.3262449681       14.2649878948
N                6.3210671741        4.2166820983       14.2386709946
N                4.1890695464        4.2211924424       16.3735684327
N                6.3152850877        6.3517995696       16.3347267040
N                4.2139164700       10.5347911700       10.0000000000    0   0   0
N                6.3208747000        8.4278329400       10.0000000000    0   0   0
N                4.2139164700        8.4278329400       12.1069582300    0   0   0
N                6.3208747000       10.5347911700       12.1069582300    0   0   0
N                4.2178730633       10.5351675728       14.2342806677
N                6.3216067222        8.4237814920       14.2271307593
N                4.2158768629        8.4616815060       16.3068361897
N                6.3198496988       10.5389085868       16.3879655042
N                8.4278329400        2.1069582300       10.0000000000    0   0   0
N               10.5347911700        0.0000000000       10.0000000000    0   0   0
N                8.4278329400        0.0000000000       12.1069582300    0   0   0
N               10.5347911700        2.1069582300       12.1069582300    0   0   0
N                8.4299250106        2.1038821119       14.2352298562
N               10.5344293299        0.0026091513       14.2339813416
N                8.4310984040        0.0009781043       16.3889115244
N               10.5372227330        2.1043006501       16.3847209913
N                8.4278329400        6.3208747000       10.0000000000    0   0   0
N               10.5347911700        4.2139164700       10.0000000000    0   0   0
N                8.4278329400        4.2139164700       12.1069582300    0   0   0
N               10.5347911700        6.3208747000       12.1069582300    0   0   0
N                8.4190745124        6.3231396982       14.2299215879
N               10.5232758903        4.2191606476       14.2353407194
N                8.4436949312        4.2150392281       16.3589827235
N               10.5333022866        6.3205547600       16.3973896876
N                8.4278329400       10.5347911700       10.0000000000    0   0   0
N               10.5347911700        8.4278329400       10.0000000000    0   0   0
N                8.4278329400        8.4278329400       12.1069582300    0   0   0
N               10.5347911700       10.5347911700       12.1069582300    0   0   0
N                8.4246439634       10.5383169939       14.2275401348
N               10.5334834933        8.4243551528       14.2308973341
N                8.4280114382        8.4317158968       16.3997861059
N               10.5378173376       10.5354041982       16.3818322802
S                3.8029063260        6.6933261757       18.8379048912
S                6.2052045523        4.3551581579       18.8454326612
S                7.8065845963        3.5291105233       19.9203197738
S                8.2058469990        5.0382913246       21.2925262414
S                6.9792118397        4.8076988263       22.9096290867
S                5.0707288442        5.8568221240       22.2931868704
S                3.3203099422        4.8636744436       22.6274199956
S                2.7690115205        3.3699031928       21.3647265173
Li               3.9114807729        4.5531108969       19.7707998472
Li               5.7636834207        6.3509048269       19.9760373989



     Writing config-only to output data dir ./tmp/TiN_Li2S8_combi.save/ :
     XML data file
     NEW-OLD atomic charge density approx. for the potential

     Check: negative core charge=   -0.000002

     negative rho (up, down):  6.607E-02 0.000E+00

     total cpu time spent up to now is     8543.4 secs

     per-process dynamical memory:   701.2 Mb

     Self-consistent Calculation

     iteration #  1     ecut=    45.00 Ry     beta= 0.20
     Davidson diagonalization with overlap
     ethr =  1.00E-06,  avg # of iterations =  8.0

     negative rho (up, down):  6.604E-02 0.000E+00

     total cpu time spent up to now is     8757.3 secs

     total energy              =  -10278.16682231 Ry
     estimated scf accuracy    <       0.00928502 Ry

     iteration #  2     ecut=    45.00 Ry     beta= 0.20
     Davidson diagonalization with overlap
     ethr =  7.27E-07,  avg # of iterations =  1.0

     negative rho (up, down):  6.595E-02 0.000E+00

     total cpu time spent up to now is     8841.6 secs

     total energy              =  -10278.16645209 Ry
     estimated scf accuracy    <       0.00469825 Ry

     iteration #  3     ecut=    45.00 Ry     beta= 0.20
     Davidson diagonalization with overlap
     ethr =  3.68E-07,  avg # of iterations =  2.0

     negative rho (up, down):  6.582E-02 0.000E+00

     total cpu time spent up to now is     8939.8 secs

     total energy              =  -10278.16648782 Ry
     estimated scf accuracy    <       0.00061353 Ry

     iteration #  4     ecut=    45.00 Ry     beta= 0.20
     Davidson diagonalization with overlap
     ethr =  4.80E-08,  avg # of iterations =  4.7

     negative rho (up, down):  6.574E-02 0.000E+00

     total cpu time spent up to now is     9046.1 secs

     total energy              =  -10278.16650454 Ry
     estimated scf accuracy    <       0.00018591 Ry

     iteration #  5     ecut=    45.00 Ry     beta= 0.20
     Davidson diagonalization with overlap
     ethr =  1.45E-08,  avg # of iterations =  5.0

     negative rho (up, down):  6.571E-02 0.000E+00

     total cpu time spent up to now is     9157.1 secs

     total energy              =  -10278.16651239 Ry
     estimated scf accuracy    <       0.00005635 Ry

     iteration #  6     ecut=    45.00 Ry     beta= 0.20
     Davidson diagonalization with overlap
     ethr =  4.41E-09,  avg # of iterations =  2.8

     negative rho (up, down):  6.568E-02 0.000E+00

     total cpu time spent up to now is     9258.7 secs

     total energy              =  -10278.16651238 Ry
     estimated scf accuracy    <       0.00002489 Ry

     iteration #  7     ecut=    45.00 Ry     beta= 0.20
     Davidson diagonalization with overlap
     ethr =  1.95E-09,  avg # of iterations =  5.0

     negative rho (up, down):  6.568E-02 0.000E+00

     total cpu time spent up to now is     9368.3 secs

     total energy              =  -10278.16651253 Ry
     estimated scf accuracy    <       0.00002347 Ry

     iteration #  8     ecut=    45.00 Ry     beta= 0.20
     Davidson diagonalization with overlap
     ethr =  1.84E-09,  avg # of iterations =  2.0

     negative rho (up, down):  6.568E-02 0.000E+00

     total cpu time spent up to now is     9466.3 secs

     total energy              =  -10278.16651216 Ry
     estimated scf accuracy    <       0.00001120 Ry

     iteration #  9     ecut=    45.00 Ry     beta= 0.20
     Davidson diagonalization with overlap
     ethr =  8.76E-10,  avg # of iterations =  4.3

     negative rho (up, down):  6.570E-02 0.000E+00

     total cpu time spent up to now is     9570.0 secs

     total energy              =  -10278.16651207 Ry
     estimated scf accuracy    <       0.00000741 Ry

     iteration # 10     ecut=    45.00 Ry     beta= 0.20
     Davidson diagonalization with overlap
     ethr =  5.80E-10,  avg # of iterations =  3.4

     negative rho (up, down):  6.573E-02 0.000E+00

     total cpu time spent up to now is     9670.9 secs

     total energy              =  -10278.16651188 Ry
     estimated scf accuracy    <       0.00000575 Ry

     iteration # 11     ecut=    45.00 Ry     beta= 0.20
     Davidson diagonalization with overlap
     ethr =  4.50E-10,  avg # of iterations =  3.0

     negative rho (up, down):  6.575E-02 0.000E+00

     total cpu time spent up to now is     9771.1 secs

     total energy              =  -10278.16651167 Ry
     estimated scf accuracy    <       0.00000545 Ry

     iteration # 12     ecut=    45.00 Ry     beta= 0.20
     Davidson diagonalization with overlap
     ethr =  4.27E-10,  avg # of iterations =  1.1

     negative rho (up, down):  6.581E-02 0.000E+00

     total cpu time spent up to now is     9857.8 secs

     total energy              =  -10278.16651055 Ry
     estimated scf accuracy    <       0.00000487 Ry

     iteration # 13     ecut=    45.00 Ry     beta= 0.20
     Davidson diagonalization with overlap
     ethr =  3.81E-10,  avg # of iterations =  2.8

     negative rho (up, down):  6.583E-02 0.000E+00

     total cpu time spent up to now is     9959.7 secs

     total energy              =  -10278.16651031 Ry
     estimated scf accuracy    <       0.00000446 Ry

     iteration # 14     ecut=    45.00 Ry     beta= 0.20
     Davidson diagonalization with overlap
     ethr =  3.49E-10,  avg # of iterations =  2.0

     negative rho (up, down):  6.592E-02 0.000E+00

     total cpu time spent up to now is    10057.6 secs

     total energy              =  -10278.16650863 Ry
     estimated scf accuracy    <       0.00000386 Ry

     iteration # 15     ecut=    45.00 Ry     beta= 0.20
     Davidson diagonalization with overlap
     ethr =  3.02E-10,  avg # of iterations =  5.7

     negative rho (up, down):  6.592E-02 0.000E+00

     total cpu time spent up to now is    10166.1 secs

     total energy              =  -10278.16650849 Ry
     estimated scf accuracy    <       0.00000366 Ry

     iteration # 16     ecut=    45.00 Ry     beta= 0.20
     Davidson diagonalization with overlap
     ethr =  2.86E-10,  avg # of iterations =  1.0

     negative rho (up, down):  6.595E-02 0.000E+00

     total cpu time spent up to now is    10250.5 secs

     total energy              =  -10278.16650769 Ry
     estimated scf accuracy    <       0.00000338 Ry

     iteration # 17     ecut=    45.00 Ry     beta= 0.20
     Davidson diagonalization with overlap
     ethr =  2.64E-10,  avg # of iterations =  2.6

     negative rho (up, down):  6.597E-02 0.000E+00

     total cpu time spent up to now is    10349.5 secs

     total energy              =  -10278.16650716 Ry
     estimated scf accuracy    <       0.00000352 Ry

     iteration # 18     ecut=    45.00 Ry     beta= 0.20
     Davidson diagonalization with overlap
     ethr =  2.64E-10,  avg # of iterations =  2.0

     negative rho (up, down):  6.588E-02 0.000E+00

     total cpu time spent up to now is    10447.4 secs

     total energy              =  -10278.16651025 Ry
     estimated scf accuracy    <       0.00000360 Ry

     iteration # 19     ecut=    45.00 Ry     beta= 0.20
     Davidson diagonalization with overlap
     ethr =  2.64E-10,  avg # of iterations =  5.0

     negative rho (up, down):  6.590E-02 0.000E+00

     total cpu time spent up to now is    10555.5 secs

     total energy              =  -10278.16650924 Ry
     estimated scf accuracy    <       0.00000402 Ry

     iteration # 20     ecut=    45.00 Ry     beta= 0.20
     Davidson diagonalization with overlap
     ethr =  2.64E-10,  avg # of iterations =  2.0

     negative rho (up, down):  6.577E-02 0.000E+00

     total cpu time spent up to now is    10653.1 secs

     total energy              =  -10278.16651474 Ry
     estimated scf accuracy    <       0.00000380 Ry

     iteration # 21     ecut=    45.00 Ry     beta= 0.20
     Davidson diagonalization with overlap
     ethr =  2.64E-10,  avg # of iterations =  6.0

     negative rho (up, down):  6.603E-02 0.000E+00

     total cpu time spent up to now is    10768.5 secs

     total energy              =  -10278.16650855 Ry
     estimated scf accuracy    <       0.00000801 Ry

     iteration # 22     ecut=    45.00 Ry     beta= 0.20
     Davidson diagonalization with overlap
     ethr =  2.64E-10,  avg # of iterations =  7.0

     negative rho (up, down):  6.605E-02 0.000E+00

     total cpu time spent up to now is    10901.3 secs

     total energy              =  -10278.16650350 Ry
     estimated scf accuracy    <       0.00000500 Ry

     iteration # 23     ecut=    45.00 Ry     beta= 0.20
     Davidson diagonalization with overlap
     ethr =  2.64E-10,  avg # of iterations =  2.0

     negative rho (up, down):  6.601E-02 0.000E+00

     total cpu time spent up to now is    10999.0 secs

     total energy              =  -10278.16650585 Ry
     estimated scf accuracy    <       0.00000581 Ry

     iteration # 24     ecut=    45.00 Ry     beta= 0.20
     Davidson diagonalization with overlap
     ethr =  2.64E-10,  avg # of iterations =  4.2

     negative rho (up, down):  6.602E-02 0.000E+00

     total cpu time spent up to now is    11102.2 secs

     total energy              =  -10278.16650512 Ry
     estimated scf accuracy    <       0.00000399 Ry

     iteration # 25     ecut=    45.00 Ry     beta= 0.20
     Davidson diagonalization with overlap
     ethr =  2.64E-10,  avg # of iterations =  1.8

     negative rho (up, down):  6.614E-02 0.000E+00

     total cpu time spent up to now is    11199.1 secs

     total energy              =  -10278.16650227 Ry
     estimated scf accuracy    <       0.00000425 Ry

     iteration # 26     ecut=    45.00 Ry     beta= 0.20
     Davidson diagonalization with overlap
     ethr =  2.64E-10,  avg # of iterations =  6.0

     negative rho (up, down):  6.601E-02 0.000E+00

     total cpu time spent up to now is    11311.8 secs

     total energy              =  -10278.16650690 Ry
     estimated scf accuracy    <       0.00000936 Ry

     iteration # 27     ecut=    45.00 Ry     beta= 0.20
     Davidson diagonalization with overlap
     ethr =  2.64E-10,  avg # of iterations =  5.9

     negative rho (up, down):  6.599E-02 0.000E+00

     total cpu time spent up to now is    11423.4 secs

     total energy              =  -10278.16650518 Ry
     estimated scf accuracy    <       0.00000427 Ry

     iteration # 28     ecut=    45.00 Ry     beta= 0.20
     Davidson diagonalization with overlap
     ethr =  2.64E-10,  avg # of iterations =  1.0

     negative rho (up, down):  6.598E-02 0.000E+00

     total cpu time spent up to now is    11506.8 secs

     total energy              =  -10278.16650557 Ry
     estimated scf accuracy    <       0.00000388 Ry

     iteration # 29     ecut=    45.00 Ry     beta= 0.20
     Davidson diagonalization with overlap
     ethr =  2.64E-10,  avg # of iterations =  2.0

     negative rho (up, down):  6.599E-02 0.000E+00

     total cpu time spent up to now is    11604.1 secs

     total energy              =  -10278.16650546 Ry
     estimated scf accuracy    <       0.00000370 Ry

     iteration # 30     ecut=    45.00 Ry     beta= 0.20
     Davidson diagonalization with overlap
     ethr =  2.64E-10,  avg # of iterations =  1.0

     negative rho (up, down):  6.581E-02 0.000E+00

     total cpu time spent up to now is    11688.3 secs

     total energy              =  -10278.16651510 Ry
     estimated scf accuracy    <       0.00000388 Ry

     iteration # 31     ecut=    45.00 Ry     beta= 0.20
     Davidson diagonalization with overlap
     ethr =  2.64E-10,  avg # of iterations =  6.8

     negative rho (up, down):  6.597E-02 0.000E+00

     total cpu time spent up to now is    11810.1 secs

     total energy              =  -10278.16650817 Ry
     estimated scf accuracy    <       0.00000392 Ry

     iteration # 32     ecut=    45.00 Ry     beta= 0.20
     Davidson diagonalization with overlap
     ethr =  2.64E-10,  avg # of iterations =  6.8

     negative rho (up, down):  6.591E-02 0.000E+00

     total cpu time spent up to now is    11931.6 secs

     total energy              =  -10278.16651075 Ry
     estimated scf accuracy    <       0.00000403 Ry

     iteration # 33     ecut=    45.00 Ry     beta= 0.20
     Davidson diagonalization with overlap
     ethr =  2.64E-10,  avg # of iterations =  5.8

     negative rho (up, down):  6.588E-02 0.000E+00

     total cpu time spent up to now is    12044.6 secs

     total energy              =  -10278.16651152 Ry
     estimated scf accuracy    <       0.00000297 Ry

     iteration # 34     ecut=    45.00 Ry     beta= 0.20
     Davidson diagonalization with overlap
     ethr =  2.33E-10,  avg # of iterations =  5.8

     negative rho (up, down):  6.597E-02 0.000E+00

     total cpu time spent up to now is    12153.9 secs

     total energy              =  -10278.16650816 Ry
     estimated scf accuracy    <       0.00000403 Ry

     iteration # 35     ecut=    45.00 Ry     beta= 0.20
     Davidson diagonalization with overlap
     ethr =  2.33E-10,  avg # of iterations =  6.6

     negative rho (up, down):  6.598E-02 0.000E+00

     total cpu time spent up to now is    12273.2 secs

     total energy              =  -10278.16650591 Ry
     estimated scf accuracy    <       0.00000376 Ry

     iteration # 36     ecut=    45.00 Ry     beta= 0.20
     Davidson diagonalization with overlap
     ethr =  2.33E-10,  avg # of iterations =  1.0

     negative rho (up, down):  6.600E-02 0.000E+00

     total cpu time spent up to now is    12357.5 secs

     total energy              =  -10278.16650545 Ry
     estimated scf accuracy    <       0.00000392 Ry

     iteration # 37     ecut=    45.00 Ry     beta= 0.20
     Davidson diagonalization with overlap
     ethr =  2.33E-10,  avg # of iterations =  2.0

     negative rho (up, down):  6.597E-02 0.000E+00

     total cpu time spent up to now is    12455.1 secs

     total energy              =  -10278.16650591 Ry
     estimated scf accuracy    <       0.00000434 Ry

     iteration # 38     ecut=    45.00 Ry     beta= 0.20
     Davidson diagonalization with overlap
     ethr =  2.33E-10,  avg # of iterations =  1.9

     negative rho (up, down):  6.597E-02 0.000E+00

     total cpu time spent up to now is    12552.4 secs

     total energy              =  -10278.16650685 Ry
     estimated scf accuracy    <       0.00000375 Ry

     iteration # 39     ecut=    45.00 Ry     beta= 0.20
     Davidson diagonalization with overlap
     ethr =  2.33E-10,  avg # of iterations =  2.6

     negative rho (up, down):  6.595E-02 0.000E+00

     total cpu time spent up to now is    12651.7 secs

     total energy              =  -10278.16650609 Ry
     estimated scf accuracy    <       0.00000331 Ry

     iteration # 40     ecut=    45.00 Ry     beta= 0.20
     Davidson diagonalization with overlap
     ethr =  2.33E-10,  avg # of iterations =  2.6

     negative rho (up, down):  6.593E-02 0.000E+00

     total cpu time spent up to now is    12750.1 secs

     total energy              =  -10278.16651253 Ry
     estimated scf accuracy    <       0.00000396 Ry

     iteration # 41     ecut=    45.00 Ry     beta= 0.20
     Davidson diagonalization with overlap
     ethr =  2.33E-10,  avg # of iterations =  6.8

     negative rho (up, down):  6.593E-02 0.000E+00

     total cpu time spent up to now is    12867.5 secs

     total energy              =  -10278.16651059 Ry
     estimated scf accuracy    <       0.00000364 Ry

     iteration # 42     ecut=    45.00 Ry     beta= 0.20
     Davidson diagonalization with overlap
     ethr =  2.33E-10,  avg # of iterations =  2.0

     negative rho (up, down):  6.581E-02 0.000E+00

     total cpu time spent up to now is    12964.9 secs

     total energy              =  -10278.16652533 Ry
     estimated scf accuracy    <       0.00000377 Ry

     iteration # 43     ecut=    45.00 Ry     beta= 0.20
     Davidson diagonalization with overlap
     ethr =  2.33E-10,  avg # of iterations =  7.6

     negative rho (up, down):  6.595E-02 0.000E+00

     total cpu time spent up to now is    13099.0 secs

     total energy              =  -10278.16650205 Ry
     estimated scf accuracy    <       0.00004051 Ry

     iteration # 44     ecut=    45.00 Ry     beta= 0.20
     Davidson diagonalization with overlap
     ethr =  2.33E-10,  avg # of iterations =  7.2

     negative rho (up, down):  6.597E-02 0.000E+00

     total cpu time spent up to now is    13235.6 secs

     total energy              =  -10278.16650719 Ry
     estimated scf accuracy    <       0.00000314 Ry

     iteration # 45     ecut=    45.00 Ry     beta= 0.20
     Davidson diagonalization with overlap
     ethr =  2.33E-10,  avg # of iterations =  5.6

     negative rho (up, down):  6.600E-02 0.000E+00

     total cpu time spent up to now is    13344.0 secs

     total energy              =  -10278.16650532 Ry
     estimated scf accuracy    <       0.00000346 Ry

     iteration # 46     ecut=    45.00 Ry     beta= 0.20
     Davidson diagonalization with overlap
     ethr =  2.33E-10,  avg # of iterations =  5.0

     negative rho (up, down):  6.604E-02 0.000E+00

     total cpu time spent up to now is    13449.7 secs

     total energy              =  -10278.16650218 Ry
     estimated scf accuracy    <       0.00000440 Ry

     iteration # 47     ecut=    45.00 Ry     beta= 0.20
     Davidson diagonalization with overlap
     ethr =  2.33E-10,  avg # of iterations =  6.0

     negative rho (up, down):  6.605E-02 0.000E+00

     total cpu time spent up to now is    13564.7 secs

     total energy              =  -10278.16649821 Ry
     estimated scf accuracy    <       0.00000962 Ry

     iteration # 48     ecut=    45.00 Ry     beta= 0.20
     Davidson diagonalization with overlap
     ethr =  2.33E-10,  avg # of iterations =  4.7

     negative rho (up, down):  6.603E-02 0.000E+00

     total cpu time spent up to now is    13667.9 secs

     total energy              =  -10278.16650333 Ry
     estimated scf accuracy    <       0.00001306 Ry

     iteration # 49     ecut=    45.00 Ry     beta= 0.20
     Davidson diagonalization with overlap
     ethr =  2.33E-10,  avg # of iterations =  5.8

     negative rho (up, down):  6.603E-02 0.000E+00

     total cpu time spent up to now is    13775.9 secs

     total energy              =  -10278.16650309 Ry
     estimated scf accuracy    <       0.00000690 Ry

     iteration # 50     ecut=    45.00 Ry     beta= 0.20
     Davidson diagonalization with overlap
     ethr =  2.33E-10,  avg # of iterations =  2.7

     negative rho (up, down):  6.603E-02 0.000E+00

     total cpu time spent up to now is    13875.2 secs

     total energy              =  -10278.16650311 Ry
     estimated scf accuracy    <       0.00000573 Ry

     iteration # 51     ecut=    45.00 Ry     beta= 0.20
     Davidson diagonalization with overlap
     ethr =  2.33E-10,  avg # of iterations =  1.0

     negative rho (up, down):  6.605E-02 0.000E+00

     total cpu time spent up to now is    13958.6 secs

     total energy              =  -10278.16650488 Ry
     estimated scf accuracy    <       0.00000559 Ry

     iteration # 52     ecut=    45.00 Ry     beta= 0.20
     Davidson diagonalization with overlap
     ethr =  2.33E-10,  avg # of iterations =  5.6

     negative rho (up, down):  6.601E-02 0.000E+00

     total cpu time spent up to now is    14062.5 secs

     total energy              =  -10278.16650911 Ry
     estimated scf accuracy    <       0.00000425 Ry

     iteration # 53     ecut=    45.00 Ry     beta= 0.20
     Davidson diagonalization with overlap
     ethr =  2.33E-10,  avg # of iterations =  6.0

     negative rho (up, down):  6.600E-02 0.000E+00

     total cpu time spent up to now is    14175.4 secs

     total energy              =  -10278.16650862 Ry
     estimated scf accuracy    <       0.00000289 Ry

     iteration # 54     ecut=    45.00 Ry     beta= 0.20
     Davidson diagonalization with overlap
     ethr =  2.26E-10,  avg # of iterations =  2.6

     negative rho (up, down):  6.602E-02 0.000E+00

     total cpu time spent up to now is    14273.7 secs

     total energy              =  -10278.16650710 Ry
     estimated scf accuracy    <       0.00000280 Ry

     iteration # 55     ecut=    45.00 Ry     beta= 0.20
     Davidson diagonalization with overlap
     ethr =  2.19E-10,  avg # of iterations =  4.9

     negative rho (up, down):  6.602E-02 0.000E+00

     total cpu time spent up to now is    14378.1 secs

     total energy              =  -10278.16650698 Ry
     estimated scf accuracy    <       0.00000340 Ry

     iteration # 56     ecut=    45.00 Ry     beta= 0.20
     Davidson diagonalization with overlap
     ethr =  2.19E-10,  avg # of iterations =  1.9

     negative rho (up, down):  6.602E-02 0.000E+00

     total cpu time spent up to now is    14474.7 secs

     total energy              =  -10278.16650640 Ry
     estimated scf accuracy    <       0.00000312 Ry

     iteration # 57     ecut=    45.00 Ry     beta= 0.20
     Davidson diagonalization with overlap
     ethr =  2.19E-10,  avg # of iterations =  2.0

     negative rho (up, down):  6.599E-02 0.000E+00

     total cpu time spent up to now is    14572.5 secs

     total energy              =  -10278.16651612 Ry
     estimated scf accuracy    <       0.00000354 Ry

     iteration # 58     ecut=    45.00 Ry     beta= 0.20
     Davidson diagonalization with overlap
     ethr =  2.19E-10,  avg # of iterations =  7.0

     negative rho (up, down):  6.599E-02 0.000E+00

     total cpu time spent up to now is    14696.8 secs

     total energy              =  -10278.16651032 Ry
     estimated scf accuracy    <       0.00000567 Ry

     iteration # 59     ecut=    45.00 Ry     beta= 0.20
     Davidson diagonalization with overlap
     ethr =  2.19E-10,  avg # of iterations =  5.7

     negative rho (up, down):  6.599E-02 0.000E+00

     total cpu time spent up to now is    14804.0 secs

     total energy              =  -10278.16650999 Ry
     estimated scf accuracy    <       0.00000376 Ry

     iteration # 60     ecut=    45.00 Ry     beta= 0.20
     Davidson diagonalization with overlap
     ethr =  2.19E-10,  avg # of iterations =  1.0

     negative rho (up, down):  6.600E-02 0.000E+00

     total cpu time spent up to now is    14888.1 secs

     total energy              =  -10278.16650942 Ry
     estimated scf accuracy    <       0.00000366 Ry

     iteration # 61     ecut=    45.00 Ry     beta= 0.20
     Davidson diagonalization with overlap
     ethr =  2.19E-10,  avg # of iterations =  2.0

     negative rho (up, down):  6.602E-02 0.000E+00

     total cpu time spent up to now is    14986.3 secs

     total energy              =  -10278.16650844 Ry
     estimated scf accuracy    <       0.00000344 Ry

     iteration # 62     ecut=    45.00 Ry     beta= 0.20
     Davidson diagonalization with overlap
     ethr =  2.19E-10,  avg # of iterations =  4.5

     negative rho (up, down):  6.601E-02 0.000E+00

     total cpu time spent up to now is    15088.9 secs

     total energy              =  -10278.16650881 Ry
     estimated scf accuracy    <       0.00000328 Ry

     iteration # 63     ecut=    45.00 Ry     beta= 0.20
     Davidson diagonalization with overlap
     ethr =  2.19E-10,  avg # of iterations =  2.0

     negative rho (up, down):  6.604E-02 0.000E+00

     total cpu time spent up to now is    15186.6 secs

     total energy              =  -10278.16650698 Ry
     estimated scf accuracy    <       0.00000312 Ry

     iteration # 64     ecut=    45.00 Ry     beta= 0.20
     Davidson diagonalization with overlap
     ethr =  2.19E-10,  avg # of iterations =  6.0

     negative rho (up, down):  6.605E-02 0.000E+00

     total cpu time spent up to now is    15297.1 secs

     total energy              =  -10278.16650428 Ry
     estimated scf accuracy    <       0.00000368 Ry

     iteration # 65     ecut=    45.00 Ry     beta= 0.20
     Davidson diagonalization with overlap
     ethr =  2.19E-10,  avg # of iterations =  6.0

     negative rho (up, down):  6.600E-02 0.000E+00

     total cpu time spent up to now is    15407.6 secs

     total energy              =  -10278.16650847 Ry
     estimated scf accuracy    <       0.00000582 Ry

     iteration # 66     ecut=    45.00 Ry     beta= 0.20
     Davidson diagonalization with overlap
     ethr =  2.19E-10,  avg # of iterations =  5.7

     negative rho (up, down):  6.595E-02 0.000E+00

     total cpu time spent up to now is    15518.2 secs

     total energy              =  -10278.16651078 Ry
     estimated scf accuracy    <       0.00000312 Ry

     iteration # 67     ecut=    45.00 Ry     beta= 0.20
     Davidson diagonalization with overlap
     ethr =  2.19E-10,  avg # of iterations =  5.8

     negative rho (up, down):  6.598E-02 0.000E+00

     total cpu time spent up to now is    15630.2 secs

     total energy              =  -10278.16651888 Ry
     estimated scf accuracy    <       0.00000331 Ry

     iteration # 68     ecut=    45.00 Ry     beta= 0.20
     Davidson diagonalization with overlap
     ethr =  2.19E-10,  avg # of iterations =  7.0

     negative rho (up, down):  6.599E-02 0.000E+00

     total cpu time spent up to now is    15754.9 secs

     total energy              =  -10278.16650731 Ry
     estimated scf accuracy    <       0.00001620 Ry

     iteration # 69     ecut=    45.00 Ry     beta= 0.20
     Davidson diagonalization with overlap
     ethr =  2.19E-10,  avg # of iterations =  6.9

     negative rho (up, down):  6.601E-02 0.000E+00

     total cpu time spent up to now is    15884.5 secs

     total energy              =  -10278.16650612 Ry
     estimated scf accuracy    <       0.00000291 Ry

     iteration # 70     ecut=    45.00 Ry     beta= 0.20
     Davidson diagonalization with overlap
     ethr =  2.19E-10,  avg # of iterations =  6.2

     negative rho (up, down):  6.600E-02 0.000E+00

     total cpu time spent up to now is    15998.2 secs

     total energy              =  -10278.16650315 Ry
     estimated scf accuracy    <       0.00000438 Ry

     iteration # 71     ecut=    45.00 Ry     beta= 0.20
     Davidson diagonalization with overlap
     ethr =  2.19E-10,  avg # of iterations =  5.3

     negative rho (up, down):  6.602E-02 0.000E+00

     total cpu time spent up to now is    16104.2 secs

     total energy              =  -10278.16650251 Ry
     estimated scf accuracy    <       0.00000654 Ry

     iteration # 72     ecut=    45.00 Ry     beta= 0.20
     Davidson diagonalization with overlap
     ethr =  2.19E-10,  avg # of iterations =  1.0

     negative rho (up, down):  6.603E-02 0.000E+00

     total cpu time spent up to now is    16188.0 secs

     total energy              =  -10278.16650163 Ry
     estimated scf accuracy    <       0.00000664 Ry

     iteration # 73     ecut=    45.00 Ry     beta= 0.20
     Davidson diagonalization with overlap
     ethr =  2.19E-10,  avg # of iterations =  2.5

     negative rho (up, down):  6.603E-02 0.000E+00

     total cpu time spent up to now is    16287.2 secs

     total energy              =  -10278.16650262 Ry
     estimated scf accuracy    <       0.00000784 Ry

     iteration # 74     ecut=    45.00 Ry     beta= 0.20
     Davidson diagonalization with overlap
     ethr =  2.19E-10,  avg # of iterations =  2.0

     negative rho (up, down):  6.603E-02 0.000E+00

     total cpu time spent up to now is    16385.1 secs

     total energy              =  -10278.16650063 Ry
     estimated scf accuracy    <       0.00000636 Ry

     iteration # 75     ecut=    45.00 Ry     beta= 0.20
     Davidson diagonalization with overlap
     ethr =  2.19E-10,  avg # of iterations =  4.5

     negative rho (up, down):  6.601E-02 0.000E+00

     total cpu time spent up to now is    16489.0 secs

     total energy              =  -10278.16650589 Ry
     estimated scf accuracy    <       0.00000969 Ry

     iteration # 76     ecut=    45.00 Ry     beta= 0.20
     Davidson diagonalization with overlap
     ethr =  2.19E-10,  avg # of iterations =  5.8

     negative rho (up, down):  6.599E-02 0.000E+00

     total cpu time spent up to now is    16599.7 secs

     total energy              =  -10278.16650562 Ry
     estimated scf accuracy    <       0.00000457 Ry

     iteration # 77     ecut=    45.00 Ry     beta= 0.20
     Davidson diagonalization with overlap
     ethr =  2.19E-10,  avg # of iterations =  3.6

     negative rho (up, down):  6.597E-02 0.000E+00

     total cpu time spent up to now is    16700.7 secs

     total energy              =  -10278.16650925 Ry
     estimated scf accuracy    <       0.00000359 Ry

     iteration # 78     ecut=    45.00 Ry     beta= 0.20
     Davidson diagonalization with overlap
     ethr =  2.19E-10,  avg # of iterations =  6.0

     negative rho (up, down):  6.597E-02 0.000E+00

     total cpu time spent up to now is    16813.4 secs

     total energy              =  -10278.16650910 Ry
     estimated scf accuracy    <       0.00000279 Ry

     iteration # 79     ecut=    45.00 Ry     beta= 0.20
     Davidson diagonalization with overlap
     ethr =  2.18E-10,  avg # of iterations =  2.7

     negative rho (up, down):  6.597E-02 0.000E+00

     total cpu time spent up to now is    16912.2 secs

     total energy              =  -10278.16651070 Ry
     estimated scf accuracy    <       0.00000275 Ry

     iteration # 80     ecut=    45.00 Ry     beta= 0.20
     Davidson diagonalization with overlap
     ethr =  2.15E-10,  avg # of iterations =  5.7

     negative rho (up, down):  6.598E-02 0.000E+00

     total cpu time spent up to now is    17018.6 secs

     total energy              =  -10278.16650989 Ry
     estimated scf accuracy    <       0.00000353 Ry

     iteration # 81     ecut=    45.00 Ry     beta= 0.20
     Davidson diagonalization with overlap
     ethr =  2.15E-10,  avg # of iterations =  2.6

     negative rho (up, down):  6.600E-02 0.000E+00

     total cpu time spent up to now is    17116.5 secs

     total energy              =  -10278.16650755 Ry
     estimated scf accuracy    <       0.00000333 Ry

     iteration # 82     ecut=    45.00 Ry     beta= 0.20
     Davidson diagonalization with overlap
     ethr =  2.15E-10,  avg # of iterations =  6.3

     negative rho (up, down):  6.601E-02 0.000E+00

     total cpu time spent up to now is    17231.1 secs

     total energy              =  -10278.16650513 Ry
     estimated scf accuracy    <       0.00000331 Ry

     iteration # 83     ecut=    45.00 Ry     beta= 0.20
     Davidson diagonalization with overlap
     ethr =  2.15E-10,  avg # of iterations =  5.0

     negative rho (up, down):  6.600E-02 0.000E+00

     total cpu time spent up to now is    17336.1 secs

     total energy              =  -10278.16650807 Ry
     estimated scf accuracy    <       0.00000443 Ry

     iteration # 84     ecut=    45.00 Ry     beta= 0.20
     Davidson diagonalization with overlap
     ethr =  2.15E-10,  avg # of iterations =  5.6

     negative rho (up, down):  6.597E-02 0.000E+00

     total cpu time spent up to now is    17443.7 secs

     total energy              =  -10278.16652041 Ry
     estimated scf accuracy    <       0.00000288 Ry

     iteration # 85     ecut=    45.00 Ry     beta= 0.20
     Davidson diagonalization with overlap
     ethr =  2.15E-10,  avg # of iterations =  7.1

     negative rho (up, down):  6.599E-02 0.000E+00

     total cpu time spent up to now is    17576.5 secs

     total energy              =  -10278.16650839 Ry
     estimated scf accuracy    <       0.00001239 Ry

     iteration # 86     ecut=    45.00 Ry     beta= 0.20
     Davidson diagonalization with overlap
     ethr =  2.15E-10,  avg # of iterations =  6.8

     negative rho (up, down):  6.600E-02 0.000E+00

     total cpu time spent up to now is    17700.9 secs

     total energy              =  -10278.16650673 Ry
     estimated scf accuracy    <       0.00000296 Ry

     iteration # 87     ecut=    45.00 Ry     beta= 0.20
     Davidson diagonalization with overlap
     ethr =  2.15E-10,  avg # of iterations =  5.9

     negative rho (up, down):  6.601E-02 0.000E+00

     total cpu time spent up to now is    17811.2 secs

     total energy              =  -10278.16650334 Ry
     estimated scf accuracy    <       0.00000361 Ry

     iteration # 88     ecut=    45.00 Ry     beta= 0.20
     Davidson diagonalization with overlap
     ethr =  2.15E-10,  avg # of iterations =  7.0

     negative rho (up, down):  6.601E-02 0.000E+00

     total cpu time spent up to now is    17933.6 secs

     total energy              =  -10278.16649926 Ry
     estimated scf accuracy    <       0.00001033 Ry

     iteration # 89     ecut=    45.00 Ry     beta= 0.20
     Davidson diagonalization with overlap
     ethr =  2.15E-10,  avg # of iterations =  1.0

     negative rho (up, down):  6.600E-02 0.000E+00

     total cpu time spent up to now is    18017.7 secs

     total energy              =  -10278.16650378 Ry
     estimated scf accuracy    <       0.00001090 Ry

     iteration # 90     ecut=    45.00 Ry     beta= 0.20
     Davidson diagonalization with overlap
     ethr =  2.15E-10,  avg # of iterations =  5.9

     negative rho (up, down):  6.600E-02 0.000E+00

     total cpu time spent up to now is    18126.0 secs

     total energy              =  -10278.16650543 Ry
     estimated scf accuracy    <       0.00000606 Ry

     iteration # 91     ecut=    45.00 Ry     beta= 0.20
     Davidson diagonalization with overlap
     ethr =  2.15E-10,  avg # of iterations =  5.5

     negative rho (up, down):  6.600E-02 0.000E+00

     total cpu time spent up to now is    18233.1 secs

     total energy              =  -10278.16650568 Ry
     estimated scf accuracy    <       0.00000405 Ry

     iteration # 92     ecut=    45.00 Ry     beta= 0.20
     Davidson diagonalization with overlap
     ethr =  2.15E-10,  avg # of iterations =  2.1

     negative rho (up, down):  6.600E-02 0.000E+00

     total cpu time spent up to now is    18331.7 secs

     total energy              =  -10278.16650635 Ry
     estimated scf accuracy    <       0.00000349 Ry

     iteration # 93     ecut=    45.00 Ry     beta= 0.20
     Davidson diagonalization with overlap
     ethr =  2.15E-10,  avg # of iterations =  3.9

     negative rho (up, down):  6.601E-02 0.000E+00

     total cpu time spent up to now is    18432.6 secs

     total energy              =  -10278.16650802 Ry
     estimated scf accuracy    <       0.00000311 Ry

     iteration # 94     ecut=    45.00 Ry     beta= 0.20
     Davidson diagonalization with overlap
     ethr =  2.15E-10,  avg # of iterations =  5.5

     negative rho (up, down):  6.600E-02 0.000E+00

     total cpu time spent up to now is    18539.6 secs

     total energy              =  -10278.16651331 Ry
     estimated scf accuracy    <       0.00000278 Ry

     iteration # 95     ecut=    45.00 Ry     beta= 0.20
     Davidson diagonalization with overlap
     ethr =  2.15E-10,  avg # of iterations =  6.8

     negative rho (up, down):  6.602E-02 0.000E+00

     total cpu time spent up to now is    18659.4 secs

     total energy              =  -10278.16650870 Ry
     estimated scf accuracy    <       0.00000494 Ry

     iteration # 96     ecut=    45.00 Ry     beta= 0.20
     Davidson diagonalization with overlap
     ethr =  2.15E-10,  avg # of iterations =  6.2

     negative rho (up, down):  6.602E-02 0.000E+00

     total cpu time spent up to now is    18775.4 secs

     total energy              =  -10278.16650593 Ry
     estimated scf accuracy    <       0.00000296 Ry

     iteration # 97     ecut=    45.00 Ry     beta= 0.20
     Davidson diagonalization with overlap
     ethr =  2.15E-10,  avg # of iterations =  6.0

     negative rho (up, down):  6.602E-02 0.000E+00

     total cpu time spent up to now is    18888.1 secs

     total energy              =  -10278.16650549 Ry
     estimated scf accuracy    <       0.00000437 Ry

     iteration # 98     ecut=    45.00 Ry     beta= 0.20
     Davidson diagonalization with overlap
     ethr =  2.15E-10,  avg # of iterations =  2.0

     negative rho (up, down):  6.602E-02 0.000E+00

     total cpu time spent up to now is    18985.1 secs

     total energy              =  -10278.16650549 Ry
     estimated scf accuracy    <       0.00000372 Ry

     iteration # 99     ecut=    45.00 Ry     beta= 0.20
     Davidson diagonalization with overlap
     ethr =  2.15E-10,  avg # of iterations =  1.0

     negative rho (up, down):  6.602E-02 0.000E+00

     total cpu time spent up to now is    19068.8 secs

     total energy              =  -10278.16650486 Ry
     estimated scf accuracy    <       0.00000369 Ry

     iteration #100     ecut=    45.00 Ry     beta= 0.20
     Davidson diagonalization with overlap
     ethr =  2.15E-10,  avg # of iterations =  2.0

     negative rho (up, down):  6.602E-02 0.000E+00

     total cpu time spent up to now is    19165.9 secs

     total energy              =  -10278.16650382 Ry
     estimated scf accuracy    <       0.00000440 Ry

     iteration #101     ecut=    45.00 Ry     beta= 0.20
     Davidson diagonalization with overlap
     ethr =  2.15E-10,  avg # of iterations =  4.5

     negative rho (up, down):  6.602E-02 0.000E+00

     total cpu time spent up to now is    19267.6 secs

     total energy              =  -10278.16650432 Ry
     estimated scf accuracy    <       0.00000539 Ry

     iteration #102     ecut=    45.00 Ry     beta= 0.20
     Davidson diagonalization with overlap
     ethr =  2.15E-10,  avg # of iterations =  2.0

     negative rho (up, down):  6.603E-02 0.000E+00

     total cpu time spent up to now is    19364.6 secs

     total energy              =  -10278.16650433 Ry
     estimated scf accuracy    <       0.00000463 Ry

     iteration #103     ecut=    45.00 Ry     beta= 0.20
     Davidson diagonalization with overlap
     ethr =  2.15E-10,  avg # of iterations =  1.0

     negative rho (up, down):  6.603E-02 0.000E+00

     total cpu time spent up to now is    19448.1 secs

     total energy              =  -10278.16650213 Ry
     estimated scf accuracy    <       0.00000456 Ry

     iteration #104     ecut=    45.00 Ry     beta= 0.20
     Davidson diagonalization with overlap
     ethr =  2.15E-10,  avg # of iterations =  6.0

     negative rho (up, down):  6.603E-02 0.000E+00

     total cpu time spent up to now is    19556.7 secs

     total energy              =  -10278.16651883 Ry
     estimated scf accuracy    <       0.00000827 Ry

     iteration #105     ecut=    45.00 Ry     beta= 0.20
     Davidson diagonalization with overlap
     ethr =  2.15E-10,  avg # of iterations =  7.1

     negative rho (up, down):  6.602E-02 0.000E+00

     total cpu time spent up to now is    19686.2 secs

     total energy              =  -10278.16650899 Ry
     estimated scf accuracy    <       0.00000313 Ry

     iteration #106     ecut=    45.00 Ry     beta= 0.20
     Davidson diagonalization with overlap
     ethr =  2.15E-10,  avg # of iterations =  2.0

     negative rho (up, down):  6.602E-02 0.000E+00

     total cpu time spent up to now is    19783.4 secs

     total energy              =  -10278.16650865 Ry
     estimated scf accuracy    <       0.00000309 Ry

     iteration #107     ecut=    45.00 Ry     beta= 0.20
     Davidson diagonalization with overlap
     ethr =  2.15E-10,  avg # of iterations =  2.0

     negative rho (up, down):  6.603E-02 0.000E+00

     total cpu time spent up to now is    19880.5 secs

     total energy              =  -10278.16651067 Ry
     estimated scf accuracy    <       0.00000305 Ry

     iteration #108     ecut=    45.00 Ry     beta= 0.20
     Davidson diagonalization with overlap
     ethr =  2.15E-10,  avg # of iterations =  4.9

     negative rho (up, down):  6.604E-02 0.000E+00

     total cpu time spent up to now is    19984.7 secs

     total energy              =  -10278.16650900 Ry
     estimated scf accuracy    <       0.00000350 Ry

     iteration #109     ecut=    45.00 Ry     beta= 0.20
     Davidson diagonalization with overlap
     ethr =  2.15E-10,  avg # of iterations =  4.6

     negative rho (up, down):  6.602E-02 0.000E+00

     total cpu time spent up to now is    20087.3 secs

     total energy              =  -10278.16652067 Ry
     estimated scf accuracy    <       0.00000316 Ry

     iteration #110     ecut=    45.00 Ry     beta= 0.20
     Davidson diagonalization with overlap
     ethr =  2.15E-10,  avg # of iterations =  7.1

     negative rho (up, down):  6.602E-02 0.000E+00

     total cpu time spent up to now is    20214.5 secs

     total energy              =  -10278.16651177 Ry
     estimated scf accuracy    <       0.00001817 Ry

     iteration #111     ecut=    45.00 Ry     beta= 0.20
     Davidson diagonalization with overlap
     ethr =  2.15E-10,  avg # of iterations =  6.0

     negative rho (up, down):  6.602E-02 0.000E+00

     total cpu time spent up to now is    20327.9 secs

     total energy              =  -10278.16650842 Ry
     estimated scf accuracy    <       0.00000589 Ry

     iteration #112     ecut=    45.00 Ry     beta= 0.20
     Davidson diagonalization with overlap
     ethr =  2.15E-10,  avg # of iterations =  6.8

     negative rho (up, down):  6.603E-02 0.000E+00

     total cpu time spent up to now is    20450.4 secs

     total energy              =  -10278.16650698 Ry
     estimated scf accuracy    <       0.00000312 Ry

     iteration #113     ecut=    45.00 Ry     beta= 0.20
     Davidson diagonalization with overlap
     ethr =  2.15E-10,  avg # of iterations =  1.0

     negative rho (up, down):  6.602E-02 0.000E+00

     total cpu time spent up to now is    20534.5 secs

     total energy              =  -10278.16650732 Ry
     estimated scf accuracy    <       0.00000311 Ry

     iteration #114     ecut=    45.00 Ry     beta= 0.20
     Davidson diagonalization with overlap
     ethr =  2.15E-10,  avg # of iterations =  1.6

     negative rho (up, down):  6.601E-02 0.000E+00

     total cpu time spent up to now is    20626.7 secs

     total energy              =  -10278.16650643 Ry
     estimated scf accuracy    <       0.00000294 Ry

     iteration #115     ecut=    45.00 Ry     beta= 0.20
     Davidson diagonalization with overlap
     ethr =  2.15E-10,  avg # of iterations =  3.0

     negative rho (up, down):  6.602E-02 0.000E+00

     total cpu time spent up to now is    20727.2 secs

     total energy              =  -10278.16650593 Ry
     estimated scf accuracy    <       0.00000353 Ry

     iteration #116     ecut=    45.00 Ry     beta= 0.20
     Davidson diagonalization with overlap
     ethr =  2.15E-10,  avg # of iterations =  2.0

     negative rho (up, down):  6.602E-02 0.000E+00

     total cpu time spent up to now is    20824.9 secs

     total energy              =  -10278.16650547 Ry
     estimated scf accuracy    <       0.00000371 Ry

     iteration #117     ecut=    45.00 Ry     beta= 0.20
     Davidson diagonalization with overlap
     ethr =  2.15E-10,  avg # of iterations =  3.4

     negative rho (up, down):  6.602E-02 0.000E+00

     total cpu time spent up to now is    20924.7 secs

     total energy              =  -10278.16650359 Ry
     estimated scf accuracy    <       0.00000398 Ry

     iteration #118     ecut=    45.00 Ry     beta= 0.20
     Davidson diagonalization with overlap
     ethr =  2.15E-10,  avg # of iterations =  6.0

     negative rho (up, down):  6.602E-02 0.000E+00

     total cpu time spent up to now is    21034.9 secs

     total energy              =  -10278.16650306 Ry
     estimated scf accuracy    <       0.00000612 Ry

     iteration #119     ecut=    45.00 Ry     beta= 0.20
     Davidson diagonalization with overlap
     ethr =  2.15E-10,  avg # of iterations =  1.0

     negative rho (up, down):  6.601E-02 0.000E+00

     total cpu time spent up to now is    21119.0 secs

     total energy              =  -10278.16650654 Ry
     estimated scf accuracy    <       0.00000590 Ry

     iteration #120     ecut=    45.00 Ry     beta= 0.20
     Davidson diagonalization with overlap
     ethr =  2.15E-10,  avg # of iterations =  5.6

     negative rho (up, down):  6.602E-02 0.000E+00

     total cpu time spent up to now is    21227.0 secs

     total energy              =  -10278.16652288 Ry
     estimated scf accuracy    <       0.00000353 Ry

     iteration #121     ecut=    45.00 Ry     beta= 0.20
     Davidson diagonalization with overlap
     ethr =  2.15E-10,  avg # of iterations =  7.8

     negative rho (up, down):  6.602E-02 0.000E+00

     total cpu time spent up to now is    21364.8 secs

     total energy              =  -10278.16650891 Ry
     estimated scf accuracy    <       0.00001130 Ry

     iteration #122     ecut=    45.00 Ry     beta= 0.20
     Davidson diagonalization with overlap
     ethr =  2.15E-10,  avg # of iterations =  6.8

     negative rho (up, down):  6.602E-02 0.000E+00

     total cpu time spent up to now is    21486.7 secs

     total energy              =  -10278.16650676 Ry
     estimated scf accuracy    <       0.00000307 Ry

     iteration #123     ecut=    45.00 Ry     beta= 0.20
     Davidson diagonalization with overlap
     ethr =  2.15E-10,  avg # of iterations =  7.0

     negative rho (up, down):  6.602E-02 0.000E+00

     total cpu time spent up to now is    21608.7 secs

     total energy              =  -10278.16650441 Ry
     estimated scf accuracy    <       0.00000515 Ry

     iteration #124     ecut=    45.00 Ry     beta= 0.20
     Davidson diagonalization with overlap
     ethr =  2.15E-10,  avg # of iterations =  2.0

     negative rho (up, down):  6.602E-02 0.000E+00

     total cpu time spent up to now is    21705.9 secs

     total energy              =  -10278.16650460 Ry
     estimated scf accuracy    <       0.00000452 Ry

     iteration #125     ecut=    45.00 Ry     beta= 0.20
     Davidson diagonalization with overlap
     ethr =  2.15E-10,  avg # of iterations =  1.6

     negative rho (up, down):  6.602E-02 0.000E+00

     total cpu time spent up to now is    21797.7 secs

     total energy              =  -10278.16650546 Ry
     estimated scf accuracy    <       0.00000431 Ry

     iteration #126     ecut=    45.00 Ry     beta= 0.20
     Davidson diagonalization with overlap
     ethr =  2.15E-10,  avg # of iterations =  3.7

     negative rho (up, down):  6.603E-02 0.000E+00

     total cpu time spent up to now is    21897.8 secs

     total energy              =  -10278.16650527 Ry
     estimated scf accuracy    <       0.00000367 Ry

     iteration #127     ecut=    45.00 Ry     beta= 0.20
     Davidson diagonalization with overlap
     ethr =  2.15E-10,  avg # of iterations =  1.0

     negative rho (up, down):  6.602E-02 0.000E+00

     total cpu time spent up to now is    21981.1 secs

     total energy              =  -10278.16650537 Ry
     estimated scf accuracy    <       0.00000382 Ry

     iteration #128     ecut=    45.00 Ry     beta= 0.20
     Davidson diagonalization with overlap
     ethr =  2.15E-10,  avg # of iterations =  1.0

     negative rho (up, down):  6.602E-02 0.000E+00

     total cpu time spent up to now is    22064.8 secs

     total energy              =  -10278.16650574 Ry
     estimated scf accuracy    <       0.00000374 Ry

     iteration #129     ecut=    45.00 Ry     beta= 0.20
     Davidson diagonalization with overlap
     ethr =  2.15E-10,  avg # of iterations =  2.0

     negative rho (up, down):  6.602E-02 0.000E+00

     total cpu time spent up to now is    22161.6 secs

     total energy              =  -10278.16650556 Ry
     estimated scf accuracy    <       0.00000349 Ry

     iteration #130     ecut=    45.00 Ry     beta= 0.20
     Davidson diagonalization with overlap
     ethr =  2.15E-10,  avg # of iterations =  1.0

     negative rho (up, down):  6.602E-02 0.000E+00

     total cpu time spent up to now is    22245.0 secs

     total energy              =  -10278.16652539 Ry
     estimated scf accuracy    <       0.00000370 Ry

     iteration #131     ecut=    45.00 Ry     beta= 0.20
     Davidson diagonalization with overlap
     ethr =  2.15E-10,  avg # of iterations =  8.0

     negative rho (up, down):  6.600E-02 0.000E+00

     total cpu time spent up to now is    22384.7 secs

     total energy              =  -10278.16650692 Ry
     estimated scf accuracy    <       0.00001433 Ry

     iteration #132     ecut=    45.00 Ry     beta= 0.20
     Davidson diagonalization with overlap
     ethr =  2.15E-10,  avg # of iterations =  7.5

     negative rho (up, down):  6.599E-02 0.000E+00

     total cpu time spent up to now is    22522.0 secs

     total energy              =  -10278.16650495 Ry
     estimated scf accuracy    <       0.00000364 Ry

     iteration #133     ecut=    45.00 Ry     beta= 0.20
     Davidson diagonalization with overlap
     ethr =  2.15E-10,  avg # of iterations =  3.0

     negative rho (up, down):  6.603E-02 0.000E+00

     total cpu time spent up to now is    22621.5 secs

     total energy              =  -10278.16651273 Ry
     estimated scf accuracy    <       0.00000460 Ry

     iteration #134     ecut=    45.00 Ry     beta= 0.20
     Davidson diagonalization with overlap
     ethr =  2.15E-10,  avg # of iterations =  6.8

     negative rho (up, down):  6.605E-02 0.000E+00

     total cpu time spent up to now is    22739.9 secs

     total energy              =  -10278.16650732 Ry
     estimated scf accuracy    <       0.00000313 Ry

     iteration #135     ecut=    45.00 Ry     beta= 0.20
     Davidson diagonalization with overlap
     ethr =  2.15E-10,  avg # of iterations =  6.0

     negative rho (up, down):  6.605E-02 0.000E+00

     total cpu time spent up to now is    22852.9 secs

     total energy              =  -10278.16650859 Ry
     estimated scf accuracy    <       0.00000350 Ry

     iteration #136     ecut=    45.00 Ry     beta= 0.20
     Davidson diagonalization with overlap
     ethr =  2.15E-10,  avg # of iterations =  5.3

     negative rho (up, down):  6.605E-02 0.000E+00

     total cpu time spent up to now is    22958.8 secs

     total energy              =  -10278.16650711 Ry
     estimated scf accuracy    <       0.00000278 Ry

     iteration #137     ecut=    45.00 Ry     beta= 0.20
     Davidson diagonalization with overlap
     ethr =  2.15E-10,  avg # of iterations =  3.6

     negative rho (up, down):  6.604E-02 0.000E+00

     total cpu time spent up to now is    23059.0 secs

     total energy              =  -10278.16650753 Ry
     estimated scf accuracy    <       0.00000322 Ry

     iteration #138     ecut=    45.00 Ry     beta= 0.20
     Davidson diagonalization with overlap
     ethr =  2.15E-10,  avg # of iterations =  2.0

     negative rho (up, down):  6.605E-02 0.000E+00

     total cpu time spent up to now is    23155.8 secs

     total energy              =  -10278.16650806 Ry
     estimated scf accuracy    <       0.00000286 Ry

     iteration #139     ecut=    45.00 Ry     beta= 0.20
     Davidson diagonalization with overlap
     ethr =  2.15E-10,  avg # of iterations =  3.0

     negative rho (up, down):  6.606E-02 0.000E+00

     total cpu time spent up to now is    23254.4 secs

     total energy              =  -10278.16651107 Ry
     estimated scf accuracy    <       0.00000276 Ry

     iteration #140     ecut=    45.00 Ry     beta= 0.20
     Davidson diagonalization with overlap
     ethr =  2.15E-10,  avg # of iterations =  6.0

     negative rho (up, down):  6.605E-02 0.000E+00

     total cpu time spent up to now is    23365.3 secs

     total energy              =  -10278.16651135 Ry
     estimated scf accuracy    <       0.00000373 Ry

     iteration #141     ecut=    45.00 Ry     beta= 0.20
     Davidson diagonalization with overlap
     ethr =  2.15E-10,  avg # of iterations =  2.8

     negative rho (up, down):  6.604E-02 0.000E+00

     total cpu time spent up to now is    23463.9 secs

     total energy              =  -10278.16650899 Ry
     estimated scf accuracy    <       0.00000425 Ry

     iteration #142     ecut=    45.00 Ry     beta= 0.20
     Davidson diagonalization with overlap
     ethr =  2.15E-10,  avg # of iterations =  5.8

     negative rho (up, down):  6.604E-02 0.000E+00

     total cpu time spent up to now is    23573.3 secs

     total energy              =  -10278.16650662 Ry
     estimated scf accuracy    <       0.00000306 Ry

     iteration #143     ecut=    45.00 Ry     beta= 0.20
     Davidson diagonalization with overlap
     ethr =  2.15E-10,  avg # of iterations =  6.0

     negative rho (up, down):  6.604E-02 0.000E+00

     total cpu time spent up to now is    23685.8 secs

     total energy              =  -10278.16650595 Ry
     estimated scf accuracy    <       0.00000374 Ry

     iteration #144     ecut=    45.00 Ry     beta= 0.20
     Davidson diagonalization with overlap
     ethr =  2.15E-10,  avg # of iterations =  1.7

     negative rho (up, down):  6.604E-02 0.000E+00

     total cpu time spent up to now is    23780.0 secs

     total energy              =  -10278.16650660 Ry
     estimated scf accuracy    <       0.00000349 Ry

     iteration #145     ecut=    45.00 Ry     beta= 0.20
     Davidson diagonalization with overlap
     ethr =  2.15E-10,  avg # of iterations =  2.6

     negative rho (up, down):  6.603E-02 0.000E+00

     total cpu time spent up to now is    23878.8 secs

     total energy              =  -10278.16650456 Ry
     estimated scf accuracy    <       0.00000317 Ry

     iteration #146     ecut=    45.00 Ry     beta= 0.20
     Davidson diagonalization with overlap
     ethr =  2.15E-10,  avg # of iterations =  7.0

     negative rho (up, down):  6.604E-02 0.000E+00

     total cpu time spent up to now is    24005.4 secs

     total energy              =  -10278.16651540 Ry
     estimated scf accuracy    <       0.00001392 Ry

     iteration #147     ecut=    45.00 Ry     beta= 0.20
     Davidson diagonalization with overlap
     ethr =  2.15E-10,  avg # of iterations =  6.8

     negative rho (up, down):  6.603E-02 0.000E+00

     total cpu time spent up to now is    24131.5 secs

     total energy              =  -10278.16650432 Ry
     estimated scf accuracy    <       0.00000313 Ry

     iteration #148     ecut=    45.00 Ry     beta= 0.20
     Davidson diagonalization with overlap
     ethr =  2.15E-10,  avg # of iterations =  6.6

     negative rho (up, down):  6.602E-02 0.000E+00

     total cpu time spent up to now is    24248.9 secs

     total energy              =  -10278.16649923 Ry
     estimated scf accuracy    <       0.00000776 Ry

     iteration #149     ecut=    45.00 Ry     beta= 0.20
     Davidson diagonalization with overlap
     ethr =  2.15E-10,  avg # of iterations =  5.8

     negative rho (up, down):  6.604E-02 0.000E+00

     total cpu time spent up to now is    24357.0 secs

     total energy              =  -10278.16649782 Ry
     estimated scf accuracy    <       0.00001196 Ry

     iteration #150     ecut=    45.00 Ry     beta= 0.20
     Davidson diagonalization with overlap
     ethr =  2.15E-10,  avg # of iterations =  2.0

     negative rho (up, down):  6.605E-02 0.000E+00

     total cpu time spent up to now is    24455.6 secs

     total energy              =  -10278.16651752 Ry
     estimated scf accuracy    <       0.00001320 Ry

     iteration #151     ecut=    45.00 Ry     beta= 0.20
     Davidson diagonalization with overlap
     ethr =  2.15E-10,  avg # of iterations =  6.8

     negative rho (up, down):  6.604E-02 0.000E+00

     total cpu time spent up to now is    24580.1 secs

     total energy              =  -10278.16650915 Ry
     estimated scf accuracy    <       0.00000291 Ry

     iteration #152     ecut=    45.00 Ry     beta= 0.20
     Davidson diagonalization with overlap
     ethr =  2.15E-10,  avg # of iterations =  5.6

     negative rho (up, down):  6.605E-02 0.000E+00

     total cpu time spent up to now is    24682.9 secs

     total energy              =  -10278.16650712 Ry
     estimated scf accuracy    <       0.00000282 Ry

     iteration #153     ecut=    45.00 Ry     beta= 0.20
     Davidson diagonalization with overlap
     ethr =  2.15E-10,  avg # of iterations =  7.0

     negative rho (up, down):  6.606E-02 0.000E+00

     total cpu time spent up to now is    24807.3 secs

     total energy              =  -10278.16650333 Ry
     estimated scf accuracy    <       0.00000710 Ry

     iteration #154     ecut=    45.00 Ry     beta= 0.20
     Davidson diagonalization with overlap
     ethr =  2.15E-10,  avg # of iterations =  3.0

     negative rho (up, down):  6.607E-02 0.000E+00

     total cpu time spent up to now is    24906.8 secs

     total energy              =  -10278.16650312 Ry
     estimated scf accuracy    <       0.00000547 Ry

     iteration #155     ecut=    45.00 Ry     beta= 0.20
     Davidson diagonalization with overlap
     ethr =  2.15E-10,  avg # of iterations =  1.0

     negative rho (up, down):  6.605E-02 0.000E+00

     total cpu time spent up to now is    24990.3 secs

     total energy              =  -10278.16651158 Ry
     estimated scf accuracy    <       0.00000562 Ry

     iteration #156     ecut=    45.00 Ry     beta= 0.20
     Davidson diagonalization with overlap
     ethr =  2.15E-10,  avg # of iterations =  6.6

     negative rho (up, down):  6.605E-02 0.000E+00

     total cpu time spent up to now is    25108.7 secs

     total energy              =  -10278.16650815 Ry
     estimated scf accuracy    <       0.00000279 Ry

     iteration #157     ecut=    45.00 Ry     beta= 0.20
     Davidson diagonalization with overlap
     ethr =  2.15E-10,  avg # of iterations =  1.0

     negative rho (up, down):  6.605E-02 0.000E+00

     total cpu time spent up to now is    25192.3 secs

     total energy              =  -10278.16651194 Ry
     estimated scf accuracy    <       0.00000284 Ry

     iteration #158     ecut=    45.00 Ry     beta= 0.20
     Davidson diagonalization with overlap
     ethr =  2.15E-10,  avg # of iterations =  6.0

     negative rho (up, down):  6.605E-02 0.000E+00

     total cpu time spent up to now is    25305.1 secs

     total energy              =  -10278.16650904 Ry
     estimated scf accuracy    <       0.00000429 Ry

     iteration #159     ecut=    45.00 Ry     beta= 0.20
     Davidson diagonalization with overlap
     ethr =  2.15E-10,  avg # of iterations =  5.6

     negative rho (up, down):  6.606E-02 0.000E+00

     total cpu time spent up to now is    25413.7 secs

     total energy              =  -10278.16650871 Ry
     estimated scf accuracy    <       0.00000316 Ry

     iteration #160     ecut=    45.00 Ry     beta= 0.20
     Davidson diagonalization with overlap
     ethr =  2.15E-10,  avg # of iterations =  1.0

     negative rho (up, down):  6.605E-02 0.000E+00

     total cpu time spent up to now is    25497.3 secs

     total energy              =  -10278.16650749 Ry
     estimated scf accuracy    <       0.00000311 Ry

     iteration #161     ecut=    45.00 Ry     beta= 0.20
     Davidson diagonalization with overlap
     ethr =  2.15E-10,  avg # of iterations =  4.8

     negative rho (up, down):  6.607E-02 0.000E+00

     total cpu time spent up to now is    25601.9 secs

     total energy              =  -10278.16650492 Ry
     estimated scf accuracy    <       0.00000330 Ry

     iteration #162     ecut=    45.00 Ry     beta= 0.20
     Davidson diagonalization with overlap
     ethr =  2.15E-10,  avg # of iterations =  7.0

     negative rho (up, down):  6.602E-02 0.000E+00

     total cpu time spent up to now is    25723.3 secs

     total energy              =  -10278.16650093 Ry
     estimated scf accuracy    <       0.00000745 Ry

     iteration #163     ecut=    45.00 Ry     beta= 0.20
     Davidson diagonalization with overlap
     ethr =  2.15E-10,  avg # of iterations =  2.9

     negative rho (up, down):  6.605E-02 0.000E+00

     total cpu time spent up to now is    25822.8 secs

     total energy              =  -10278.16649434 Ry
     estimated scf accuracy    <       0.00000904 Ry

     iteration #164     ecut=    45.00 Ry     beta= 0.20
     Davidson diagonalization with overlap
     ethr =  2.15E-10,  avg # of iterations =  8.0

     negative rho (up, down):  6.601E-02 0.000E+00

     total cpu time spent up to now is    25963.3 secs

     total energy              =  -10278.16657953 Ry
     estimated scf accuracy    <       0.00006014 Ry

     iteration #165     ecut=    45.00 Ry     beta= 0.20
     Davidson diagonalization with overlap
     ethr =  2.15E-10,  avg # of iterations =  8.9

     negative rho (up, down):  6.603E-02 0.000E+00

     total cpu time spent up to now is    26126.6 secs

     total energy              =  -10278.16650819 Ry
     estimated scf accuracy    <       0.00000329 Ry

     iteration #166     ecut=    45.00 Ry     beta= 0.20
     Davidson diagonalization with overlap
     ethr =  2.15E-10,  avg # of iterations =  7.1

     negative rho (up, down):  6.604E-02 0.000E+00

     total cpu time spent up to now is    26257.6 secs

     total energy              =  -10278.16651779 Ry
     estimated scf accuracy    <       0.00000754 Ry

     iteration #167     ecut=    45.00 Ry     beta= 0.20
     Davidson diagonalization with overlap
     ethr =  2.15E-10,  avg # of iterations =  6.9

     negative rho (up, down):  6.608E-02 0.000E+00

     total cpu time spent up to now is    26385.6 secs

     total energy              =  -10278.16650840 Ry
     estimated scf accuracy    <       0.00000326 Ry

     iteration #168     ecut=    45.00 Ry     beta= 0.20
     Davidson diagonalization with overlap
     ethr =  2.15E-10,  avg # of iterations =  4.2

     negative rho (up, down):  6.604E-02 0.000E+00

     total cpu time spent up to now is    26487.5 secs

     total energy              =  -10278.16652950 Ry
     estimated scf accuracy    <       0.00000314 Ry

     iteration #169     ecut=    45.00 Ry     beta= 0.20
     Davidson diagonalization with overlap
     ethr =  2.15E-10,  avg # of iterations =  7.7

     negative rho (up, down):  6.604E-02 0.000E+00

     total cpu time spent up to now is    26627.8 secs

     total energy              =  -10278.16649388 Ry
     estimated scf accuracy    <       0.00004609 Ry

     iteration #170     ecut=    45.00 Ry     beta= 0.20
     Davidson diagonalization with overlap
     ethr =  2.15E-10,  avg # of iterations = 10.7

     negative rho (up, down):  6.604E-02 0.000E+00

     total cpu time spent up to now is    26797.0 secs

     total energy              =  -10278.16648587 Ry
     estimated scf accuracy    <       0.00001698 Ry

     iteration #171     ecut=    45.00 Ry     beta= 0.20
     Davidson diagonalization with overlap
     ethr =  2.15E-10,  avg # of iterations =  7.0

     negative rho (up, down):  6.604E-02 0.000E+00

     total cpu time spent up to now is    26920.2 secs

     total energy              =  -10278.16648283 Ry
     estimated scf accuracy    <       0.00005383 Ry

     iteration #172     ecut=    45.00 Ry     beta= 0.20
     Davidson diagonalization with overlap
     ethr =  2.15E-10,  avg # of iterations =  5.0

     negative rho (up, down):  6.604E-02 0.000E+00

     total cpu time spent up to now is    27024.5 secs

     total energy              =  -10278.16648764 Ry
     estimated scf accuracy    <       0.00004251 Ry

     iteration #173     ecut=    45.00 Ry     beta= 0.20
     Davidson diagonalization with overlap
     ethr =  2.15E-10,  avg # of iterations =  5.0

     negative rho (up, down):  6.604E-02 0.000E+00

     total cpu time spent up to now is    27130.7 secs

     total energy              =  -10278.16648691 Ry
     estimated scf accuracy    <       0.00003259 Ry

     iteration #174     ecut=    45.00 Ry     beta= 0.20
     Davidson diagonalization with overlap
     ethr =  2.15E-10,  avg # of iterations =  1.0

     negative rho (up, down):  6.605E-02 0.000E+00

     total cpu time spent up to now is    27212.6 secs

     total energy              =  -10278.16649044 Ry
     estimated scf accuracy    <       0.00003325 Ry

     iteration #175     ecut=    45.00 Ry     beta= 0.20
     Davidson diagonalization with overlap
     ethr =  2.15E-10,  avg # of iterations =  3.9

     negative rho (up, down):  6.605E-02 0.000E+00

     total cpu time spent up to now is    27311.3 secs

     total energy              =  -10278.16650016 Ry
     estimated scf accuracy    <       0.00002644 Ry

     iteration #176     ecut=    45.00 Ry     beta= 0.20
     Davidson diagonalization with overlap
     ethr =  2.15E-10,  avg # of iterations =  6.0

     negative rho (up, down):  6.606E-02 0.000E+00

     total cpu time spent up to now is    27424.1 secs

     total energy              =  -10278.16649697 Ry
     estimated scf accuracy    <       0.00001303 Ry

     iteration #177     ecut=    45.00 Ry     beta= 0.20
     Davidson diagonalization with overlap
     ethr =  2.15E-10,  avg # of iterations =  2.0

     negative rho (up, down):  6.604E-02 0.000E+00

     total cpu time spent up to now is    27521.6 secs

     total energy              =  -10278.16649817 Ry
     estimated scf accuracy    <       0.00001460 Ry

     iteration #178     ecut=    45.00 Ry     beta= 0.20
     Davidson diagonalization with overlap
     ethr =  2.15E-10,  avg # of iterations =  2.0

     negative rho (up, down):  6.605E-02 0.000E+00

     total cpu time spent up to now is    27619.3 secs

     total energy              =  -10278.16651288 Ry
     estimated scf accuracy    <       0.00001256 Ry

     iteration #179     ecut=    45.00 Ry     beta= 0.20
     Davidson diagonalization with overlap
     ethr =  2.15E-10,  avg # of iterations =  6.8

     negative rho (up, down):  6.605E-02 0.000E+00

     total cpu time spent up to now is    27743.4 secs

     total energy              =  -10278.16650664 Ry
     estimated scf accuracy    <       0.00000352 Ry

     iteration #180     ecut=    45.00 Ry     beta= 0.20
     Davidson diagonalization with overlap
     ethr =  2.15E-10,  avg # of iterations =  1.9

     negative rho (up, down):  6.605E-02 0.000E+00

     total cpu time spent up to now is    27841.0 secs

     total energy              =  -10278.16650630 Ry
     estimated scf accuracy    <       0.00000332 Ry

     iteration #181     ecut=    45.00 Ry     beta= 0.20
     Davidson diagonalization with overlap
     ethr =  2.15E-10,  avg # of iterations =  1.8

     negative rho (up, down):  6.605E-02 0.000E+00

     total cpu time spent up to now is    27936.0 secs

     total energy              =  -10278.16650938 Ry
     estimated scf accuracy    <       0.00000373 Ry

     iteration #182     ecut=    45.00 Ry     beta= 0.20
     Davidson diagonalization with overlap
     ethr =  2.15E-10,  avg # of iterations =  5.7

     negative rho (up, down):  6.605E-02 0.000E+00

     total cpu time spent up to now is    28045.3 secs

     total energy              =  -10278.16651338 Ry
     estimated scf accuracy    <       0.00000303 Ry

     iteration #183     ecut=    45.00 Ry     beta= 0.20
     Davidson diagonalization with overlap
     ethr =  2.15E-10,  avg # of iterations =  6.6

     negative rho (up, down):  6.603E-02 0.000E+00

     total cpu time spent up to now is    28161.9 secs

     total energy              =  -10278.16650958 Ry
     estimated scf accuracy    <       0.00000584 Ry

     iteration #184     ecut=    45.00 Ry     beta= 0.20
     Davidson diagonalization with overlap
     ethr =  2.15E-10,  avg # of iterations =  7.7

     negative rho (up, down):  6.603E-02 0.000E+00

     total cpu time spent up to now is    28299.7 secs

     total energy              =  -10278.16650274 Ry
     estimated scf accuracy    <       0.00000756 Ry

     iteration #185     ecut=    45.00 Ry     beta= 0.20
     Davidson diagonalization with overlap
     ethr =  2.15E-10,  avg # of iterations =  2.0

     negative rho (up, down):  6.606E-02 0.000E+00

     total cpu time spent up to now is    28397.6 secs

     total energy              =  -10278.16650312 Ry
     estimated scf accuracy    <       0.00000643 Ry

     iteration #186     ecut=    45.00 Ry     beta= 0.20
     Davidson diagonalization with overlap
     ethr =  2.15E-10,  avg # of iterations =  2.0

     negative rho (up, down):  6.604E-02 0.000E+00

     total cpu time spent up to now is    28494.6 secs

     total energy              =  -10278.16650524 Ry
     estimated scf accuracy    <       0.00000581 Ry

     iteration #187     ecut=    45.00 Ry     beta= 0.20
     Davidson diagonalization with overlap
     ethr =  2.15E-10,  avg # of iterations =  5.9

     negative rho (up, down):  6.605E-02 0.000E+00

     total cpu time spent up to now is    28599.7 secs

     total energy              =  -10278.16650566 Ry
     estimated scf accuracy    <       0.00000425 Ry

     iteration #188     ecut=    45.00 Ry     beta= 0.20
     Davidson diagonalization with overlap
     ethr =  2.15E-10,  avg # of iterations =  2.5

     negative rho (up, down):  6.606E-02 0.000E+00

     total cpu time spent up to now is    28698.0 secs

     total energy              =  -10278.16652099 Ry
     estimated scf accuracy    <       0.00000369 Ry

     iteration #189     ecut=    45.00 Ry     beta= 0.20
     Davidson diagonalization with overlap
     ethr =  2.15E-10,  avg # of iterations =  7.8

     negative rho (up, down):  6.607E-02 0.000E+00

     total cpu time spent up to now is    28833.6 secs

     total energy              =  -10278.16650825 Ry
     estimated scf accuracy    <       0.00000917 Ry

     iteration #190     ecut=    45.00 Ry     beta= 0.20
     Davidson diagonalization with overlap
     ethr =  2.15E-10,  avg # of iterations =  7.5

     negative rho (up, down):  6.606E-02 0.000E+00

     total cpu time spent up to now is    28969.0 secs

     total energy              =  -10278.16650121 Ry
     estimated scf accuracy    <       0.00000482 Ry

     iteration #191     ecut=    45.00 Ry     beta= 0.20
     Davidson diagonalization with overlap
     ethr =  2.15E-10,  avg # of iterations =  6.9

     negative rho (up, down):  6.606E-02 0.000E+00

     total cpu time spent up to now is    29089.2 secs

     total energy              =  -10278.16650108 Ry
     estimated scf accuracy    <       0.00001583 Ry

     iteration #192     ecut=    45.00 Ry     beta= 0.20
     Davidson diagonalization with overlap
     ethr =  2.15E-10,  avg # of iterations =  5.8

     negative rho (up, down):  6.603E-02 0.000E+00

     total cpu time spent up to now is    29195.7 secs

     total energy              =  -10278.16652204 Ry
     estimated scf accuracy    <       0.00000959 Ry

     iteration #193     ecut=    45.00 Ry     beta= 0.20
     Davidson diagonalization with overlap
     ethr =  2.15E-10,  avg # of iterations =  7.7

     negative rho (up, down):  6.605E-02 0.000E+00

     total cpu time spent up to now is    29331.5 secs

     total energy              =  -10278.16650749 Ry
     estimated scf accuracy    <       0.00000362 Ry

     iteration #194     ecut=    45.00 Ry     beta= 0.20
     Davidson diagonalization with overlap
     ethr =  2.15E-10,  avg # of iterations =  6.8

     negative rho (up, down):  6.607E-02 0.000E+00

     total cpu time spent up to now is    29449.6 secs

     total energy              =  -10278.16650546 Ry
     estimated scf accuracy    <       0.00000416 Ry

     iteration #195     ecut=    45.00 Ry     beta= 0.20
     Davidson diagonalization with overlap
     ethr =  2.15E-10,  avg # of iterations =  1.0

     negative rho (up, down):  6.606E-02 0.000E+00

     total cpu time spent up to now is    29535.0 secs

     total energy              =  -10278.16650555 Ry
     estimated scf accuracy    <       0.00000399 Ry

     iteration #196     ecut=    45.00 Ry     beta= 0.20
     Davidson diagonalization with overlap
     ethr =  2.15E-10,  avg # of iterations =  1.0

     negative rho (up, down):  6.606E-02 0.000E+00

     total cpu time spent up to now is    29618.8 secs

     total energy              =  -10278.16650292 Ry
     estimated scf accuracy    <       0.00000387 Ry

     iteration #197     ecut=    45.00 Ry     beta= 0.20
     Davidson diagonalization with overlap
     ethr =  2.15E-10,  avg # of iterations =  7.0

     negative rho (up, down):  6.606E-02 0.000E+00

     total cpu time spent up to now is    29738.6 secs

     total energy              =  -10278.16649461 Ry
     estimated scf accuracy    <       0.00001626 Ry

     iteration #198     ecut=    45.00 Ry     beta= 0.20
     Davidson diagonalization with overlap
     ethr =  2.15E-10,  avg # of iterations =  2.0

     negative rho (up, down):  6.604E-02 0.000E+00

     total cpu time spent up to now is    29832.5 secs

     total energy              =  -10278.16650898 Ry
     estimated scf accuracy    <       0.00001892 Ry

     iteration #199     ecut=    45.00 Ry     beta= 0.20
     Davidson diagonalization with overlap
     ethr =  2.15E-10,  avg # of iterations =  6.9

     negative rho (up, down):  6.604E-02 0.000E+00

     total cpu time spent up to now is    29950.9 secs

     total energy              =  -10278.16650520 Ry
     estimated scf accuracy    <       0.00000553 Ry

     iteration #200     ecut=    45.00 Ry     beta= 0.20
     Davidson diagonalization with overlap
     ethr =  2.15E-10,  avg # of iterations =  4.5

     negative rho (up, down):  6.604E-02 0.000E+00

     total cpu time spent up to now is    30053.2 secs

     total energy              =  -10278.16651231 Ry
     estimated scf accuracy    <       0.00000406 Ry

     iteration #201     ecut=    45.00 Ry     beta= 0.20
     Davidson diagonalization with overlap
     ethr =  2.15E-10,  avg # of iterations =  6.8

     negative rho (up, down):  6.605E-02 0.000E+00

     total cpu time spent up to now is    30173.6 secs

     total energy              =  -10278.16650729 Ry
     estimated scf accuracy    <       0.00000319 Ry

     iteration #202     ecut=    45.00 Ry     beta= 0.20
     Davidson diagonalization with overlap
     ethr =  2.15E-10,  avg # of iterations =  6.0

     negative rho (up, down):  6.605E-02 0.000E+00

     total cpu time spent up to now is    30287.8 secs

     total energy              =  -10278.16650525 Ry
     estimated scf accuracy    <       0.00000376 Ry

     iteration #203     ecut=    45.00 Ry     beta= 0.20
     Davidson diagonalization with overlap
     ethr =  2.15E-10,  avg # of iterations =  2.0

     negative rho (up, down):  6.604E-02 0.000E+00

     total cpu time spent up to now is    30384.7 secs

     total energy              =  -10278.16651167 Ry
     estimated scf accuracy    <       0.00000425 Ry

     iteration #204     ecut=    45.00 Ry     beta= 0.20
     Davidson diagonalization with overlap
     ethr =  2.15E-10,  avg # of iterations =  6.1

     negative rho (up, down):  6.604E-02 0.000E+00

     total cpu time spent up to now is    30499.4 secs

     total energy              =  -10278.16651902 Ry
     estimated scf accuracy    <       0.00000305 Ry

     iteration #205     ecut=    45.00 Ry     beta= 0.20
     Davidson diagonalization with overlap
     ethr =  2.15E-10,  avg # of iterations =  7.0

     negative rho (up, down):  6.603E-02 0.000E+00

     total cpu time spent up to now is    30624.6 secs

     total energy              =  -10278.16650652 Ry
     estimated scf accuracy    <       0.00001606 Ry

     iteration #206     ecut=    45.00 Ry     beta= 0.20
     Davidson diagonalization with overlap
     ethr =  2.15E-10,  avg # of iterations =  7.4

     negative rho (up, down):  6.603E-02 0.000E+00

     total cpu time spent up to now is    30760.5 secs

     total energy              =  -10278.16651147 Ry
     estimated scf accuracy    <       0.00000356 Ry

     iteration #207     ecut=    45.00 Ry     beta= 0.20
     Davidson diagonalization with overlap
     ethr =  2.15E-10,  avg # of iterations =  6.1

     negative rho (up, down):  6.603E-02 0.000E+00

     total cpu time spent up to now is    30874.8 secs

     total energy              =  -10278.16653420 Ry
     estimated scf accuracy    <       0.00000333 Ry

     iteration #208     ecut=    45.00 Ry     beta= 0.20
     Davidson diagonalization with overlap
     ethr =  2.15E-10,  avg # of iterations = 10.8

     negative rho (up, down):  6.604E-02 0.000E+00

     total cpu time spent up to now is    31045.4 secs

     total energy              =  -10278.16654592 Ry
     estimated scf accuracy    <       0.00010383 Ry

     iteration #209     ecut=    45.00 Ry     beta= 0.20
     Davidson diagonalization with overlap
     ethr =  2.15E-10,  avg # of iterations =  8.0

     negative rho (up, down):  6.603E-02 0.000E+00

     total cpu time spent up to now is    31192.3 secs

     total energy              =  -10278.16650036 Ry
     estimated scf accuracy    <       0.00000876 Ry

     iteration #210     ecut=    45.00 Ry     beta= 0.20
     Davidson diagonalization with overlap
     ethr =  2.15E-10,  avg # of iterations =  1.0

     negative rho (up, down):  6.603E-02 0.000E+00

     total cpu time spent up to now is    31275.5 secs

     total energy              =  -10278.16650178 Ry
     estimated scf accuracy    <       0.00000930 Ry

     iteration #211     ecut=    45.00 Ry     beta= 0.20
     Davidson diagonalization with overlap
     ethr =  2.15E-10,  avg # of iterations =  3.0

     negative rho (up, down):  6.605E-02 0.000E+00

     total cpu time spent up to now is    31374.1 secs

     total energy              =  -10278.16650951 Ry
     estimated scf accuracy    <       0.00000730 Ry

     iteration #212     ecut=    45.00 Ry     beta= 0.20
     Davidson diagonalization with overlap
     ethr =  2.15E-10,  avg # of iterations =  6.6

     negative rho (up, down):  6.605E-02 0.000E+00

     total cpu time spent up to now is    31490.8 secs

     total energy              =  -10278.16650635 Ry
     estimated scf accuracy    <       0.00000311 Ry

     iteration #213     ecut=    45.00 Ry     beta= 0.20
     Davidson diagonalization with overlap
     ethr =  2.15E-10,  avg # of iterations =  1.8

     negative rho (up, down):  6.605E-02 0.000E+00

     total cpu time spent up to now is    31585.2 secs

     total energy              =  -10278.16650790 Ry
     estimated scf accuracy    <       0.00000330 Ry

     iteration #214     ecut=    45.00 Ry     beta= 0.20
     Davidson diagonalization with overlap
     ethr =  2.15E-10,  avg # of iterations =  3.6

     negative rho (up, down):  6.605E-02 0.000E+00

     total cpu time spent up to now is    31686.7 secs

     total energy              =  -10278.16650939 Ry
     estimated scf accuracy    <       0.00000272 Ry

     iteration #215     ecut=    45.00 Ry     beta= 0.20
     Davidson diagonalization with overlap
     ethr =  2.13E-10,  avg # of iterations =  5.8

     negative rho (up, down):  6.605E-02 0.000E+00

     total cpu time spent up to now is    31794.3 secs

     total energy              =  -10278.16650852 Ry
     estimated scf accuracy    <       0.00000293 Ry

     iteration #216     ecut=    45.00 Ry     beta= 0.20
     Davidson diagonalization with overlap
     ethr =  2.13E-10,  avg # of iterations =  2.6

     negative rho (up, down):  6.605E-02 0.000E+00

     total cpu time spent up to now is    31892.5 secs

     total energy              =  -10278.16651011 Ry
     estimated scf accuracy    <       0.00000297 Ry

     iteration #217     ecut=    45.00 Ry     beta= 0.20
     Davidson diagonalization with overlap
     ethr =  2.13E-10,  avg # of iterations =  4.2

     negative rho (up, down):  6.608E-02 0.000E+00

     total cpu time spent up to now is    31995.0 secs

     total energy              =  -10278.16651742 Ry
     estimated scf accuracy    <       0.00000318 Ry

     iteration #218     ecut=    45.00 Ry     beta= 0.20
     Davidson diagonalization with overlap
     ethr =  2.13E-10,  avg # of iterations =  7.0

     negative rho (up, down):  6.605E-02 0.000E+00

     total cpu time spent up to now is    32118.1 secs

     total energy              =  -10278.16650784 Ry
     estimated scf accuracy    <       0.00001375 Ry

     iteration #219     ecut=    45.00 Ry     beta= 0.20
     Davidson diagonalization with overlap
     ethr =  2.13E-10,  avg # of iterations =  6.7

     negative rho (up, down):  6.605E-02 0.000E+00

     total cpu time spent up to now is    32244.8 secs

     total energy              =  -10278.16650600 Ry
     estimated scf accuracy    <       0.00000300 Ry

     iteration #220     ecut=    45.00 Ry     beta= 0.20
     Davidson diagonalization with overlap
     ethr =  2.13E-10,  avg # of iterations =  7.0

     negative rho (up, down):  6.604E-02 0.000E+00

     total cpu time spent up to now is    32367.0 secs

     total energy              =  -10278.16650547 Ry
     estimated scf accuracy    <       0.00000696 Ry

     iteration #221     ecut=    45.00 Ry     beta= 0.20
     Davidson diagonalization with overlap
     ethr =  2.13E-10,  avg # of iterations =  5.8

     negative rho (up, down):  6.604E-02 0.000E+00

     total cpu time spent up to now is    32473.4 secs

     total energy              =  -10278.16650479 Ry
     estimated scf accuracy    <       0.00000422 Ry

     iteration #222     ecut=    45.00 Ry     beta= 0.20
     Davidson diagonalization with overlap
     ethr =  2.13E-10,  avg # of iterations =  1.0

     negative rho (up, down):  6.605E-02 0.000E+00

     total cpu time spent up to now is    32556.7 secs

     total energy              =  -10278.16650970 Ry
     estimated scf accuracy    <       0.00000422 Ry

     iteration #223     ecut=    45.00 Ry     beta= 0.20
     Davidson diagonalization with overlap
     ethr =  2.13E-10,  avg # of iterations =  6.1

     negative rho (up, down):  6.604E-02 0.000E+00

     total cpu time spent up to now is    32670.2 secs

     total energy              =  -10278.16650742 Ry
     estimated scf accuracy    <       0.00000281 Ry

     iteration #224     ecut=    45.00 Ry     beta= 0.20
     Davidson diagonalization with overlap
     ethr =  2.13E-10,  avg # of iterations =  2.6

     negative rho (up, down):  6.604E-02 0.000E+00

     total cpu time spent up to now is    32768.6 secs

     total energy              =  -10278.16650941 Ry
     estimated scf accuracy    <       0.00000308 Ry

     iteration #225     ecut=    45.00 Ry     beta= 0.20
     Davidson diagonalization with overlap
     ethr =  2.13E-10,  avg # of iterations =  4.6

     negative rho (up, down):  6.604E-02 0.000E+00

     total cpu time spent up to now is    32872.5 secs

     total energy              =  -10278.16651203 Ry
     estimated scf accuracy    <       0.00000283 Ry

     iteration #226     ecut=    45.00 Ry     beta= 0.20
     Davidson diagonalization with overlap
     ethr =  2.13E-10,  avg # of iterations =  6.0

     negative rho (up, down):  6.604E-02 0.000E+00

     total cpu time spent up to now is    32983.9 secs

     total energy              =  -10278.16650827 Ry
     estimated scf accuracy    <       0.00000462 Ry

     iteration #227     ecut=    45.00 Ry     beta= 0.20
     Davidson diagonalization with overlap
     ethr =  2.13E-10,  avg # of iterations =  6.8

     negative rho (up, down):  6.605E-02 0.000E+00

     total cpu time spent up to now is    33104.5 secs

     total energy              =  -10278.16651100 Ry
     estimated scf accuracy    <       0.00000334 Ry

     iteration #228     ecut=    45.00 Ry     beta= 0.20
     Davidson diagonalization with overlap
     ethr =  2.13E-10,  avg # of iterations =  6.0

     negative rho (up, down):  6.605E-02 0.000E+00

     total cpu time spent up to now is    33217.3 secs

     total energy              =  -10278.16650736 Ry
     estimated scf accuracy    <       0.00000311 Ry

     iteration #229     ecut=    45.00 Ry     beta= 0.20
     Davidson diagonalization with overlap
     ethr =  2.13E-10,  avg # of iterations =  7.0

     negative rho (up, down):  6.604E-02 0.000E+00

     total cpu time spent up to now is    33338.7 secs

     total energy              =  -10278.16651738 Ry
     estimated scf accuracy    <       0.00000497 Ry

     iteration #230     ecut=    45.00 Ry     beta= 0.20
     Davidson diagonalization with overlap
     ethr =  2.13E-10,  avg # of iterations =  7.0

     negative rho (up, down):  6.604E-02 0.000E+00

     total cpu time spent up to now is    33464.8 secs

     total energy              =  -10278.16651042 Ry
     estimated scf accuracy    <       0.00000406 Ry

     iteration #231     ecut=    45.00 Ry     beta= 0.20
     Davidson diagonalization with overlap
     ethr =  2.13E-10,  avg # of iterations =  2.0

     negative rho (up, down):  6.604E-02 0.000E+00

     total cpu time spent up to now is    33562.7 secs

     total energy              =  -10278.16651660 Ry
     estimated scf accuracy    <       0.00000374 Ry

     iteration #232     ecut=    45.00 Ry     beta= 0.20
     Davidson diagonalization with overlap
     ethr =  2.13E-10,  avg # of iterations =  6.9

     negative rho (up, down):  6.604E-02 0.000E+00

     total cpu time spent up to now is    33680.3 secs

     total energy              =  -10278.16650768 Ry
     estimated scf accuracy    <       0.00001189 Ry

     iteration #233     ecut=    45.00 Ry     beta= 0.20
     Davidson diagonalization with overlap
     ethr =  2.13E-10,  avg # of iterations =  7.0

     negative rho (up, down):  6.604E-02 0.000E+00

     total cpu time spent up to now is    33811.6 secs

     total energy              =  -10278.16650993 Ry
     estimated scf accuracy    <       0.00000315 Ry

     iteration #234     ecut=    45.00 Ry     beta= 0.20
     Davidson diagonalization with overlap
     ethr =  2.13E-10,  avg # of iterations =  5.8

     negative rho (up, down):  6.605E-02 0.000E+00

     total cpu time spent up to now is    33921.8 secs

     total energy              =  -10278.16650733 Ry
     estimated scf accuracy    <       0.00000297 Ry

     iteration #235     ecut=    45.00 Ry     beta= 0.20
     Davidson diagonalization with overlap
     ethr =  2.13E-10,  avg # of iterations =  7.0

     negative rho (up, down):  6.604E-02 0.000E+00

     total cpu time spent up to now is    34046.7 secs

     total energy              =  -10278.16651218 Ry
     estimated scf accuracy    <       0.00000674 Ry

     iteration #236     ecut=    45.00 Ry     beta= 0.20
     Davidson diagonalization with overlap
     ethr =  2.13E-10,  avg # of iterations =  6.6

     negative rho (up, down):  6.604E-02 0.000E+00

     total cpu time spent up to now is    34166.6 secs

     total energy              =  -10278.16650652 Ry
     estimated scf accuracy    <       0.00000282 Ry

     iteration #237     ecut=    45.00 Ry     beta= 0.20
     Davidson diagonalization with overlap
     ethr =  2.13E-10,  avg # of iterations =  5.5

     negative rho (up, down):  6.604E-02 0.000E+00

     total cpu time spent up to now is    34273.1 secs

     total energy              =  -10278.16650925 Ry
     estimated scf accuracy    <       0.00000352 Ry

     iteration #238     ecut=    45.00 Ry     beta= 0.20
     Davidson diagonalization with overlap
     ethr =  2.13E-10,  avg # of iterations =  5.6

     negative rho (up, down):  6.604E-02 0.000E+00

     total cpu time spent up to now is    34381.3 secs

     total energy              =  -10278.16650733 Ry
     estimated scf accuracy    <       0.00000278 Ry

     iteration #239     ecut=    45.00 Ry     beta= 0.20
     Davidson diagonalization with overlap
     ethr =  2.13E-10,  avg # of iterations =  4.5

     negative rho (up, down):  6.603E-02 0.000E+00

     total cpu time spent up to now is    34483.4 secs

     total energy              =  -10278.16650775 Ry
     estimated scf accuracy    <       0.00000312 Ry

     iteration #240     ecut=    45.00 Ry     beta= 0.20
     Davidson diagonalization with overlap
     ethr =  2.13E-10,  avg # of iterations =  2.0

     negative rho (up, down):  6.603E-02 0.000E+00

     total cpu time spent up to now is    34579.9 secs

     total energy              =  -10278.16651142 Ry
     estimated scf accuracy    <       0.00000281 Ry

     iteration #241     ecut=    45.00 Ry     beta= 0.20
     Davidson diagonalization with overlap
     ethr =  2.13E-10,  avg # of iterations =  6.4

     negative rho (up, down):  6.604E-02 0.000E+00

     total cpu time spent up to now is    34692.8 secs

     total energy              =  -10278.16651211 Ry
     estimated scf accuracy    <       0.00000370 Ry

     iteration #242     ecut=    45.00 Ry     beta= 0.20
     Davidson diagonalization with overlap
     ethr =  2.13E-10,  avg # of iterations =  4.6

     negative rho (up, down):  6.604E-02 0.000E+00

     total cpu time spent up to now is    34795.2 secs

     total energy              =  -10278.16651122 Ry
     estimated scf accuracy    <       0.00000489 Ry

     iteration #243     ecut=    45.00 Ry     beta= 0.20
     Davidson diagonalization with overlap
     ethr =  2.13E-10,  avg # of iterations =  2.8

     negative rho (up, down):  6.603E-02 0.000E+00

     total cpu time spent up to now is    34892.8 secs

     total energy              =  -10278.16650806 Ry
     estimated scf accuracy    <       0.00000432 Ry

     iteration #244     ecut=    45.00 Ry     beta= 0.20
     Davidson diagonalization with overlap
     ethr =  2.13E-10,  avg # of iterations =  6.8

     negative rho (up, down):  6.604E-02 0.000E+00

     total cpu time spent up to now is    35012.3 secs

     total energy              =  -10278.16650384 Ry
     estimated scf accuracy    <       0.00000340 Ry

     iteration #245     ecut=    45.00 Ry     beta= 0.20
     Davidson diagonalization with overlap
     ethr =  2.13E-10,  avg # of iterations =  6.9

     negative rho (up, down):  6.604E-02 0.000E+00

     total cpu time spent up to now is    35129.1 secs

     total energy              =  -10278.16653440 Ry
     estimated scf accuracy    <       0.00000812 Ry

     iteration #246     ecut=    45.00 Ry     beta= 0.20
     Davidson diagonalization with overlap
     ethr =  2.13E-10,  avg # of iterations =  8.0

     negative rho (up, down):  6.604E-02 0.000E+00

     total cpu time spent up to now is    35273.0 secs

     total energy              =  -10278.16651274 Ry
     estimated scf accuracy    <       0.00000970 Ry

     iteration #247     ecut=    45.00 Ry     beta= 0.20
     Davidson diagonalization with overlap
     ethr =  2.13E-10,  avg # of iterations =  5.0

     negative rho (up, down):  6.604E-02 0.000E+00

     total cpu time spent up to now is    35376.6 secs

     total energy              =  -10278.16650843 Ry
     estimated scf accuracy    <       0.00000623 Ry

     iteration #248     ecut=    45.00 Ry     beta= 0.20
     Davidson diagonalization with overlap
     ethr =  2.13E-10,  avg # of iterations =  6.6

     negative rho (up, down):  6.604E-02 0.000E+00

     total cpu time spent up to now is    35498.2 secs

     total energy              =  -10278.16650572 Ry
     estimated scf accuracy    <       0.00000299 Ry

     iteration #249     ecut=    45.00 Ry     beta= 0.20
     Davidson diagonalization with overlap
     ethr =  2.13E-10,  avg # of iterations =  5.8

     negative rho (up, down):  6.603E-02 0.000E+00

     total cpu time spent up to now is    35605.9 secs

     total energy              =  -10278.16650218 Ry
     estimated scf accuracy    <       0.00000414 Ry

     iteration #250     ecut=    45.00 Ry     beta= 0.20
     Davidson diagonalization with overlap
     ethr =  2.13E-10,  avg # of iterations =  6.9

     negative rho (up, down):  6.604E-02 0.000E+00

     total cpu time spent up to now is    35725.2 secs

     total energy              =  -10278.16649529 Ry
     estimated scf accuracy    <       0.00001185 Ry

     End of self-consistent calculation

     convergence NOT achieved after 250 iterations: stopping

     Writing config to output data dir ./tmp/TiN_Li2S8_combi.save/ :
     XML data file, charge density

     init_run     :     48.63s CPU     50.47s WALL (       1 calls)
     electrons    :  34785.60s CPU  35604.73s WALL (       3 calls)
     update_pot   :      0.75s CPU      0.80s WALL (       2 calls)
     forces       :     64.47s CPU     66.35s WALL (       2 calls)
     force_dftd3  :      1.18s CPU      1.26s WALL (       2 calls)

     Called by init_run:
     wfcinit      :     43.04s CPU     44.16s WALL (       1 calls)
     potinit      :      0.98s CPU      1.35s WALL (       1 calls)
     hinit0       :      1.72s CPU      1.83s WALL (       1 calls)

     Called by electrons:
     c_bands      :  31121.99s CPU  31729.98s WALL (     320 calls)
     sum_band     :   3180.62s CPU   3310.20s WALL (     320 calls)
     v_of_rho     :     69.78s CPU     76.32s WALL (     323 calls)
     newd         :    262.46s CPU    317.16s WALL (     323 calls)
     mix_rho      :    142.20s CPU    160.33s WALL (     320 calls)
     energy_dftd3 :      0.37s CPU      0.37s WALL (       3 calls)

     Called by c_bands:
     init_us_2    :    282.21s CPU    284.52s WALL (    3215 calls)
     cegterg      :  30521.46s CPU  31115.42s WALL (    1608 calls)

     Called by *egterg:
     cdiaghg      :   1748.03s CPU   1819.34s WALL (    9720 calls)
     h_psi        :  12290.22s CPU  12527.59s WALL (    9743 calls)
     s_psi        :   4285.70s CPU   4319.50s WALL (    9743 calls)
     g_psi        :     20.58s CPU     20.79s WALL (    8130 calls)

     Called by h_psi:
     h_psi:calbec :   4546.04s CPU   4642.09s WALL (    9743 calls)
     vloc_psi     :   3409.75s CPU   3468.27s WALL (    9743 calls)
                                        0.00s GPU  (    9743 calls)
     add_vuspsi   :   4287.96s CPU   4323.52s WALL (    9743 calls)

     General routines
     calbec       :   6562.89s CPU   6702.36s WALL (   11383 calls)
     fft          :     78.79s CPU     87.35s WALL (    4219 calls)
     ffts         :     57.03s CPU     72.84s WALL (   39757 calls)
     fftw         :   3858.72s CPU   3922.88s WALL ( 6774682 calls)
     interpolate  :      6.24s CPU      7.17s WALL (     323 calls)
     davcio       :      0.00s CPU      2.88s WALL (      23 calls)

     Parallel routines

     PWSCF        :  34977.72s CPU  35805.09s WALL


   This run was terminated on:  10: 5: 6  15Mar2026            

=------------------------------------------------------------------------------=
   JOB DONE.
=------------------------------------------------------------------------------=
