  147

Nb    0.0000000000    0.0000000000   10.0000000000
Nb    2.1959650900    0.0000000000   12.1959650900
Nb    0.0000000000    2.1959650900   12.1959650900
Nb    2.1959650900    2.1959650900   10.0000000000
Nb    0.1093165600    0.1017896500   14.4408840800
Nb    2.1764706400    0.0177551700   16.4497517500
Nb    0.0226126700    2.1687526300   16.4494813800
Nb    2.1129836900    2.0989692200   14.4437039000
Nb    0.0000000000    4.3919302000   10.0000000000
Nb    2.1959650900    4.3919302000   12.1959650900
Nb    0.0000000000    6.5878952900   12.1959650900
Nb    2.1959650900    6.5878952900   10.0000000000
Nb    0.1144940300    4.4952872100   14.4464955800
Nb    2.1229260000    4.3978895400   16.4415665500
Nb   -0.0072861100    6.5754236200   16.4514998700
Nb    2.1317878700    6.4775016300   14.4435154500
Nb    0.0000000000    8.7838604000   10.0000000000
Nb    2.1959650900    8.7838604000   12.1959650900
Nb    0.0000000000   10.9798254900   12.1959650900
Nb    2.1959650900   10.9798254900   10.0000000000
Nb    0.1183281900    8.8917135300   14.4467516100
Nb    2.1949207000    8.7853631000   16.4510677900
Nb    0.0065155300   10.9767968500   16.4467853100
Nb    2.0932436400   10.8682137700   14.4452164300
Nb    4.3919302000    0.0000000000   10.0000000000
Nb    6.5878952900    0.0000000000   12.1959650900
Nb    4.3919302000    2.1959650900   12.1959650900
Nb    6.5878952900    2.1959650900   10.0000000000
Nb    4.4964908900    0.0896013400   14.4446235800
Nb    6.5925536400    0.0157550000   16.4510951200
Nb    4.4072408000    2.1248578100   16.4510709100
Nb    6.4917328100    2.0993229400   14.4425193500
Nb    4.3919302000    4.3919302000   10.0000000000
Nb    6.5878952900    4.3919302000   12.1959650900
Nb    4.3919302000    6.5878952900   12.1959650900
Nb    6.5878952900    6.5878952900   10.0000000000
Nb    4.5057041000    4.5205045100   14.4829975100
Nb    6.6524128400    4.3346911900   16.4517869500
Nb    4.3919036900    6.6289570300   16.6447974000
Nb    6.4676627500    6.4819397600   14.4824691200
Nb    4.3919302000    8.7838604000   10.0000000000
Nb    6.5878952900    8.7838604000   12.1959650900
Nb    4.3919302000   10.9798254900   12.1959650900
Nb    6.5878952900   10.9798254900   10.0000000000
Nb    4.5085049300    8.8529707400   14.4429425900
Nb    6.5866600300    8.8630345400   16.4398267900
Nb    4.4105547500   10.9894727300   16.4514226300
Nb    6.4903615100   10.8726832400   14.4450234000
Nb    8.7838604000    0.0000000000   10.0000000000
Nb   10.9798254900    0.0000000000   12.1959650900
Nb    8.7838604000    2.1959650900   12.1959650900
Nb   10.9798254900    2.1959650900   10.0000000000
Nb    8.8959372500    0.0997228600   14.4387298500
Nb   10.9820645300    0.0026880100   16.4437329300
Nb    8.7990116000    2.1857473700   16.4465535300
Nb   10.8864250000    2.0885012500   14.4382534400
Nb    8.7838604000    4.3919302000   10.0000000000
Nb   10.9798254900    4.3919302000   12.1959650900
Nb    8.7838604000    6.5878952900   12.1959650900
Nb   10.9798254900    6.5878952900   10.0000000000
Nb    8.8877503600    4.4929865500   14.4424654700
Nb   10.9759243500    4.3938427000   16.4510824700
Nb    8.8639463400    6.5784429500   16.4485479200
Nb   10.8981006900    6.4875568100   14.4440165700
Nb    8.7838604000    8.7838604000   10.0000000000
Nb   10.9798254900    8.7838604000   12.1959650900
Nb    8.7838604000   10.9798254900   12.1959650900
Nb   10.9798254900   10.9798254900   10.0000000000
Nb    8.8888787500    8.8733920600   14.4428579300
Nb   10.9760957800    8.8091118500   16.4495062000
Nb    8.8190462300   10.9656123500   16.4486591700
Nb   10.8840894500   10.8738799300   14.4411572100
 N    0.0000000000    2.1959650900   10.0000000000
 N    2.1959650900    0.0000000000   10.0000000000
 N    0.0000000000    0.0000000000   12.1959650900
 N    2.1959650900    2.1959650900   12.1959650900
 N   -0.0938674900    2.3018676800   14.4000281300
 N    2.3062498700   -0.1089359700   14.3996027100
 N    0.0009666000   -0.0085895400   16.7637314200
 N    2.2120425400    2.2026889400   16.7703380200
 N    0.0000000000    6.5878952900   10.0000000000
 N    2.1959650900    4.3919302000   10.0000000000
 N    0.0000000000    4.3919302000   12.1959650900
 N    2.1959650900    6.5878952900   12.1959650900
 N   -0.0799361700    6.6979035100   14.4017925200
 N    2.3199943100    4.2809314200   14.3909089100
 N   -0.0235636300    4.3755566800   16.7616788700
 N    2.1740291900    6.5846864100   16.6853539200
 N    0.0000000000   10.9798254900   10.0000000000
 N    2.1959650900    8.7838604000   10.0000000000
 N    0.0000000000    8.7838604000   12.1959650900
 N    2.1959650900   10.9798254900   12.1959650900
 N   -0.1046369500   11.0902384600   14.3966742700
 N    2.3137237100    8.6726745200   14.3966065100
 N    0.0001113400    8.7829369500   16.7458866000
 N    2.2005898700   10.9884172100   16.7394115000
 N    4.3919302000    2.1959650900   10.0000000000
 N    6.5878952900    0.0000000000   10.0000000000
 N    4.3919302000    0.0000000000   12.1959650900
 N    6.5878952900    2.1959650900   12.1959650900
 N    4.2996922100    2.3028980500   14.3988932800
 N    6.7012372000   -0.1044770900   14.4023742700
 N    4.3875081700   -0.0226605700   16.7725694200
 N    6.6026093900    2.1773668200   16.7763874900
 N    4.3919302000    6.5878952900   10.0000000000
 N    6.5878952900    4.3919302000   10.0000000000
 N    4.3919302000    4.3919302000   12.1959650900
 N    6.5878952900    6.5878952900   12.1959650900
 N    4.2933310200    6.6919239400   14.3889270900
 N    6.6940042400    4.2922768300   14.3967820500
 N    4.3925139200    4.3545331000   16.7084096400
 N    6.6478827600    6.5956594600   16.7069389300
 N    4.3919302000   10.9798254900   10.0000000000
 N    6.5878952900    8.7838604000   10.0000000000
 N    4.3919302000    8.7838604000   12.1959650900
 N    6.5878952900   10.9798254900   12.1959650900
 N    4.2878839100   11.0659454600   14.4020637800
 N    6.7066533900    8.6670603800   14.3891534200
 N    4.3977296400    8.8263289000   16.6895951700
 N    6.6112367000   11.0126571900   16.7578630300
 N    8.7838604000    2.1959650900   10.0000000000
 N   10.9798254900    0.0000000000   10.0000000000
 N    8.7838604000    0.0000000000   12.1959650900
 N   10.9798254900    2.1959650900   12.1959650900
 N    8.6861331900    2.2992752100   14.3956265800
 N   11.0949660100   -0.1116965900   14.3949886700
 N    8.7915753200   -0.0072325400   16.7455589200
 N   10.9932572100    2.1934683000   16.7441867800
 N    8.7838604000    6.5878952900   10.0000000000
 N   10.9798254900    4.3919302000   10.0000000000
 N    8.7838604000    4.3919302000   12.1959650900
 N   10.9798254900    6.5878952900   12.1959650900
 N    8.6851945100    6.6859397400   14.3971514600
 N   11.0914509300    4.2827922400   14.4023207700
 N    8.8130776200    4.3825370700   16.7734078700
 N   11.0088193800    6.5977806700   16.7747324000
 N    8.7838604000   10.9798254900   10.0000000000
 N   10.9798254900    8.7838604000   10.0000000000
 N    8.7838604000    8.7838604000   12.1959650900
 N   10.9798254900   10.9798254900   12.1959650900
 N    8.6845972500   11.0801273400   14.3994355900
 N   11.0964798900    8.6769274600   14.3994059300
 N    8.7872035300    8.7770245400   16.7647500700
 N   10.9938419300   10.9845341500   16.7660440100
 S    4.4003464100    6.6479445300   19.1349900600
Li    6.5661096100    6.6367063000   18.6474205100
Li    4.3770903800    4.4838797200   18.6469350500
  147

Nb    0.0000000000    0.0000000000   10.0000000000
Nb    2.1959650900    0.0000000000   12.1959650900
Nb    0.0000000000    2.1959650900   12.1959650900
Nb    2.1959650900    2.1959650900   10.0000000000
Nb    0.1053097047    0.1001232902   14.4438630620
Nb    2.1678286433    0.0018775807   16.4545630044
Nb    0.0028076317    2.1633719594   16.4516890333
Nb    2.1041807903    2.0908307478   14.4481677037
Nb    0.0000000000    4.3919302000   10.0000000000
Nb    2.1959650900    4.3919302000   12.1959650900
Nb    0.0000000000    6.5878952900   12.1959650900
Nb    2.1959650900    6.5878952900   10.0000000000
Nb    0.1005918359    4.4912128060   14.4390202435
Nb    2.0837671973    4.4111699592   16.4196836522
Nb   -0.0292696745    6.5768071165   16.4503418147
Nb    2.1233586620    6.4733567154   14.4335087480
Nb    0.0000000000    8.7838604000   10.0000000000
Nb    2.1959650900    8.7838604000   12.1959650900
Nb    0.0000000000   10.9798254900   12.1959650900
Nb    2.1959650900   10.9798254900   10.0000000000
Nb    0.1080207887    8.8890171835   14.4445548929
Nb    2.2020047656    8.7939984985   16.4499192742
Nb    0.0078699862   10.9776205625   16.4492786650
Nb    2.0907089095   10.8615319799   14.4497649603
Nb    4.3919302000    0.0000000000   10.0000000000
Nb    6.5878952900    0.0000000000   12.1959650900
Nb    4.3919302000    2.1959650900   12.1959650900
Nb    6.5878952900    2.1959650900   10.0000000000
Nb    4.4892819393    0.0786081950   14.4422885082
Nb    6.5843677044   -0.0101899821   16.4497186259
Nb    4.4180951737    2.1104991447   16.4385535456
Nb    6.4855250917    2.0870770853   14.4371218094
Nb    4.3919302000    4.3919302000   10.0000000000
Nb    6.5878952900    4.3919302000   12.1959650900
Nb    4.3919302000    6.5878952900   12.1959650900
Nb    6.5878952900    6.5878952900   10.0000000000
Nb    4.4902730579    4.5047554225   14.4683079242
Nb    6.5904410904    4.3430383433   16.4524108522
Nb    4.3521721897    6.4996562833   16.6582272803
Nb    6.4553341461    6.4760040404   14.4956946193
Nb    4.3919302000    8.7838604000   10.0000000000
Nb    6.5878952900    8.7838604000   12.1959650900
Nb    4.3919302000   10.9798254900   12.1959650900
Nb    6.5878952900   10.9798254900   10.0000000000
Nb    4.4974289859    8.8456596398   14.4529875747
Nb    6.5714256076    8.8580125177   16.4501523231
Nb    4.3987010773   10.9968258249   16.4542694413
Nb    6.4841207384   10.8628532365   14.4474742917
Nb    8.7838604000    0.0000000000   10.0000000000
Nb   10.9798254900    0.0000000000   12.1959650900
Nb    8.7838604000    2.1959650900   12.1959650900
Nb   10.9798254900    2.1959650900   10.0000000000
Nb    8.8883197177    0.0963508696   14.4397132810
Nb   10.9771619909    0.0060887653   16.4457717047
Nb    8.7906594224    2.1864888545   16.4458325955
Nb   10.8755631230    2.0898789691   14.4415665163
Nb    8.7838604000    4.3919302000   10.0000000000
Nb   10.9798254900    4.3919302000   12.1959650900
Nb    8.7838604000    6.5878952900   12.1959650900
Nb   10.9798254900    6.5878952900   10.0000000000
Nb    8.8798042216    4.4911994135   14.4450974062
Nb   10.9668780460    4.3940406268   16.4505286954
Nb    8.8398958004    6.5731089024   16.4591341151
Nb   10.8843398708    6.4864403580   14.4479537349
Nb    8.7838604000    8.7838604000   10.0000000000
Nb   10.9798254900    8.7838604000   12.1959650900
Nb    8.7838604000   10.9798254900   12.1959650900
Nb   10.9798254900   10.9798254900   10.0000000000
Nb    8.8773149166    8.8692380888   14.4464395224
Nb   10.9578729781    8.8052665671   16.4510723020
Nb    8.8077381001   10.9588856101   16.4499772486
Nb   10.8780058542   10.8738771490   14.4411409288
 N    0.0000000000    2.1959650900   10.0000000000
 N    2.1959650900    0.0000000000   10.0000000000
 N    0.0000000000    0.0000000000   12.1959650900
 N    2.1959650900    2.1959650900   12.1959650900
 N   -0.1034025880    2.2977729137   14.4017134087
 N    2.3001215307   -0.1171705112   14.4039769687
 N   -0.0061157121   -0.0084130602   16.7715813021
 N    2.1971020086    2.1984307941   16.7772838721
 N    0.0000000000    6.5878952900   10.0000000000
 N    2.1959650900    4.3919302000   10.0000000000
 N    0.0000000000    4.3919302000   12.1959650900
 N    2.1959650900    6.5878952900   12.1959650900
 N   -0.0913844234    6.6953121705   14.4010831097
 N    2.3076675964    4.2719917753   14.3755516083
 N   -0.0433164914    4.3759408836   16.7628807882
 N    2.1451413029    6.5926974752   16.6734101888
 N    0.0000000000   10.9798254900   10.0000000000
 N    2.1959650900    8.7838604000   10.0000000000
 N    0.0000000000    8.7838604000   12.1959650900
 N    2.1959650900   10.9798254900   12.1959650900
 N   -0.1076205424   11.0882475271   14.3987076108
 N    2.3032023575    8.6649365752   14.3970870945
 N   -0.0067401866    8.7838310324   16.7384626064
 N    2.1999485512   10.9804757506   16.7558826759
 N    4.3919302000    2.1959650900   10.0000000000
 N    6.5878952900    0.0000000000   10.0000000000
 N    4.3919302000    0.0000000000   12.1959650900
 N    6.5878952900    2.1959650900   12.1959650900
 N    4.2909697066    2.2910162386   14.3907229626
 N    6.6949839274   -0.1170608645   14.4005945772
 N    4.3814960240   -0.0255961135   16.7785114205
 N    6.6004035942    2.1653969455   16.7629018374
 N    4.3919302000    6.5878952900   10.0000000000
 N    6.5878952900    4.3919302000   10.0000000000
 N    4.3919302000    4.3919302000   12.1959650900
 N    6.5878952900    6.5878952900   12.1959650900
 N    4.2865628135    6.6835210669   14.3976525503
 N    6.6884041420    4.2841247368   14.3982662369
 N    4.3457536872    4.2905123535   16.6947390013
 N    6.6126569262    6.5885781818   16.7493701659
 N    4.3919302000   10.9798254900   10.0000000000
 N    6.5878952900    8.7838604000   10.0000000000
 N    4.3919302000    8.7838604000   12.1959650900
 N    6.5878952900   10.9798254900   12.1959650900
 N    4.2833805631   11.0601171573   14.4031969007
 N    6.6924741709    8.6585361385   14.3985159344
 N    4.3921715056    8.7817943712   16.7002991964
 N    6.6010797700   10.9982607084   16.7708834642
 N    8.7838604000    2.1959650900   10.0000000000
 N   10.9798254900    0.0000000000   10.0000000000
 N    8.7838604000    0.0000000000   12.1959650900
 N   10.9798254900    2.1959650900   12.1959650900
 N    8.6760821622    2.2971433860   14.3960154696
 N   11.0894516088   -0.1093412266   14.3966751127
 N    8.7860761890   -0.0088796111   16.7442885668
 N   10.9790046578    2.1966569872   16.7520618951
 N    8.7838604000    6.5878952900   10.0000000000
 N   10.9798254900    4.3919302000   10.0000000000
 N    8.7838604000    4.3919302000   12.1959650900
 N   10.9798254900    6.5878952900   12.1959650900
 N    8.6719661260    6.6813506583   14.4060602602
 N   11.0837714951    4.2830893369   14.4013824482
 N    8.7824764602    4.3813067839   16.7626144175
 N   10.9860148434    6.5982762554   16.7792449548
 N    8.7838604000   10.9798254900   10.0000000000
 N   10.9798254900    8.7838604000   10.0000000000
 N    8.7838604000    8.7838604000   12.1959650900
 N   10.9798254900   10.9798254900   12.1959650900
 N    8.6780835598   11.0766210696   14.4001458615
 N   11.0854925377    8.6767406374   14.4004892597
 N    8.7733147035    8.7726027308   16.7711831577
 N   10.9879376119   10.9844323326   16.7598160997
 S    4.2665583791    6.2743330162   19.1433661265
Li    6.4195428972    6.5696073426   18.6957035632
Li    3.8753748394    4.0783800888   18.6659200818
  147

Nb    0.0000000000    0.0000000000   10.0000000000
Nb    2.1959650900    0.0000000000   12.1959650900
Nb    0.0000000000    2.1959650900   12.1959650900
Nb    2.1959650900    2.1959650900   10.0000000000
Nb    0.1109383149    0.1066987491   14.4482590769
Nb    2.1723292074    0.0060557612   16.4625138226
Nb    0.0067954597    2.1695856624   16.4596007123
Nb    2.1096051731    2.0967215294   14.4650594678
Nb    0.0000000000    4.3919302000   10.0000000000
Nb    2.1959650900    4.3919302000   12.1959650900
Nb    0.0000000000    6.5878952900   12.1959650900
Nb    2.1959650900    6.5878952900   10.0000000000
Nb    0.1030918624    4.4934843795   14.4354005331
Nb    2.1009244514    4.4657659876   16.4060682230
Nb   -0.0345968280    6.5871883049   16.4491806550
Nb    2.1294116197    6.4808121004   14.4275982035
Nb    0.0000000000    8.7838604000   10.0000000000
Nb    2.1959650900    8.7838604000   12.1959650900
Nb    0.0000000000   10.9798254900   12.1959650900
Nb    2.1959650900   10.9798254900   10.0000000000
Nb    0.1098785127    8.8943582800   14.4450611327
Nb    2.2079231313    8.8042002639   16.4477533107
Nb    0.0131572680   10.9885220930   16.4503157719
Nb    2.0941529115   10.8668370127   14.4510679791
Nb    4.3919302000    0.0000000000   10.0000000000
Nb    6.5878952900    0.0000000000   12.1959650900
Nb    4.3919302000    2.1959650900   12.1959650900
Nb    6.5878952900    2.1959650900   10.0000000000
Nb    4.4908383078    0.0789597124   14.4393144823
Nb    6.5917373447   -0.0141540912   16.4485964546
Nb    4.4596093387    2.1179506662   16.4295588883
Nb    6.4927275764    2.0890831535   14.4312240949
Nb    4.3919302000    4.3919302000   10.0000000000
Nb    6.5878952900    4.3919302000   12.1959650900
Nb    4.3919302000    6.5878952900   12.1959650900
Nb    6.5878952900    6.5878952900   10.0000000000
Nb    4.4908111064    4.5005470817   14.4535567672
Nb    6.5583727441    4.3549198106   16.4523403162
Nb    4.3533555137    6.4744274297   16.6833934224
Nb    6.4597659619    6.4782249244   14.4918651633
Nb    4.3919302000    8.7838604000   10.0000000000
Nb    6.5878952900    8.7838604000   12.1959650900
Nb    4.3919302000   10.9798254900   12.1959650900
Nb    6.5878952900   10.9798254900   10.0000000000
Nb    4.5000062808    8.8463682002   14.4521312143
Nb    6.5723556426    8.8648474055   16.4498426859
Nb    4.4048406064   11.0106733053   16.4543362520
Nb    6.4868363537   10.8657248574   14.4473140665
Nb    8.7838604000    0.0000000000   10.0000000000
Nb   10.9798254900    0.0000000000   12.1959650900
Nb    8.7838604000    2.1959650900   12.1959650900
Nb   10.9798254900    2.1959650900   10.0000000000
Nb    8.8923811696    0.0994729821   14.4401073801
Nb   10.9865924428    0.0142678874   16.4471941237
Nb    8.7987162885    2.1935063987   16.4447306905
Nb   10.8800859507    2.0943384933   14.4428934334
Nb    8.7838604000    4.3919302000   10.0000000000
Nb   10.9798254900    4.3919302000   12.1959650900
Nb    8.7838604000    6.5878952900   12.1959650900
Nb   10.9798254900    6.5878952900   10.0000000000
Nb    8.8841936577    4.4950602688   14.4457105952
Nb   10.9782091587    4.4023542215   16.4494360989
Nb    8.8467967658    6.5777614476   16.4606619528
Nb   10.8877100079    6.4888769723   14.4473511124
Nb    8.7838604000    8.7838604000   10.0000000000
Nb   10.9798254900    8.7838604000   12.1959650900
Nb    8.7838604000   10.9798254900   12.1959650900
Nb   10.9798254900   10.9798254900   10.0000000000
Nb    8.8795394830    8.8730450349   14.4474620822
Nb   10.9591868818    8.8074983218   16.4510325707
Nb    8.8097061864   10.9607617484   16.4497436535
Nb   10.8814279578   10.8777844943   14.4409016790
 N    0.0000000000    2.1959650900   10.0000000000
 N    2.1959650900    0.0000000000   10.0000000000
 N    0.0000000000    0.0000000000   12.1959650900
 N    2.1959650900    2.1959650900   12.1959650900
 N   -0.0982852624    2.3012074689   14.4075039761
 N    2.3026505533   -0.1118601843   14.4093510767
 N    0.0009014142    0.0003083624   16.7804609261
 N    2.2161829092    2.2247537593   16.8340903398
 N    0.0000000000    6.5878952900   10.0000000000
 N    2.1959650900    4.3919302000   10.0000000000
 N    0.0000000000    4.3919302000   12.1959650900
 N    2.1959650900    6.5878952900   12.1959650900
 N   -0.0879586650    6.6994187179   14.4001478625
 N    2.3078362709    4.2714318291   14.3675737586
 N   -0.0286895871    4.3863629293   16.7597782489
 N    2.1454727099    6.6192459004   16.6685851896
 N    0.0000000000   10.9798254900   10.0000000000
 N    2.1959650900    8.7838604000   10.0000000000
 N    0.0000000000    8.7838604000   12.1959650900
 N    2.1959650900   10.9798254900   12.1959650900
 N   -0.1040055116   11.0939490008   14.3994068278
 N    2.3047683916    8.6698270810   14.3959657238
 N   -0.0040688118    8.7940958286   16.7370251749
 N    2.2065751525   10.9886300702   16.7581503420
 N    4.3919302000    2.1959650900   10.0000000000
 N    6.5878952900    0.0000000000   10.0000000000
 N    4.3919302000    0.0000000000   12.1959650900
 N    6.5878952900    2.1959650900   12.1959650900
 N    4.2918726587    2.2881259521   14.3851034585
 N    6.6984475398   -0.1158755069   14.3996586608
 N    4.3889556004   -0.0148243556   16.7795137035
 N    6.6185360193    2.1689540946   16.7574148232
 N    4.3919302000    6.5878952900   10.0000000000
 N    6.5878952900    4.3919302000   10.0000000000
 N    4.3919302000    4.3919302000   12.1959650900
 N    6.5878952900    6.5878952900   12.1959650900
 N    4.2920854974    6.6828515636   14.4056057289
 N    6.6933437970    4.2860065267   14.3981781879
 N    4.3346117978    4.2780133972   16.6827912345
 N    6.6101485281    6.5931900452   16.7506658050
 N    4.3919302000   10.9798254900   10.0000000000
 N    6.5878952900    8.7838604000   10.0000000000
 N    4.3919302000    8.7838604000   12.1959650900
 N    6.5878952900   10.9798254900   12.1959650900
 N    4.2859276277   11.0614565145   14.4039430965
 N    6.6946271121    8.6610377225   14.3985814309
 N    4.3954385913    8.7856217417   16.6955575345
 N    6.6049622707   11.0014713344   16.7756543091
 N    8.7838604000    2.1959650900   10.0000000000
 N   10.9798254900    0.0000000000   10.0000000000
 N    8.7838604000    0.0000000000   12.1959650900
 N   10.9798254900    2.1959650900   12.1959650900
 N    8.6806913003    2.3002473470   14.3958220188
 N   11.0939094098   -0.1049402056   14.3978179705
 N    8.7941271541   -0.0048895126   16.7423079363
 N   10.9853617924    2.2061020049   16.7543958755
 N    8.7838604000    6.5878952900   10.0000000000
 N   10.9798254900    4.3919302000   10.0000000000
 N    8.7838604000    4.3919302000   12.1959650900
 N   10.9798254900    6.5878952900   12.1959650900
 N    8.6767430432    6.6846994919   14.4071271042
 N   11.0882802479    4.2859880157   14.4010145331
 N    8.7798126671    4.3881392356   16.7500013233
 N   10.9880639730    6.6035127913   16.7845093587
 N    8.7838604000   10.9798254900   10.0000000000
 N   10.9798254900    8.7838604000   10.0000000000
 N    8.7838604000    8.7838604000   12.1959650900
 N   10.9798254900   10.9798254900   12.1959650900
 N    8.6810388889   11.0799524651   14.3999704886
 N   11.0872280219    8.6798862720   14.4005914461
 N    8.7750621291    8.7763262448   16.7720675165
 N   10.9908196843   10.9886792984   16.7573366140
 S    4.2393650117    6.1335194034   19.1136131484
Li    6.3996985996    6.5720046035   18.7016161797
Li    3.3396670862    3.5108300923   18.6617392112
  147

Nb    0.0000000000    0.0000000000   10.0000000000
Nb    2.1959650900    0.0000000000   12.1959650900
Nb    0.0000000000    2.1959650900   12.1959650900
Nb    2.1959650900    2.1959650900   10.0000000000
Nb    0.1150320018    0.1115243612   14.4507807389
Nb    2.1714702399   -0.0155188712   16.4636774887
Nb   -0.0144937153    2.1691804459   16.4617139105
Nb    2.1082209332    2.0971061592   14.4796962505
Nb    0.0000000000    4.3919302000   10.0000000000
Nb    2.1959650900    4.3919302000   12.1959650900
Nb    0.0000000000    6.5878952900   12.1959650900
Nb    2.1959650900    6.5878952900   10.0000000000
Nb    0.1086275333    4.4948359992   14.4378082338
Nb    2.1557836710    4.5038714371   16.4195135075
Nb   -0.0330431301    6.5886850043   16.4495825683
Nb    2.1351022284    6.4835647899   14.4331964530
Nb    0.0000000000    8.7838604000   10.0000000000
Nb    2.1959650900    8.7838604000   12.1959650900
Nb    0.0000000000   10.9798254900   12.1959650900
Nb    2.1959650900   10.9798254900   10.0000000000
Nb    0.1120103735    8.8961544010   14.4462548802
Nb    2.2082490657    8.8112595444   16.4478439281
Nb    0.0127262334   10.9944411076   16.4500984539
Nb    2.0964161583   10.8704996955   14.4514352454
Nb    4.3919302000    0.0000000000   10.0000000000
Nb    6.5878952900    0.0000000000   12.1959650900
Nb    4.3919302000    2.1959650900   12.1959650900
Nb    6.5878952900    2.1959650900   10.0000000000
Nb    4.4912257473    0.0827864519   14.4403877640
Nb    6.5961299182   -0.0113460810   16.4491911750
Nb    4.4947962314    2.1429212163   16.4332545940
Nb    6.4965543929    2.0910860927   14.4309585843
Nb    4.3919302000    4.3919302000   10.0000000000
Nb    6.5878952900    4.3919302000   12.1959650900
Nb    4.3919302000    6.5878952900   12.1959650900
Nb    6.5878952900    6.5878952900   10.0000000000
Nb    4.4906078007    4.5014028896   14.4431180348
Nb    6.5498620096    4.3617706101   16.4478950140
Nb    4.3575246669    6.4988818935   16.7299759675
Nb    6.4654432263    6.4797367952   14.4812912630
Nb    4.3919302000    8.7838604000   10.0000000000
Nb    6.5878952900    8.7838604000   12.1959650900
Nb    4.3919302000   10.9798254900   12.1959650900
Nb    6.5878952900   10.9798254900   10.0000000000
Nb    4.5035547974    8.8501931333   14.4422456633
Nb    6.5756677751    8.8701917440   16.4445310100
Nb    4.4132380637   11.0222876737   16.4534723711
Nb    6.4875817491   10.8689373814   14.4464139909
Nb    8.7838604000    0.0000000000   10.0000000000
Nb   10.9798254900    0.0000000000   12.1959650900
Nb    8.7838604000    2.1959650900   12.1959650900
Nb   10.9798254900    2.1959650900   10.0000000000
Nb    8.8943465356    0.1010296617   14.4392134001
Nb   10.9921368542    0.0165755113   16.4473756184
Nb    8.8076429238    2.1970123490   16.4456413859
Nb   10.8840701068    2.0968809147   14.4433006576
Nb    8.7838604000    4.3919302000   10.0000000000
Nb   10.9798254900    4.3919302000   12.1959650900
Nb    8.7838604000    6.5878952900   12.1959650900
Nb   10.9798254900    6.5878952900   10.0000000000
Nb    8.8858225660    4.4979259485   14.4435846057
Nb   10.9869931327    4.4083893241   16.4494060313
Nb    8.8610861717    6.5839776515   16.4590871103
Nb   10.8921791427    6.4894312441   14.4461985070
Nb    8.7838604000    8.7838604000   10.0000000000
Nb   10.9798254900    8.7838604000   12.1959650900
Nb    8.7838604000   10.9798254900   12.1959650900
Nb   10.9798254900   10.9798254900   10.0000000000
Nb    8.8823030266    8.8754472788   14.4475536796
Nb   10.9624392327    8.8068151570   16.4509944257
Nb    8.8099128550   10.9611549242   16.4490357975
Nb   10.8832789929   10.8794467288   14.4400649697
 N    0.0000000000    2.1959650900   10.0000000000
 N    2.1959650900    0.0000000000   10.0000000000
 N    0.0000000000    0.0000000000   12.1959650900
 N    2.1959650900    2.1959650900   12.1959650900
 N   -0.0957609407    2.3045037405   14.4087803845
 N    2.3048539149   -0.1089429499   14.4091170763
 N    0.0012279226    0.0002870987   16.7858372230
 N    2.2107003611    2.2144942529   16.8236928509
 N    0.0000000000    6.5878952900   10.0000000000
 N    2.1959650900    4.3919302000   10.0000000000
 N    0.0000000000    4.3919302000   12.1959650900
 N    2.1959650900    6.5878952900   12.1959650900
 N   -0.0843599113    6.7007111557   14.4002146566
 N    2.3060395922    4.2691923963   14.3759585279
 N   -0.0051097008    4.3880595981   16.7537661795
 N    2.1493777001    6.6385034110   16.6756440536
 N    0.0000000000   10.9798254900   10.0000000000
 N    2.1959650900    8.7838604000   10.0000000000
 N    0.0000000000    8.7838604000   12.1959650900
 N    2.1959650900   10.9798254900   12.1959650900
 N   -0.1025784329   11.0968584927   14.3994932608
 N    2.3063828067    8.6736714581   14.3948411624
 N   -0.0031383423    8.7982699846   16.7373827685
 N    2.2114127530   10.9858306714   16.7634315309
 N    4.3919302000    2.1959650900   10.0000000000
 N    6.5878952900    0.0000000000   10.0000000000
 N    4.3919302000    0.0000000000   12.1959650900
 N    6.5878952900    2.1959650900   12.1959650900
 N    4.2891747009    2.2861489898   14.3858272296
 N    6.6995774748   -0.1138700655   14.4007015756
 N    4.3921131816    0.0011513208   16.7770423075
 N    6.6340523437    2.1756341050   16.7621466128
 N    4.3919302000    6.5878952900   10.0000000000
 N    6.5878952900    4.3919302000   10.0000000000
 N    4.3919302000    4.3919302000   12.1959650900
 N    6.5878952900    6.5878952900   12.1959650900
 N    4.2984372139    6.6841905961   14.4193102531
 N    6.6936929339    4.2873109530   14.3965511524
 N    4.3489121592    4.2996998288   16.6945037354
 N    6.6177643921    6.5989087278   16.7318214138
 N    4.3919302000   10.9798254900   10.0000000000
 N    6.5878952900    8.7838604000   10.0000000000
 N    4.3919302000    8.7838604000   12.1959650900
 N    6.5878952900   10.9798254900   12.1959650900
 N    4.2865057536   11.0643712611   14.4034248748
 N    6.6986918826    8.6637630302   14.3946096406
 N    4.4005372743    8.8001748757   16.6723696184
 N    6.6076400178   11.0067376632   16.7763565736
 N    8.7838604000    2.1959650900   10.0000000000
 N   10.9798254900    0.0000000000   10.0000000000
 N    8.7838604000    0.0000000000   12.1959650900
 N   10.9798254900    2.1959650900   12.1959650900
 N    8.6843957105    2.3018368527   14.3962069310
 N   11.0963943395   -0.1036023819   14.3981731692
 N    8.7982129828   -0.0036119034   16.7410356376
 N   10.9834872279    2.2120720844   16.7622273623
 N    8.7838604000    6.5878952900   10.0000000000
 N   10.9798254900    4.3919302000   10.0000000000
 N    8.7838604000    4.3919302000   12.1959650900
 N   10.9798254900    6.5878952900   12.1959650900
 N    8.6826257962    6.6883916129   14.4053411911
 N   11.0900086818    4.2866396106   14.4006324493
 N    8.7827377163    4.3937361565   16.7441919495
 N   10.9969000942    6.6047038238   16.7885206664
 N    8.7838604000   10.9798254900   10.0000000000
 N   10.9798254900    8.7838604000   10.0000000000
 N    8.7838604000    8.7838604000   12.1959650900
 N   10.9798254900   10.9798254900   12.1959650900
 N    8.6823132054   11.0818904275   14.3995465364
 N   11.0896335451    8.6807174180   14.4006052051
 N    8.7778638202    8.7784544774   16.7726040097
 N   10.9912104038   10.9897289091   16.7555485131
 S    4.2777322238    6.3307476825   19.1069007156
Li    6.4506473918    6.5974495956   18.6840480096
Li    2.8673836507    2.9149074139   18.6054317590
  147

Nb    0.0000000000    0.0000000000   10.0000000000
Nb    2.1959650900    0.0000000000   12.1959650900
Nb    0.0000000000    2.1959650900   12.1959650900
Nb    2.1959650900    2.1959650900   10.0000000000
Nb    0.1109200400    0.1053383700   14.4500656300
Nb    2.1732894700   -0.0762513500   16.4613384200
Nb   -0.0749477800    2.1646892500   16.4604796600
Nb    2.0983708000    2.0898085800   14.4791154100
Nb    0.0000000000    4.3919302000   10.0000000000
Nb    2.1959650900    4.3919302000   12.1959650900
Nb    0.0000000000    6.5878952900   12.1959650900
Nb    2.1959650900    6.5878952900   10.0000000000
Nb    0.1177578800    4.4846308500   14.4515648600
Nb    2.2104616300    4.4897592000   16.4534142600
Nb   -0.0197429300    6.5756276700   16.4536185100
Nb    2.1436276500    6.4807805400   14.4517634700
Nb    0.0000000000    8.7838604000   10.0000000000
Nb    2.1959650900    8.7838604000   12.1959650900
Nb    0.0000000000   10.9798254900   12.1959650900
Nb    2.1959650900   10.9798254900   10.0000000000
Nb    0.1140531800    8.8855328000   14.4478829700
Nb    2.1989565600    8.8161955900   16.4515953000
Nb    0.0074604100   10.9880533100   16.4499543800
Nb    2.0961198300   10.8715844200   14.4503314000
Nb    4.3919302000    0.0000000000   10.0000000000
Nb    6.5878952900    0.0000000000   12.1959650900
Nb    4.3919302000    2.1959650900   12.1959650900
Nb    6.5878952900    2.1959650900   10.0000000000
Nb    4.4834393200    0.0878168900   14.4527688000
Nb    6.5851606900   -0.0051334400   16.4529780700
Nb    4.4810744400    2.1780690900   16.4522141900
Nb    6.4942494800    2.0901283600   14.4394101500
Nb    4.3919302000    4.3919302000   10.0000000000
Nb    6.5878952900    4.3919302000   12.1959650900
Nb    4.3919302000    6.5878952900   12.1959650900
Nb    6.5878952900    6.5878952900   10.0000000000
Nb    4.4930762500    4.5034358500   14.4375005000
Nb    6.5529603500    4.3615470000   16.4452093900
Nb    4.3509107800    6.5147934500   16.7668171900
Nb    6.4705372700    6.4772357000   14.4726382300
Nb    4.3919302000    8.7838604000   10.0000000000
Nb    6.5878952900    8.7838604000   12.1959650900
Nb    4.3919302000   10.9798254900   12.1959650900
Nb    6.5878952900   10.9798254900   10.0000000000
Nb    4.5089918100    8.8569285500   14.4289391800
Nb    6.5830378100    8.8750086800   16.4377242300
Nb    4.4188234500   11.0261507300   16.4553141000
Nb    6.4846189800   10.8686894000   14.4459790700
Nb    8.7838604000    0.0000000000   10.0000000000
Nb   10.9798254900    0.0000000000   12.1959650900
Nb    8.7838604000    2.1959650900   12.1959650900
Nb   10.9798254900    2.1959650900   10.0000000000
Nb    8.8866458700    0.0993388900   14.4370995700
Nb   10.9870762700    0.0132571000   16.4471808600
Nb    8.8179827300    2.1935967600   16.4495033800
Nb   10.8851883600    2.0942635900   14.4423016400
Nb    8.7838604000    4.3919302000   10.0000000000
Nb   10.9798254900    4.3919302000   12.1959650900
Nb    8.7838604000    6.5878952900   12.1959650900
Nb   10.9798254900    6.5878952900   10.0000000000
Nb    8.8859680200    4.4978909200   14.4407725700
Nb   10.9861639800    4.4063598000   16.4511058100
Nb    8.8777874700    6.5917771900   16.4552408100
Nb   10.8954117100    6.4831125600   14.4456214400
Nb    8.7838604000    8.7838604000   10.0000000000
Nb   10.9798254900    8.7838604000   12.1959650900
Nb    8.7838604000   10.9798254900   12.1959650900
Nb   10.9798254900   10.9798254900   10.0000000000
Nb    8.8849915300    8.8742164100   14.4467675500
Nb   10.9672216100    8.8003628300   16.4509518800
Nb    8.8062666600   10.9581958100   16.4483796400
Nb   10.8807582400   10.8738103700   14.4381524300
 N    0.0000000000    2.1959650900   10.0000000000
 N    2.1959650900    0.0000000000   10.0000000000
 N    0.0000000000    0.0000000000   12.1959650900
 N    2.1959650900    2.1959650900   12.1959650900
 N   -0.0956546100    2.2977559300   14.4036937000
 N    2.3000642700   -0.1069968200   14.4035087200
 N   -0.0054127700   -0.0106792500   16.7756549300
 N    2.1853561900    2.1853669500   16.7032420500
 N    0.0000000000    6.5878952900   10.0000000000
 N    2.1959650900    4.3919302000   10.0000000000
 N    0.0000000000    4.3919302000   12.1959650900
 N    2.1959650900    6.5878952900   12.1959650900
 N   -0.0788468900    6.6878427000   14.4026826700
 N    2.3092977900    4.2681201100   14.3972384400
 N    0.0127485700    4.3781134400   16.7487163000
 N    2.1579093800    6.6373599900   16.6988987300
 N    0.0000000000   10.9798254900   10.0000000000
 N    2.1959650900    8.7838604000   10.0000000000
 N    0.0000000000    8.7838604000   12.1959650900
 N    2.1959650900   10.9798254900   12.1959650900
 N   -0.1060149900   11.0872558400   14.3992521300
 N    2.3104004000    8.6766863000   14.3964279500
 N   -0.0052672200    8.7890909900   16.7407906600
 N    2.2127820000   10.9629772700   16.7839640100
 N    4.3919302000    2.1959650900   10.0000000000
 N    6.5878952900    0.0000000000   10.0000000000
 N    4.3919302000    0.0000000000   12.1959650900
 N    6.5878952900    2.1959650900   12.1959650900
 N    4.2868590700    2.2866606900   14.3972364900
 N    6.6894091700   -0.1145064900   14.4037883900
 N    4.3860303000    0.0177717400   16.7792569700
 N    6.6351274300    2.1815258100   16.7671726700
 N    4.3919302000    6.5878952900   10.0000000000
 N    6.5878952900    4.3919302000   10.0000000000
 N    4.3919302000    4.3919302000   12.1959650900
 N    6.5878952900    6.5878952900   12.1959650900
 N    4.3076328400    6.6881149500   14.4353231900
 N    6.6949594700    4.2851182000   14.3962830600
 N    4.3754136100    4.3266970500   16.7113564100
 N    6.6243824100    6.6030394200   16.7023167100
 N    4.3919302000   10.9798254900   10.0000000000
 N    6.5878952900    8.7838604000   10.0000000000
 N    4.3919302000    8.7838604000   12.1959650900
 N    6.5878952900   10.9798254900   12.1959650900
 N    4.2837355900   11.0673749200   14.4035437200
 N    6.7038305500    8.6633947900   14.3884831600
 N    4.4057546100    8.8072587600   16.6381813000
 N    6.6069774600   11.0119444300   16.7762328100
 N    8.7838604000    2.1959650900   10.0000000000
 N   10.9798254900    0.0000000000   10.0000000000
 N    8.7838604000    0.0000000000   12.1959650900
 N   10.9798254900    2.1959650900   12.1959650900
 N    8.6865614400    2.3011763900   14.3986824600
 N   11.0891190800   -0.1098053700   14.3978080300
 N    8.7899371300   -0.0062791300   16.7377099600
 N   10.9647478900    2.2108351500   16.7883179800
 N    8.7838604000    6.5878952900   10.0000000000
 N   10.9798254900    4.3919302000   10.0000000000
 N    8.7838604000    4.3919302000   12.1959650900
 N   10.9798254900    6.5878952900   12.1959650900
 N    8.6877352800    6.6896670900   14.4012556500
 N   11.0916830300    4.2811862600   14.3997145300
 N    8.7836423400    4.3977960600   16.7402492500
 N   11.0114458800    6.5981237100   16.7893447000
 N    8.7838604000   10.9798254900   10.0000000000
 N   10.9798254900    8.7838604000   10.0000000000
 N    8.7838604000    8.7838604000   12.1959650900
 N   10.9798254900   10.9798254900   12.1959650900
 N    8.6796729500   11.0804575100   14.3992257900
 N   11.0925118700    8.6745213400   14.4010026200
 N    8.7827160300    8.7776166000   16.7752875000
 N   10.9888813400   10.9868673900   16.7518690300
 S    4.3447415400    6.5434457100   19.1151381900
Li    6.5210383800    6.6184656700   18.6543996400
Li    2.2512463300    2.2421667800   18.5763741800
