 ANIMSTEPS   5
 CRYSTAL 
 PRIMVEC 
 13.1757906903  0.0000000000  0.0000000000
  0.0000000000 13.1757906903  0.0000000000
  0.0000000000  0.0000000000 26.5878891866
 PRIMCOORD   1
  147  1
Nb    0.0000000000    0.0000000000   10.0000000000    0.0000000000    0.0000000000    0.0000000000
Nb    2.1959650900    0.0000000000   12.1959650900   -0.0000000000    0.0000000000   -0.0000000000
Nb    0.0000000000    2.1959650900   12.1959650900    0.0000000000   -0.0000000000   -0.0000000000
Nb    2.1959650900    2.1959650900   10.0000000000   -0.0000000000   -0.0000000000    0.0000000000
Nb    0.1093165600    0.1017896500   14.4408840800   -0.0001078409    0.0000217523   -0.0000709587
Nb    2.1764706400    0.0177551700   16.4497517500    0.0000456286   -0.0001336142    0.0002398253
Nb    0.0226126700    2.1687526300   16.4494813800    0.0001778108   -0.0000168625    0.0000686647
Nb    2.1129836900    2.0989692200   14.4437039000    0.0000131958   -0.0002459672   -0.0001382912
Nb    0.0000000000    4.3919302000   10.0000000000    0.0000000000    0.0000000000    0.0000000000
Nb    2.1959650900    4.3919302000   12.1959650900   -0.0000000000    0.0000000000   -0.0000000000
Nb    0.0000000000    6.5878952900   12.1959650900    0.0000000000   -0.0000000000   -0.0000000000
Nb    2.1959650900    6.5878952900   10.0000000000   -0.0000000000   -0.0000000000    0.0000000000
Nb    0.1144940300    4.4952872100   14.4464955800   -0.0002343549   -0.0003894416   -0.0003009408
Nb    2.1229260000    4.3978895400   16.4415665500   -0.0002650896   -0.0004884781    0.0000670704
Nb   -0.0072861100    6.5754236200   16.4514998700   -0.0004281293    0.0001432744    0.0003454182
Nb    2.1317878700    6.4775016300   14.4435154500   -0.0002877295    0.0000134897   -0.0002344321
Nb    0.0000000000    8.7838604000   10.0000000000    0.0000000000    0.0000000000    0.0000000000
Nb    2.1959650900    8.7838604000   12.1959650900   -0.0000000000    0.0000000000   -0.0000000000
Nb    0.0000000000   10.9798254900   12.1959650900    0.0000000000   -0.0000000000   -0.0000000000
Nb    2.1959650900   10.9798254900   10.0000000000   -0.0000000000   -0.0000000000    0.0000000000
Nb    0.1183281900    8.8917135300   14.4467516100   -0.0000874340   -0.0001317315   -0.0001285924
Nb    2.1949207000    8.7853631000   16.4510677900   -0.0004102497    0.0005576289   -0.0001509752
Nb    0.0065155300   10.9767968500   16.4467853100    0.0000139239    0.0000049828    0.0001607701
Nb    2.0932436400   10.8682137700   14.4452164300    0.0000782146    0.0000311022   -0.0000709198
Nb    4.3919302000    0.0000000000   10.0000000000    0.0000000000    0.0000000000    0.0000000000
Nb    6.5878952900    0.0000000000   12.1959650900   -0.0000000000    0.0000000000   -0.0000000000
Nb    4.3919302000    2.1959650900   12.1959650900    0.0000000000   -0.0000000000   -0.0000000000
Nb    6.5878952900    2.1959650900   10.0000000000   -0.0000000000   -0.0000000000    0.0000000000
Nb    4.4964908900    0.0896013400   14.4446235800   -0.0004366499   -0.0001151257    0.0008114725
Nb    6.5925536400    0.0157550000   16.4510951200   -0.0003813910   -0.0000613671    0.0003691432
Nb    4.4072408000    2.1248578100   16.4510709100   -0.0001728470   -0.0000706827    0.0003608105
Nb    6.4917328100    2.0993229400   14.4425193500   -0.0000176608   -0.0002032589   -0.0000954760
Nb    4.3919302000    4.3919302000   10.0000000000    0.0000000000    0.0000000000    0.0000000000
Nb    6.5878952900    4.3919302000   12.1959650900   -0.0000000000    0.0000000000   -0.0000000000
Nb    4.3919302000    6.5878952900   12.1959650900    0.0000000000   -0.0000000000   -0.0000000000
Nb    6.5878952900    6.5878952900   10.0000000000   -0.0000000000   -0.0000000000    0.0000000000
Nb    4.5057041000    4.5205045100   14.4829975100   -0.0002641796    0.0001367560    0.0008102278
Nb    6.6524128400    4.3346911900   16.4517869500    0.0002075112   -0.0003869640    0.0001908064
Nb    4.3919036900    6.6289570300   16.6447974000   -0.0008698560   -0.0004677379   -0.0005877280
Nb    6.4676627500    6.4819397600   14.4824691200   -0.0002420951   -0.0000514458   -0.0001058271
Nb    4.3919302000    8.7838604000   10.0000000000    0.0000000000    0.0000000000    0.0000000000
Nb    6.5878952900    8.7838604000   12.1959650900   -0.0000000000    0.0000000000   -0.0000000000
Nb    4.3919302000   10.9798254900   12.1959650900    0.0000000000   -0.0000000000   -0.0000000000
Nb    6.5878952900   10.9798254900   10.0000000000   -0.0000000000   -0.0000000000    0.0000000000
Nb    4.5085049300    8.8529707400   14.4429425900   -0.0000623904    0.0001878197   -0.0000743414
Nb    6.5866600300    8.8630345400   16.4398267900    0.0005084137    0.0003042830    0.0000914101
Nb    4.4105547500   10.9894727300   16.4514226300   -0.0001365478    0.0008423326    0.0002669577
Nb    6.4903615100   10.8726832400   14.4450234000    0.0003801828    0.0002225774   -0.0002423688
Nb    8.7838604000    0.0000000000   10.0000000000    0.0000000000    0.0000000000    0.0000000000
Nb   10.9798254900    0.0000000000   12.1959650900   -0.0000000000    0.0000000000   -0.0000000000
Nb    8.7838604000    2.1959650900   12.1959650900    0.0000000000   -0.0000000000   -0.0000000000
Nb   10.9798254900    2.1959650900   10.0000000000   -0.0000000000   -0.0000000000    0.0000000000
Nb    8.8959372500    0.0997228600   14.4387298500   -0.0000121700    0.0001221309   -0.0000014719
Nb   10.9820645300    0.0026880100   16.4437329300    0.0000193309   -0.0000471702    0.0001006536
Nb    8.7990116000    2.1857473700   16.4465535300   -0.0001017312   -0.0000527386    0.0000678265
Nb   10.8864250000    2.0885012500   14.4382534400   -0.0001861357   -0.0000773480   -0.0000082094
Nb    8.7838604000    4.3919302000   10.0000000000    0.0000000000    0.0000000000    0.0000000000
Nb   10.9798254900    4.3919302000   12.1959650900   -0.0000000000    0.0000000000   -0.0000000000
Nb    8.7838604000    6.5878952900   12.1959650900    0.0000000000   -0.0000000000   -0.0000000000
Nb   10.9798254900    6.5878952900   10.0000000000   -0.0000000000   -0.0000000000    0.0000000000
Nb    8.8877503600    4.4929865500   14.4424654700    0.0002047476    0.0000924053   -0.0000137763
Nb   10.9759243500    4.3938427000   16.4510824700   -0.0000535525    0.0003444862    0.0003188771
Nb    8.8639463400    6.5784429500   16.4485479200    0.0005193644    0.0001630600    0.0003528746
Nb   10.8981006900    6.4875568100   14.4440165700    0.0000045459    0.0004502205    0.0007901234
Nb    8.7838604000    8.7838604000   10.0000000000    0.0000000000    0.0000000000    0.0000000000
Nb   10.9798254900    8.7838604000   12.1959650900   -0.0000000000    0.0000000000   -0.0000000000
Nb    8.7838604000   10.9798254900   12.1959650900    0.0000000000   -0.0000000000   -0.0000000000
Nb   10.9798254900   10.9798254900   10.0000000000   -0.0000000000   -0.0000000000    0.0000000000
Nb    8.8888787500    8.8733920600   14.4428579300   -0.0000072200   -0.0001238222   -0.0000929064
Nb   10.9760957800    8.8091118500   16.4495062000   -0.0002077302   -0.0000171615    0.0002379474
Nb    8.8190462300   10.9656123500   16.4486591700    0.0000472238   -0.0002022439    0.0001673785
Nb   10.8840894500   10.8738799300   14.4411572100   -0.0001301604    0.0002533775   -0.0000562983
 N    0.0000000000    2.1959650900   10.0000000000   -0.0000000000    0.0000000000   -0.0000000000
 N    2.1959650900    0.0000000000   10.0000000000    0.0000000000   -0.0000000000   -0.0000000000
 N    0.0000000000    0.0000000000   12.1959650900   -0.0000000000   -0.0000000000   -0.0000000000
 N    2.1959650900    2.1959650900   12.1959650900    0.0000000000    0.0000000000   -0.0000000000
 N   -0.0938674900    2.3018676800   14.4000281300    0.0000778859    0.0000032605   -0.0000552520
 N    2.3062498700   -0.1089359700   14.3996027100   -0.0000025388   -0.0002152606    0.0000435523
 N    0.0009666000   -0.0085895400   16.7637314200   -0.0003557084    0.0001207595    0.0000200855
 N    2.2120425400    2.2026889400   16.7703380200   -0.0000928424    0.0001120656   -0.0000860977
 N    0.0000000000    6.5878952900   10.0000000000   -0.0000000000    0.0000000000   -0.0000000000
 N    2.1959650900    4.3919302000   10.0000000000    0.0000000000   -0.0000000000   -0.0000000000
 N    0.0000000000    4.3919302000   12.1959650900   -0.0000000000   -0.0000000000   -0.0000000000
 N    2.1959650900    6.5878952900   12.1959650900    0.0000000000    0.0000000000   -0.0000000000
 N   -0.0799361700    6.6979035100   14.4017925200   -0.0003275317   -0.0001688859   -0.0002025304
 N    2.3199943100    4.2809314200   14.3909089100   -0.0000311267    0.0004219763    0.0000383329
 N   -0.0235636300    4.3755566800   16.7616788700    0.0001515767    0.0001891211    0.0002107104
 N    2.1740291900    6.5846864100   16.6853539200   -0.0003781635    0.0002217001    0.0005460020
 N    0.0000000000   10.9798254900   10.0000000000   -0.0000000000    0.0000000000   -0.0000000000
 N    2.1959650900    8.7838604000   10.0000000000    0.0000000000   -0.0000000000   -0.0000000000
 N    0.0000000000    8.7838604000   12.1959650900   -0.0000000000   -0.0000000000   -0.0000000000
 N    2.1959650900   10.9798254900   12.1959650900    0.0000000000    0.0000000000   -0.0000000000
 N   -0.1046369500   11.0902384600   14.3966742700   -0.0000191085   -0.0002590520   -0.0000299057
 N    2.3137237100    8.6726745200   14.3966065100    0.0003348667   -0.0001212807   -0.0000646383
 N    0.0001113400    8.7829369500   16.7458866000    0.0006031602    0.0000046632   -0.0000521823
 N    2.2005898700   10.9884172100   16.7394115000    0.0000737146   -0.0005613342    0.0002344032
 N    4.3919302000    2.1959650900   10.0000000000   -0.0000000000    0.0000000000   -0.0000000000
 N    6.5878952900    0.0000000000   10.0000000000    0.0000000000   -0.0000000000   -0.0000000000
 N    4.3919302000    0.0000000000   12.1959650900   -0.0000000000   -0.0000000000   -0.0000000000
 N    6.5878952900    2.1959650900   12.1959650900    0.0000000000    0.0000000000   -0.0000000000
 N    4.2996922100    2.3028980500   14.3988932800    0.0000076394    0.0004529503    0.0001093835
 N    6.7012372000   -0.1044770900   14.4023742700   -0.0001217214   -0.0000998132    0.0000094182
 N    4.3875081700   -0.0226605700   16.7725694200    0.0001970152    0.0001368840   -0.0000817632
 N    6.6026093900    2.1773668200   16.7763874900   -0.0000541670   -0.0000392028    0.0001892264
 N    4.3919302000    6.5878952900   10.0000000000   -0.0000000000    0.0000000000   -0.0000000000
 N    6.5878952900    4.3919302000   10.0000000000    0.0000000000   -0.0000000000   -0.0000000000
 N    4.3919302000    4.3919302000   12.1959650900   -0.0000000000   -0.0000000000   -0.0000000000
 N    6.5878952900    6.5878952900   12.1959650900    0.0000000000    0.0000000000   -0.0000000000
 N    4.2933310200    6.6919239400   14.3889270900    0.0002267903   -0.0003163000    0.0009561912
 N    6.6940042400    4.2922768300   14.3967820500   -0.0000428250    0.0002222300   -0.0002557162
 N    4.3925139200    4.3545331000   16.7084096400   -0.0000501893   -0.0002017194    0.0004221253
 N    6.6478827600    6.5956594600   16.7069389300   -0.0005205023    0.0001568380    0.0004457782
 N    4.3919302000   10.9798254900   10.0000000000   -0.0000000000    0.0000000000   -0.0000000000
 N    6.5878952900    8.7838604000   10.0000000000    0.0000000000   -0.0000000000   -0.0000000000
 N    4.3919302000    8.7838604000   12.1959650900   -0.0000000000   -0.0000000000   -0.0000000000
 N    6.5878952900   10.9798254900   12.1959650900    0.0000000000    0.0000000000   -0.0000000000
 N    4.2878839100   11.0659454600   14.4020637800    0.0000214539    0.0000336407   -0.0003007548
 N    6.7066533900    8.6670603800   14.3891534200   -0.0002312669    0.0000133413    0.0000300822
 N    4.3977296400    8.8263289000   16.6895951700   -0.0001906812   -0.0002925078    0.0004340339
 N    6.6112367000   11.0126571900   16.7578630300   -0.0002349006   -0.0004139237    0.0002097258
 N    8.7838604000    2.1959650900   10.0000000000   -0.0000000000    0.0000000000   -0.0000000000
 N   10.9798254900    0.0000000000   10.0000000000    0.0000000000   -0.0000000000   -0.0000000000
 N    8.7838604000    0.0000000000   12.1959650900   -0.0000000000   -0.0000000000   -0.0000000000
 N   10.9798254900    2.1959650900   12.1959650900    0.0000000000    0.0000000000   -0.0000000000
 N    8.6861331900    2.2992752100   14.3956265800   -0.0003332323    0.0003751980    0.0000086854
 N   11.0949660100   -0.1116965900   14.3949886700   -0.0000070599    0.0001293168    0.0000256383
 N    8.7915753200   -0.0072325400   16.7455589200    0.0002594601    0.0000916473    0.0003167230
 N   10.9932572100    2.1934683000   16.7441867800   -0.0000706064   -0.0001787034    0.0002268168
 N    8.7838604000    6.5878952900   10.0000000000   -0.0000000000    0.0000000000   -0.0000000000
 N   10.9798254900    4.3919302000   10.0000000000    0.0000000000   -0.0000000000   -0.0000000000
 N    8.7838604000    4.3919302000   12.1959650900   -0.0000000000   -0.0000000000   -0.0000000000
 N   10.9798254900    6.5878952900   12.1959650900    0.0000000000    0.0000000000   -0.0000000000
 N    8.6851945100    6.6859397400   14.3971514600   -0.0006697401   -0.0001327487    0.0001344242
 N   11.0914509300    4.2827922400   14.4023207700    0.0001802935    0.0001983725    0.0000206491
 N    8.8130776200    4.3825370700   16.7734078700   -0.0001528579    0.0000283112    0.0003344636
 N   11.0088193800    6.5977806700   16.7747324000   -0.0001991173   -0.0000324860   -0.0001783359
 N    8.7838604000   10.9798254900   10.0000000000   -0.0000000000    0.0000000000   -0.0000000000
 N   10.9798254900    8.7838604000   10.0000000000    0.0000000000   -0.0000000000   -0.0000000000
 N    8.7838604000    8.7838604000   12.1959650900   -0.0000000000   -0.0000000000   -0.0000000000
 N   10.9798254900   10.9798254900   12.1959650900    0.0000000000    0.0000000000   -0.0000000000
 N    8.6845972500   11.0801273400   14.3994355900   -0.0001787752   -0.0003472516    0.0000082851
 N   11.0964798900    8.6769274600   14.3994059300    0.0001324031    0.0002061334    0.0000495582
 N    8.7872035300    8.7770245400   16.7647500700   -0.0003248124    0.0000243926    0.0002040535
 N   10.9938419300   10.9845341500   16.7660440100    0.0000130182    0.0003387806   -0.0000990223
 S    4.4003464100    6.6479445300   19.1349900600   -0.0014392569    0.0002184709    0.0000790140
Li    6.5661096100    6.6367063000   18.6474205100   -0.0012989258   -0.0007178555    0.0004093244
Li    4.3770903800    4.4838797200   18.6469350500   -0.0001495355   -0.0003941774    0.0003462189
 PRIMCOORD   2
  147  1
Nb    0.0000000000    0.0000000000   10.0000000000    0.0000000000    0.0000000000    0.0000000000
Nb    2.1959650900    0.0000000000   12.1959650900   -0.0000000000    0.0000000000   -0.0000000000
Nb    0.0000000000    2.1959650900   12.1959650900    0.0000000000   -0.0000000000   -0.0000000000
Nb    2.1959650900    2.1959650900   10.0000000000   -0.0000000000   -0.0000000000    0.0000000000
Nb    0.1053097047    0.1001232902   14.4438630620   -0.0002175390   -0.0001840022   -0.0001297685
Nb    2.1678286433    0.0018775807   16.4545630044   -0.0001190528   -0.0002611388   -0.0001310467
Nb    0.0028076317    2.1633719594   16.4516890333   -0.0002306342   -0.0001749735   -0.0002274419
Nb    2.1041807903    2.0908307478   14.4481677037   -0.0003162656   -0.0003417775   -0.0006242321
Nb    0.0000000000    4.3919302000   10.0000000000    0.0000000000    0.0000000000    0.0000000000
Nb    2.1959650900    4.3919302000   12.1959650900   -0.0000000000    0.0000000000   -0.0000000000
Nb    0.0000000000    6.5878952900   12.1959650900    0.0000000000   -0.0000000000   -0.0000000000
Nb    2.1959650900    6.5878952900   10.0000000000   -0.0000000000   -0.0000000000    0.0000000000
Nb    0.1005918359    4.4912128060   14.4390202435   -0.0002815631   -0.0000398722    0.0000149002
Nb    2.0837671973    4.4111699592   16.4196836522   -0.0005408662   -0.0016392436    0.0012891824
Nb   -0.0292696745    6.5768071165   16.4503418147    0.0001283482   -0.0002963213   -0.0002144888
Nb    2.1233586620    6.4733567154   14.4335087480   -0.0002075724   -0.0000115964    0.0000429120
Nb    0.0000000000    8.7838604000   10.0000000000    0.0000000000    0.0000000000    0.0000000000
Nb    2.1959650900    8.7838604000   12.1959650900   -0.0000000000    0.0000000000   -0.0000000000
Nb    0.0000000000   10.9798254900   12.1959650900    0.0000000000   -0.0000000000   -0.0000000000
Nb    2.1959650900   10.9798254900   10.0000000000   -0.0000000000   -0.0000000000    0.0000000000
Nb    0.1080207887    8.8890171835   14.4445548929   -0.0000850703   -0.0002453292    0.0000643261
Nb    2.2020047656    8.7939984985   16.4499192742   -0.0000676090   -0.0001991308    0.0000540630
Nb    0.0078699862   10.9776205625   16.4492786650   -0.0001809735   -0.0003739327   -0.0000182910
Nb    2.0907089095   10.8615319799   14.4497649603   -0.0001140977   -0.0002515704    0.0000157239
Nb    4.3919302000    0.0000000000   10.0000000000    0.0000000000    0.0000000000    0.0000000000
Nb    6.5878952900    0.0000000000   12.1959650900   -0.0000000000    0.0000000000   -0.0000000000
Nb    4.3919302000    2.1959650900   12.1959650900    0.0000000000   -0.0000000000   -0.0000000000
Nb    6.5878952900    2.1959650900   10.0000000000   -0.0000000000   -0.0000000000    0.0000000000
Nb    4.4892819393    0.0786081950   14.4422885082   -0.0000834541   -0.0002549585    0.0000444392
Nb    6.5843677044   -0.0101899821   16.4497186259   -0.0002924185   -0.0000208561   -0.0001069078
Nb    4.4180951737    2.1104991447   16.4385535456   -0.0012839466   -0.0002636708    0.0008509945
Nb    6.4855250917    2.0870770853   14.4371218094   -0.0000529393   -0.0000292087    0.0000854649
Nb    4.3919302000    4.3919302000   10.0000000000    0.0000000000    0.0000000000    0.0000000000
Nb    6.5878952900    4.3919302000   12.1959650900   -0.0000000000    0.0000000000   -0.0000000000
Nb    4.3919302000    6.5878952900   12.1959650900    0.0000000000   -0.0000000000   -0.0000000000
Nb    6.5878952900    6.5878952900   10.0000000000   -0.0000000000   -0.0000000000    0.0000000000
Nb    4.4902730579    4.5047554225   14.4683079242    0.0001532408    0.0003077590    0.0002491019
Nb    6.5904410904    4.3430383433   16.4524108522    0.0009999123   -0.0003743238   -0.0000668439
Nb    4.3521721897    6.4996562833   16.6582272803   -0.0001149437    0.0007365518   -0.0006003478
Nb    6.4553341461    6.4760040404   14.4956946193   -0.0003057006   -0.0000654311    0.0001737710
Nb    4.3919302000    8.7838604000   10.0000000000    0.0000000000    0.0000000000    0.0000000000
Nb    6.5878952900    8.7838604000   12.1959650900   -0.0000000000    0.0000000000   -0.0000000000
Nb    4.3919302000   10.9798254900   12.1959650900    0.0000000000   -0.0000000000   -0.0000000000
Nb    6.5878952900   10.9798254900   10.0000000000   -0.0000000000   -0.0000000000    0.0000000000
Nb    4.4974289859    8.8456596398   14.4529875747   -0.0000697728   -0.0000312749    0.0000800822
Nb    6.5714256076    8.8580125177   16.4501523231   -0.0001548912   -0.0002093504   -0.0000704173
Nb    4.3987010773   10.9968258249   16.4542694413   -0.0001465781   -0.0004388848    0.0001095866
Nb    6.4841207384   10.8628532365   14.4474742917   -0.0000642428   -0.0001536792    0.0001468596
Nb    8.7838604000    0.0000000000   10.0000000000    0.0000000000    0.0000000000    0.0000000000
Nb   10.9798254900    0.0000000000   12.1959650900   -0.0000000000    0.0000000000   -0.0000000000
Nb    8.7838604000    2.1959650900   12.1959650900    0.0000000000   -0.0000000000   -0.0000000000
Nb   10.9798254900    2.1959650900   10.0000000000   -0.0000000000   -0.0000000000    0.0000000000
Nb    8.8883197177    0.0963508696   14.4397132810   -0.0001339787   -0.0001106921    0.0000530048
Nb   10.9771619909    0.0060887653   16.4457717047   -0.0003468413   -0.0002575008   -0.0000738127
Nb    8.7906594224    2.1864888545   16.4458325955   -0.0001654870   -0.0002494740    0.0000530746
Nb   10.8755631230    2.0898789691   14.4415665163   -0.0001704018   -0.0001741688   -0.0000133742
Nb    8.7838604000    4.3919302000   10.0000000000    0.0000000000    0.0000000000    0.0000000000
Nb   10.9798254900    4.3919302000   12.1959650900   -0.0000000000    0.0000000000   -0.0000000000
Nb    8.7838604000    6.5878952900   12.1959650900    0.0000000000   -0.0000000000   -0.0000000000
Nb   10.9798254900    6.5878952900   10.0000000000   -0.0000000000   -0.0000000000    0.0000000000
Nb    8.8798042216    4.4911994135   14.4450974062   -0.0001420240   -0.0000992592    0.0000561136
Nb   10.9668780460    4.3940406268   16.4505286954   -0.0004076074   -0.0001923217    0.0000592872
Nb    8.8398958004    6.5731089024   16.4591341151   -0.0003350774   -0.0001128006   -0.0000250540
Nb   10.8843398708    6.4864403580   14.4479537349   -0.0001017570   -0.0000279328    0.0000678399
Nb    8.7838604000    8.7838604000   10.0000000000    0.0000000000    0.0000000000    0.0000000000
Nb   10.9798254900    8.7838604000   12.1959650900   -0.0000000000    0.0000000000   -0.0000000000
Nb    8.7838604000   10.9798254900   12.1959650900    0.0000000000   -0.0000000000   -0.0000000000
Nb   10.9798254900   10.9798254900   10.0000000000   -0.0000000000   -0.0000000000    0.0000000000
Nb    8.8773149166    8.8692380888   14.4464395224   -0.0001115451   -0.0000912290   -0.0000139746
Nb   10.9578729781    8.8052665671   16.4510723020   -0.0000723308   -0.0001088511   -0.0000696498
Nb    8.8077381001   10.9588856101   16.4499772486   -0.0001848152   -0.0000235681   -0.0000055967
Nb   10.8780058542   10.8738771490   14.4411409288   -0.0001036628   -0.0000746369   -0.0000325720
 N    0.0000000000    2.1959650900   10.0000000000   -0.0000000000    0.0000000000   -0.0000000000
 N    2.1959650900    0.0000000000   10.0000000000    0.0000000000   -0.0000000000   -0.0000000000
 N    0.0000000000    0.0000000000   12.1959650900   -0.0000000000   -0.0000000000   -0.0000000000
 N    2.1959650900    2.1959650900   12.1959650900    0.0000000000    0.0000000000   -0.0000000000
 N   -0.1034025880    2.2977729137   14.4017134087   -0.0000273278   -0.0000732536   -0.0001286994
 N    2.3001215307   -0.1171705112   14.4039769687   -0.0000001130   -0.0000867220   -0.0002338143
 N   -0.0061157121   -0.0084130602   16.7715813021   -0.0002036440   -0.0002283605   -0.0002944916
 N    2.1971020086    2.1984307941   16.7772838721   -0.0005550543   -0.0008132391   -0.0015662765
 N    0.0000000000    6.5878952900   10.0000000000   -0.0000000000    0.0000000000   -0.0000000000
 N    2.1959650900    4.3919302000   10.0000000000    0.0000000000   -0.0000000000   -0.0000000000
 N    0.0000000000    4.3919302000   12.1959650900   -0.0000000000   -0.0000000000   -0.0000000000
 N    2.1959650900    6.5878952900   12.1959650900    0.0000000000    0.0000000000   -0.0000000000
 N   -0.0913844234    6.6953121705   14.4010831097   -0.0000336731   -0.0002044950    0.0001037696
 N    2.3076675964    4.2719917753   14.3755516083    0.0000175742   -0.0001174018   -0.0003316702
 N   -0.0433164914    4.3759408836   16.7628807882   -0.0004745021   -0.0003657336    0.0000668465
 N    2.1451413029    6.5926974752   16.6734101888   -0.0000220858   -0.0008639907    0.0001447581
 N    0.0000000000   10.9798254900   10.0000000000   -0.0000000000    0.0000000000   -0.0000000000
 N    2.1959650900    8.7838604000   10.0000000000    0.0000000000   -0.0000000000   -0.0000000000
 N    0.0000000000    8.7838604000   12.1959650900   -0.0000000000   -0.0000000000   -0.0000000000
 N    2.1959650900   10.9798254900   12.1959650900    0.0000000000    0.0000000000   -0.0000000000
 N   -0.1076205424   11.0882475271   14.3987076108   -0.0001330664   -0.0001914480   -0.0000252312
 N    2.3032023575    8.6649365752   14.3970870945   -0.0001228192   -0.0002225348    0.0000231632
 N   -0.0067401866    8.7838310324   16.7384626064   -0.0000684060   -0.0002703416    0.0000167597
 N    2.1999485512   10.9804757506   16.7558826759   -0.0002243610   -0.0001772120    0.0000184429
 N    4.3919302000    2.1959650900   10.0000000000   -0.0000000000    0.0000000000   -0.0000000000
 N    6.5878952900    0.0000000000   10.0000000000    0.0000000000   -0.0000000000   -0.0000000000
 N    4.3919302000    0.0000000000   12.1959650900   -0.0000000000   -0.0000000000   -0.0000000000
 N    6.5878952900    2.1959650900   12.1959650900    0.0000000000    0.0000000000   -0.0000000000
 N    4.2909697066    2.2910162386   14.3907229626   -0.0000857342    0.0000875221   -0.0002409512
 N    6.6949839274   -0.1170608645   14.4005945772   -0.0001893985    0.0000328462    0.0000650626
 N    4.3814960240   -0.0255961135   16.7785114205   -0.0002405247   -0.0002501537   -0.0000500684
 N    6.6004035942    2.1653969455   16.7629018374   -0.0006205981   -0.0001699818    0.0000423334
 N    4.3919302000    6.5878952900   10.0000000000   -0.0000000000    0.0000000000   -0.0000000000
 N    6.5878952900    4.3919302000   10.0000000000    0.0000000000   -0.0000000000   -0.0000000000
 N    4.3919302000    4.3919302000   12.1959650900   -0.0000000000   -0.0000000000   -0.0000000000
 N    6.5878952900    6.5878952900   12.1959650900    0.0000000000    0.0000000000   -0.0000000000
 N    4.2865628135    6.6835210669   14.3976525503   -0.0001384851   -0.0001006210    0.0000230148
 N    6.6884041420    4.2841247368   14.3982662369   -0.0002848176   -0.0000669854    0.0000594109
 N    4.3457536872    4.2905123535   16.6947390013    0.0004314307    0.0002893988    0.0004293387
 N    6.6126569262    6.5885781818   16.7493701659   -0.0000564698   -0.0002485971    0.0001717473
 N    4.3919302000   10.9798254900   10.0000000000   -0.0000000000    0.0000000000   -0.0000000000
 N    6.5878952900    8.7838604000   10.0000000000    0.0000000000   -0.0000000000   -0.0000000000
 N    4.3919302000    8.7838604000   12.1959650900   -0.0000000000   -0.0000000000   -0.0000000000
 N    6.5878952900   10.9798254900   12.1959650900    0.0000000000    0.0000000000   -0.0000000000
 N    4.2833805631   11.0601171573   14.4031969007   -0.0000942044    0.0000242265   -0.0000043125
 N    6.6924741709    8.6585361385   14.3985159344   -0.0001731678   -0.0000601583    0.0001177118
 N    4.3921715056    8.7817943712   16.7002991964   -0.0001432273   -0.0001895598    0.0001393888
 N    6.6010797700   10.9982607084   16.7708834642   -0.0001462060   -0.0001477797   -0.0001242798
 N    8.7838604000    2.1959650900   10.0000000000    0.0000000000    0.0000000000   -0.0000000000
 N   10.9798254900    0.0000000000   10.0000000000    0.0000000000   -0.0000000000   -0.0000000000
 N    8.7838604000    0.0000000000   12.1959650900   -0.0000000000   -0.0000000000   -0.0000000000
 N   10.9798254900    2.1959650900   12.1959650900    0.0000000000    0.0000000000   -0.0000000000
 N    8.6760821622    2.2971433860   14.3960154696   -0.0002120437   -0.0000447212    0.0000257109
 N   11.0894516088   -0.1093412266   14.3966751127   -0.0001770631   -0.0001258141   -0.0000253608
 N    8.7860761890   -0.0088796111   16.7442885668   -0.0002151401   -0.0001183778    0.0000764998
 N   10.9790046578    2.1966569872   16.7520618951   -0.0001569594   -0.0002596198   -0.0000957268
 N    8.7838604000    6.5878952900   10.0000000000   -0.0000000000    0.0000000000   -0.0000000000
 N   10.9798254900    4.3919302000   10.0000000000    0.0000000000   -0.0000000000   -0.0000000000
 N    8.7838604000    4.3919302000   12.1959650900   -0.0000000000   -0.0000000000   -0.0000000000
 N   10.9798254900    6.5878952900   12.1959650900    0.0000000000    0.0000000000   -0.0000000000
 N    8.6719661260    6.6813506583   14.4060602602   -0.0002080948   -0.0000893712    0.0000178013
 N   11.0837714951    4.2830893369   14.4013824482   -0.0000610506   -0.0000732120    0.0000395404
 N    8.7824764602    4.3813067839   16.7626144175   -0.0000270919   -0.0002592017    0.0003561662
 N   10.9860148434    6.5982762554   16.7792449548   -0.0001752926   -0.0001761094   -0.0002044093
 N    8.7838604000   10.9798254900   10.0000000000   -0.0000000000    0.0000000000   -0.0000000000
 N   10.9798254900    8.7838604000   10.0000000000    0.0000000000   -0.0000000000   -0.0000000000
 N    8.7838604000    8.7838604000   12.1959650900   -0.0000000000   -0.0000000000   -0.0000000000
 N   10.9798254900   10.9798254900   12.1959650900    0.0000000000    0.0000000000   -0.0000000000
 N    8.6780835598   11.0766210696   14.4001458615   -0.0001539128   -0.0001377924   -0.0000026499
 N   11.0854925377    8.6767406374   14.4004892597   -0.0000956209   -0.0001185609   -0.0000147281
 N    8.7733147035    8.7726027308   16.7711831577   -0.0001056790   -0.0001114054   -0.0000280139
 N   10.9879376119   10.9844323326   16.7598160997   -0.0000558495   -0.0000973832    0.0001051345
 S    4.2665583791    6.2743330162   19.1433661265    0.0002073782    0.0039577222    0.0006578368
Li    6.4195428972    6.5696073426   18.6957035632    0.0003991052   -0.0002818726   -0.0000102606
Li    3.8753748394    4.0783800888   18.6659200818    0.0150524131    0.0152488560   -0.0001408548
 PRIMCOORD   3
  147  1
Nb    0.0000000000    0.0000000000   10.0000000000    0.0000000000    0.0000000000    0.0000000000
Nb    2.1959650900    0.0000000000   12.1959650900   -0.0000000000    0.0000000000   -0.0000000000
Nb    0.0000000000    2.1959650900   12.1959650900    0.0000000000   -0.0000000000   -0.0000000000
Nb    2.1959650900    2.1959650900   10.0000000000   -0.0000000000   -0.0000000000    0.0000000000
Nb    0.1109383149    0.1066987491   14.4482590769   -0.0002768077   -0.0001847972   -0.0001292076
Nb    2.1723292074    0.0060557612   16.4625138226    0.0001448046    0.0007096153    0.0002392147
Nb    0.0067954597    2.1695856624   16.4596007123    0.0007052182    0.0001181864    0.0001014830
Nb    2.1096051731    2.0967215294   14.4650594678   -0.0002493358   -0.0002468287   -0.0006749650
Nb    0.0000000000    4.3919302000   10.0000000000    0.0000000000    0.0000000000    0.0000000000
Nb    2.1959650900    4.3919302000   12.1959650900   -0.0000000000    0.0000000000   -0.0000000000
Nb    0.0000000000    6.5878952900   12.1959650900    0.0000000000   -0.0000000000   -0.0000000000
Nb    2.1959650900    6.5878952900   10.0000000000   -0.0000000000   -0.0000000000    0.0000000000
Nb    0.1030918624    4.4934843795   14.4354005331   -0.0003327307   -0.0000295021   -0.0001340839
Nb    2.1009244514    4.4657659876   16.4060682230   -0.0021699231   -0.0013962428    0.0003554202
Nb   -0.0345968280    6.5871883049   16.4491806550   -0.0000791733   -0.0001395041   -0.0003989178
Nb    2.1294116197    6.4808121004   14.4275982035   -0.0003301153   -0.0000067675   -0.0003172623
Nb    0.0000000000    8.7838604000   10.0000000000    0.0000000000    0.0000000000    0.0000000000
Nb    2.1959650900    8.7838604000   12.1959650900   -0.0000000000    0.0000000000   -0.0000000000
Nb    0.0000000000   10.9798254900   12.1959650900    0.0000000000   -0.0000000000   -0.0000000000
Nb    2.1959650900   10.9798254900   10.0000000000   -0.0000000000   -0.0000000000    0.0000000000
Nb    0.1098785127    8.8943582800   14.4450611327   -0.0001157305   -0.0002144396   -0.0000285540
Nb    2.2079231313    8.8042002639   16.4477533107   -0.0000170361   -0.0002432940   -0.0000042990
Nb    0.0131572680   10.9885220930   16.4503157719   -0.0000058232   -0.0002325454    0.0000403839
Nb    2.0941529115   10.8668370127   14.4510679791   -0.0000671940   -0.0002514004   -0.0000605977
Nb    4.3919302000    0.0000000000   10.0000000000    0.0000000000    0.0000000000    0.0000000000
Nb    6.5878952900    0.0000000000   12.1959650900   -0.0000000000    0.0000000000   -0.0000000000
Nb    4.3919302000    2.1959650900   12.1959650900    0.0000000000   -0.0000000000   -0.0000000000
Nb    6.5878952900    2.1959650900   10.0000000000   -0.0000000000   -0.0000000000    0.0000000000
Nb    4.4908383078    0.0789597124   14.4393144823   -0.0000462260   -0.0003698189   -0.0000591609
Nb    6.5917373447   -0.0141540912   16.4485964546   -0.0002920228   -0.0002437359   -0.0002838439
Nb    4.4596093387    2.1179506662   16.4295588883   -0.0014292892   -0.0011414193    0.0006657223
Nb    6.4927275764    2.0890831535   14.4312240949    0.0000477371   -0.0000627391   -0.0001235611
Nb    4.3919302000    4.3919302000   10.0000000000    0.0000000000    0.0000000000    0.0000000000
Nb    6.5878952900    4.3919302000   12.1959650900   -0.0000000000    0.0000000000   -0.0000000000
Nb    4.3919302000    6.5878952900   12.1959650900    0.0000000000   -0.0000000000   -0.0000000000
Nb    6.5878952900    6.5878952900   10.0000000000   -0.0000000000   -0.0000000000    0.0000000000
Nb    4.4908111064    4.5005470817   14.4535567672    0.0003126189    0.0003989367   -0.0000619404
Nb    6.5583727441    4.3549198106   16.4523403162    0.0005552074   -0.0001933919    0.0001516117
Nb    4.3533555137    6.4744274297   16.6833934224   -0.0002039636   -0.0007828610   -0.0020861062
Nb    6.4597659619    6.4782249244   14.4918651633   -0.0003777835   -0.0000020872    0.0004491217
Nb    4.3919302000    8.7838604000   10.0000000000    0.0000000000    0.0000000000    0.0000000000
Nb    6.5878952900    8.7838604000   12.1959650900   -0.0000000000    0.0000000000   -0.0000000000
Nb    4.3919302000   10.9798254900   12.1959650900    0.0000000000   -0.0000000000   -0.0000000000
Nb    6.5878952900   10.9798254900   10.0000000000   -0.0000000000   -0.0000000000    0.0000000000
Nb    4.5000062808    8.8463682002   14.4521312143   -0.0000879544   -0.0001817758    0.0004144165
Nb    6.5723556426    8.8648474055   16.4498426859   -0.0001846300   -0.0002602760    0.0000774182
Nb    4.4048406064   11.0106733053   16.4543362520   -0.0003109222   -0.0005474309    0.0001800438
Nb    6.4868363537   10.8657248574   14.4473140665   -0.0000073276   -0.0001763805    0.0000939949
Nb    8.7838604000    0.0000000000   10.0000000000    0.0000000000    0.0000000000    0.0000000000
Nb   10.9798254900    0.0000000000   12.1959650900   -0.0000000000    0.0000000000   -0.0000000000
Nb    8.7838604000    2.1959650900   12.1959650900    0.0000000000   -0.0000000000   -0.0000000000
Nb   10.9798254900    2.1959650900   10.0000000000   -0.0000000000   -0.0000000000    0.0000000000
Nb    8.8923811696    0.0994729821   14.4401073801   -0.0001010233   -0.0000698849    0.0000439279
Nb   10.9865924428    0.0142678874   16.4471941237   -0.0002522388   -0.0000985780    0.0000084628
Nb    8.7987162885    2.1935063987   16.4447306905   -0.0002893015   -0.0001385929    0.0000507584
Nb   10.8800859507    2.0943384933   14.4428934334   -0.0002232414   -0.0001232839   -0.0000521540
Nb    8.7838604000    4.3919302000   10.0000000000    0.0000000000    0.0000000000    0.0000000000
Nb   10.9798254900    4.3919302000   12.1959650900   -0.0000000000    0.0000000000   -0.0000000000
Nb    8.7838604000    6.5878952900   12.1959650900    0.0000000000   -0.0000000000   -0.0000000000
Nb   10.9798254900    6.5878952900   10.0000000000   -0.0000000000   -0.0000000000    0.0000000000
Nb    8.8841936577    4.4950602688   14.4457105952   -0.0000744246   -0.0001170205    0.0001097761
Nb   10.9782091587    4.4023542215   16.4494360989   -0.0004280655   -0.0001934771    0.0000645008
Nb    8.8467967658    6.5777614476   16.4606619528   -0.0006558624   -0.0002860487    0.0000525761
Nb   10.8877100079    6.4888769723   14.4473511124   -0.0001085063   -0.0000008184    0.0000875927
Nb    8.7838604000    8.7838604000   10.0000000000    0.0000000000    0.0000000000    0.0000000000
Nb   10.9798254900    8.7838604000   12.1959650900   -0.0000000000    0.0000000000   -0.0000000000
Nb    8.7838604000   10.9798254900   12.1959650900    0.0000000000   -0.0000000000   -0.0000000000
Nb   10.9798254900   10.9798254900   10.0000000000   -0.0000000000   -0.0000000000    0.0000000000
Nb    8.8795394830    8.8730450349   14.4474620822   -0.0001539293   -0.0001192051   -0.0000786677
Nb   10.9591868818    8.8074983218   16.4510325707   -0.0001346941   -0.0000183369   -0.0000480182
Nb    8.8097061864   10.9607617484   16.4497436535   -0.0001049982   -0.0000013124    0.0000414187
Nb   10.8814279578   10.8777844943   14.4409016790   -0.0000737001   -0.0000339696   -0.0000436661
 N    0.0000000000    2.1959650900   10.0000000000   -0.0000000000    0.0000000000   -0.0000000000
 N    2.1959650900    0.0000000000   10.0000000000    0.0000000000   -0.0000000000   -0.0000000000
 N    0.0000000000    0.0000000000   12.1959650900   -0.0000000000   -0.0000000000   -0.0000000000
 N    2.1959650900    2.1959650900   12.1959650900    0.0000000000    0.0000000000   -0.0000000000
 N   -0.0982852624    2.3012074689   14.4075039761    0.0001517687   -0.0000631679   -0.0002421864
 N    2.3026505533   -0.1118601843   14.4093510767    0.0000281435    0.0000144869   -0.0002835656
 N    0.0009014142    0.0003083624   16.7804609261   -0.0001234568   -0.0001190642   -0.0001964763
 N    2.2161829092    2.2247537593   16.8340903398    0.0002104242    0.0003108384    0.0002836167
 N    0.0000000000    6.5878952900   10.0000000000   -0.0000000000    0.0000000000   -0.0000000000
 N    2.1959650900    4.3919302000   10.0000000000    0.0000000000   -0.0000000000   -0.0000000000
 N    0.0000000000    4.3919302000   12.1959650900   -0.0000000000   -0.0000000000   -0.0000000000
 N    2.1959650900    6.5878952900   12.1959650900    0.0000000000    0.0000000000   -0.0000000000
 N   -0.0879586650    6.6994187179   14.4001478625   -0.0001364323   -0.0000720064    0.0002802261
 N    2.3078362709    4.2714318291   14.3675737586    0.0000968669   -0.0000179607   -0.0011459543
 N   -0.0286895871    4.3863629293   16.7597782489   -0.0008574554   -0.0001226614    0.0002848285
 N    2.1454727099    6.6192459004   16.6685851896   -0.0002056632   -0.0006281630   -0.0001714907
 N    0.0000000000   10.9798254900   10.0000000000   -0.0000000000   -0.0000000000   -0.0000000000
 N    2.1959650900    8.7838604000   10.0000000000    0.0000000000   -0.0000000000   -0.0000000000
 N    0.0000000000    8.7838604000   12.1959650900   -0.0000000000   -0.0000000000   -0.0000000000
 N    2.1959650900   10.9798254900   12.1959650900    0.0000000000    0.0000000000   -0.0000000000
 N   -0.1040055116   11.0939490008   14.3994068278   -0.0001381808   -0.0001154989    0.0000301721
 N    2.3047683916    8.6698270810   14.3959657238   -0.0001592387   -0.0002010015    0.0000339662
 N   -0.0040688118    8.7940958286   16.7370251749   -0.0000533084   -0.0000666462   -0.0000364559
 N    2.2065751525   10.9886300702   16.7581503420   -0.0002283679    0.0000745839   -0.0001743168
 N    4.3919302000    2.1959650900   10.0000000000   -0.0000000000    0.0000000000   -0.0000000000
 N    6.5878952900    0.0000000000   10.0000000000    0.0000000000   -0.0000000000   -0.0000000000
 N    4.3919302000    0.0000000000   12.1959650900   -0.0000000000   -0.0000000000   -0.0000000000
 N    6.5878952900    2.1959650900   12.1959650900    0.0000000000    0.0000000000   -0.0000000000
 N    4.2918726587    2.2881259521   14.3851034585    0.0000235147    0.0001031639   -0.0006754751
 N    6.6984475398   -0.1158755069   14.3996586608   -0.0001045915   -0.0000463228    0.0002233440
 N    4.3889556004   -0.0148243556   16.7795137035   -0.0001405357   -0.0005137647    0.0000942393
 N    6.6185360193    2.1689540946   16.7574148232   -0.0005033011   -0.0002727392   -0.0001934515
 N    4.3919302000    6.5878952900   10.0000000000   -0.0000000000    0.0000000000   -0.0000000000
 N    6.5878952900    4.3919302000   10.0000000000    0.0000000000   -0.0000000000   -0.0000000000
 N    4.3919302000    4.3919302000   12.1959650900   -0.0000000000   -0.0000000000   -0.0000000000
 N    6.5878952900    6.5878952900   12.1959650900    0.0000000000    0.0000000000   -0.0000000000
 N    4.2920854974    6.6828515636   14.4056057289   -0.0002222191   -0.0002879078   -0.0005320046
 N    6.6933437970    4.2860065267   14.3981781879   -0.0001473028   -0.0001886145   -0.0000981476
 N    4.3346117978    4.2780133972   16.6827912345   -0.0004932536   -0.0008122606   -0.0005203119
 N    6.6101485281    6.5931900452   16.7506658050   -0.0002949060   -0.0002481406    0.0010105497
 N    4.3919302000   10.9798254900   10.0000000000   -0.0000000000    0.0000000000   -0.0000000000
 N    6.5878952900    8.7838604000   10.0000000000    0.0000000000   -0.0000000000   -0.0000000000
 N    4.3919302000    8.7838604000   12.1959650900   -0.0000000000   -0.0000000000   -0.0000000000
 N    6.5878952900   10.9798254900   12.1959650900    0.0000000000    0.0000000000   -0.0000000000
 N    4.2859276277   11.0614565145   14.4039430965   -0.0000478487    0.0000202741   -0.0000552035
 N    6.6946271121    8.6610377225   14.3985814309   -0.0002151396   -0.0001062411    0.0002977396
 N    4.3954385913    8.7856217417   16.6955575345   -0.0002772043   -0.0005567836    0.0010257007
 N    6.6049622707   11.0014713344   16.7756543091   -0.0001020587   -0.0002143764   -0.0000709762
 N    8.7838604000    2.1959650900   10.0000000000    0.0000000000    0.0000000000   -0.0000000000
 N   10.9798254900    0.0000000000   10.0000000000    0.0000000000   -0.0000000000   -0.0000000000
 N    8.7838604000    0.0000000000   12.1959650900   -0.0000000000   -0.0000000000   -0.0000000000
 N   10.9798254900    2.1959650900   12.1959650900    0.0000000000    0.0000000000   -0.0000000000
 N    8.6806913003    2.3002473470   14.3958220188   -0.0002796758   -0.0000469321   -0.0000498080
 N   11.0939094098   -0.1049402056   14.3978179705   -0.0001100084   -0.0001102560    0.0000117188
 N    8.7941271541   -0.0048895126   16.7423079363   -0.0000879477   -0.0000500194    0.0000018628
 N   10.9853617924    2.2061020049   16.7543958755    0.0000067953   -0.0002410762   -0.0003008867
 N    8.7838604000    6.5878952900   10.0000000000   -0.0000000000    0.0000000000   -0.0000000000
 N   10.9798254900    4.3919302000   10.0000000000    0.0000000000   -0.0000000000   -0.0000000000
 N    8.7838604000    4.3919302000   12.1959650900   -0.0000000000   -0.0000000000   -0.0000000000
 N   10.9798254900    6.5878952900   12.1959650900    0.0000000000    0.0000000000   -0.0000000000
 N    8.6767430432    6.6846994919   14.4071271042   -0.0002884298   -0.0000753571    0.0001410964
 N   11.0882802479    4.2859880157   14.4010145331    0.0000674226   -0.0000210788   -0.0000475846
 N    8.7798126671    4.3881392356   16.7500013233   -0.0001379809   -0.0003285833    0.0002981863
 N   10.9880639730    6.6035127913   16.7845093587   -0.0004093837   -0.0000831170   -0.0001591194
 N    8.7838604000   10.9798254900   10.0000000000   -0.0000000000    0.0000000000   -0.0000000000
 N   10.9798254900    8.7838604000   10.0000000000    0.0000000000   -0.0000000000   -0.0000000000
 N    8.7838604000    8.7838604000   12.1959650900   -0.0000000000   -0.0000000000   -0.0000000000
 N   10.9798254900   10.9798254900   12.1959650900    0.0000000000    0.0000000000   -0.0000000000
 N    8.6810388889   11.0799524651   14.3999704886   -0.0001429476   -0.0000886375    0.0000126783
 N   11.0872280219    8.6798862720   14.4005914461   -0.0000651679   -0.0001095511    0.0000001000
 N    8.7750621291    8.7763262448   16.7720675165   -0.0001474898   -0.0000779521    0.0000080839
 N   10.9908196843   10.9886792984   16.7573366140   -0.0000214694    0.0000186522    0.0001039224
 S    4.2393650117    6.1335194034   19.1136131484   -0.0019281239   -0.0081673907    0.0001680652
Li    6.3996985996    6.5720046035   18.7016161797   -0.0023666428   -0.0012421361    0.0008142163
Li    3.3396670862    3.5108300923   18.6617392112    0.0172399168    0.0218686308    0.0021613896
 PRIMCOORD   4
  147  1
Nb    0.0000000000    0.0000000000   10.0000000000    0.0000000000    0.0000000000    0.0000000000
Nb    2.1959650900    0.0000000000   12.1959650900   -0.0000000000    0.0000000000   -0.0000000000
Nb    0.0000000000    2.1959650900   12.1959650900    0.0000000000   -0.0000000000   -0.0000000000
Nb    2.1959650900    2.1959650900   10.0000000000   -0.0000000000   -0.0000000000    0.0000000000
Nb    0.1150320018    0.1115243612   14.4507807389   -0.0000577856   -0.0000062796    0.0000187195
Nb    2.1714702399   -0.0155188712   16.4636774887   -0.0000040404   -0.0000676803    0.0001002505
Nb   -0.0144937153    2.1691804459   16.4617139105   -0.0000666783   -0.0000408180    0.0000965834
Nb    2.1082209332    2.0971061592   14.4796962505   -0.0000967744   -0.0001303476   -0.0000508300
Nb    0.0000000000    4.3919302000   10.0000000000    0.0000000000    0.0000000000    0.0000000000
Nb    2.1959650900    4.3919302000   12.1959650900   -0.0000000000    0.0000000000   -0.0000000000
Nb    0.0000000000    6.5878952900   12.1959650900    0.0000000000   -0.0000000000   -0.0000000000
Nb    2.1959650900    6.5878952900   10.0000000000   -0.0000000000   -0.0000000000    0.0000000000
Nb    0.1086275333    4.4948359992   14.4378082338   -0.0001347339    0.0000031268   -0.0000168539
Nb    2.1557836710    4.5038714371   16.4195135075    0.0000481009    0.0000451608    0.0005429004
Nb   -0.0330431301    6.5886850043   16.4495825683   -0.0000717480   -0.0000273503   -0.0001916951
Nb    2.1351022284    6.4835647899   14.4331964530   -0.0001133712    0.0000502001   -0.0000760671
Nb    0.0000000000    8.7838604000   10.0000000000    0.0000000000    0.0000000000    0.0000000000
Nb    2.1959650900    8.7838604000   12.1959650900   -0.0000000000    0.0000000000   -0.0000000000
Nb    0.0000000000   10.9798254900   12.1959650900    0.0000000000   -0.0000000000   -0.0000000000
Nb    2.1959650900   10.9798254900   10.0000000000   -0.0000000000   -0.0000000000    0.0000000000
Nb    0.1120103735    8.8961544010   14.4462548802   -0.0000598311   -0.0000603532    0.0000632204
Nb    2.2082490657    8.8112595444   16.4478439281   -0.0000409636    0.0000020396   -0.0000106442
Nb    0.0127262334   10.9944411076   16.4500984539   -0.0000693168   -0.0000501991    0.0000006592
Nb    2.0964161583   10.8704996955   14.4514352454   -0.0000378271   -0.0000295093    0.0000119164
Nb    4.3919302000    0.0000000000   10.0000000000    0.0000000000    0.0000000000    0.0000000000
Nb    6.5878952900    0.0000000000   12.1959650900   -0.0000000000    0.0000000000   -0.0000000000
Nb    4.3919302000    2.1959650900   12.1959650900    0.0000000000   -0.0000000000   -0.0000000000
Nb    6.5878952900    2.1959650900   10.0000000000   -0.0000000000   -0.0000000000    0.0000000000
Nb    4.4912257473    0.0827864519   14.4403877640   -0.0000359020   -0.0001143620   -0.0000140750
Nb    6.5961299182   -0.0113460810   16.4491911750   -0.0000891611   -0.0000490095   -0.0000821237
Nb    4.4947962314    2.1429212163   16.4332545940   -0.0001547467   -0.0000607381    0.0003674295
Nb    6.4965543929    2.0910860927   14.4309585843    0.0000474053    0.0000310896   -0.0000617959
Nb    4.3919302000    4.3919302000   10.0000000000    0.0000000000    0.0000000000    0.0000000000
Nb    6.5878952900    4.3919302000   12.1959650900   -0.0000000000    0.0000000000   -0.0000000000
Nb    4.3919302000    6.5878952900   12.1959650900    0.0000000000   -0.0000000000   -0.0000000000
Nb    6.5878952900    6.5878952900   10.0000000000   -0.0000000000   -0.0000000000    0.0000000000
Nb    4.4906078007    4.5014028896   14.4431180348    0.0001488548    0.0001044225   -0.0002864029
Nb    6.5498620096    4.3617706101   16.4478950140    0.0000274080    0.0000304331   -0.0000642694
Nb    4.3575246669    6.4988818935   16.7299759675    0.0000206419   -0.0000060591   -0.0003275167
Nb    6.4654432263    6.4797367952   14.4812912630   -0.0001032707    0.0000100384    0.0000581708
Nb    4.3919302000    8.7838604000   10.0000000000    0.0000000000    0.0000000000    0.0000000000
Nb    6.5878952900    8.7838604000   12.1959650900   -0.0000000000    0.0000000000   -0.0000000000
Nb    4.3919302000   10.9798254900   12.1959650900    0.0000000000   -0.0000000000   -0.0000000000
Nb    6.5878952900   10.9798254900   10.0000000000   -0.0000000000   -0.0000000000    0.0000000000
Nb    4.5035547974    8.8501931333   14.4422456633   -0.0000111019   -0.0000870256    0.0000676949
Nb    6.5756677751    8.8701917440   16.4445310100    0.0000048107   -0.0000719544   -0.0000187932
Nb    4.4132380637   11.0222876737   16.4534723711   -0.0000200939   -0.0001080192    0.0000953578
Nb    6.4875817491   10.8689373814   14.4464139909    0.0000381761   -0.0000450457    0.0000450140
Nb    8.7838604000    0.0000000000   10.0000000000    0.0000000000    0.0000000000    0.0000000000
Nb   10.9798254900    0.0000000000   12.1959650900   -0.0000000000    0.0000000000   -0.0000000000
Nb    8.7838604000    2.1959650900   12.1959650900    0.0000000000   -0.0000000000   -0.0000000000
Nb   10.9798254900    2.1959650900   10.0000000000   -0.0000000000   -0.0000000000    0.0000000000
Nb    8.8943465356    0.1010296617   14.4392134001   -0.0000553266   -0.0000600268    0.0000179281
Nb   10.9921368542    0.0165755113   16.4473756184   -0.0000604770   -0.0000767300    0.0000055666
Nb    8.8076429238    2.1970123490   16.4456413859   -0.0000250637   -0.0000442995    0.0000666494
Nb   10.8840701068    2.0968809147   14.4433006576   -0.0000057201   -0.0000476494   -0.0000108344
Nb    8.7838604000    4.3919302000   10.0000000000    0.0000000000    0.0000000000    0.0000000000
Nb   10.9798254900    4.3919302000   12.1959650900   -0.0000000000    0.0000000000   -0.0000000000
Nb    8.7838604000    6.5878952900   12.1959650900    0.0000000000   -0.0000000000   -0.0000000000
Nb   10.9798254900    6.5878952900   10.0000000000   -0.0000000000   -0.0000000000    0.0000000000
Nb    8.8858225660    4.4979259485   14.4435846057   -0.0000319069   -0.0000027291    0.0000308084
Nb   10.9869931327    4.4083893241   16.4494060313   -0.0001110888    0.0000011707    0.0000349532
Nb    8.8610861717    6.5839776515   16.4590871103   -0.0001505851   -0.0000354660    0.0000202423
Nb   10.8921791427    6.4894312441   14.4461985070   -0.0000452215    0.0000168872    0.0000317231
Nb    8.7838604000    8.7838604000   10.0000000000    0.0000000000    0.0000000000    0.0000000000
Nb   10.9798254900    8.7838604000   12.1959650900   -0.0000000000    0.0000000000   -0.0000000000
Nb    8.7838604000   10.9798254900   12.1959650900    0.0000000000   -0.0000000000   -0.0000000000
Nb   10.9798254900   10.9798254900   10.0000000000   -0.0000000000   -0.0000000000    0.0000000000
Nb    8.8823030266    8.8754472788   14.4475536796   -0.0000254601    0.0000003852   -0.0000269018
Nb   10.9624392327    8.8068151570   16.4509944257   -0.0000512846   -0.0000343999   -0.0000941853
Nb    8.8099128550   10.9611549242   16.4490357975   -0.0000891542   -0.0000034384   -0.0000216619
Nb   10.8832789929   10.8794467288   14.4400649697   -0.0000367264   -0.0000312833    0.0000201808
 N    0.0000000000    2.1959650900   10.0000000000   -0.0000000000    0.0000000000   -0.0000000000
 N    2.1959650900    0.0000000000   10.0000000000    0.0000000000   -0.0000000000   -0.0000000000
 N    0.0000000000    0.0000000000   12.1959650900   -0.0000000000   -0.0000000000   -0.0000000000
 N    2.1959650900    2.1959650900   12.1959650900    0.0000000000    0.0000000000   -0.0000000000
 N   -0.0957609407    2.3045037405   14.4087803845    0.0001009772    0.0000506176   -0.0001149034
 N    2.3048539149   -0.1089429499   14.4091170763    0.0000460318    0.0000840808   -0.0001357353
 N    0.0012279226    0.0002870987   16.7858372230   -0.0000697257   -0.0000448409    0.0000203337
 N    2.2107003611    2.2144942529   16.8236928509    0.0001259753    0.0001188963    0.0001171189
 N    0.0000000000    6.5878952900   10.0000000000    0.0000000000    0.0000000000   -0.0000000000
 N    2.1959650900    4.3919302000   10.0000000000    0.0000000000   -0.0000000000   -0.0000000000
 N    0.0000000000    4.3919302000   12.1959650900   -0.0000000000   -0.0000000000   -0.0000000000
 N    2.1959650900    6.5878952900   12.1959650900    0.0000000000    0.0000000000   -0.0000000000
 N   -0.0843599113    6.7007111557   14.4002146566   -0.0000182855   -0.0000816354    0.0001116256
 N    2.3060395922    4.2691923963   14.3759585279    0.0000142785   -0.0001120708   -0.0004731484
 N   -0.0051097008    4.3880595981   16.7537661795   -0.0000042448   -0.0000500814    0.0000008409
 N    2.1493777001    6.6385034110   16.6756440536   -0.0000781154   -0.0000513467   -0.0000992677
 N    0.0000000000   10.9798254900   10.0000000000   -0.0000000000   -0.0000000000   -0.0000000000
 N    2.1959650900    8.7838604000   10.0000000000    0.0000000000   -0.0000000000   -0.0000000000
 N    0.0000000000    8.7838604000   12.1959650900   -0.0000000000   -0.0000000000   -0.0000000000
 N    2.1959650900   10.9798254900   12.1959650900    0.0000000000    0.0000000000   -0.0000000000
 N   -0.1025784329   11.0968584927   14.3994932608   -0.0000288413   -0.0000265292    0.0000119673
 N    2.3063828067    8.6736714581   14.3948411624   -0.0000638032   -0.0000862034    0.0000181041
 N   -0.0031383423    8.7982699846   16.7373827685   -0.0000065896    0.0000369119   -0.0000351279
 N    2.2114127530   10.9858306714   16.7634315309   -0.0000607384   -0.0000634979    0.0000162359
 N    4.3919302000    2.1959650900   10.0000000000   -0.0000000000    0.0000000000   -0.0000000000
 N    6.5878952900    0.0000000000   10.0000000000    0.0000000000   -0.0000000000   -0.0000000000
 N    4.3919302000    0.0000000000   12.1959650900   -0.0000000000   -0.0000000000   -0.0000000000
 N    6.5878952900    2.1959650900   12.1959650900    0.0000000000    0.0000000000   -0.0000000000
 N    4.2891747009    2.2861489898   14.3858272296   -0.0000511016    0.0000058126   -0.0002984068
 N    6.6995774748   -0.1138700655   14.4007015756   -0.0000824597    0.0000000008    0.0000618717
 N    4.3921131816    0.0011513208   16.7770423075   -0.0000438633   -0.0000973315    0.0000217946
 N    6.6340523437    2.1756341050   16.7621466128    0.0000009566   -0.0000547701   -0.0000526932
 N    4.3919302000    6.5878952900   10.0000000000   -0.0000000000    0.0000000000   -0.0000000000
 N    6.5878952900    4.3919302000   10.0000000000    0.0000000000   -0.0000000000   -0.0000000000
 N    4.3919302000    4.3919302000   12.1959650900   -0.0000000000   -0.0000000000   -0.0000000000
 N    6.5878952900    6.5878952900   12.1959650900    0.0000000000    0.0000000000   -0.0000000000
 N    4.2984372139    6.6841905961   14.4193102531   -0.0000580411   -0.0001210063   -0.0000658404
 N    6.6936929339    4.2873109530   14.3965511524   -0.0000893408   -0.0000614913    0.0000111343
 N    4.3489121592    4.2996998288   16.6945037354    0.0000330397   -0.0000062431   -0.0004190178
 N    6.6177643921    6.5989087278   16.7318214138   -0.0000293760   -0.0000405149    0.0002508065
 N    4.3919302000   10.9798254900   10.0000000000   -0.0000000000   -0.0000000000   -0.0000000000
 N    6.5878952900    8.7838604000   10.0000000000    0.0000000000   -0.0000000000   -0.0000000000
 N    4.3919302000    8.7838604000   12.1959650900   -0.0000000000   -0.0000000000   -0.0000000000
 N    6.5878952900   10.9798254900   12.1959650900    0.0000000000    0.0000000000   -0.0000000000
 N    4.2865057536   11.0643712611   14.4034248748   -0.0000488949    0.0000370561   -0.0000349969
 N    6.6986918826    8.6637630302   14.3946096406   -0.0001161240    0.0000213763    0.0000918048
 N    4.4005372743    8.8001748757   16.6723696184   -0.0000746288   -0.0000332401    0.0002199328
 N    6.6076400178   11.0067376632   16.7763565736   -0.0000371221   -0.0000414653    0.0000021045
 N    8.7838604000    2.1959650900   10.0000000000   -0.0000000000    0.0000000000   -0.0000000000
 N   10.9798254900    0.0000000000   10.0000000000    0.0000000000   -0.0000000000   -0.0000000000
 N    8.7838604000    0.0000000000   12.1959650900   -0.0000000000   -0.0000000000   -0.0000000000
 N   10.9798254900    2.1959650900   12.1959650900    0.0000000000    0.0000000000   -0.0000000000
 N    8.6843957105    2.3018368527   14.3962069310   -0.0000770219    0.0000045966   -0.0000012915
 N   11.0963943395   -0.1036023819   14.3981731692   -0.0000127156   -0.0000120057    0.0000115207
 N    8.7982129828   -0.0036119034   16.7410356376    0.0000096347    0.0000108882   -0.0000080384
 N   10.9834872279    2.2120720844   16.7622273623   -0.0000816103   -0.0000293606    0.0000065556
 N    8.7838604000    6.5878952900   10.0000000000   -0.0000000000    0.0000000000   -0.0000000000
 N   10.9798254900    4.3919302000   10.0000000000    0.0000000000   -0.0000000000   -0.0000000000
 N    8.7838604000    4.3919302000   12.1959650900   -0.0000000000   -0.0000000000   -0.0000000000
 N   10.9798254900    6.5878952900   12.1959650900    0.0000000000    0.0000000000   -0.0000000000
 N    8.6826257962    6.6883916129   14.4053411911   -0.0000167833   -0.0000211939    0.0000276990
 N   11.0900086818    4.2866396106   14.4006324493    0.0001226914   -0.0000272218   -0.0000272010
 N    8.7827377163    4.3937361565   16.7441919495   -0.0000213873   -0.0000969257    0.0000341686
 N   10.9969000942    6.6047038238   16.7885206664   -0.0001041474   -0.0000359678    0.0000115924
 N    8.7838604000   10.9798254900   10.0000000000   -0.0000000000    0.0000000000   -0.0000000000
 N   10.9798254900    8.7838604000   10.0000000000    0.0000000000   -0.0000000000   -0.0000000000
 N    8.7838604000    8.7838604000   12.1959650900   -0.0000000000   -0.0000000000   -0.0000000000
 N   10.9798254900   10.9798254900   12.1959650900    0.0000000000    0.0000000000   -0.0000000000
 N    8.6823132054   11.0818904275   14.3995465364   -0.0000808698    0.0000004750    0.0000003275
 N   11.0896335451    8.6807174180   14.4006052051   -0.0000223162   -0.0000420442    0.0000305533
 N    8.7778638202    8.7784544774   16.7726040097   -0.0000430984    0.0000086238    0.0000625187
 N   10.9912104038   10.9897289091   16.7555485131   -0.0000055415    0.0000336637    0.0000297680
 S    4.2777322238    6.3307476825   19.1069007156   -0.0006079557   -0.0014814980   -0.0001261497
Li    6.4506473918    6.5974495956   18.6840480096   -0.0005596316   -0.0003202558    0.0002398454
Li    2.8673836507    2.9149074139   18.6054317590   -0.0004716302   -0.0001449187    0.0001472521
 PRIMCOORD   5
  147  1
Nb    0.0000000000    0.0000000000   10.0000000000    0.0000000000    0.0000000000    0.0000000000
Nb    2.1959650900    0.0000000000   12.1959650900   -0.0000000000    0.0000000000   -0.0000000000
Nb    0.0000000000    2.1959650900   12.1959650900    0.0000000000   -0.0000000000   -0.0000000000
Nb    2.1959650900    2.1959650900   10.0000000000   -0.0000000000   -0.0000000000    0.0000000000
Nb    0.1109200400    0.1053383700   14.4500656300    0.0001046916    0.0002870687   -0.0000071417
Nb    2.1732894700   -0.0762513500   16.4613384200   -0.0000205500   -0.0007154211    0.0001621340
Nb   -0.0749477800    2.1646892500   16.4604796600   -0.0004150519    0.0001318662    0.0002212115
Nb    2.0983708000    2.0898085800   14.4791154100   -0.0001466675   -0.0000771441   -0.0001182093
Nb    0.0000000000    4.3919302000   10.0000000000    0.0000000000    0.0000000000    0.0000000000
Nb    2.1959650900    4.3919302000   12.1959650900   -0.0000000000    0.0000000000   -0.0000000000
Nb    0.0000000000    6.5878952900   12.1959650900    0.0000000000   -0.0000000000   -0.0000000000
Nb    2.1959650900    6.5878952900   10.0000000000   -0.0000000000   -0.0000000000    0.0000000000
Nb    0.1177578800    4.4846308500   14.4515648600   -0.0001878591   -0.0000757053   -0.0003053617
Nb    2.2104616300    4.4897592000   16.4534142600    0.0003483338    0.0005101502   -0.0001455896
Nb   -0.0197429300    6.5756276700   16.4536185100   -0.0002906976   -0.0000911471   -0.0002169267
Nb    2.1436276500    6.4807805400   14.4517634700   -0.0002366552   -0.0002236387   -0.0001412748
Nb    0.0000000000    8.7838604000   10.0000000000    0.0000000000    0.0000000000    0.0000000000
Nb    2.1959650900    8.7838604000   12.1959650900   -0.0000000000    0.0000000000   -0.0000000000
Nb    0.0000000000   10.9798254900   12.1959650900    0.0000000000   -0.0000000000   -0.0000000000
Nb    2.1959650900   10.9798254900   10.0000000000   -0.0000000000   -0.0000000000    0.0000000000
Nb    0.1140531800    8.8855328000   14.4478829700   -0.0000246869   -0.0000298169   -0.0000068181
Nb    2.1989565600    8.8161955900   16.4515953000    0.0001552838    0.0001029366   -0.0002748482
Nb    0.0074604100   10.9880533100   16.4499543800    0.0001557986   -0.0000072977   -0.0000636083
Nb    2.0961198300   10.8715844200   14.4503314000    0.0000305027   -0.0000979514    0.0000119869
Nb    4.3919302000    0.0000000000   10.0000000000    0.0000000000    0.0000000000    0.0000000000
Nb    6.5878952900    0.0000000000   12.1959650900   -0.0000000000    0.0000000000   -0.0000000000
Nb    4.3919302000    2.1959650900   12.1959650900    0.0000000000   -0.0000000000   -0.0000000000
Nb    6.5878952900    2.1959650900   10.0000000000   -0.0000000000   -0.0000000000    0.0000000000
Nb    4.4834393200    0.0878168900   14.4527688000   -0.0000513120    0.0000245359   -0.0000905767
Nb    6.5851606900   -0.0051334400   16.4529780700   -0.0002175653    0.0001382254    0.0000778691
Nb    4.4810744400    2.1780690900   16.4522141900    0.0007641408    0.0003986082    0.0001441409
Nb    6.4942494800    2.0901283600   14.4394101500   -0.0002489959   -0.0002997650    0.0003654724
Nb    4.3919302000    4.3919302000   10.0000000000    0.0000000000    0.0000000000    0.0000000000
Nb    6.5878952900    4.3919302000   12.1959650900   -0.0000000000    0.0000000000   -0.0000000000
Nb    4.3919302000    6.5878952900   12.1959650900    0.0000000000   -0.0000000000   -0.0000000000
Nb    6.5878952900    6.5878952900   10.0000000000   -0.0000000000   -0.0000000000    0.0000000000
Nb    4.4930762500    4.5034358500   14.4375005000   -0.0001254550    0.0001132254    0.0003193297
Nb    6.5529603500    4.3615470000   16.4452093900   -0.0004026815   -0.0004442694   -0.0004627987
Nb    4.3509107800    6.5147934500   16.7668171900   -0.0003020274   -0.0001351853    0.0014598590
Nb    6.4705372700    6.4772357000   14.4726382300   -0.0001101426    0.0000452260   -0.0000013733
Nb    4.3919302000    8.7838604000   10.0000000000    0.0000000000    0.0000000000    0.0000000000
Nb    6.5878952900    8.7838604000   12.1959650900   -0.0000000000    0.0000000000   -0.0000000000
Nb    4.3919302000   10.9798254900   12.1959650900    0.0000000000   -0.0000000000   -0.0000000000
Nb    6.5878952900   10.9798254900   10.0000000000   -0.0000000000   -0.0000000000    0.0000000000
Nb    4.5089918100    8.8569285500   14.4289391800   -0.0001286335   -0.0001965504   -0.0001186502
Nb    6.5830378100    8.8750086800   16.4377242300    0.0000026791    0.0001168477   -0.0001150939
Nb    4.4188234500   11.0261507300   16.4553141000   -0.0003515142    0.0002100945   -0.0003144068
Nb    6.4846189800   10.8686894000   14.4459790700   -0.0001028064    0.0000029301   -0.0000637033
Nb    8.7838604000    0.0000000000   10.0000000000    0.0000000000    0.0000000000    0.0000000000
Nb   10.9798254900    0.0000000000   12.1959650900   -0.0000000000    0.0000000000   -0.0000000000
Nb    8.7838604000    2.1959650900   12.1959650900    0.0000000000   -0.0000000000   -0.0000000000
Nb   10.9798254900    2.1959650900   10.0000000000   -0.0000000000   -0.0000000000    0.0000000000
Nb    8.8866458700    0.0993388900   14.4370995700   -0.0000759020    0.0000212589    0.0000075568
Nb   10.9870762700    0.0132571000   16.4471808600    0.0001052986    0.0000750436   -0.0000802538
Nb    8.8179827300    2.1935967600   16.4495033800   -0.0002195933    0.0002196512    0.0000981977
Nb   10.8851883600    2.0942635900   14.4423016400    0.0000231533    0.0001139512    0.0000921792
Nb    8.7838604000    4.3919302000   10.0000000000    0.0000000000    0.0000000000    0.0000000000
Nb   10.9798254900    4.3919302000   12.1959650900   -0.0000000000    0.0000000000   -0.0000000000
Nb    8.7838604000    6.5878952900   12.1959650900    0.0000000000   -0.0000000000   -0.0000000000
Nb   10.9798254900    6.5878952900   10.0000000000   -0.0000000000   -0.0000000000    0.0000000000
Nb    8.8859680200    4.4978909200   14.4407725700    0.0000645144    0.0000747163   -0.0000477876
Nb   10.9861639800    4.4063598000   16.4511058100   -0.0000434787   -0.0001017094    0.0000414660
Nb    8.8777874700    6.5917771900   16.4552408100    0.0001589483   -0.0000248468    0.0001131113
Nb   10.8954117100    6.4831125600   14.4456214400   -0.0001424451   -0.0000441548    0.0000140963
Nb    8.7838604000    8.7838604000   10.0000000000    0.0000000000    0.0000000000    0.0000000000
Nb   10.9798254900    8.7838604000   12.1959650900   -0.0000000000    0.0000000000   -0.0000000000
Nb    8.7838604000   10.9798254900   12.1959650900    0.0000000000   -0.0000000000   -0.0000000000
Nb   10.9798254900   10.9798254900   10.0000000000   -0.0000000000   -0.0000000000    0.0000000000
Nb    8.8849915300    8.8742164100   14.4467675500   -0.0000359908    0.0000198372    0.0000812734
Nb   10.9672216100    8.8003628300   16.4509518800   -0.0001446043   -0.0000593913    0.0000484224
Nb    8.8062666600   10.9581958100   16.4483796400   -0.0001370453   -0.0001400077    0.0000283557
Nb   10.8807582400   10.8738103700   14.4381524300   -0.0000688448    0.0000348458   -0.0000438572
 N    0.0000000000    2.1959650900   10.0000000000    0.0000000000    0.0000000000   -0.0000000000
 N    2.1959650900    0.0000000000   10.0000000000    0.0000000000   -0.0000000000   -0.0000000000
 N    0.0000000000    0.0000000000   12.1959650900   -0.0000000000   -0.0000000000   -0.0000000000
 N    2.1959650900    2.1959650900   12.1959650900    0.0000000000    0.0000000000   -0.0000000000
 N   -0.0956546100    2.2977559300   14.4036937000    0.0000799819    0.0001191425    0.0001027284
 N    2.3000642700   -0.1069968200   14.4035087200    0.0000454530    0.0000159585    0.0001078544
 N   -0.0054127700   -0.0106792500   16.7756549300   -0.0002242946   -0.0000947323   -0.0002471368
 N    2.1853561900    2.1853669500   16.7032420500    0.0003048899    0.0002801948    0.0002450039
 N    0.0000000000    6.5878952900   10.0000000000    0.0000000000    0.0000000000   -0.0000000000
 N    2.1959650900    4.3919302000   10.0000000000   -0.0000000000   -0.0000000000   -0.0000000000
 N    0.0000000000    4.3919302000   12.1959650900   -0.0000000000   -0.0000000000   -0.0000000000
 N    2.1959650900    6.5878952900   12.1959650900    0.0000000000    0.0000000000   -0.0000000000
 N   -0.0788468900    6.6878427000   14.4026826700   -0.0003753572    0.0002802414   -0.0000768757
 N    2.3092977900    4.2681201100   14.3972384400   -0.0000732977   -0.0000402974   -0.0001754973
 N    0.0127485700    4.3781134400   16.7487163000   -0.0003438771    0.0000617867   -0.0001632097
 N    2.1579093800    6.6373599900   16.6988987300   -0.0000125618   -0.0004127240   -0.0001270004
 N    0.0000000000   10.9798254900   10.0000000000   -0.0000000000   -0.0000000000   -0.0000000000
 N    2.1959650900    8.7838604000   10.0000000000    0.0000000000   -0.0000000000   -0.0000000000
 N    0.0000000000    8.7838604000   12.1959650900   -0.0000000000   -0.0000000000   -0.0000000000
 N    2.1959650900   10.9798254900   12.1959650900    0.0000000000    0.0000000000   -0.0000000000
 N   -0.1060149900   11.0872558400   14.3992521300    0.0000322028   -0.0000762638    0.0000088872
 N    2.3104004000    8.6766863000   14.3964279500   -0.0001375327   -0.0002717529    0.0000016532
 N   -0.0052672200    8.7890909900   16.7407906600    0.0000976693   -0.0000929481    0.0002411692
 N    2.2127820000   10.9629772700   16.7839640100   -0.0000269238    0.0002616595   -0.0006002756
 N    4.3919302000    2.1959650900   10.0000000000   -0.0000000000    0.0000000000   -0.0000000000
 N    6.5878952900    0.0000000000   10.0000000000    0.0000000000   -0.0000000000   -0.0000000000
 N    4.3919302000    0.0000000000   12.1959650900   -0.0000000000   -0.0000000000   -0.0000000000
 N    6.5878952900    2.1959650900   12.1959650900    0.0000000000    0.0000000000   -0.0000000000
 N    4.2868590700    2.2866606900   14.3972364900   -0.0002015543   -0.0001800813   -0.0001230132
 N    6.6894091700   -0.1145064900   14.4037883900    0.0002269142   -0.0000289277    0.0000146377
 N    4.3860303000    0.0177717400   16.7792569700    0.0000527194   -0.0005892391   -0.0000914005
 N    6.6351274300    2.1815258100   16.7671726700   -0.0006815711   -0.0000668046    0.0001072732
 N    4.3919302000    6.5878952900   10.0000000000   -0.0000000000    0.0000000000   -0.0000000000
 N    6.5878952900    4.3919302000   10.0000000000    0.0000000000   -0.0000000000   -0.0000000000
 N    4.3919302000    4.3919302000   12.1959650900   -0.0000000000   -0.0000000000   -0.0000000000
 N    6.5878952900    6.5878952900   12.1959650900    0.0000000000    0.0000000000   -0.0000000000
 N    4.3076328400    6.6881149500   14.4353231900    0.0000973204   -0.0002339999   -0.0001635009
 N    6.6949594700    4.2851182000   14.3962830600   -0.0000354519    0.0000798978   -0.0005016156
 N    4.3754136100    4.3266970500   16.7113564100    0.0000812395    0.0000425879   -0.0012873463
 N    6.6243824100    6.6030394200   16.7023167100   -0.0000686948    0.0000732788    0.0000418290
 N    4.3919302000   10.9798254900   10.0000000000   -0.0000000000   -0.0000000000   -0.0000000000
 N    6.5878952900    8.7838604000   10.0000000000    0.0000000000   -0.0000000000   -0.0000000000
 N    4.3919302000    8.7838604000   12.1959650900   -0.0000000000   -0.0000000000   -0.0000000000
 N    6.5878952900   10.9798254900   12.1959650900    0.0000000000    0.0000000000   -0.0000000000
 N    4.2837355900   11.0673749200   14.4035437200   -0.0000784784    0.0001183394   -0.0002191517
 N    6.7038305500    8.6633947900   14.3884831600   -0.0000174431   -0.0000736150    0.0001109422
 N    4.4057546100    8.8072587600   16.6381813000   -0.0000651080    0.0000197865    0.0001599467
 N    6.6069774600   11.0119444300   16.7762328100   -0.0003377945   -0.0000161274   -0.0001043268
 N    8.7838604000    2.1959650900   10.0000000000   -0.0000000000    0.0000000000   -0.0000000000
 N   10.9798254900    0.0000000000   10.0000000000    0.0000000000   -0.0000000000   -0.0000000000
 N    8.7838604000    0.0000000000   12.1959650900   -0.0000000000   -0.0000000000   -0.0000000000
 N   10.9798254900    2.1959650900   12.1959650900    0.0000000000    0.0000000000   -0.0000000000
 N    8.6865614400    2.3011763900   14.3986824600   -0.0002405978   -0.0000320482    0.0000333036
 N   11.0891190800   -0.1098053700   14.3978080300   -0.0001751919    0.0001230339   -0.0000290771
 N    8.7899371300   -0.0062791300   16.7377099600   -0.0000144423   -0.0000200100    0.0002186896
 N   10.9647478900    2.2108351500   16.7883179800    0.0003541510   -0.0000755773   -0.0006446681
 N    8.7838604000    6.5878952900   10.0000000000   -0.0000000000    0.0000000000   -0.0000000000
 N   10.9798254900    4.3919302000   10.0000000000    0.0000000000   -0.0000000000   -0.0000000000
 N    8.7838604000    4.3919302000   12.1959650900   -0.0000000000   -0.0000000000   -0.0000000000
 N   10.9798254900    6.5878952900   12.1959650900    0.0000000000    0.0000000000   -0.0000000000
 N    8.6877352800    6.6896670900   14.4012556500   -0.0000108994    0.0001107237   -0.0000504676
 N   11.0916830300    4.2811862600   14.3997145300   -0.0001043073    0.0000468849    0.0000835704
 N    8.7836423400    4.3977960600   16.7402492500   -0.0001186179   -0.0000689523    0.0001624790
 N   11.0114458800    6.5981237100   16.7893447000   -0.0001605793   -0.0001860118   -0.0001413745
 N    8.7838604000   10.9798254900   10.0000000000   -0.0000000000    0.0000000000   -0.0000000000
 N   10.9798254900    8.7838604000   10.0000000000    0.0000000000   -0.0000000000   -0.0000000000
 N    8.7838604000    8.7838604000   12.1959650900   -0.0000000000   -0.0000000000   -0.0000000000
 N   10.9798254900   10.9798254900   12.1959650900    0.0000000000    0.0000000000   -0.0000000000
 N    8.6796729500   11.0804575100   14.3992257900   -0.0000933642   -0.0000179853    0.0000302429
 N   11.0925118700    8.6745213400   14.4010026200   -0.0000440371    0.0000283023    0.0000876190
 N    8.7827160300    8.7776166000   16.7752875000   -0.0001072095   -0.0001094148   -0.0000789918
 N   10.9888813400   10.9868673900   16.7518690300   -0.0000052748    0.0000063649   -0.0001661424
 S    4.3447415400    6.5434457100   19.1151381900   -0.0000978180   -0.0008252945   -0.0011737814
Li    6.5210383800    6.6184656700   18.6543996400   -0.0005587471    0.0001236128    0.0000566944
Li    2.2512463300    2.2421667800   18.5763741800    0.0003654301    0.0002821213    0.0003175668
