108
Lattice="13.700449205999998 0.0 0.0 0.0 13.700449205999998 0.0 0.0 0.0 26.8502246058" Properties=species:S:1:pos:R:3:tags:I:1 pbc="T T F"
Sc       0.00000000       0.00000000      10.00000000        2
Sc       2.28340820       0.00000000      12.28340820        2
Sc       0.00000000       2.28340820      12.28340820        2
Sc       2.28340820       2.28340820      10.00000000        2
Sc       0.00000000       0.00000000      14.56681640        1
Sc       2.28340820       2.28340820      14.56681640        1
Sc       0.00000000       4.56681640      10.00000000        2
Sc       2.28340820       4.56681640      12.28340820        2
Sc       0.00000000       6.85022461      12.28340820        2
Sc       2.28340820       6.85022461      10.00000000        2
Sc       0.00000000       4.56681640      14.56681640        1
Sc       2.28340820       6.85022461      14.56681640        1
Sc       0.00000000       9.13363280      10.00000000        2
Sc       2.28340820       9.13363280      12.28340820        2
Sc       0.00000000      11.41704101      12.28340820        2
Sc       2.28340820      11.41704101      10.00000000        2
Sc       0.00000000       9.13363280      14.56681640        1
Sc       2.28340820      11.41704101      14.56681640        1
Sc       4.56681640       0.00000000      10.00000000        2
Sc       6.85022461       0.00000000      12.28340820        2
Sc       4.56681640       2.28340820      12.28340820        2
Sc       6.85022461       2.28340820      10.00000000        2
Sc       4.56681640       0.00000000      14.56681640        1
Sc       6.85022461       2.28340820      14.56681640        1
Sc       4.56681640       4.56681640      10.00000000        2
Sc       6.85022461       4.56681640      12.28340820        2
Sc       4.56681640       6.85022461      12.28340820        2
Sc       6.85022461       6.85022461      10.00000000        2
Sc       4.56681640       4.56681640      14.56681640        1
Sc       6.85022461       6.85022461      14.56681640        1
Sc       4.56681640       9.13363280      10.00000000        2
Sc       6.85022461       9.13363280      12.28340820        2
Sc       4.56681640      11.41704101      12.28340820        2
Sc       6.85022461      11.41704101      10.00000000        2
Sc       4.56681640       9.13363280      14.56681640        1
Sc       6.85022461      11.41704101      14.56681640        1
Sc       9.13363280       0.00000000      10.00000000        2
Sc      11.41704101       0.00000000      12.28340820        2
Sc       9.13363280       2.28340820      12.28340820        2
Sc      11.41704101       2.28340820      10.00000000        2
Sc       9.13363280       0.00000000      14.56681640        1
Sc      11.41704101       2.28340820      14.56681640        1
Sc       9.13363280       4.56681640      10.00000000        2
Sc      11.41704101       4.56681640      12.28340820        2
Sc       9.13363280       6.85022461      12.28340820        2
Sc      11.41704101       6.85022461      10.00000000        2
Sc       9.13363280       4.56681640      14.56681640        1
Sc      11.41704101       6.85022461      14.56681640        1
Sc       9.13363280       9.13363280      10.00000000        2
Sc      11.41704101       9.13363280      12.28340820        2
Sc       9.13363280      11.41704101      12.28340820        2
Sc      11.41704101      11.41704101      10.00000000        2
Sc       9.13363280       9.13363280      14.56681640        1
Sc      11.41704101      11.41704101      14.56681640        1
N        0.00000000       2.28340820      10.00000000        2
N        2.28340820       0.00000000      10.00000000        2
N        0.00000000       0.00000000      12.28340820        2
N        2.28340820       2.28340820      12.28340820        2
N        0.00000000       2.28340820      14.56681640        1
N        2.28340820       0.00000000      14.56681640        1
N        0.00000000       6.85022461      10.00000000        2
N        2.28340820       4.56681640      10.00000000        2
N        0.00000000       4.56681640      12.28340820        2
N        2.28340820       6.85022461      12.28340820        2
N        0.00000000       6.85022461      14.56681640        1
N        2.28340820       4.56681640      14.56681640        1
N        0.00000000      11.41704101      10.00000000        2
N        2.28340820       9.13363280      10.00000000        2
N        0.00000000       9.13363280      12.28340820        2
N        2.28340820      11.41704101      12.28340820        2
N        0.00000000      11.41704101      14.56681640        1
N        2.28340820       9.13363280      14.56681640        1
N        4.56681640       2.28340820      10.00000000        2
N        6.85022461       0.00000000      10.00000000        2
N        4.56681640       0.00000000      12.28340820        2
N        6.85022461       2.28340820      12.28340820        2
N        4.56681640       2.28340820      14.56681640        1
N        6.85022461       0.00000000      14.56681640        1
N        4.56681640       6.85022461      10.00000000        2
N        6.85022461       4.56681640      10.00000000        2
N        4.56681640       4.56681640      12.28340820        2
N        6.85022461       6.85022461      12.28340820        2
N        4.56681640       6.85022461      14.56681640        1
N        6.85022461       4.56681640      14.56681640        1
N        4.56681640      11.41704101      10.00000000        2
N        6.85022461       9.13363280      10.00000000        2
N        4.56681640       9.13363280      12.28340820        2
N        6.85022461      11.41704101      12.28340820        2
N        4.56681640      11.41704101      14.56681640        1
N        6.85022461       9.13363280      14.56681640        1
N        9.13363280       2.28340820      10.00000000        2
N       11.41704101       0.00000000      10.00000000        2
N        9.13363280       0.00000000      12.28340820        2
N       11.41704101       2.28340820      12.28340820        2
N        9.13363280       2.28340820      14.56681640        1
N       11.41704101       0.00000000      14.56681640        1
N        9.13363280       6.85022461      10.00000000        2
N       11.41704101       4.56681640      10.00000000        2
N        9.13363280       4.56681640      12.28340820        2
N       11.41704101       6.85022461      12.28340820        2
N        9.13363280       6.85022461      14.56681640        1
N       11.41704101       4.56681640      14.56681640        1
N        9.13363280      11.41704101      10.00000000        2
N       11.41704101       9.13363280      10.00000000        2
N        9.13363280       9.13363280      12.28340820        2
N       11.41704101      11.41704101      12.28340820        2
N        9.13363280      11.41704101      14.56681640        1
N       11.41704101       9.13363280      14.56681640        1
