256
Lattice="16.3461003 0.0 0.0 0.0 16.3461003 0.0 0.0 0.0 26.129787614999998" Properties=species:S:1:pos:R:3:tags:I:1 pbc="T T F"
V        0.00000000       0.00000000      10.00000000        2
V        2.04326254       0.00000000      12.04326254        2
V        0.00000000       2.04326254      12.04326254        2
V        2.04326254       2.04326254      10.00000000        2
V        0.00000000       0.00000000      14.08652508        1
V        2.04326254       0.00000000      16.12978761        1
V        0.00000000       2.04326254      16.12978761        1
V        2.04326254       2.04326254      14.08652508        1
V        0.00000000       4.08652507      10.00000000        2
V        2.04326254       4.08652507      12.04326254        2
V        0.00000000       6.12978761      12.04326254        2
V        2.04326254       6.12978761      10.00000000        2
V        0.00000000       4.08652507      14.08652508        1
V        2.04326254       4.08652507      16.12978761        1
V        0.00000000       6.12978761      16.12978761        1
V        2.04326254       6.12978761      14.08652508        1
V        0.00000000       8.17305015      10.00000000        2
V        2.04326254       8.17305015      12.04326254        2
V        0.00000000      10.21631269      12.04326254        2
V        2.04326254      10.21631269      10.00000000        2
V        0.00000000       8.17305015      14.08652508        1
V        2.04326254       8.17305015      16.12978761        1
V        0.00000000      10.21631269      16.12978761        1
V        2.04326254      10.21631269      14.08652508        1
V        0.00000000      12.25957522      10.00000000        2
V        2.04326254      12.25957522      12.04326254        2
V        0.00000000      14.30283776      12.04326254        2
V        2.04326254      14.30283776      10.00000000        2
V        0.00000000      12.25957522      14.08652508        1
V        2.04326254      12.25957522      16.12978761        1
V        0.00000000      14.30283776      16.12978761        1
V        2.04326254      14.30283776      14.08652508        1
V        4.08652507       0.00000000      10.00000000        2
V        6.12978761       0.00000000      12.04326254        2
V        4.08652507       2.04326254      12.04326254        2
V        6.12978761       2.04326254      10.00000000        2
V        4.08652507       0.00000000      14.08652508        1
V        6.12978761       0.00000000      16.12978761        1
V        4.08652507       2.04326254      16.12978761        1
V        6.12978761       2.04326254      14.08652508        1
V        4.08652507       4.08652507      10.00000000        2
V        6.12978761       4.08652507      12.04326254        2
V        4.08652507       6.12978761      12.04326254        2
V        6.12978761       6.12978761      10.00000000        2
V        4.08652507       4.08652507      14.08652508        1
V        6.12978761       4.08652507      16.12978761        1
V        4.08652507       6.12978761      16.12978761        1
V        6.12978761       6.12978761      14.08652508        1
V        4.08652507       8.17305015      10.00000000        2
V        6.12978761       8.17305015      12.04326254        2
V        4.08652507      10.21631269      12.04326254        2
V        6.12978761      10.21631269      10.00000000        2
V        4.08652507       8.17305015      14.08652508        1
V        6.12978761       8.17305015      16.12978761        1
V        4.08652507      10.21631269      16.12978761        1
V        6.12978761      10.21631269      14.08652508        1
V        4.08652507      12.25957522      10.00000000        2
V        6.12978761      12.25957522      12.04326254        2
V        4.08652507      14.30283776      12.04326254        2
V        6.12978761      14.30283776      10.00000000        2
V        4.08652507      12.25957522      14.08652508        1
V        6.12978761      12.25957522      16.12978761        1
V        4.08652507      14.30283776      16.12978761        1
V        6.12978761      14.30283776      14.08652508        1
V        8.17305015       0.00000000      10.00000000        2
V       10.21631269       0.00000000      12.04326254        2
V        8.17305015       2.04326254      12.04326254        2
V       10.21631269       2.04326254      10.00000000        2
V        8.17305015       0.00000000      14.08652508        1
V       10.21631269       0.00000000      16.12978761        1
V        8.17305015       2.04326254      16.12978761        1
V       10.21631269       2.04326254      14.08652508        1
V        8.17305015       4.08652507      10.00000000        2
V       10.21631269       4.08652507      12.04326254        2
V        8.17305015       6.12978761      12.04326254        2
V       10.21631269       6.12978761      10.00000000        2
V        8.17305015       4.08652507      14.08652508        1
V       10.21631269       4.08652507      16.12978761        1
V        8.17305015       6.12978761      16.12978761        1
V       10.21631269       6.12978761      14.08652508        1
V        8.17305015       8.17305015      10.00000000        2
V       10.21631269       8.17305015      12.04326254        2
V        8.17305015      10.21631269      12.04326254        2
V       10.21631269      10.21631269      10.00000000        2
V        8.17305015       8.17305015      14.08652508        1
V       10.21631269       8.17305015      16.12978761        1
V        8.17305015      10.21631269      16.12978761        1
V       10.21631269      10.21631269      14.08652508        1
V        8.17305015      12.25957522      10.00000000        2
V       10.21631269      12.25957522      12.04326254        2
V        8.17305015      14.30283776      12.04326254        2
V       10.21631269      14.30283776      10.00000000        2
V        8.17305015      12.25957522      14.08652508        1
V       10.21631269      12.25957522      16.12978761        1
V        8.17305015      14.30283776      16.12978761        1
V       10.21631269      14.30283776      14.08652508        1
V       12.25957522       0.00000000      10.00000000        2
V       14.30283776       0.00000000      12.04326254        2
V       12.25957522       2.04326254      12.04326254        2
V       14.30283776       2.04326254      10.00000000        2
V       12.25957522       0.00000000      14.08652508        1
V       14.30283776       0.00000000      16.12978761        1
V       12.25957522       2.04326254      16.12978761        1
V       14.30283776       2.04326254      14.08652508        1
V       12.25957522       4.08652507      10.00000000        2
V       14.30283776       4.08652507      12.04326254        2
V       12.25957522       6.12978761      12.04326254        2
V       14.30283776       6.12978761      10.00000000        2
V       12.25957522       4.08652507      14.08652508        1
V       14.30283776       4.08652507      16.12978761        1
V       12.25957522       6.12978761      16.12978761        1
V       14.30283776       6.12978761      14.08652508        1
V       12.25957522       8.17305015      10.00000000        2
V       14.30283776       8.17305015      12.04326254        2
V       12.25957522      10.21631269      12.04326254        2
V       14.30283776      10.21631269      10.00000000        2
V       12.25957522       8.17305015      14.08652508        1
V       14.30283776       8.17305015      16.12978761        1
V       12.25957522      10.21631269      16.12978761        1
V       14.30283776      10.21631269      14.08652508        1
V       12.25957522      12.25957522      10.00000000        2
V       14.30283776      12.25957522      12.04326254        2
V       12.25957522      14.30283776      12.04326254        2
V       14.30283776      14.30283776      10.00000000        2
V       12.25957522      12.25957522      14.08652508        1
V       14.30283776      12.25957522      16.12978761        1
V       12.25957522      14.30283776      16.12978761        1
V       14.30283776      14.30283776      14.08652508        1
N        0.00000000       2.04326254      10.00000000        2
N        2.04326254       0.00000000      10.00000000        2
N        0.00000000       0.00000000      12.04326254        2
N        2.04326254       2.04326254      12.04326254        2
N        0.00000000       2.04326254      14.08652508        1
N        2.04326254       0.00000000      14.08652508        1
N        0.00000000       0.00000000      16.12978761        1
N        2.04326254       2.04326254      16.12978761        1
N        0.00000000       6.12978761      10.00000000        2
N        2.04326254       4.08652507      10.00000000        2
N        0.00000000       4.08652507      12.04326254        2
N        2.04326254       6.12978761      12.04326254        2
N        0.00000000       6.12978761      14.08652508        1
N        2.04326254       4.08652507      14.08652508        1
N        0.00000000       4.08652507      16.12978761        1
N        2.04326254       6.12978761      16.12978761        1
N        0.00000000      10.21631269      10.00000000        2
N        2.04326254       8.17305015      10.00000000        2
N        0.00000000       8.17305015      12.04326254        2
N        2.04326254      10.21631269      12.04326254        2
N        0.00000000      10.21631269      14.08652508        1
N        2.04326254       8.17305015      14.08652508        1
N        0.00000000       8.17305015      16.12978761        1
N        2.04326254      10.21631269      16.12978761        1
N        0.00000000      14.30283776      10.00000000        2
N        2.04326254      12.25957522      10.00000000        2
N        0.00000000      12.25957522      12.04326254        2
N        2.04326254      14.30283776      12.04326254        2
N        0.00000000      14.30283776      14.08652508        1
N        2.04326254      12.25957522      14.08652508        1
N        0.00000000      12.25957522      16.12978761        1
N        2.04326254      14.30283776      16.12978761        1
N        4.08652507       2.04326254      10.00000000        2
N        6.12978761       0.00000000      10.00000000        2
N        4.08652507       0.00000000      12.04326254        2
N        6.12978761       2.04326254      12.04326254        2
N        4.08652507       2.04326254      14.08652508        1
N        6.12978761       0.00000000      14.08652508        1
N        4.08652507       0.00000000      16.12978761        1
N        6.12978761       2.04326254      16.12978761        1
N        4.08652507       6.12978761      10.00000000        2
N        6.12978761       4.08652507      10.00000000        2
N        4.08652507       4.08652507      12.04326254        2
N        6.12978761       6.12978761      12.04326254        2
N        4.08652507       6.12978761      14.08652508        1
N        6.12978761       4.08652507      14.08652508        1
N        4.08652507       4.08652507      16.12978761        1
N        6.12978761       6.12978761      16.12978761        1
N        4.08652507      10.21631269      10.00000000        2
N        6.12978761       8.17305015      10.00000000        2
N        4.08652507       8.17305015      12.04326254        2
N        6.12978761      10.21631269      12.04326254        2
N        4.08652507      10.21631269      14.08652508        1
N        6.12978761       8.17305015      14.08652508        1
N        4.08652507       8.17305015      16.12978761        1
N        6.12978761      10.21631269      16.12978761        1
N        4.08652507      14.30283776      10.00000000        2
N        6.12978761      12.25957522      10.00000000        2
N        4.08652507      12.25957522      12.04326254        2
N        6.12978761      14.30283776      12.04326254        2
N        4.08652507      14.30283776      14.08652508        1
N        6.12978761      12.25957522      14.08652508        1
N        4.08652507      12.25957522      16.12978761        1
N        6.12978761      14.30283776      16.12978761        1
N        8.17305015       2.04326254      10.00000000        2
N       10.21631269       0.00000000      10.00000000        2
N        8.17305015       0.00000000      12.04326254        2
N       10.21631269       2.04326254      12.04326254        2
N        8.17305015       2.04326254      14.08652508        1
N       10.21631269       0.00000000      14.08652508        1
N        8.17305015       0.00000000      16.12978761        1
N       10.21631269       2.04326254      16.12978761        1
N        8.17305015       6.12978761      10.00000000        2
N       10.21631269       4.08652507      10.00000000        2
N        8.17305015       4.08652507      12.04326254        2
N       10.21631269       6.12978761      12.04326254        2
N        8.17305015       6.12978761      14.08652508        1
N       10.21631269       4.08652507      14.08652508        1
N        8.17305015       4.08652507      16.12978761        1
N       10.21631269       6.12978761      16.12978761        1
N        8.17305015      10.21631269      10.00000000        2
N       10.21631269       8.17305015      10.00000000        2
N        8.17305015       8.17305015      12.04326254        2
N       10.21631269      10.21631269      12.04326254        2
N        8.17305015      10.21631269      14.08652508        1
N       10.21631269       8.17305015      14.08652508        1
N        8.17305015       8.17305015      16.12978761        1
N       10.21631269      10.21631269      16.12978761        1
N        8.17305015      14.30283776      10.00000000        2
N       10.21631269      12.25957522      10.00000000        2
N        8.17305015      12.25957522      12.04326254        2
N       10.21631269      14.30283776      12.04326254        2
N        8.17305015      14.30283776      14.08652508        1
N       10.21631269      12.25957522      14.08652508        1
N        8.17305015      12.25957522      16.12978761        1
N       10.21631269      14.30283776      16.12978761        1
N       12.25957522       2.04326254      10.00000000        2
N       14.30283776       0.00000000      10.00000000        2
N       12.25957522       0.00000000      12.04326254        2
N       14.30283776       2.04326254      12.04326254        2
N       12.25957522       2.04326254      14.08652508        1
N       14.30283776       0.00000000      14.08652508        1
N       12.25957522       0.00000000      16.12978761        1
N       14.30283776       2.04326254      16.12978761        1
N       12.25957522       6.12978761      10.00000000        2
N       14.30283776       4.08652507      10.00000000        2
N       12.25957522       4.08652507      12.04326254        2
N       14.30283776       6.12978761      12.04326254        2
N       12.25957522       6.12978761      14.08652508        1
N       14.30283776       4.08652507      14.08652508        1
N       12.25957522       4.08652507      16.12978761        1
N       14.30283776       6.12978761      16.12978761        1
N       12.25957522      10.21631269      10.00000000        2
N       14.30283776       8.17305015      10.00000000        2
N       12.25957522       8.17305015      12.04326254        2
N       14.30283776      10.21631269      12.04326254        2
N       12.25957522      10.21631269      14.08652508        1
N       14.30283776       8.17305015      14.08652508        1
N       12.25957522       8.17305015      16.12978761        1
N       14.30283776      10.21631269      16.12978761        1
N       12.25957522      14.30283776      10.00000000        2
N       14.30283776      12.25957522      10.00000000        2
N       12.25957522      12.25957522      12.04326254        2
N       14.30283776      14.30283776      12.04326254        2
N       12.25957522      14.30283776      14.08652508        1
N       14.30283776      12.25957522      14.08652508        1
N       12.25957522      12.25957522      16.12978761        1
N       14.30283776      14.30283776      16.12978761        1
