8
Lattice="4.086525075 0.0 0.0 0.0 4.086525075 0.0 0.0 0.0 4.086525075" Properties=species:S:1:pos:R:3:forces:R:3 energy=-9002.588648089864 free_energy=-9002.588648089864 stress="0.00010926075620873476 -0.0 -0.0 -0.0 0.00010926075620873476 -0.0 -0.0 -0.0 0.00010926075620873476" pbc="T T T"
V        0.00000000       0.00000000       0.00000000       0.00000000       0.00000000       0.00000000
V        2.04326254       2.04326254       0.00000000       0.00000000       0.00000000       0.00000000
V        2.04326254       0.00000000       2.04326254       0.00000000       0.00000000       0.00000000
V        0.00000000       2.04326254       2.04326254       0.00000000       0.00000000       0.00000000
N        0.00000000       0.00000000       2.04326254       0.00000000       0.00000000       0.00000000
N        0.00000000       2.04326254       0.00000000       0.00000000       0.00000000       0.00000000
N        2.04326254       0.00000000       0.00000000       0.00000000       0.00000000       0.00000000
N        2.04326254       2.04326254       2.04326254       0.00000000       0.00000000       0.00000000
