144
Lattice="12.817708089 0.0 0.0 0.0 12.817708089 0.0 0.0 0.0 26.408854039800175" Properties=species:S:1:pos:R:3:tags:I:1 energy_ry=-557.39486433 energy_ev=-7583.743408867184 pbc="T T F"
Ti       0.00000000       0.00000000      10.00000000        2
Ti       2.13628468       0.00000000      12.13628468        2
Ti       0.00000000       2.13628468      12.13628468        2
Ti       2.13628468       2.13628468      10.00000000        2
N        0.00000000       2.13628468      10.00000000        2
N        2.13628468       0.00000000      10.00000000        2
N        0.00000000       0.00000000      12.13628468        2
N        2.13628468       2.13628468      12.13628468        2
Ti       0.00000000       0.00000000      14.27256936        1
Ti       2.13628468       0.00000000      16.40885404        1
Ti       0.00000000       2.13628468      16.40885404        1
Ti       2.13628468       2.13628468      14.27256936        1
N        0.00000000       2.13628468      14.27256936        1
N        2.13628468       0.00000000      14.27256936        1
N        0.00000000       0.00000000      16.40885404        1
N        2.13628468       2.13628468      16.40885404        1
Ti       0.00000000       4.27256936      10.00000000        2
Ti       2.13628468       4.27256936      12.13628468        2
Ti       0.00000000       6.40885404      12.13628468        2
Ti       2.13628468       6.40885404      10.00000000        2
N        0.00000000       6.40885404      10.00000000        2
N        2.13628468       4.27256936      10.00000000        2
N        0.00000000       4.27256936      12.13628468        2
N        2.13628468       6.40885404      12.13628468        2
Ti       0.00000000       4.27256936      14.27256936        1
Ti       2.13628468       4.27256936      16.40885404        1
Ti       0.00000000       6.40885404      16.40885404        1
Ti       2.13628468       6.40885404      14.27256936        1
N        0.00000000       6.40885404      14.27256936        1
N        2.13628468       4.27256936      14.27256936        1
N        0.00000000       4.27256936      16.40885404        1
N        2.13628468       6.40885404      16.40885404        1
Ti       0.00000000       8.54513873      10.00000000        2
Ti       2.13628468       8.54513873      12.13628468        2
Ti       0.00000000      10.68142340      12.13628468        2
Ti       2.13628468      10.68142340      10.00000000        2
N        0.00000000      10.68142340      10.00000000        2
N        2.13628468       8.54513873      10.00000000        2
N        0.00000000       8.54513873      12.13628468        2
N        2.13628468      10.68142340      12.13628468        2
Ti       0.00000000       8.54513873      14.27256936        1
Ti       2.13628468       8.54513873      16.40885404        1
Ti       0.00000000      10.68142340      16.40885404        1
Ti       2.13628468      10.68142340      14.27256936        1
N        0.00000000      10.68142340      14.27256936        1
N        2.13628468       8.54513873      14.27256936        1
N        0.00000000       8.54513873      16.40885404        1
N        2.13628468      10.68142340      16.40885404        1
Ti       4.27256936       0.00000000      10.00000000        2
Ti       6.40885404       0.00000000      12.13628468        2
Ti       4.27256936       2.13628468      12.13628468        2
Ti       6.40885404       2.13628468      10.00000000        2
N        4.27256936       2.13628468      10.00000000        2
N        6.40885404       0.00000000      10.00000000        2
N        4.27256936       0.00000000      12.13628468        2
N        6.40885404       2.13628468      12.13628468        2
Ti       4.27256936       0.00000000      14.27256936        1
Ti       6.40885404       0.00000000      16.40885404        1
Ti       4.27256936       2.13628468      16.40885404        1
Ti       6.40885404       2.13628468      14.27256936        1
N        4.27256936       2.13628468      14.27256936        1
N        6.40885404       0.00000000      14.27256936        1
N        4.27256936       0.00000000      16.40885404        1
N        6.40885404       2.13628468      16.40885404        1
Ti       4.27256936       4.27256936      10.00000000        2
Ti       6.40885404       4.27256936      12.13628468        2
Ti       4.27256936       6.40885404      12.13628468        2
Ti       6.40885404       6.40885404      10.00000000        2
N        4.27256936       6.40885404      10.00000000        2
N        6.40885404       4.27256936      10.00000000        2
N        4.27256936       4.27256936      12.13628468        2
N        6.40885404       6.40885404      12.13628468        2
Ti       4.27256936       4.27256936      14.27256936        1
Ti       6.40885404       4.27256936      16.40885404        1
Ti       4.27256936       6.40885404      16.40885404        1
Ti       6.40885404       6.40885404      14.27256936        1
N        4.27256936       6.40885404      14.27256936        1
N        6.40885404       4.27256936      14.27256936        1
N        4.27256936       4.27256936      16.40885404        1
N        6.40885404       6.40885404      16.40885404        1
Ti       4.27256936       8.54513873      10.00000000        2
Ti       6.40885404       8.54513873      12.13628468        2
Ti       4.27256936      10.68142340      12.13628468        2
Ti       6.40885404      10.68142340      10.00000000        2
N        4.27256936      10.68142340      10.00000000        2
N        6.40885404       8.54513873      10.00000000        2
N        4.27256936       8.54513873      12.13628468        2
N        6.40885404      10.68142340      12.13628468        2
Ti       4.27256936       8.54513873      14.27256936        1
Ti       6.40885404       8.54513873      16.40885404        1
Ti       4.27256936      10.68142340      16.40885404        1
Ti       6.40885404      10.68142340      14.27256936        1
N        4.27256936      10.68142340      14.27256936        1
N        6.40885404       8.54513873      14.27256936        1
N        4.27256936       8.54513873      16.40885404        1
N        6.40885404      10.68142340      16.40885404        1
Ti       8.54513873       0.00000000      10.00000000        2
Ti      10.68142340       0.00000000      12.13628468        2
Ti       8.54513873       2.13628468      12.13628468        2
Ti      10.68142340       2.13628468      10.00000000        2
N        8.54513873       2.13628468      10.00000000        2
N       10.68142340       0.00000000      10.00000000        2
N        8.54513873       0.00000000      12.13628468        2
N       10.68142340       2.13628468      12.13628468        2
Ti       8.54513873       0.00000000      14.27256936        1
Ti      10.68142340       0.00000000      16.40885404        1
Ti       8.54513873       2.13628468      16.40885404        1
Ti      10.68142340       2.13628468      14.27256936        1
N        8.54513873       2.13628468      14.27256936        1
N       10.68142340       0.00000000      14.27256936        1
N        8.54513873       0.00000000      16.40885404        1
N       10.68142340       2.13628468      16.40885404        1
Ti       8.54513873       4.27256936      10.00000000        2
Ti      10.68142340       4.27256936      12.13628468        2
Ti       8.54513873       6.40885404      12.13628468        2
Ti      10.68142340       6.40885404      10.00000000        2
N        8.54513873       6.40885404      10.00000000        2
N       10.68142340       4.27256936      10.00000000        2
N        8.54513873       4.27256936      12.13628468        2
N       10.68142340       6.40885404      12.13628468        2
Ti       8.54513873       4.27256936      14.27256936        1
Ti      10.68142340       4.27256936      16.40885404        1
Ti       8.54513873       6.40885404      16.40885404        1
Ti      10.68142340       6.40885404      14.27256936        1
N        8.54513873       6.40885404      14.27256936        1
N       10.68142340       4.27256936      14.27256936        1
N        8.54513873       4.27256936      16.40885404        1
N       10.68142340       6.40885404      16.40885404        1
Ti       8.54513873       8.54513873      10.00000000        2
Ti      10.68142340       8.54513873      12.13628468        2
Ti       8.54513873      10.68142340      12.13628468        2
Ti      10.68142340      10.68142340      10.00000000        2
N        8.54513873      10.68142340      10.00000000        2
N       10.68142340       8.54513873      10.00000000        2
N        8.54513873       8.54513873      12.13628468        2
N       10.68142340      10.68142340      12.13628468        2
Ti       8.54513873       8.54513873      14.27256936        1
Ti      10.68142340       8.54513873      16.40885404        1
Ti       8.54513873      10.68142340      16.40885404        1
Ti      10.68142340      10.68142340      14.27256936        1
N        8.54513873      10.68142340      14.27256936        1
N       10.68142340       8.54513873      14.27256936        1
N        8.54513873       8.54513873      16.40885404        1
N       10.68142340      10.68142340      16.40885404        1
