144
Lattice="12.78700647 0.0 0.0 0.0 12.78700647 0.0 0.0 0.0 26.39350323031143" Properties=species:S:1:pos:R:3:tags:I:1 energy_ry=-557.40605059 energy_ev=-7583.895605686663 pbc="T T F"
Ti       0.00000000       0.00000000      10.00000000        2
Ti       2.13116774       0.00000000      12.13116774        2
Ti       0.00000000       2.13116774      12.13116774        2
Ti       2.13116774       2.13116774      10.00000000        2
N        0.00000000       2.13116774      10.00000000        2
N        2.13116774       0.00000000      10.00000000        2
N        0.00000000       0.00000000      12.13116774        2
N        2.13116774       2.13116774      12.13116774        2
Ti       0.00000000       0.00000000      14.26233549        1
Ti       2.13116774       0.00000000      16.39350323        1
Ti       0.00000000       2.13116774      16.39350323        1
Ti       2.13116774       2.13116774      14.26233549        1
N        0.00000000       2.13116774      14.26233549        1
N        2.13116774       0.00000000      14.26233549        1
N        0.00000000       0.00000000      16.39350323        1
N        2.13116774       2.13116774      16.39350323        1
Ti       0.00000000       4.26233549      10.00000000        2
Ti       2.13116774       4.26233549      12.13116774        2
Ti       0.00000000       6.39350323      12.13116774        2
Ti       2.13116774       6.39350323      10.00000000        2
N        0.00000000       6.39350323      10.00000000        2
N        2.13116774       4.26233549      10.00000000        2
N        0.00000000       4.26233549      12.13116774        2
N        2.13116774       6.39350323      12.13116774        2
Ti       0.00000000       4.26233549      14.26233549        1
Ti       2.13116774       4.26233549      16.39350323        1
Ti       0.00000000       6.39350323      16.39350323        1
Ti       2.13116774       6.39350323      14.26233549        1
N        0.00000000       6.39350323      14.26233549        1
N        2.13116774       4.26233549      14.26233549        1
N        0.00000000       4.26233549      16.39350323        1
N        2.13116774       6.39350323      16.39350323        1
Ti       0.00000000       8.52467098      10.00000000        2
Ti       2.13116774       8.52467098      12.13116774        2
Ti       0.00000000      10.65583872      12.13116774        2
Ti       2.13116774      10.65583872      10.00000000        2
N        0.00000000      10.65583872      10.00000000        2
N        2.13116774       8.52467098      10.00000000        2
N        0.00000000       8.52467098      12.13116774        2
N        2.13116774      10.65583872      12.13116774        2
Ti       0.00000000       8.52467098      14.26233549        1
Ti       2.13116774       8.52467098      16.39350323        1
Ti       0.00000000      10.65583872      16.39350323        1
Ti       2.13116774      10.65583872      14.26233549        1
N        0.00000000      10.65583872      14.26233549        1
N        2.13116774       8.52467098      14.26233549        1
N        0.00000000       8.52467098      16.39350323        1
N        2.13116774      10.65583872      16.39350323        1
Ti       4.26233549       0.00000000      10.00000000        2
Ti       6.39350323       0.00000000      12.13116774        2
Ti       4.26233549       2.13116774      12.13116774        2
Ti       6.39350323       2.13116774      10.00000000        2
N        4.26233549       2.13116774      10.00000000        2
N        6.39350323       0.00000000      10.00000000        2
N        4.26233549       0.00000000      12.13116774        2
N        6.39350323       2.13116774      12.13116774        2
Ti       4.26233549       0.00000000      14.26233549        1
Ti       6.39350323       0.00000000      16.39350323        1
Ti       4.26233549       2.13116774      16.39350323        1
Ti       6.39350323       2.13116774      14.26233549        1
N        4.26233549       2.13116774      14.26233549        1
N        6.39350323       0.00000000      14.26233549        1
N        4.26233549       0.00000000      16.39350323        1
N        6.39350323       2.13116774      16.39350323        1
Ti       4.26233549       4.26233549      10.00000000        2
Ti       6.39350323       4.26233549      12.13116774        2
Ti       4.26233549       6.39350323      12.13116774        2
Ti       6.39350323       6.39350323      10.00000000        2
N        4.26233549       6.39350323      10.00000000        2
N        6.39350323       4.26233549      10.00000000        2
N        4.26233549       4.26233549      12.13116774        2
N        6.39350323       6.39350323      12.13116774        2
Ti       4.26233549       4.26233549      14.26233549        1
Ti       6.39350323       4.26233549      16.39350323        1
Ti       4.26233549       6.39350323      16.39350323        1
Ti       6.39350323       6.39350323      14.26233549        1
N        4.26233549       6.39350323      14.26233549        1
N        6.39350323       4.26233549      14.26233549        1
N        4.26233549       4.26233549      16.39350323        1
N        6.39350323       6.39350323      16.39350323        1
Ti       4.26233549       8.52467098      10.00000000        2
Ti       6.39350323       8.52467098      12.13116774        2
Ti       4.26233549      10.65583872      12.13116774        2
Ti       6.39350323      10.65583872      10.00000000        2
N        4.26233549      10.65583872      10.00000000        2
N        6.39350323       8.52467098      10.00000000        2
N        4.26233549       8.52467098      12.13116774        2
N        6.39350323      10.65583872      12.13116774        2
Ti       4.26233549       8.52467098      14.26233549        1
Ti       6.39350323       8.52467098      16.39350323        1
Ti       4.26233549      10.65583872      16.39350323        1
Ti       6.39350323      10.65583872      14.26233549        1
N        4.26233549      10.65583872      14.26233549        1
N        6.39350323       8.52467098      14.26233549        1
N        4.26233549       8.52467098      16.39350323        1
N        6.39350323      10.65583872      16.39350323        1
Ti       8.52467098       0.00000000      10.00000000        2
Ti      10.65583872       0.00000000      12.13116774        2
Ti       8.52467098       2.13116774      12.13116774        2
Ti      10.65583872       2.13116774      10.00000000        2
N        8.52467098       2.13116774      10.00000000        2
N       10.65583872       0.00000000      10.00000000        2
N        8.52467098       0.00000000      12.13116774        2
N       10.65583872       2.13116774      12.13116774        2
Ti       8.52467098       0.00000000      14.26233549        1
Ti      10.65583872       0.00000000      16.39350323        1
Ti       8.52467098       2.13116774      16.39350323        1
Ti      10.65583872       2.13116774      14.26233549        1
N        8.52467098       2.13116774      14.26233549        1
N       10.65583872       0.00000000      14.26233549        1
N        8.52467098       0.00000000      16.39350323        1
N       10.65583872       2.13116774      16.39350323        1
Ti       8.52467098       4.26233549      10.00000000        2
Ti      10.65583872       4.26233549      12.13116774        2
Ti       8.52467098       6.39350323      12.13116774        2
Ti      10.65583872       6.39350323      10.00000000        2
N        8.52467098       6.39350323      10.00000000        2
N       10.65583872       4.26233549      10.00000000        2
N        8.52467098       4.26233549      12.13116774        2
N       10.65583872       6.39350323      12.13116774        2
Ti       8.52467098       4.26233549      14.26233549        1
Ti      10.65583872       4.26233549      16.39350323        1
Ti       8.52467098       6.39350323      16.39350323        1
Ti      10.65583872       6.39350323      14.26233549        1
N        8.52467098       6.39350323      14.26233549        1
N       10.65583872       4.26233549      14.26233549        1
N        8.52467098       4.26233549      16.39350323        1
N       10.65583872       6.39350323      16.39350323        1
Ti       8.52467098       8.52467098      10.00000000        2
Ti      10.65583872       8.52467098      12.13116774        2
Ti       8.52467098      10.65583872      12.13116774        2
Ti      10.65583872      10.65583872      10.00000000        2
N        8.52467098      10.65583872      10.00000000        2
N       10.65583872       8.52467098      10.00000000        2
N        8.52467098       8.52467098      12.13116774        2
N       10.65583872      10.65583872      12.13116774        2
Ti       8.52467098       8.52467098      14.26233549        1
Ti      10.65583872       8.52467098      16.39350323        1
Ti       8.52467098      10.65583872      16.39350323        1
Ti      10.65583872      10.65583872      14.26233549        1
N        8.52467098      10.65583872      14.26233549        1
N       10.65583872       8.52467098      14.26233549        1
N        8.52467098       8.52467098      16.39350323        1
N       10.65583872      10.65583872      16.39350323        1
