144
Lattice="12.528223131 0.0 0.0 0.0 12.528223131 0.0 0.0 0.0 26.264111562994355" Properties=species:S:1:pos:R:3:tags:I:1 energy_ry=-660.795598 energy_ev=-8990.582048086575 pbc="T T F"
V        0.00000000       0.00000000      10.00000000        2
V        2.08803719       0.00000000      12.08803719        2
V        0.00000000       2.08803719      12.08803719        2
V        2.08803719       2.08803719      10.00000000        2
N        0.00000000       2.08803719      10.00000000        2
N        2.08803719       0.00000000      10.00000000        2
N        0.00000000       0.00000000      12.08803719        2
N        2.08803719       2.08803719      12.08803719        2
V        0.00000000       0.00000000      14.17607438        1
V        2.08803719       0.00000000      16.26411156        1
V        0.00000000       2.08803719      16.26411156        1
V        2.08803719       2.08803719      14.17607438        1
N        0.00000000       2.08803719      14.17607438        1
N        2.08803719       0.00000000      14.17607438        1
N        0.00000000       0.00000000      16.26411156        1
N        2.08803719       2.08803719      16.26411156        1
V        0.00000000       4.17607438      10.00000000        2
V        2.08803719       4.17607438      12.08803719        2
V        0.00000000       6.26411156      12.08803719        2
V        2.08803719       6.26411156      10.00000000        2
N        0.00000000       6.26411156      10.00000000        2
N        2.08803719       4.17607438      10.00000000        2
N        0.00000000       4.17607438      12.08803719        2
N        2.08803719       6.26411156      12.08803719        2
V        0.00000000       4.17607438      14.17607438        1
V        2.08803719       4.17607438      16.26411156        1
V        0.00000000       6.26411156      16.26411156        1
V        2.08803719       6.26411156      14.17607438        1
N        0.00000000       6.26411156      14.17607438        1
N        2.08803719       4.17607438      14.17607438        1
N        0.00000000       4.17607438      16.26411156        1
N        2.08803719       6.26411156      16.26411156        1
V        0.00000000       8.35214875      10.00000000        2
V        2.08803719       8.35214875      12.08803719        2
V        0.00000000      10.44018594      12.08803719        2
V        2.08803719      10.44018594      10.00000000        2
N        0.00000000      10.44018594      10.00000000        2
N        2.08803719       8.35214875      10.00000000        2
N        0.00000000       8.35214875      12.08803719        2
N        2.08803719      10.44018594      12.08803719        2
V        0.00000000       8.35214875      14.17607438        1
V        2.08803719       8.35214875      16.26411156        1
V        0.00000000      10.44018594      16.26411156        1
V        2.08803719      10.44018594      14.17607438        1
N        0.00000000      10.44018594      14.17607438        1
N        2.08803719       8.35214875      14.17607438        1
N        0.00000000       8.35214875      16.26411156        1
N        2.08803719      10.44018594      16.26411156        1
V        4.17607438       0.00000000      10.00000000        2
V        6.26411156       0.00000000      12.08803719        2
V        4.17607438       2.08803719      12.08803719        2
V        6.26411156       2.08803719      10.00000000        2
N        4.17607438       2.08803719      10.00000000        2
N        6.26411156       0.00000000      10.00000000        2
N        4.17607438       0.00000000      12.08803719        2
N        6.26411156       2.08803719      12.08803719        2
V        4.17607438       0.00000000      14.17607438        1
V        6.26411156       0.00000000      16.26411156        1
V        4.17607438       2.08803719      16.26411156        1
V        6.26411156       2.08803719      14.17607438        1
N        4.17607438       2.08803719      14.17607438        1
N        6.26411156       0.00000000      14.17607438        1
N        4.17607438       0.00000000      16.26411156        1
N        6.26411156       2.08803719      16.26411156        1
V        4.17607438       4.17607438      10.00000000        2
V        6.26411156       4.17607438      12.08803719        2
V        4.17607438       6.26411156      12.08803719        2
V        6.26411156       6.26411156      10.00000000        2
N        4.17607438       6.26411156      10.00000000        2
N        6.26411156       4.17607438      10.00000000        2
N        4.17607438       4.17607438      12.08803719        2
N        6.26411156       6.26411156      12.08803719        2
V        4.17607438       4.17607438      14.17607438        1
V        6.26411156       4.17607438      16.26411156        1
V        4.17607438       6.26411156      16.26411156        1
V        6.26411156       6.26411156      14.17607438        1
N        4.17607438       6.26411156      14.17607438        1
N        6.26411156       4.17607438      14.17607438        1
N        4.17607438       4.17607438      16.26411156        1
N        6.26411156       6.26411156      16.26411156        1
V        4.17607438       8.35214875      10.00000000        2
V        6.26411156       8.35214875      12.08803719        2
V        4.17607438      10.44018594      12.08803719        2
V        6.26411156      10.44018594      10.00000000        2
N        4.17607438      10.44018594      10.00000000        2
N        6.26411156       8.35214875      10.00000000        2
N        4.17607438       8.35214875      12.08803719        2
N        6.26411156      10.44018594      12.08803719        2
V        4.17607438       8.35214875      14.17607438        1
V        6.26411156       8.35214875      16.26411156        1
V        4.17607438      10.44018594      16.26411156        1
V        6.26411156      10.44018594      14.17607438        1
N        4.17607438      10.44018594      14.17607438        1
N        6.26411156       8.35214875      14.17607438        1
N        4.17607438       8.35214875      16.26411156        1
N        6.26411156      10.44018594      16.26411156        1
V        8.35214875       0.00000000      10.00000000        2
V       10.44018594       0.00000000      12.08803719        2
V        8.35214875       2.08803719      12.08803719        2
V       10.44018594       2.08803719      10.00000000        2
N        8.35214875       2.08803719      10.00000000        2
N       10.44018594       0.00000000      10.00000000        2
N        8.35214875       0.00000000      12.08803719        2
N       10.44018594       2.08803719      12.08803719        2
V        8.35214875       0.00000000      14.17607438        1
V       10.44018594       0.00000000      16.26411156        1
V        8.35214875       2.08803719      16.26411156        1
V       10.44018594       2.08803719      14.17607438        1
N        8.35214875       2.08803719      14.17607438        1
N       10.44018594       0.00000000      14.17607438        1
N        8.35214875       0.00000000      16.26411156        1
N       10.44018594       2.08803719      16.26411156        1
V        8.35214875       4.17607438      10.00000000        2
V       10.44018594       4.17607438      12.08803719        2
V        8.35214875       6.26411156      12.08803719        2
V       10.44018594       6.26411156      10.00000000        2
N        8.35214875       6.26411156      10.00000000        2
N       10.44018594       4.17607438      10.00000000        2
N        8.35214875       4.17607438      12.08803719        2
N       10.44018594       6.26411156      12.08803719        2
V        8.35214875       4.17607438      14.17607438        1
V       10.44018594       4.17607438      16.26411156        1
V        8.35214875       6.26411156      16.26411156        1
V       10.44018594       6.26411156      14.17607438        1
N        8.35214875       6.26411156      14.17607438        1
N       10.44018594       4.17607438      14.17607438        1
N        8.35214875       4.17607438      16.26411156        1
N       10.44018594       6.26411156      16.26411156        1
V        8.35214875       8.35214875      10.00000000        2
V       10.44018594       8.35214875      12.08803719        2
V        8.35214875      10.44018594      12.08803719        2
V       10.44018594      10.44018594      10.00000000        2
N        8.35214875      10.44018594      10.00000000        2
N       10.44018594       8.35214875      10.00000000        2
N        8.35214875       8.35214875      12.08803719        2
N       10.44018594      10.44018594      12.08803719        2
V        8.35214875       8.35214875      14.17607438        1
V       10.44018594       8.35214875      16.26411156        1
V        8.35214875      10.44018594      16.26411156        1
V       10.44018594      10.44018594      14.17607438        1
N        8.35214875      10.44018594      14.17607438        1
N       10.44018594       8.35214875      14.17607438        1
N        8.35214875       8.35214875      16.26411156        1
N       10.44018594      10.44018594      16.26411156        1
