144
Lattice="12.598319583 0.0 0.0 0.0 12.598319583 0.0 0.0 0.0 26.299159788980337" Properties=species:S:1:pos:R:3:tags:I:1 energy_ry=-660.88960202 energy_ev=-8991.861037924305 pbc="T T F"
V        0.00000000       0.00000000      10.00000000        2
V        2.09971993       0.00000000      12.09971993        2
V        0.00000000       2.09971993      12.09971993        2
V        2.09971993       2.09971993      10.00000000        2
N        0.00000000       2.09971993      10.00000000        2
N        2.09971993       0.00000000      10.00000000        2
N        0.00000000       0.00000000      12.09971993        2
N        2.09971993       2.09971993      12.09971993        2
V        0.00000000       0.00000000      14.19943986        1
V        2.09971993       0.00000000      16.29915979        1
V        0.00000000       2.09971993      16.29915979        1
V        2.09971993       2.09971993      14.19943986        1
N        0.00000000       2.09971993      14.19943986        1
N        2.09971993       0.00000000      14.19943986        1
N        0.00000000       0.00000000      16.29915979        1
N        2.09971993       2.09971993      16.29915979        1
V        0.00000000       4.19943986      10.00000000        2
V        2.09971993       4.19943986      12.09971993        2
V        0.00000000       6.29915979      12.09971993        2
V        2.09971993       6.29915979      10.00000000        2
N        0.00000000       6.29915979      10.00000000        2
N        2.09971993       4.19943986      10.00000000        2
N        0.00000000       4.19943986      12.09971993        2
N        2.09971993       6.29915979      12.09971993        2
V        0.00000000       4.19943986      14.19943986        1
V        2.09971993       4.19943986      16.29915979        1
V        0.00000000       6.29915979      16.29915979        1
V        2.09971993       6.29915979      14.19943986        1
N        0.00000000       6.29915979      14.19943986        1
N        2.09971993       4.19943986      14.19943986        1
N        0.00000000       4.19943986      16.29915979        1
N        2.09971993       6.29915979      16.29915979        1
V        0.00000000       8.39887972      10.00000000        2
V        2.09971993       8.39887972      12.09971993        2
V        0.00000000      10.49859965      12.09971993        2
V        2.09971993      10.49859965      10.00000000        2
N        0.00000000      10.49859965      10.00000000        2
N        2.09971993       8.39887972      10.00000000        2
N        0.00000000       8.39887972      12.09971993        2
N        2.09971993      10.49859965      12.09971993        2
V        0.00000000       8.39887972      14.19943986        1
V        2.09971993       8.39887972      16.29915979        1
V        0.00000000      10.49859965      16.29915979        1
V        2.09971993      10.49859965      14.19943986        1
N        0.00000000      10.49859965      14.19943986        1
N        2.09971993       8.39887972      14.19943986        1
N        0.00000000       8.39887972      16.29915979        1
N        2.09971993      10.49859965      16.29915979        1
V        4.19943986       0.00000000      10.00000000        2
V        6.29915979       0.00000000      12.09971993        2
V        4.19943986       2.09971993      12.09971993        2
V        6.29915979       2.09971993      10.00000000        2
N        4.19943986       2.09971993      10.00000000        2
N        6.29915979       0.00000000      10.00000000        2
N        4.19943986       0.00000000      12.09971993        2
N        6.29915979       2.09971993      12.09971993        2
V        4.19943986       0.00000000      14.19943986        1
V        6.29915979       0.00000000      16.29915979        1
V        4.19943986       2.09971993      16.29915979        1
V        6.29915979       2.09971993      14.19943986        1
N        4.19943986       2.09971993      14.19943986        1
N        6.29915979       0.00000000      14.19943986        1
N        4.19943986       0.00000000      16.29915979        1
N        6.29915979       2.09971993      16.29915979        1
V        4.19943986       4.19943986      10.00000000        2
V        6.29915979       4.19943986      12.09971993        2
V        4.19943986       6.29915979      12.09971993        2
V        6.29915979       6.29915979      10.00000000        2
N        4.19943986       6.29915979      10.00000000        2
N        6.29915979       4.19943986      10.00000000        2
N        4.19943986       4.19943986      12.09971993        2
N        6.29915979       6.29915979      12.09971993        2
V        4.19943986       4.19943986      14.19943986        1
V        6.29915979       4.19943986      16.29915979        1
V        4.19943986       6.29915979      16.29915979        1
V        6.29915979       6.29915979      14.19943986        1
N        4.19943986       6.29915979      14.19943986        1
N        6.29915979       4.19943986      14.19943986        1
N        4.19943986       4.19943986      16.29915979        1
N        6.29915979       6.29915979      16.29915979        1
V        4.19943986       8.39887972      10.00000000        2
V        6.29915979       8.39887972      12.09971993        2
V        4.19943986      10.49859965      12.09971993        2
V        6.29915979      10.49859965      10.00000000        2
N        4.19943986      10.49859965      10.00000000        2
N        6.29915979       8.39887972      10.00000000        2
N        4.19943986       8.39887972      12.09971993        2
N        6.29915979      10.49859965      12.09971993        2
V        4.19943986       8.39887972      14.19943986        1
V        6.29915979       8.39887972      16.29915979        1
V        4.19943986      10.49859965      16.29915979        1
V        6.29915979      10.49859965      14.19943986        1
N        4.19943986      10.49859965      14.19943986        1
N        6.29915979       8.39887972      14.19943986        1
N        4.19943986       8.39887972      16.29915979        1
N        6.29915979      10.49859965      16.29915979        1
V        8.39887972       0.00000000      10.00000000        2
V       10.49859965       0.00000000      12.09971993        2
V        8.39887972       2.09971993      12.09971993        2
V       10.49859965       2.09971993      10.00000000        2
N        8.39887972       2.09971993      10.00000000        2
N       10.49859965       0.00000000      10.00000000        2
N        8.39887972       0.00000000      12.09971993        2
N       10.49859965       2.09971993      12.09971993        2
V        8.39887972       0.00000000      14.19943986        1
V       10.49859965       0.00000000      16.29915979        1
V        8.39887972       2.09971993      16.29915979        1
V       10.49859965       2.09971993      14.19943986        1
N        8.39887972       2.09971993      14.19943986        1
N       10.49859965       0.00000000      14.19943986        1
N        8.39887972       0.00000000      16.29915979        1
N       10.49859965       2.09971993      16.29915979        1
V        8.39887972       4.19943986      10.00000000        2
V       10.49859965       4.19943986      12.09971993        2
V        8.39887972       6.29915979      12.09971993        2
V       10.49859965       6.29915979      10.00000000        2
N        8.39887972       6.29915979      10.00000000        2
N       10.49859965       4.19943986      10.00000000        2
N        8.39887972       4.19943986      12.09971993        2
N       10.49859965       6.29915979      12.09971993        2
V        8.39887972       4.19943986      14.19943986        1
V       10.49859965       4.19943986      16.29915979        1
V        8.39887972       6.29915979      16.29915979        1
V       10.49859965       6.29915979      14.19943986        1
N        8.39887972       6.29915979      14.19943986        1
N       10.49859965       4.19943986      14.19943986        1
N        8.39887972       4.19943986      16.29915979        1
N       10.49859965       6.29915979      16.29915979        1
V        8.39887972       8.39887972      10.00000000        2
V       10.49859965       8.39887972      12.09971993        2
V        8.39887972      10.49859965      12.09971993        2
V       10.49859965      10.49859965      10.00000000        2
N        8.39887972      10.49859965      10.00000000        2
N       10.49859965       8.39887972      10.00000000        2
N        8.39887972       8.39887972      12.09971993        2
N       10.49859965      10.49859965      12.09971993        2
V        8.39887972       8.39887972      14.19943986        1
V       10.49859965       8.39887972      16.29915979        1
V        8.39887972      10.49859965      16.29915979        1
V       10.49859965      10.49859965      14.19943986        1
N        8.39887972      10.49859965      14.19943986        1
N       10.49859965       8.39887972      14.19943986        1
N        8.39887972       8.39887972      16.29915979        1
N       10.49859965      10.49859965      16.29915979        1
