144
Lattice="13.547707986 0.0 0.0 0.0 13.547707986 0.0 0.0 0.0 26.773853995709544" Properties=species:S:1:pos:R:3:move_mask:L:1:tags:I:1:forces:R:3 energy_ry=-458.5944539 energy_ev=-6239.495355393403 charge=0 spin=0 energy=-1297.9608811666503 free_energy=-1297.9608811666503 stress="0.014041678048670292 -8.035950793683355e-10 6.311310918327706e-10 -8.035950793683355e-10 0.014041658490896225 -5.888821652533238e-10 6.311310918327706e-10 -5.888821652533238e-10 0.004489557351917028" pbc="T T T"
Sc       0.00000000       0.00000000      10.00000000  F        2       0.00000125       0.00000078       0.41002628
Sc       2.25795133       0.00000000      12.25795133  F        2      -0.00000167       0.00000462      -0.20309262
Sc       0.00000000       2.25795133      12.25795133  F        2       0.00000121      -0.00000061      -0.20309018
Sc       2.25795133       2.25795133      10.00000000  F        2       0.00000018       0.00000095       0.41002831
N        0.00000000       2.25795133      10.00000000  F        2       0.00000066       0.00000003       0.12943830
N        2.25795133       0.00000000      10.00000000  F        2       0.00000084       0.00000028       0.12943946
N        0.00000000       0.00000000      12.25795133  F        2       0.00000193       0.00000153      -0.33736208
N        2.25795133       2.25795133      12.25795133  F        2       0.00000107      -0.00000075      -0.33736363
Sc       0.00000033       0.00000019      14.51669001  T        1      -0.00000247       0.00000218       0.00543206
Sc       2.25795137       0.00000004      16.71362662  T        1       0.00000214       0.00000104      -0.00164528
Sc       0.00000003       2.25795152      16.71362692  T        1       0.00000076       0.00000686      -0.00164719
Sc       2.25795134       2.25795138      14.51668984  T        1       0.00000025       0.00000032       0.00543054
N        0.00000031       2.25795138      14.52593644  T        1      -0.00000031      -0.00000211       0.00001447
N        2.25795153       0.00000022      14.52593689  T        1      -0.00000054      -0.00000096       0.00000337
N        0.00000012       0.00000021      16.72092982  T        1       0.00000238      -0.00000184      -0.00280899
N        2.25795136       2.25795154      16.72092991  T        1       0.00000263      -0.00000177      -0.00281099
Sc       0.00000000       4.51590266      10.00000000  F        2       0.00000210       0.00000056       0.41002655
Sc       2.25795133       4.51590266      12.25795133  F        2       0.00000080       0.00000060      -0.20309241
Sc       0.00000000       6.77385400      12.25795133  F        2       0.00000445       0.00000173      -0.20308970
Sc       2.25795133       6.77385400      10.00000000  F        2       0.00000013      -0.00000002       0.41002783
N        0.00000000       6.77385400      10.00000000  F        2       0.00000058       0.00000046       0.12943910
N        2.25795133       4.51590266      10.00000000  F        2       0.00000031      -0.00000036       0.12943810
N        0.00000000       4.51590266      12.25795133  F        2       0.00000132       0.00000089      -0.33736476
N        2.25795133       6.77385400      12.25795133  F        2      -0.00000015       0.00000024      -0.33736396
Sc       0.00000035       4.51590272      14.51668968  T        1      -0.00000197       0.00000325       0.00544792
Sc       2.25795146       4.51590261      16.71362638  T        1      -0.00000497       0.00000237      -0.00164779
Sc       0.00000012       6.77385402      16.71362656  T        1      -0.00000196      -0.00000905      -0.00164808
Sc       2.25795140       6.77385369      14.51668988  T        1      -0.00000349       0.00000092       0.00543236
N        0.00000031       6.77385400      14.52593679  T        1      -0.00000046       0.00000198       0.00000145
N        2.25795135       4.51590259      14.52593644  T        1       0.00000362       0.00000024       0.00001402
N        0.00000020       4.51590270      16.72092983  T        1       0.00000088      -0.00000185      -0.00281131
N        2.25795141       6.77385405      16.72092982  T        1       0.00000223      -0.00000553      -0.00281083
Sc       0.00000000       9.03180532      10.00000000  F        2       0.00000097       0.00000168       0.41002831
Sc       2.25795133       9.03180532      12.25795133  F        2      -0.00000134      -0.00000040      -0.20309205
Sc       0.00000000      11.28975666      12.25795133  F        2      -0.00000036      -0.00000540      -0.20309234
Sc       2.25795133      11.28975666      10.00000000  F        2       0.00000004      -0.00000355       0.41002804
N        0.00000000      11.28975666      10.00000000  F        2       0.00000084      -0.00000239       0.12943846
N        2.25795133       9.03180532      10.00000000  F        2       0.00000069       0.00000139       0.12943867
N        0.00000000       9.03180532      12.25795133  F        2       0.00000120       0.00000104      -0.33736393
N        2.25795133      11.28975666      12.25795133  F        2       0.00000092      -0.00000198      -0.33736387
Sc       0.00000024       9.03180527      14.51668981  T        1       0.00000260      -0.00000122       0.00543222
Sc       2.25795146       9.03180538      16.71362627  T        1       0.00000197       0.00000368      -0.00164796
Sc       0.00000009      11.28975640      16.71362666  T        1       0.00000344      -0.00000784      -0.00164611
Sc       2.25795135      11.28975640      14.51668976  T        1       0.00000041      -0.00000813       0.00544416
N        0.00000018      11.28975631      14.52593659  T        1       0.00000068      -0.00000351       0.00001459
N        2.25795138       9.03180497      14.52593617  T        1       0.00000095       0.00000133       0.00001143
N        0.00000017       9.03180527      16.72092947  T        1       0.00000013       0.00000242      -0.00281139
N        2.25795145      11.28975622      16.72093005  T        1      -0.00000087       0.00000826      -0.00281219
Sc       4.51590266       0.00000000      10.00000000  F        2      -0.00000040       0.00000191       0.41002560
Sc       6.77385400       0.00000000      12.25795133  F        2       0.00000054       0.00000431      -0.20309353
Sc       4.51590266       2.25795133      12.25795133  F        2      -0.00000023       0.00000186      -0.20309341
Sc       6.77385400       2.25795133      10.00000000  F        2       0.00000005       0.00000039       0.41002804
N        4.51590266       2.25795133      10.00000000  F        2       0.00000010      -0.00000034       0.12943853
N        6.77385400       0.00000000      10.00000000  F        2       0.00000055       0.00000073       0.12943922
N        4.51590266       0.00000000      12.25795133  F        2      -0.00000083       0.00000117      -0.33736196
N        6.77385400       2.25795133      12.25795133  F        2       0.00000085       0.00000013      -0.33736318
Sc       4.51590246       0.00000026      14.51668968  T        1      -0.00000013       0.00000055       0.00544412
Sc       6.77385395       0.00000034      16.71362680  T        1       0.00000153      -0.00000190      -0.00164830
Sc       4.51590276       2.25795143      16.71362662  T        1      -0.00000071       0.00000080      -0.00164715
Sc       6.77385399       2.25795139      14.51668980  T        1      -0.00000058      -0.00000084       0.00542796
N        4.51590252       2.25795150      14.52593634  T        1       0.00000177      -0.00000311       0.00001391
N        6.77385374       0.00000028      14.52593619  T        1      -0.00000035       0.00000036       0.00001435
N        4.51590269       0.00000026      16.72092988  T        1       0.00000184      -0.00000052      -0.00281187
N        6.77385396       2.25795165      16.72092985  T        1       0.00000214      -0.00000272      -0.00281107
Sc       4.51590266       4.51590266      10.00000000  F        2      -0.00000026       0.00000030       0.41002712
Sc       6.77385400       4.51590266      12.25795133  F        2       0.00000021       0.00000023      -0.20309369
Sc       4.51590266       6.77385400      12.25795133  F        2      -0.00000000       0.00000066      -0.20309223
Sc       6.77385400       6.77385400      10.00000000  F        2      -0.00000015       0.00000019       0.41002825
N        4.51590266       6.77385400      10.00000000  F        2       0.00000021       0.00000073       0.12943791
N        6.77385400       4.51590266      10.00000000  F        2       0.00000070      -0.00000021       0.12943815
N        4.51590266       4.51590266      12.25795133  F        2       0.00000084      -0.00000019      -0.33736432
N        6.77385400       6.77385400      12.25795133  F        2       0.00000141       0.00000014      -0.33736381
Sc       4.51590280       4.51590273      14.51668970  T        1      -0.00000618       0.00000150       0.00544214
Sc       6.77385403       4.51590248      16.71362634  T        1      -0.00000586       0.00000016      -0.00164666
Sc       4.51590278       6.77385399      16.71362638  T        1      -0.00000545       0.00000239      -0.00164751
Sc       6.77385369       6.77385370      14.51668987  T        1      -0.00000174       0.00000468       0.00543000
N        4.51590260       6.77385398      14.52593645  T        1       0.00000238      -0.00000165       0.00001341
N        6.77385396       4.51590254      14.52593649  T        1       0.00000221       0.00000117       0.00001474
N        4.51590269       4.51590272      16.72092981  T        1       0.00000315       0.00000027      -0.00281187
N        6.77385397       6.77385405      16.72092973  T        1       0.00000263      -0.00000762      -0.00281227
Sc       4.51590266       9.03180532      10.00000000  F        2      -0.00000001       0.00000080       0.41002896
Sc       6.77385400       9.03180532      12.25795133  F        2       0.00000017       0.00000000      -0.20309280
Sc       4.51590266      11.28975666      12.25795133  F        2      -0.00000011      -0.00000698      -0.20309426
Sc       6.77385400      11.28975666      10.00000000  F        2       0.00000055      -0.00000363       0.41002792
N        4.51590266      11.28975666      10.00000000  F        2      -0.00000010      -0.00000270       0.12943915
N        6.77385400       9.03180532      10.00000000  F        2       0.00000025       0.00000144       0.12943858
N        4.51590266       9.03180532      12.25795133  F        2       0.00000029       0.00000159      -0.33736616
N        6.77385400      11.28975666      12.25795133  F        2       0.00000026      -0.00000258      -0.33736441
Sc       4.51590267       9.03180526      14.51668969  T        1       0.00000043       0.00000150       0.00544364
Sc       6.77385401       9.03180525      16.71362630  T        1       0.00000192       0.00000574      -0.00164954
Sc       4.51590267      11.28975634      16.71362658  T        1       0.00000065      -0.00000990      -0.00164971
Sc       6.77385393      11.28975640      14.51668946  T        1       0.00000126      -0.00000931       0.00544386
N        4.51590260      11.28975629      14.52593639  T        1       0.00000068       0.00001039       0.00001078
N        6.77385360       9.03180456      14.52593639  T        1       0.00000067      -0.00000028       0.00001075
N        4.51590264       9.03180516      16.72092949  T        1       0.00000229       0.00000030      -0.00281211
N        6.77385404      11.28975622      16.72092966  T        1      -0.00000421       0.00000923      -0.00281283
Sc       9.03180532       0.00000000      10.00000000  F        2       0.00000171       0.00000060       0.41002715
Sc      11.28975666       0.00000000      12.25795133  F        2      -0.00000269       0.00000095      -0.20308977
Sc       9.03180532       2.25795133      12.25795133  F        2       0.00000129       0.00000158      -0.20309505
Sc      11.28975666       2.25795133      10.00000000  F        2      -0.00000311       0.00000081       0.41002873
N        9.03180532       2.25795133      10.00000000  F        2       0.00000147       0.00000036       0.12943910
N       11.28975666       0.00000000      10.00000000  F        2      -0.00000347       0.00000067       0.12943967
N        9.03180532       0.00000000      12.25795133  F        2       0.00000192       0.00000146      -0.33736223
N       11.28975666       2.25795133      12.25795133  F        2      -0.00000543      -0.00000013      -0.33736435
Sc       9.03180550       0.00000041      14.51668966  T        1       0.00000416      -0.00000418       0.00544426
Sc      11.28975635       0.00000026      16.71362668  T        1      -0.00000530      -0.00000035      -0.00164761
Sc       9.03180538       2.25795142      16.71362695  T        1       0.00000043      -0.00000320      -0.00164677
Sc      11.28975627       2.25795138      14.51668982  T        1       0.00000935      -0.00000098       0.00543026
N        9.03180505       2.25795142      14.52593638  T        1       0.00000062      -0.00000034       0.00001390
N       11.28975637       0.00000022      14.52593665  T        1      -0.00000584      -0.00000042       0.00000484
N        9.03180525       0.00000032      16.72092942  T        1      -0.00000064       0.00000127      -0.00281227
N       11.28975645       2.25795145      16.72092954  T        1      -0.00000714      -0.00000110      -0.00281059
Sc       9.03180532       4.51590266      10.00000000  F        2       0.00000145       0.00000012       0.41002795
Sc      11.28975666       4.51590266      12.25795133  F        2      -0.00000355      -0.00000178      -0.20309380
Sc       9.03180532       6.77385400      12.25795133  F        2      -0.00000094       0.00000106      -0.20309567
Sc      11.28975666       6.77385400      10.00000000  F        2      -0.00000291       0.00000056       0.41002721
N        9.03180532       6.77385400      10.00000000  F        2       0.00000142       0.00000030       0.12943903
N       11.28975666       4.51590266      10.00000000  F        2      -0.00000325      -0.00000023       0.12943943
N        9.03180532       4.51590266      12.25795133  F        2       0.00000123       0.00000067      -0.33736354
N       11.28975666       6.77385400      12.25795133  F        2      -0.00000430       0.00000037      -0.33736420
Sc       9.03180534       4.51590276      14.51668969  T        1       0.00000068      -0.00000366       0.00543882
Sc      11.28975624       4.51590270      16.71362699  T        1       0.00001200       0.00000479      -0.00164910
Sc       9.03180515       6.77385393      16.71362690  T        1       0.00000417       0.00000769      -0.00164774
Sc      11.28975626       6.77385374      14.51668949  T        1       0.00001031       0.00000068       0.00544540
N        9.03180500       6.77385382      14.52593616  T        1       0.00000109      -0.00000158       0.00001276
N       11.28975641       4.51590258      14.52593645  T        1      -0.00000904       0.00000043       0.00001213
N        9.03180492       4.51590276      16.72092922  T        1      -0.00000044       0.00000048      -0.00281227
N       11.28975645       6.77385397      16.72092930  T        1      -0.00000783      -0.00000075      -0.00281211
Sc       9.03180532       9.03180532      10.00000000  F        2       0.00000224       0.00000189       0.41002968
Sc      11.28975666       9.03180532      12.25795133  F        2      -0.00000263       0.00000373      -0.20309477
Sc       9.03180532      11.28975666      12.25795133  F        2       0.00000449      -0.00000602      -0.20309350
Sc      11.28975666      11.28975666      10.00000000  F        2      -0.00000326      -0.00000388       0.41002908
N        9.03180532      11.28975666      10.00000000  F        2       0.00000086      -0.00000221       0.12943894
N       11.28975666       9.03180532      10.00000000  F        2      -0.00000363       0.00000114       0.12943943
N        9.03180532       9.03180532      12.25795133  F        2       0.00000170       0.00000036      -0.33736616
N       11.28975666      11.28975666      12.25795133  F        2      -0.00000337      -0.00000357      -0.33736363
Sc       9.03180537       9.03180523      14.51668941  T        1      -0.00000075       0.00000366       0.00544462
Sc      11.28975632       9.03180538      16.71362697  T        1      -0.00000651      -0.00000167      -0.00164705
Sc       9.03180545      11.28975637      16.71362702  T        1      -0.00000033      -0.00000930      -0.00165004
Sc      11.28975639      11.28975627      14.51668983  T        1      -0.00000510       0.00000582       0.00543192
N        9.03180538      11.28975629      14.52593645  T        1       0.00000177       0.00000825       0.00001158
N       11.28975648       9.03180483      14.52593640  T        1      -0.00000455       0.00000018       0.00001194
N        9.03180509       9.03180513      16.72092931  T        1       0.00000199      -0.00000224      -0.00281259
N       11.28975682      11.28975627      16.72092959  T        1      -0.00000157       0.00000585      -0.00281099
