144
Lattice="12.817540425 0.0 0.0 0.0 12.817540425 0.0 0.0 0.0 26.408770207800238" Properties=species:S:1:pos:R:3:move_mask:L:1:tags:I:1:forces:R:3 energy_ry=-557.39486434 energy_ev=-7583.743409003241 charge=0 spin=0 energy=-1381.411092449485 free_energy=-1381.411092449485 stress="0.027673568576574326 2.8656019779305097e-09 9.341838413945425e-09 2.8656019779305097e-09 0.02767358161509037 7.946250768497976e-09 9.341838413945425e-09 7.946250768497976e-09 0.008522921241819859" pbc="T T T"
Ti       0.00000000       0.00000000      10.00000000  F        2       0.00000116       0.00000091       1.83143568
Ti       2.13625673       0.00000000      12.13625673  F        2      -0.00000008       0.00000225       0.03134604
Ti       0.00000000       2.13625673      12.13625673  F        2       0.00000258      -0.00000027       0.03134543
Ti       2.13625673       2.13625673      10.00000000  F        2      -0.00000028       0.00000054       1.83143628
N        0.00000000       2.13625673      10.00000000  F        2       0.00000175       0.00000080      -0.86935723
N        2.13625673       0.00000000      10.00000000  F        2       0.00000055       0.00000173      -0.86935699
N        0.00000000       0.00000000      12.13625673  F        2       0.00000244       0.00000230      -0.99350494
N        2.13625673       2.13625673      12.13625673  F        2       0.00000093       0.00000073      -0.99350703
Ti      -0.00000026      -0.00000029      14.24092031  T        1       0.00000437      -0.00000008       0.00023374
Ti       2.13625684       0.00000013      16.26745560  T        1      -0.00000112      -0.00000107      -0.00043370
Ti       0.00000015       2.13625684      16.26745541  T        1      -0.00000082      -0.00000297      -0.00043178
Ti       2.13625682       2.13625683      14.24092002  T        1      -0.00000461      -0.00000097       0.00022934
N        0.00000017       2.13625688      14.27239860  T        1       0.00000074      -0.00000591      -0.00046448
N        2.13625682       0.00000030      14.27239873  T        1      -0.00000531      -0.00000454      -0.00046472
N       -0.00000044      -0.00000060      16.41397611  T        1       0.00000129       0.00000113       0.00074454
N        2.13625678       2.13625675      16.41397591  T        1       0.00000390       0.00000283       0.00074350
Ti       0.00000000       4.27251348      10.00000000  F        2       0.00000105       0.00000051       1.83143675
Ti       2.13625673       4.27251348      12.13625673  F        2      -0.00000066      -0.00000021       0.03134480
Ti       0.00000000       6.40877021      12.13625673  F        2       0.00000155      -0.00000023       0.03134401
Ti       2.13625673       6.40877021      10.00000000  F        2      -0.00000018       0.00000041       1.83143699
N        0.00000000       6.40877021      10.00000000  F        2       0.00000178       0.00000127      -0.86935687
N        2.13625673       4.27251348      10.00000000  F        2       0.00000106      -0.00000012      -0.86935651
N        0.00000000       4.27251348      12.13625673  F        2       0.00000267       0.00000019      -0.99350685
N        2.13625673       6.40877021      12.13625673  F        2       0.00000065       0.00000077      -0.99350715
Ti       0.00000008       4.27251362      14.24092014  T        1       0.00000477       0.00000135       0.00023104
Ti       2.13625684       4.27251358      16.26745543  T        1      -0.00000222       0.00000200      -0.00043178
Ti       0.00000010       6.40877030      16.26745535  T        1       0.00000207      -0.00000021      -0.00043242
Ti       2.13625677       6.40877032      14.24092003  T        1      -0.00000072      -0.00000324       0.00023122
N        0.00000020       6.40877028      14.27239859  T        1       0.00000061       0.00000044      -0.00046470
N        2.13625680       4.27251352      14.27239890  T        1       0.00000059       0.00000036      -0.00046452
N       -0.00000069       4.27251362      16.41397615  T        1       0.00000171       0.00000165       0.00074324
N        2.13625684       6.40877018      16.41397593  T        1      -0.00000281       0.00000132       0.00074224
Ti       0.00000000       8.54502695      10.00000000  F        2       0.00000138       0.00000084       1.83143675
Ti       2.13625673       8.54502695      12.13625673  F        2       0.00000002       0.00000147       0.03134537
Ti       0.00000000      10.68128368      12.13625673  F        2       0.00000212      -0.00000472       0.03134588
Ti       2.13625673      10.68128368      10.00000000  F        2      -0.00000018      -0.00000333       1.83143651
N        0.00000000      10.68128368      10.00000000  F        2       0.00000144      -0.00000416      -0.86935735
N        2.13625673       8.54502695      10.00000000  F        2       0.00000082       0.00000134      -0.86935669
N        0.00000000       8.54502695      12.13625673  F        2       0.00000221       0.00000187      -0.99350750
N        2.13625673      10.68128368      12.13625673  F        2       0.00000060      -0.00000608      -0.99350798
Ti       0.00000012       8.54502709      14.24091998  T        1      -0.00000358       0.00000095       0.00022973
Ti       2.13625678       8.54502719      16.26745501  T        1       0.00000049      -0.00000169      -0.00039795
Ti       0.00000013      10.68128356      16.26745531  T        1      -0.00000132      -0.00000494      -0.00043226
Ti       2.13625679      10.68128340      14.24092009  T        1      -0.00000129       0.00000950       0.00022836
N       -0.00000025      10.68128338      14.27239861  T        1      -0.00000427       0.00000979      -0.00046372
N        2.13625680       8.54502722      14.27239871  T        1      -0.00000011       0.00000022      -0.00047958
N       -0.00000041       8.54502708      16.41397587  T        1      -0.00000133       0.00000061       0.00074446
N        2.13625679      10.68128370      16.41397577  T        1       0.00000211      -0.00000656       0.00073994
Ti       4.27251348       0.00000000      10.00000000  F        2       0.00000014       0.00000137       1.83143675
Ti       6.40877021       0.00000000      12.13625673  F        2       0.00000001       0.00000224       0.03134437
Ti       4.27251348       2.13625673      12.13625673  F        2       0.00000080      -0.00000041       0.03134631
Ti       6.40877021       2.13625673      10.00000000  F        2       0.00000043       0.00000045       1.83143616
N        4.27251348       2.13625673      10.00000000  F        2      -0.00000046       0.00000095      -0.86935693
N        6.40877021       0.00000000      10.00000000  F        2       0.00000064       0.00000172      -0.86935669
N        4.27251348       0.00000000      12.13625673  F        2      -0.00000021       0.00000228      -0.99350661
N        6.40877021       2.13625673      12.13625673  F        2       0.00000141       0.00000082      -0.99350750
Ti       4.27251349       0.00000005      14.24092007  T        1      -0.00000038      -0.00000089       0.00023018
Ti       6.40877030      -0.00000024      16.26745551  T        1      -0.00000092       0.00000237      -0.00043202
Ti       4.27251358       2.13625685      16.26745508  T        1       0.00000136      -0.00000257      -0.00039859
Ti       6.40877029       2.13625683      14.24092001  T        1       0.00000432      -0.00000089       0.00022879
N        4.27251356       2.13625683      14.27239878  T        1       0.00000039      -0.00000389      -0.00047916
N        6.40877029       0.00000017      14.27239856  T        1       0.00000047      -0.00000058      -0.00046510
N        4.27251360      -0.00000035      16.41397619  T        1       0.00000065       0.00000117       0.00073952
N        6.40877028       2.13625682      16.41397606  T        1       0.00000153      -0.00000292       0.00073980
Ti       4.27251348       4.27251348      10.00000000  F        2       0.00000001       0.00000032       1.83143616
Ti       6.40877021       4.27251348      12.13625673  F        2       0.00000085       0.00000050       0.03134163
Ti       4.27251348       6.40877021      12.13625673  F        2       0.00000053       0.00000036       0.03134450
Ti       6.40877021       6.40877021      10.00000000  F        2       0.00000010       0.00000040       1.83143616
N        4.27251348       6.40877021      10.00000000  F        2      -0.00000006       0.00000072      -0.86935687
N        6.40877021       4.27251348      10.00000000  F        2       0.00000097      -0.00000012      -0.86935735
N        4.27251348       4.27251348      12.13625673  F        2      -0.00000037      -0.00000013      -0.99350655
N        6.40877021       6.40877021      12.13625673  F        2       0.00000042       0.00000117      -0.99350685
Ti       4.27251360       4.27251356      14.24091999  T        1       0.00000136       0.00000309       0.00022911
Ti       6.40877026       4.27251356      16.26745559  T        1       0.00000248      -0.00000020      -0.00043970
Ti       4.27251363       6.40877031      16.26745511  T        1      -0.00000473       0.00000193      -0.00043170
Ti       6.40877026       6.40877023      14.24092015  T        1       0.00000198      -0.00000083       0.00023026
N        4.27251356       6.40877024      14.27239861  T        1       0.00000115      -0.00000004      -0.00046386
N        6.40877029       4.27251356      14.27239844  T        1       0.00000155       0.00000056      -0.00044974
N        4.27251362       4.27251357      16.41397598  T        1       0.00000075       0.00000014       0.00074336
N        6.40877036       6.40877026      16.41397594  T        1      -0.00000469       0.00000125       0.00074626
Ti       4.27251348       8.54502695      10.00000000  F        2       0.00000054       0.00000088       1.83143806
Ti       6.40877021       8.54502695      12.13625673  F        2      -0.00000010       0.00000185       0.03134411
Ti       4.27251348      10.68128368      12.13625673  F        2      -0.00000040      -0.00000507       0.03134694
Ti       6.40877021      10.68128368      10.00000000  F        2       0.00000041      -0.00000290       1.83143699
N        4.27251348      10.68128368      10.00000000  F        2       0.00000013      -0.00000415      -0.86935645
N        6.40877021       8.54502695      10.00000000  F        2       0.00000071       0.00000119      -0.86935633
N        4.27251348       8.54502695      12.13625673  F        2      -0.00000002       0.00000131      -0.99350810
N        6.40877021      10.68128368      12.13625673  F        2       0.00000081      -0.00000591      -0.99350750
Ti       4.27251354       8.54502724      14.24092006  T        1       0.00000462      -0.00000338       0.00022766
Ti       6.40877034       8.54502713      16.26745553  T        1      -0.00000312       0.00000278      -0.00043290
Ti       4.27251362      10.68128345      16.26745508  T        1       0.00000045       0.00000445      -0.00039843
Ti       6.40877030      10.68128349      14.24092004  T        1       0.00000424      -0.00000530       0.00023054
N        4.27251358      10.68128335      14.27239878  T        1       0.00000170       0.00000763      -0.00047880
N        6.40877031       8.54502718      14.27239852  T        1       0.00000154       0.00000363      -0.00046452
N        4.27251359       8.54502713      16.41397585  T        1       0.00000271       0.00000091       0.00074050
N        6.40877033      10.68128356      16.41397582  T        1      -0.00000553      -0.00000431       0.00074274
Ti       8.54502695       0.00000000      10.00000000  F        2       0.00000097       0.00000139       1.83143699
Ti      10.68128368       0.00000000      12.13625673  F        2      -0.00000370       0.00000257       0.03134553
Ti       8.54502695       2.13625673      12.13625673  F        2       0.00000285       0.00000000       0.03134705
Ti      10.68128368       2.13625673      10.00000000  F        2      -0.00000266       0.00000005       1.83143663
N        8.54502695       2.13625673      10.00000000  F        2       0.00000122       0.00000085      -0.86935687
N       10.68128368       0.00000000      10.00000000  F        2      -0.00000447       0.00000188      -0.86935675
N        8.54502695       0.00000000      12.13625673  F        2       0.00000202       0.00000248      -0.99350715
N       10.68128368       2.13625673      12.13625673  F        2      -0.00000554       0.00000060      -0.99350780
Ti       8.54502710       0.00000011      14.24091990  T        1       0.00000417       0.00000015       0.00023104
Ti      10.68128357      -0.00000005      16.26745536  T        1      -0.00000394       0.00000069      -0.00043202
Ti       8.54502709       2.13625683      16.26745502  T        1       0.00000243      -0.00000126      -0.00040059
Ti      10.68128354       2.13625683      14.24092000  T        1       0.00000151      -0.00000592       0.00022961
N        8.54502727       2.13625681      14.27239867  T        1      -0.00001161       0.00000207      -0.00047886
N       10.68128360       0.00000013      14.27239849  T        1      -0.00000486      -0.00000084      -0.00046392
N        8.54502712      -0.00000039      16.41397590  T        1       0.00000163       0.00000314       0.00074274
N       10.68128351       2.13625681      16.41397587  T        1      -0.00000518       0.00000365       0.00073990
Ti       8.54502695       4.27251348      10.00000000  F        2       0.00000129       0.00000050       1.83143675
Ti      10.68128368       4.27251348      12.13625673  F        2      -0.00000468       0.00000114       0.03134619
Ti       8.54502695       6.40877021      12.13625673  F        2       0.00000261       0.00000069       0.03134163
Ti      10.68128368       6.40877021      10.00000000  F        2      -0.00000291       0.00000008       1.83143580
N        8.54502695       6.40877021      10.00000000  F        2       0.00000110       0.00000043      -0.86935717
N       10.68128368       4.27251348      10.00000000  F        2      -0.00000445      -0.00000024      -0.86935669
N        8.54502695       4.27251348      12.13625673  F        2       0.00000216       0.00000047      -0.99350810
N       10.68128368       6.40877021      12.13625673  F        2      -0.00000538       0.00000136      -0.99350733
Ti       8.54502711       4.27251352      14.24091988  T        1       0.00000077       0.00000674       0.00022845
Ti      10.68128352       4.27251364      16.26745509  T        1      -0.00000591      -0.00000284      -0.00040003
Ti       8.54502710       6.40877034      16.26745534  T        1       0.00000006      -0.00000442      -0.00044026
Ti      10.68128360       6.40877034      14.24092010  T        1      -0.00000597      -0.00000263       0.00022832
N        8.54502710       6.40877033      14.27239847  T        1       0.00000340      -0.00000457      -0.00045052
N       10.68128363       4.27251355      14.27239864  T        1      -0.00000532       0.00000446      -0.00047844
N        8.54502713       4.27251363      16.41397581  T        1       0.00000217      -0.00000530       0.00073894
N       10.68128338       6.40877028      16.41397575  T        1       0.00000895       0.00000167       0.00074312
Ti       8.54502695       8.54502695      10.00000000  F        2       0.00000103       0.00000082       1.83143759
Ti      10.68128368       8.54502695      12.13625673  F        2      -0.00000453       0.00000122       0.03134332
Ti       8.54502695      10.68128368      12.13625673  F        2       0.00000187      -0.00000405       0.03134424
Ti      10.68128368      10.68128368      10.00000000  F        2      -0.00000265      -0.00000282       1.83143580
N        8.54502695      10.68128368      10.00000000  F        2       0.00000103      -0.00000455      -0.86935633
N       10.68128368       8.54502695      10.00000000  F        2      -0.00000451       0.00000091      -0.86935735
N        8.54502695       8.54502695      12.13625673  F        2       0.00000154       0.00000204      -0.99350750
N       10.68128368      10.68128368      12.13625673  F        2      -0.00000588      -0.00000544      -0.99350613
Ti       8.54502714       8.54502697      14.24091998  T        1       0.00000357       0.00000236       0.00022884
Ti      10.68128365       8.54502703      16.26745566  T        1      -0.00000517       0.00000136      -0.00043922
Ti       8.54502710      10.68128350      16.26745539  T        1      -0.00000019      -0.00000413      -0.00043162
Ti      10.68128339      10.68128357      14.24091997  T        1       0.00000686      -0.00000752       0.00023065
N        8.54502683      10.68128363      14.27239864  T        1       0.00000073      -0.00000502      -0.00046444
N       10.68128351       8.54502719      14.27239824  T        1      -0.00000536       0.00000345      -0.00044922
N        8.54502706       8.54502712      16.41397608  T        1       0.00000145       0.00000247       0.00074438
N       10.68128340      10.68128344      16.41397586  T        1       0.00000687       0.00000687       0.00074458
