144
Lattice="13.690340169 0.0 0.0 0.0 13.690340169 0.0 0.0 0.0 26.845170085869036" Properties=species:S:1:pos:R:3:move_mask:L:1:tags:I:1:forces:R:3 energy_ry=-477.64432204 energy_ev=-6498.6820131681725 charge=0 spin=0 energy=-1434.469574431205 free_energy=-1434.469574431205 stress="0.008075647987425327 5.948782438869316e-11 -1.5061024649654087e-09 5.948782438869316e-11 0.008075651712715626 -6.221939630179918e-10 -1.5061024649654087e-09 -6.221939630179918e-10 0.004828011151403189" pbc="T T T"
Zr       0.00000000       0.00000000      10.00000000  F        2       0.00000078       0.00000084       1.30985188
Zr       2.28172336       0.00000000      12.28172336  F        2      -0.00000020       0.00000308       0.30747300
Zr       0.00000000       2.28172336      12.28172336  F        2       0.00000183       0.00000096       0.30747262
Zr       2.28172336       2.28172336      10.00000000  F        2       0.00000021       0.00000052       1.30985224
N        0.00000000       2.28172336      10.00000000  F        2      -0.00000041       0.00000123      -0.71506947
N        2.28172336       0.00000000      10.00000000  F        2       0.00000097      -0.00000060      -0.71506900
N        0.00000000       0.00000000      12.28172336  F        2       0.00000036       0.00000075      -0.90264755
N        2.28172336       2.28172336      12.28172336  F        2       0.00000113       0.00000138      -0.90264547
Zr      -0.00000001      -0.00000001      14.57315860  T        1      -0.00000592      -0.00000131      -0.00064935
Zr       2.28172349       0.00000030      16.79722435  T        1      -0.00000520      -0.00000457       0.00349330
Zr       0.00000002       2.28172351      16.79722435  T        1      -0.00000111      -0.00000307       0.00349618
Zr       2.28172343       2.28172354      14.57315887  T        1      -0.00000329      -0.00000391      -0.00066461
N       -0.00000048       2.28172337      14.62691273  T        1      -0.00000083       0.00000288      -0.00202607
N        2.28172337       0.00000004      14.62691278  T        1       0.00000163      -0.00000320      -0.00202477
N       -0.00000064      -0.00000059      16.92163644  T        1       0.00001196      -0.00000328      -0.00042281
N        2.28172344       2.28172338      16.92163624  T        1      -0.00000168       0.00000013      -0.00041860
Zr       0.00000000       4.56344672      10.00000000  F        2       0.00000101       0.00000032       1.30985153
Zr       2.28172336       4.56344672      12.28172336  F        2       0.00000008      -0.00000089       0.30747256
Zr       0.00000000       6.84517009      12.28172336  F        2       0.00000137      -0.00000386       0.30747131
Zr       2.28172336       6.84517009      10.00000000  F        2      -0.00000038      -0.00000153       1.30985188
N        0.00000000       6.84517009      10.00000000  F        2      -0.00000018      -0.00000046      -0.71506947
N        2.28172336       4.56344672      10.00000000  F        2       0.00000107       0.00000040      -0.71506900
N        0.00000000       4.56344672      12.28172336  F        2       0.00000030       0.00000100      -0.90264469
N        2.28172336       6.84517009      12.28172336  F        2       0.00000153      -0.00000145      -0.90264797
Zr       0.00000013       4.56344678      14.57315879  T        1      -0.00000221      -0.00000516      -0.00066351
Zr       2.28172344       4.56344670      16.79722424  T        1      -0.00000100       0.00000292       0.00349634
Zr       0.00000016       6.84516990      16.79722421  T        1       0.00000044       0.00000079       0.00349482
Zr       2.28172347       6.84517000      14.57315834  T        1      -0.00000032      -0.00000226      -0.00065172
N       -0.00000039       6.84516981      14.62691274  T        1      -0.00000184       0.00000034      -0.00202827
N        2.28172345       4.56344665      14.62691277  T        1      -0.00000209       0.00000375      -0.00202525
N       -0.00000034       4.56344687      16.92163647  T        1      -0.00000185      -0.00000249      -0.00041864
N        2.28172333       6.84516999      16.92163638  T        1       0.00000282       0.00000025      -0.00041996
Zr       0.00000000       9.12689345      10.00000000  F        2       0.00000092       0.00000417       1.30985165
Zr       2.28172336       9.12689345      12.28172336  F        2       0.00000051       0.00000594       0.30746871
Zr       0.00000000      11.40861681      12.28172336  F        2       0.00000200      -0.00000536       0.30747044
Zr       2.28172336      11.40861681      10.00000000  F        2      -0.00000002      -0.00000482       1.30985320
N        0.00000000      11.40861681      10.00000000  F        2      -0.00000028      -0.00000446      -0.71507001
N        2.28172336       9.12689345      10.00000000  F        2       0.00000133       0.00000349      -0.71506989
N        0.00000000       9.12689345      12.28172336  F        2      -0.00000033       0.00000626      -0.90264779
N        2.28172336      11.40861681      12.28172336  F        2       0.00000169      -0.00000519      -0.90264922
Zr       0.00000011       9.12689341      14.57315856  T        1       0.00000106       0.00000543      -0.00065201
Zr       2.28172348       9.12689350      16.79722434  T        1       0.00000151       0.00000323       0.00348682
Zr       0.00000012      11.40861646      16.79722414  T        1      -0.00000123       0.00000783       0.00349170
Zr       2.28172327      11.40861647      14.57315837  T        1       0.00000107       0.00000863      -0.00065090
N       -0.00000003      11.40861666      14.62691280  T        1      -0.00000063      -0.00000767      -0.00202567
N        2.28172335       9.12689345      14.62691246  T        1       0.00000143       0.00000089      -0.00201547
N       -0.00000042       9.12689349      16.92163614  T        1      -0.00000119       0.00000242      -0.00041945
N        2.28172355      11.40861652      16.92163660  T        1      -0.00000122       0.00000527      -0.00042139
Zr       4.56344672       0.00000000      10.00000000  F        2       0.00000027       0.00000073       1.30985236
Zr       6.84517009       0.00000000      12.28172336  F        2      -0.00000265       0.00000322       0.30747122
Zr       4.56344672       2.28172336      12.28172336  F        2       0.00000172       0.00000104       0.30747274
Zr       6.84517009       2.28172336      10.00000000  F        2      -0.00000116       0.00000025       1.30984974
N        4.56344672       2.28172336      10.00000000  F        2       0.00000036       0.00000134      -0.71506888
N        6.84517009       0.00000000      10.00000000  F        2      -0.00000091      -0.00000075      -0.71506965
N        4.56344672       0.00000000      12.28172336  F        2       0.00000069      -0.00000020      -0.90264797
N        6.84517009       2.28172336      12.28172336  F        2      -0.00000035       0.00000149      -0.90264475
Zr       4.56344665      -0.00000021      14.57315841  T        1       0.00000040      -0.00000069      -0.00065149
Zr       6.84517018       0.00000014      16.79722414  T        1       0.00000015       0.00000030       0.00348626
Zr       4.56344667       2.28172352      16.79722446  T        1       0.00000428      -0.00000135       0.00349698
Zr       6.84516986       2.28172339      14.57315888  T        1      -0.00000150      -0.00000220      -0.00066322
N        4.56344669       2.28172348      14.62691269  T        1       0.00000310       0.00000078      -0.00202657
N        6.84516989      -0.00000050      14.62691250  T        1       0.00000088      -0.00000070      -0.00201565
N        4.56344681      -0.00000048      16.92163671  T        1      -0.00000527      -0.00000215      -0.00042035
N        6.84516992       2.28172341      16.92163617  T        1       0.00000026       0.00000000      -0.00041857
Zr       4.56344672       4.56344672      10.00000000  F        2       0.00000030       0.00000083       1.30985141
Zr       6.84517009       4.56344672      12.28172336  F        2      -0.00000241       0.00000167       0.30747187
Zr       4.56344672       6.84517009      12.28172336  F        2       0.00000252      -0.00000311       0.30747309
Zr       6.84517009       6.84517009      10.00000000  F        2      -0.00000150      -0.00000166       1.30984998
N        4.56344672       6.84517009      10.00000000  F        2       0.00000057      -0.00000101      -0.71506965
N        6.84517009       4.56344672      10.00000000  F        2      -0.00000107       0.00000018      -0.71506935
N        4.56344672       4.56344672      12.28172336  F        2       0.00000098       0.00000136      -0.90264523
N        6.84517009       6.84517009      12.28172336  F        2      -0.00000212      -0.00000211      -0.90264535
Zr       4.56344654       4.56344674      14.57315886  T        1       0.00000353       0.00000573      -0.00066392
Zr       6.84517002       4.56344680      16.79722458  T        1      -0.00000140      -0.00000400       0.00349074
Zr       4.56344672       6.84517005      16.79722411  T        1       0.00000109       0.00000098       0.00349378
Zr       6.84517011       6.84516998      14.57315881  T        1      -0.00000360       0.00000212      -0.00066358
N        4.56344659       6.84516991      14.62691265  T        1       0.00000311      -0.00000367      -0.00202627
N        6.84516990       4.56344675      14.62691221  T        1      -0.00000081       0.00000231      -0.00201573
N        4.56344665       4.56344660      16.92163609  T        1       0.00000089       0.00000334      -0.00041848
N        6.84517009       6.84516985      16.92163626  T        1      -0.00000090       0.00000172      -0.00041801
Zr       4.56344672       9.12689345      10.00000000  F        2       0.00000074       0.00000429       1.30985343
Zr       6.84517009       9.12689345      12.28172336  F        2      -0.00000224       0.00000601       0.30747169
Zr       4.56344672      11.40861681      12.28172336  F        2       0.00000133      -0.00000606       0.30747154
Zr       6.84517009      11.40861681      10.00000000  F        2      -0.00000233      -0.00000373       1.30985188
N        4.56344672      11.40861681      10.00000000  F        2       0.00000041      -0.00000448      -0.71507049
N        6.84517009       9.12689345      10.00000000  F        2      -0.00000106       0.00000400      -0.71506906
N        4.56344672       9.12689345      12.28172336  F        2       0.00000049       0.00000485      -0.90264863
N        6.84517009      11.40861681      12.28172336  F        2      -0.00000100      -0.00000524      -0.90264863
Zr       4.56344659       9.12689338      14.57315871  T        1       0.00000423       0.00000688      -0.00065216
Zr       6.84516985       9.12689347      16.79722432  T        1       0.00000082       0.00000617       0.00349378
Zr       4.56344680      11.40861658      16.79722403  T        1      -0.00000316      -0.00000406       0.00349170
Zr       6.84517003      11.40861660      14.57315841  T        1      -0.00000359      -0.00000142      -0.00065276
N        4.56344670      11.40861665      14.62691268  T        1       0.00000151      -0.00000695      -0.00202481
N        6.84517001       9.12689357      14.62691281  T        1      -0.00000317      -0.00000743      -0.00202575
N        4.56344678       9.12689360      16.92163612  T        1      -0.00000142      -0.00000672      -0.00042103
N        6.84516985      11.40861663      16.92163644  T        1      -0.00000088      -0.00000310      -0.00042061
Zr       9.12689345       0.00000000      10.00000000  F        2       0.00000447       0.00000107       1.30985117
Zr      11.40861681       0.00000000      12.28172336  F        2      -0.00000690       0.00000257       0.30747011
Zr       9.12689345       2.28172336      12.28172336  F        2       0.00000552       0.00000176       0.30747163
Zr      11.40861681       2.28172336      10.00000000  F        2      -0.00000390      -0.00000014       1.30985177
N        9.12689345       2.28172336      10.00000000  F        2       0.00000379       0.00000078      -0.71507025
N       11.40861681       0.00000000      10.00000000  F        2      -0.00000392       0.00000026      -0.71506989
N        9.12689345       0.00000000      12.28172336  F        2       0.00000624      -0.00000006      -0.90264750
N       11.40861681       2.28172336      12.28172336  F        2      -0.00000529       0.00000196      -0.90264541
Zr       9.12689363      -0.00000068      14.57315842  T        1      -0.00001484       0.00002037      -0.00065283
Zr      11.40861652       0.00000013      16.79722468  T        1       0.00000603      -0.00000228       0.00348970
Zr       9.12689348       2.28172357      16.79722449  T        1       0.00000134      -0.00000084       0.00348514
Zr      11.40861679       2.28172323      14.57315896  T        1      -0.00000812       0.00000276      -0.00066502
N        9.12689344       2.28172355      14.62691250  T        1       0.00000443      -0.00000810      -0.00201463
N       11.40861654      -0.00000024      14.62691254  T        1       0.00001214      -0.00000087      -0.00201495
N        9.12689336       0.00000011      16.92163648  T        1       0.00000247       0.00000048      -0.00041978
N       11.40861665       2.28172344      16.92163609  T        1      -0.00000369      -0.00000046      -0.00041883
Zr       9.12689345       4.56344672      10.00000000  F        2       0.00000401       0.00000097       1.30985224
Zr      11.40861681       4.56344672      12.28172336  F        2      -0.00000696       0.00000064       0.30747190
Zr       9.12689345       6.84517009      12.28172336  F        2       0.00000546      -0.00000377       0.30747238
Zr      11.40861681       6.84517009      10.00000000  F        2      -0.00000437      -0.00000186       1.30985212
N        9.12689345       6.84517009      10.00000000  F        2       0.00000377      -0.00000101      -0.71506912
N       11.40861681       4.56344672      10.00000000  F        2      -0.00000397       0.00000046      -0.71506935
N        9.12689345       4.56344672      12.28172336  F        2       0.00000501       0.00000127      -0.90264493
N       11.40861681       6.84517009      12.28172336  F        2      -0.00000536      -0.00000148      -0.90264797
Zr       9.12689346       4.56344690      14.57315877  T        1       0.00000301      -0.00000316      -0.00066526
Zr      11.40861667       4.56344675      16.79722417  T        1      -0.00000566       0.00000341       0.00348826
Zr       9.12689350       6.84517009      16.79722444  T        1       0.00000695       0.00000063       0.00349314
Zr      11.40861676       6.84517001      14.57315866  T        1      -0.00000847      -0.00000386      -0.00065163
N        9.12689335       6.84516987      14.62691284  T        1       0.00000702       0.00000577      -0.00202585
N       11.40861645       4.56344667      14.62691257  T        1       0.00000617       0.00000399      -0.00201427
N        9.12689352       4.56344671      16.92163613  T        1       0.00000348       0.00000212      -0.00041909
N       11.40861654       6.84516998      16.92163629  T        1      -0.00000319       0.00000040      -0.00042106
Zr       9.12689345       9.12689345      10.00000000  F        2       0.00000368       0.00000334       1.30985355
Zr      11.40861681       9.12689345      12.28172336  F        2      -0.00000654       0.00000467       0.30746970
Zr       9.12689345      11.40861681      12.28172336  F        2       0.00000476      -0.00000637       0.30746812
Zr      11.40861681      11.40861681      10.00000000  F        2      -0.00000344      -0.00000445       1.30985332
N        9.12689345      11.40861681      10.00000000  F        2       0.00000369      -0.00000383      -0.71506977
N       11.40861681       9.12689345      10.00000000  F        2      -0.00000383       0.00000358      -0.71507043
N        9.12689345       9.12689345      12.28172336  F        2       0.00000482       0.00000551      -0.90264827
N       11.40861681      11.40861681      12.28172336  F        2      -0.00000465      -0.00000501      -0.90264940
Zr       9.12689338       9.12689358      14.57315842  T        1       0.00000773      -0.00000957      -0.00065156
Zr      11.40861667       9.12689334      16.79722454  T        1      -0.00000559       0.00000247       0.00348546
Zr       9.12689348      11.40861663      16.79722447  T        1       0.00000315      -0.00000559       0.00348794
Zr      11.40861663      11.40861657      14.57315803  T        1      -0.00000608      -0.00000781      -0.00065186
N        9.12689351      11.40861658      14.62691254  T        1       0.00000615      -0.00000460      -0.00201627
N       11.40861659       9.12689341      14.62691257  T        1      -0.00000582       0.00000599      -0.00201423
N        9.12689357       9.12689324      16.92163598  T        1      -0.00000618       0.00000350      -0.00042234
N       11.40861643      11.40861672      16.92163657  T        1       0.00000594      -0.00000409      -0.00042124
