 ANIMSTEPS   5
 CRYSTAL 
 PRIMVEC 
 12.2595753885  0.0000000000  0.0000000000
  0.0000000000 12.2595753885  0.0000000000
  0.0000000000  0.0000000000 26.1297892723
 PRIMCOORD   1
  147  1
 V    0.0000000000    0.0000000000   10.0000000000    0.0000000000    0.0000000000    0.0000000000
 V    2.0432625400    0.0000000000   12.0432625400   -0.0000000000    0.0000000000   -0.0000000000
 V    0.0000000000    2.0432625400   12.0432625400    0.0000000000   -0.0000000000   -0.0000000000
 V    2.0432625400    2.0432625400   10.0000000000   -0.0000000000   -0.0000000000    0.0000000000
 V    0.0659269900    0.0227360900   14.1736449000    0.0000566311    0.0005178862   -0.0019742419
 V    1.9982684800    0.0397264100   16.0162910400    0.0001795446    0.0006198594   -0.0006661007
 V    0.0275026200    2.0137377300   16.0082570500    0.0001116631   -0.0000103073   -0.0004644300
 V    1.9944944000    2.0299122400   14.1714269100   -0.0003838618   -0.0000613805   -0.0015927399
 V    0.0000000000    4.0865250700   10.0000000000    0.0000000000   -0.0000000000    0.0000000000
 V    2.0432625400    4.0865250700   12.0432625400   -0.0000000000    0.0000000000   -0.0000000000
 V    0.0000000000    6.1297876100   12.0432625400    0.0000000000   -0.0000000000   -0.0000000000
 V    2.0432625400    6.1297876100   10.0000000000   -0.0000000000   -0.0000000000    0.0000000000
 V    0.0681143300    4.1152129100   14.1607680100    0.0008314625    0.0005534239   -0.0013350835
 V    1.9327533400    4.0237312900   16.0067819800   -0.0002106065   -0.0007439088   -0.0007116387
 V    0.0144022600    6.1336196700   16.0125816500   -0.0003719438   -0.0001077762   -0.0002685694
 V    2.0375059200    6.0831124700   14.1862458700    0.0002613731   -0.0005450012   -0.0012466958
 V    0.0000000000    8.1730501500   10.0000000000   -0.0000000000    0.0000000000    0.0000000000
 V    2.0432625400    8.1730501500   12.0432625400   -0.0000000000    0.0000000000   -0.0000000000
 V    0.0000000000   10.2163126900   12.0432625400    0.0000000000   -0.0000000000   -0.0000000000
 V    2.0432625400   10.2163126900   10.0000000000   -0.0000000000    0.0000000000    0.0000000000
 V    0.0631080000    8.2187774300   14.1510199100    0.0010438528    0.0008722405   -0.0015446032
 V    2.0243392000    8.1856182700   16.0153483700    0.0001665786   -0.0002374560   -0.0001830108
 V   -0.0103615500   10.2423247900   16.0157731500   -0.0010655150   -0.0000973737   -0.0005977015
 V    1.9802517000   10.1779521900   14.1515832000   -0.0008390809   -0.0015946995   -0.0013806023
 V    4.0865250700    0.0000000000   10.0000000000    0.0000000000   -0.0000000000    0.0000000000
 V    6.1297876100    0.0000000000   12.0432625400   -0.0000000000    0.0000000000   -0.0000000000
 V    4.0865250700    2.0432625400   12.0432625400    0.0000000000    0.0000000000   -0.0000000000
 V    6.1297876100    2.0432625400   10.0000000000   -0.0000000000   -0.0000000000    0.0000000000
 V    4.1544249800    0.0461096300   14.1665289300    0.0001392658    0.0014010418   -0.0016888005
 V    6.1368983200    0.0145216900   16.0097321400   -0.0002885153    0.0007218649   -0.0003737538
 V    4.1028492500    1.9412003400   16.0011727000   -0.0003991660   -0.0002272401   -0.0004321674
 V    6.0563890900    1.9943491700   14.1621362800   -0.0002391922   -0.0008842345   -0.0014630330
 V    4.0865250700    4.0865250700   10.0000000000    0.0000000000    0.0000000000    0.0000000000
 V    6.1297876100    4.0865250700   12.0432625400   -0.0000000000    0.0000000000   -0.0000000000
 V    4.0865250700    6.1297876100   12.0432625400    0.0000000000   -0.0000000000   -0.0000000000
 V    6.1297876100    6.1297876100   10.0000000000   -0.0000000000   -0.0000000000    0.0000000000
 V    4.1606376900    4.1821250100   14.2303520000   -0.0000909713    0.0012298322   -0.0005564317
 V    6.2233792700    3.9867983100   16.0127939600   -0.0003487888    0.0000935616    0.0003281609
 V    3.9126147900    6.2853603900   16.2733366500   -0.0000083173    0.0004176946   -0.0012151153
 V    6.0197868300    6.0772184800   14.2364323900   -0.0005651185   -0.0008945146   -0.0014652129
 V    4.0865250700    8.1730501500   10.0000000000    0.0000000000    0.0000000000    0.0000000000
 V    6.1297876100    8.1730501500   12.0432625400   -0.0000000000    0.0000000000   -0.0000000000
 V    4.0865250700   10.2163126900   12.0432625400    0.0000000000   -0.0000000000   -0.0000000000
 V    6.1297876100   10.2163126900   10.0000000000   -0.0000000000   -0.0000000000    0.0000000000
 V    4.1517921700    8.1581308700   14.1819753000    0.0002855322   -0.0015732297   -0.0003035835
 V    6.1898012600    8.2884878200   16.0032668700   -0.0000783926   -0.0000986638   -0.0000329877
 V    4.0979824800   10.2034765200   16.0116360000    0.0000974793    0.0000720192    0.0001861363
 V    6.0722238000   10.1786113400   14.1610124500   -0.0004175677   -0.0005818790   -0.0009974184
 V    8.1730501500    0.0000000000   10.0000000000    0.0000000000    0.0000000000    0.0000000000
 V   10.2163126900    0.0000000000   12.0432625400   -0.0000000000    0.0000000000   -0.0000000000
 V    8.1730501500    2.0432625400   12.0432625400    0.0000000000   -0.0000000000   -0.0000000000
 V   10.2163126900    2.0432625400   10.0000000000   -0.0000000000   -0.0000000000    0.0000000000
 V    8.2520756300    0.0582606600   14.1433328200    0.0005186900    0.0004742926   -0.0013635500
 V   10.2488077700   -0.0200790600   16.0140073600   -0.0000038714   -0.0002546581   -0.0008416766
 V    8.1423481800    2.0718046400   16.0067796000    0.0003334425    0.0005584531   -0.0004025034
 V   10.1409637600    1.9896056200   14.1450629400   -0.0007283545   -0.0013214356   -0.0014695072
 V    8.1730501500    4.0865250700   10.0000000000    0.0000000000    0.0000000000    0.0000000000
 V   10.2163126900    4.0865250700   12.0432625400   -0.0000000000    0.0000000000   -0.0000000000
 V    8.1730501500    6.1297876100   12.0432625400   -0.0000000000   -0.0000000000   -0.0000000000
 V   10.2163126900    6.1297876100   10.0000000000    0.0000000000   -0.0000000000    0.0000000000
 V    8.2399446900    4.1428626700   14.1635569100   -0.0002762201    0.0007369528   -0.0014132264
 V   10.1914676800    4.0739404100   16.0108847100    0.0003334723    0.0008278611   -0.0005250917
 V    8.2797053800    6.1279694200   16.0047119500   -0.0001578880   -0.0003716982   -0.0006955281
 V   10.1459061700    6.0894988700   14.1671047700   -0.0009280308   -0.0007334304   -0.0007734868
 V    8.1730501500    8.1730501500   10.0000000000    0.0000000000    0.0000000000    0.0000000000
 V   10.2163126900    8.1730501500   12.0432625400   -0.0000000000    0.0000000000   -0.0000000000
 V    8.1730501500   10.2163126900   12.0432625400    0.0000000000   -0.0000000000   -0.0000000000
 V   10.2163126900   10.2163126900   10.0000000000   -0.0000000000   -0.0000000000    0.0000000000
 V    8.2229399800    8.1920765300   14.1712829800   -0.0001951743    0.0008379300   -0.0018587032
 V   10.1754084200    8.2082671400   16.0140313300   -0.0000434300    0.0003190886   -0.0003456001
 V    8.1840946800   10.1815708500   16.0059034000    0.0009797295   -0.0006681314   -0.0004846088
 V   10.1673993200   10.1714623400   14.1663342800   -0.0005238522    0.0002876263   -0.0014394508
 N    0.0000000000    2.0432625400   10.0000000000   -0.0000000000    0.0000000000   -0.0000000000
 N    2.0432625400    0.0000000000   10.0000000000    0.0000000000    0.0000000000   -0.0000000000
 N    0.0000000000    0.0000000000   12.0432625400    0.0000000000    0.0000000000   -0.0000000000
 N    2.0432625400    2.0432625400   12.0432625400   -0.0000000000   -0.0000000000   -0.0000000000
 N   -0.0459573600    2.0570465100   14.1071395900    0.0001263199    0.0007967029    0.0011458100
 N    2.0913316500   -0.0150336900   14.1121536100    0.0008589224   -0.0005747451    0.0009753149
 N   -0.0009564300    0.0009641600   16.3137862900    0.0006254600   -0.0000219883   -0.0001621872
 N    2.0670501200    2.0458832900   16.3274848800    0.0002118949   -0.0001736440   -0.0004972359
 N    0.0000000000    6.1297876100   10.0000000000   -0.0000000000    0.0000000000   -0.0000000000
 N    2.0432625400    4.0865250700   10.0000000000    0.0000000000   -0.0000000000   -0.0000000000
 N    0.0000000000    4.0865250700   12.0432625400   -0.0000000000    0.0000000000   -0.0000000000
 N    2.0432625400    6.1297876100   12.0432625400   -0.0000000000   -0.0000000000   -0.0000000000
 N   -0.0315966800    6.1524674000   14.1122022600    0.0001023839    0.0007631068    0.0008857959
 N    2.1038192000    4.0608691600   14.1061124700   -0.0006859441   -0.0013334358    0.0007154415
 N   -0.0388181600    4.0649727000   16.2793628400   -0.0002543811   -0.0004337805    0.0002487751
 N    1.9778837700    6.1059226800   16.2623063700    0.0009257247    0.0010743377    0.0012404469
 N    0.0000000000   10.2163126900   10.0000000000   -0.0000000000    0.0000000000   -0.0000000000
 N    2.0432625400    8.1730501500   10.0000000000    0.0000000000   -0.0000000000   -0.0000000000
 N    0.0000000000    8.1730501500   12.0432625400    0.0000000000    0.0000000000   -0.0000000000
 N    2.0432625400   10.2163126900   12.0432625400   -0.0000000000    0.0000000000   -0.0000000000
 N   -0.0427321800   10.2443290000   14.1092487800   -0.0008951654    0.0004506527    0.0008545053
 N    2.0906465500    8.1441539600   14.1115549300   -0.0006131961    0.0000491154    0.0008116875
 N   -0.0144658200    8.1925645200   16.2511708400    0.0008247941    0.0000178358   -0.0006952365
 N    2.0348626800   10.2285934700   16.2496685600   -0.0003012946   -0.0006940699   -0.0004991127
 N    4.0865250700    2.0432625400   10.0000000000   -0.0000000000    0.0000000000   -0.0000000000
 N    6.1297876100    0.0000000000   10.0000000000    0.0000000000   -0.0000000000   -0.0000000000
 N    4.0865250700    0.0000000000   12.0432625400   -0.0000000000   -0.0000000000   -0.0000000000
 N    6.1297876100    2.0432625400   12.0432625400   -0.0000000000   -0.0000000000   -0.0000000000
 N    4.0425524500    2.0870941300   14.1019666900   -0.0002101583    0.0004735378    0.0010881444
 N    6.1860707700   -0.0342136800   14.1058544200   -0.0000303553    0.0000229523    0.0012913821
 N    4.0729282400   -0.0377695000   16.2816335700   -0.0003655097   -0.0008694183    0.0007337121
 N    6.1217102500    2.0130598300   16.3207934900   -0.0001409558    0.0000783828   -0.0002535588
 N    4.0865250700    6.1297876100   10.0000000000   -0.0000000000    0.0000000000   -0.0000000000
 N    6.1297876100    4.0865250700   10.0000000000   -0.0000000000    0.0000000000   -0.0000000000
 N    4.0865250700    4.0865250700   12.0432625400    0.0000000000    0.0000000000   -0.0000000000
 N    6.1297876100    6.1297876100   12.0432625400   -0.0000000000   -0.0000000000   -0.0000000000
 N    4.0430636700    6.1603274900   14.1546313200   -0.0008494326    0.0004250302    0.0013149224
 N    6.1801666100    4.0523775500   14.1141226100    0.0005626677   -0.0015719406    0.0005631814
 N    4.0975459800    4.0582649400   16.2275470900    0.0004011482    0.0006299868   -0.0009420499
 N    6.1513490600    6.1207724300   16.2230823200    0.0003156299    0.0002588713    0.0000434527
 N    4.0865250700   10.2163126900   10.0000000000   -0.0000000000   -0.0000000000   -0.0000000000
 N    6.1297876100    8.1730501500   10.0000000000    0.0000000000   -0.0000000000   -0.0000000000
 N    4.0865250700    8.1730501500   12.0432625400    0.0000000000    0.0000000000   -0.0000000000
 N    6.1297876100   10.2163126900   12.0432625400   -0.0000000000    0.0000000000   -0.0000000000
 N    4.0464506500   10.2334845100   14.1101167400   -0.0002178875    0.0002872900    0.0014686711
 N    6.1749304400    8.1341716700   14.1057564200    0.0012231113    0.0008124499    0.0008693487
 N    4.1060538800    8.2272466600   16.2599597200    0.0005895199    0.0000633151    0.0000721114
 N    6.1492744500   10.2581309200   16.2900126700    0.0000215576   -0.0001390757    0.0004869870
 N    8.1730501500    2.0432625400   10.0000000000   -0.0000000000    0.0000000000   -0.0000000000
 N   10.2163126900    0.0000000000   10.0000000000    0.0000000000   -0.0000000000   -0.0000000000
 N    8.1730501500    0.0000000000   12.0432625400    0.0000000000    0.0000000000   -0.0000000000
 N   10.2163126900    2.0432625400   12.0432625400   -0.0000000000   -0.0000000000   -0.0000000000
 N    8.1166029400    2.0866771800   14.1069421300   -0.0010457586    0.0008120986    0.0011132728
 N   10.2728052500   -0.0365693700   14.1108975700    0.0002181996   -0.0007906413    0.0005138403
 N    8.1957498400    0.0019822200   16.2342821600   -0.0003295052    0.0005016263   -0.0003182993
 N   10.2095732900    2.0276249000   16.2406311600    0.0002771463    0.0000851596    0.0003003679
 N    8.1730501500    6.1297876100   10.0000000000   -0.0000000000    0.0000000000   -0.0000000000
 N   10.2163126900    4.0865250700   10.0000000000    0.0000000000   -0.0000000000   -0.0000000000
 N    8.1730501500    4.0865250700   12.0432625400    0.0000000000    0.0000000000   -0.0000000000
 N   10.2163126900    6.1297876100   12.0432625400    0.0000000000   -0.0000000000   -0.0000000000
 N    8.1098734800    6.1570364200   14.1028883000    0.0005584512    0.0007004216    0.0010267302
 N   10.2671045000    4.0525165400   14.1078459200    0.0001683262   -0.0003348850    0.0014199732
 N    8.1932599100    4.1013407300   16.3204953500    0.0006997560   -0.0001077257   -0.0003543493
 N   10.2586955400    6.1420834000   16.2868581300   -0.0001110464   -0.0006131749   -0.0000179172
 N    8.1730501500   10.2163126900   10.0000000000   -0.0000000000   -0.0000000000   -0.0000000000
 N   10.2163126900    8.1730501500   10.0000000000   -0.0000000000   -0.0000000000   -0.0000000000
 N    8.1730501500    8.1730501500   12.0432625400    0.0000000000    0.0000000000   -0.0000000000
 N   10.2163126900   10.2163126900   12.0432625400   -0.0000000000   -0.0000000000   -0.0000000000
 N    8.1380910500   10.2437074200   14.1065166400   -0.0003090512   -0.0000499958    0.0011505415
 N   10.2558988000    8.1407025400   14.1090536700    0.0004153281   -0.0004968915    0.0016342581
 N    8.1707935900    8.1483424800   16.3290678900   -0.0004257691    0.0001634117    0.0000003106
 N   10.2130195300   10.2189952000   16.2933853900   -0.0005441359   -0.0010630677    0.0005130571
 S    3.9364038800    6.2491168900   18.6605726700    0.0004020457    0.0003102956   -0.0008961693
Li    6.0887924600    6.2387698100   18.1471986600    0.0004241041   -0.0001685997    0.0000086116
Li    3.9778765000    4.0963839400   18.1505490900    0.0002525337    0.0001818376    0.0003843174
 PRIMCOORD   2
  147  1
 V    0.0000000000    0.0000000000   10.0000000000    0.0000000000    0.0000000000    0.0000000000
 V    2.0432625400    0.0000000000   12.0432625400   -0.0000000000    0.0000000000   -0.0000000000
 V    0.0000000000    2.0432625400   12.0432625400    0.0000000000   -0.0000000000   -0.0000000000
 V    2.0432625400    2.0432625400   10.0000000000   -0.0000000000   -0.0000000000    0.0000000000
 V    0.0709634948    0.0663848676   14.1662286304   -0.0001312828   -0.0001332172    0.0000427786
 V    1.9840526048    0.0145865515   16.0127039572    0.0000792625    0.0002099682   -0.0001438239
 V    0.0092537977    1.9924086708   16.0067193992    0.0002044871   -0.0000557685   -0.0001121445
 V    1.9953880597    1.9840331266   14.1692114125   -0.0001203368   -0.0002099692   -0.0004160415
 V    0.0000000000    4.0865250700   10.0000000000    0.0000000000   -0.0000000000    0.0000000000
 V    2.0432625400    4.0865250700   12.0432625400   -0.0000000000    0.0000000000   -0.0000000000
 V    0.0000000000    6.1297876100   12.0432625400    0.0000000000   -0.0000000000   -0.0000000000
 V    2.0432625400    6.1297876100   10.0000000000   -0.0000000000   -0.0000000000    0.0000000000
 V    0.0432170439    4.1425585913   14.1480001905    0.0000543352    0.0000537582    0.0000381211
 V    1.9112325842    4.1022080010   15.9759272166   -0.0002412017   -0.0009984473    0.0006025412
 V   -0.0012466412    6.1194239593   15.9987103854    0.0002013991   -0.0000138344    0.0001460852
 V    2.0421932204    6.0583670436   14.1691536493   -0.0001236952   -0.0002517013    0.0002981431
 V    0.0000000000    8.1730501500   10.0000000000    0.0000000000    0.0000000000    0.0000000000
 V    2.0432625400    8.1730501500   12.0432625400   -0.0000000000    0.0000000000   -0.0000000000
 V    0.0000000000   10.2163126900   12.0432625400    0.0000000000   -0.0000000000   -0.0000000000
 V    2.0432625400   10.2163126900   10.0000000000   -0.0000000000    0.0000000000    0.0000000000
 V    0.0781198006    8.2599850142   14.1370553844    0.0000058158   -0.0000996395   -0.0000222387
 V    2.0712574921    8.1740209322   16.0157183780   -0.0003522650   -0.0005234276    0.0000373080
 V   -0.0251851850   10.2658275853   16.0066079158   -0.0000027628   -0.0002372573   -0.0000472815
 V    1.9611129423   10.1248101475   14.1466534955   -0.0000491721   -0.0001899162   -0.0001528450
 V    4.0865250700    0.0000000000   10.0000000000    0.0000000000    0.0000000000    0.0000000000
 V    6.1297876100    0.0000000000   12.0432625400   -0.0000000000    0.0000000000   -0.0000000000
 V    4.0865250700    2.0432625400   12.0432625400    0.0000000000   -0.0000000000   -0.0000000000
 V    6.1297876100    2.0432625400   10.0000000000   -0.0000000000   -0.0000000000    0.0000000000
 V    4.1382563757    0.0433136959   14.1542941607    0.0001220532   -0.0000384850    0.0000831368
 V    6.1291311991    0.0018480234   16.0021737697   -0.0001032268    0.0000879583    0.0000821319
 V    4.1425417740    1.9462599203   15.9857317088   -0.0010799052   -0.0006018534    0.0001743774
 V    6.0611647894    1.9739006439   14.1511605906   -0.0002840143   -0.0002371094    0.0000660080
 V    4.0865250700    4.0865250700   10.0000000000    0.0000000000    0.0000000000    0.0000000000
 V    6.1297876100    4.0865250700   12.0432625400   -0.0000000000    0.0000000000   -0.0000000000
 V    4.0865250700    6.1297876100   12.0432625400    0.0000000000   -0.0000000000   -0.0000000000
 V    6.1297876100    6.1297876100   10.0000000000   -0.0000000000   -0.0000000000    0.0000000000
 V    4.1403854754    4.1853664141   14.1876845580    0.0001686740    0.0002251799    0.0002322727
 V    6.1860331876    3.9884701082   16.0015105502    0.0009181725   -0.0002215649   -0.0000747104
 V    3.9070487344    6.1079690980   16.2561725895   -0.0004759894    0.0011121247    0.0001623767
 V    6.0199993220    6.0636939827   14.2221872717   -0.0001081730   -0.0001477570    0.0001108865
 V    4.0865250700    8.1730501500   10.0000000000    0.0000000000    0.0000000000    0.0000000000
 V    6.1297876100    8.1730501500   12.0432625400   -0.0000000000    0.0000000000   -0.0000000000
 V    4.0865250700   10.2163126900   12.0432625400    0.0000000000   -0.0000000000   -0.0000000000
 V    6.1297876100   10.2163126900   10.0000000000   -0.0000000000   -0.0000000000    0.0000000000
 V    4.1533073465    8.1680573150   14.1904982773   -0.0000618317   -0.0000256865    0.0001427521
 V    6.1381403752    8.2828483230   16.0078873357    0.0000480251   -0.0002578220    0.0000499755
 V    4.1058174842   10.2247195246   16.0103443941   -0.0001553815   -0.0004086052    0.0000375118
 V    6.0610467934   10.1545233233   14.1621345397   -0.0000063881   -0.0002168679    0.0000647580
 V    8.1730501500    0.0000000000   10.0000000000    0.0000000000    0.0000000000    0.0000000000
 V   10.2163126900    0.0000000000   12.0432625400   -0.0000000000    0.0000000000   -0.0000000000
 V    8.1730501500    2.0432625400   12.0432625400    0.0000000000   -0.0000000000   -0.0000000000
 V   10.2163126900    2.0432625400   10.0000000000   -0.0000000000   -0.0000000000    0.0000000000
 V    8.2551051793    0.0724694794   14.1346836209   -0.0000298205   -0.0000945980   -0.0000405854
 V   10.2615840876   -0.0189743343   16.0051973443   -0.0001383644   -0.0000720940   -0.0000063487
 V    8.1278188105    2.0808514114   16.0028163137   -0.0001327405   -0.0002170307   -0.0000906282
 V   10.1352077548    1.9613074470   14.1382916383   -0.0001020825   -0.0001225438   -0.0001474408
 V    8.1730501500    4.0865250700   10.0000000000    0.0000000000    0.0000000000    0.0000000000
 V   10.2163126900    4.0865250700   12.0432625400   -0.0000000000    0.0000000000   -0.0000000000
 V    8.1730501500    6.1297876100   12.0432625400   -0.0000000000   -0.0000000000   -0.0000000000
 V   10.2163126900    6.1297876100   10.0000000000   -0.0000000000   -0.0000000000    0.0000000000
 V    8.2269190500    4.1588891415   14.1589590486   -0.0000845828   -0.0000242743    0.0000003349
 V   10.2032252197    4.0978255285   16.0050028432   -0.0004225674   -0.0003874466   -0.0000020175
 V    8.2724163188    6.1249936858   16.0044742737   -0.0001666302   -0.0002156442   -0.0000562806
 V   10.1500726987    6.0636734264   14.1608636916   -0.0000277610    0.0000217017    0.0000529829
 V    8.1730501500    8.1730501500   10.0000000000    0.0000000000    0.0000000000    0.0000000000
 V   10.2163126900    8.1730501500   12.0432625400   -0.0000000000    0.0000000000   -0.0000000000
 V    8.1730501500   10.2163126900   12.0432625400    0.0000000000   -0.0000000000   -0.0000000000
 V   10.2163126900   10.2163126900   10.0000000000   -0.0000000000   -0.0000000000    0.0000000000
 V    8.2294690919    8.2206733584   14.1689288688   -0.0000624025   -0.0001203915   -0.0000073126
 V   10.1592405414    8.1878124763   16.0041305699   -0.0000245451    0.0001341289    0.0000011448
 V    8.1778152985   10.1622556312   16.0036016511    0.0000300750    0.0000162801    0.0000256767
 V   10.1540604148   10.1471661999   14.1539473756   -0.0000950508   -0.0001178562    0.0000609359
 N    0.0000000000    2.0432625400   10.0000000000   -0.0000000000    0.0000000000   -0.0000000000
 N    2.0432625400    0.0000000000   10.0000000000    0.0000000000   -0.0000000000   -0.0000000000
 N    0.0000000000    0.0000000000   12.0432625400    0.0000000000    0.0000000000   -0.0000000000
 N    2.0432625400    2.0432625400   12.0432625400   -0.0000000000   -0.0000000000   -0.0000000000
 N   -0.0482522240    2.0837631996   14.1072994568   -0.0001117095   -0.0000060690   -0.0000528865
 N    2.0882853792   -0.0561787979   14.1112097956   -0.0000111032   -0.0001449721   -0.0000377827
 N   -0.0012807758    0.0041392872   16.3268417155    0.0000046241   -0.0001526419   -0.0000934831
 N    2.0646244616    2.0612834299   16.3170003432   -0.0001897174   -0.0003030049   -0.0008970554
 N    0.0000000000    6.1297876100   10.0000000000    0.0000000000    0.0000000000   -0.0000000000
 N    2.0432625400    4.0865250700   10.0000000000    0.0000000000   -0.0000000000   -0.0000000000
 N    0.0000000000    4.0865250700   12.0432625400   -0.0000000000   -0.0000000000   -0.0000000000
 N    2.0432625400    6.1297876100   12.0432625400   -0.0000000000   -0.0000000000   -0.0000000000
 N   -0.0300104993    6.1783230824   14.1036571103   -0.0000381415   -0.0000514749    0.0000869350
 N    2.0804683934    4.0312076761   14.0891682087    0.0001545929   -0.0001335729   -0.0000051239
 N   -0.0477353993    4.0537412341   16.2787493805   -0.0002608448   -0.0001656941   -0.0000958406
 N    1.9545535000    6.1265086186   16.2548099008   -0.0002053374   -0.0006393992    0.0002855169
 N    0.0000000000   10.2163126900   10.0000000000   -0.0000000000    0.0000000000   -0.0000000000
 N    2.0432625400    8.1730501500   10.0000000000    0.0000000000   -0.0000000000   -0.0000000000
 N    0.0000000000    8.1730501500   12.0432625400    0.0000000000    0.0000000000   -0.0000000000
 N    2.0432625400   10.2163126900   12.0432625400   -0.0000000000   -0.0000000000   -0.0000000000
 N   -0.0571922906   10.2790145021   14.1056052406   -0.0000340737   -0.0000934612   -0.0000612636
 N    2.0992544441    8.1096491294   14.1114939276   -0.0000466983   -0.0002491810    0.0000555203
 N   -0.0076902667    8.2006474387   16.2109781702   -0.0000573131   -0.0001535799    0.0001258608
 N    2.0350994257   10.2087283441   16.2402017374   -0.0001238396   -0.0002727557   -0.0002143295
 N    4.0865250700    2.0432625400   10.0000000000   -0.0000000000    0.0000000000   -0.0000000000
 N    6.1297876100    0.0000000000   10.0000000000    0.0000000000   -0.0000000000   -0.0000000000
 N    4.0865250700    0.0000000000   12.0432625400   -0.0000000000   -0.0000000000   -0.0000000000
 N    6.1297876100    2.0432625400   12.0432625400   -0.0000000000   -0.0000000000   -0.0000000000
 N    4.0429544899    2.0837268467   14.0952362813   -0.0001267154    0.0000382058   -0.0001160078
 N    6.1803897922   -0.0518923172   14.1032421458    0.0000366905   -0.0001858894    0.0000356453
 N    4.0616743806   -0.0277306241   16.2817862332   -0.0001447711   -0.0004466403   -0.0000830051
 N    6.1318193018    2.0035537335   16.3158957662   -0.0005502286   -0.0000387567    0.0001538243
 N    4.0865250700    6.1297876100   10.0000000000   -0.0000000000    0.0000000000   -0.0000000000
 N    6.1297876100    4.0865250700   10.0000000000   -0.0000000000    0.0000000000   -0.0000000000
 N    4.0865250700    4.0865250700   12.0432625400   -0.0000000000    0.0000000000   -0.0000000000
 N    6.1297876100    6.1297876100   12.0432625400   -0.0000000000    0.0000000000   -0.0000000000
 N    4.0432061407    6.1663605845   14.1400924421   -0.0001537015    0.0000304859    0.0002545840
 N    6.1691072124    4.0383123823   14.1059335755   -0.0000188369   -0.0001697272    0.0000760166
 N    4.0700528775    4.0252777459   16.2049901052    0.0003126075    0.0003387853    0.0003022514
 N    6.1440881447    6.1027005725   16.2309769611    0.0001864555   -0.0001262770   -0.0000139041
 N    4.0865250700   10.2163126900   10.0000000000   -0.0000000000   -0.0000000000   -0.0000000000
 N    6.1297876100    8.1730501500   10.0000000000    0.0000000000   -0.0000000000   -0.0000000000
 N    4.0865250700    8.1730501500   12.0432625400    0.0000000000    0.0000000000   -0.0000000000
 N    6.1297876100   10.2163126900   12.0432625400   -0.0000000000   -0.0000000000   -0.0000000000
 N    4.0349703111   10.2354634212   14.1119027700   -0.0000001229   -0.0000651271    0.0000272684
 N    6.1789453105    8.1210362453   14.1108348487   -0.0000675988   -0.0001754264    0.0000066312
 N    4.1086653871    8.1782388877   16.2652962062   -0.0000481813   -0.0002534337    0.0000700026
 N    6.1454833879   10.2557599555   16.2991118740   -0.0000367107   -0.0001869046   -0.0000524559
 N    8.1730501500    2.0432625400   10.0000000000   -0.0000000000    0.0000000000   -0.0000000000
 N   10.2163126900    0.0000000000   10.0000000000    0.0000000000   -0.0000000000   -0.0000000000
 N    8.1730501500    0.0000000000   12.0432625400    0.0000000000    0.0000000000   -0.0000000000
 N   10.2163126900    2.0432625400   12.0432625400   -0.0000000000   -0.0000000000   -0.0000000000
 N    8.1130616970    2.0993686860   14.1059963429   -0.0001534889   -0.0000607931   -0.0000634711
 N   10.2767795954   -0.0584852046   14.1063043590   -0.0000355859   -0.0000904457   -0.0000405036
 N    8.1971297562    0.0012300353   16.2149360496   -0.0001157872   -0.0000212801    0.0000683700
 N   10.1970589868    2.0323179207   16.2302209815   -0.0000503660   -0.0002058823   -0.0001471101
 N    8.1730501500    6.1297876100   10.0000000000   -0.0000000000    0.0000000000   -0.0000000000
 N   10.2163126900    4.0865250700   10.0000000000    0.0000000000   -0.0000000000   -0.0000000000
 N    8.1730501500    4.0865250700   12.0432625400    0.0000000000    0.0000000000   -0.0000000000
 N   10.2163126900    6.1297876100   12.0432625400    0.0000000000   -0.0000000000   -0.0000000000
 N    8.1139930579    6.1744863975   14.1071179119   -0.0000965222   -0.0000808192   -0.0000815644
 N   10.2536549772    4.0324877281   14.1059574925   -0.0000329685   -0.0000087945    0.0000191886
 N    8.1849763686    4.1025352064   16.3047623852    0.0001358732   -0.0002159844    0.0002394452
 N   10.2539704994    6.1466408558   16.2945259791   -0.0000543426   -0.0001196634   -0.0002128937
 N    8.1730501500   10.2163126900   10.0000000000   -0.0000000000   -0.0000000000   -0.0000000000
 N   10.2163126900    8.1730501500   10.0000000000   -0.0000000000   -0.0000000000   -0.0000000000
 N    8.1730501500    8.1730501500   12.0432625400    0.0000000000    0.0000000000   -0.0000000000
 N   10.2163126900   10.2163126900   12.0432625400   -0.0000000000   -0.0000000000   -0.0000000000
 N    8.1261506663   10.2591905919   14.1060394231   -0.0000506153   -0.0000905166   -0.0000089701
 N   10.2650209431    8.1206403786   14.1051797916   -0.0000437368   -0.0000547050   -0.0000306810
 N    8.1472386903    8.1424079191   16.3201219053    0.0000486737   -0.0001137404   -0.0000454210
 N   10.2019430006   10.2066984677   16.2824166012   -0.0000053893   -0.0000352361    0.0000735936
 S    3.8586002686    5.8940062153   18.6460091568   -0.0001021688    0.0051703790    0.0005346548
Li    6.0015398724    6.1151417276   18.1636745236    0.0007452164    0.0002947361   -0.0003251144
Li    3.5395401498    3.7174776814   18.1437756953    0.0109259822    0.0092875190   -0.0000089598
 PRIMCOORD   3
  147  1
 V    0.0000000000    0.0000000000   10.0000000000    0.0000000000    0.0000000000    0.0000000000
 V    2.0432625400    0.0000000000   12.0432625400   -0.0000000000    0.0000000000   -0.0000000000
 V    0.0000000000    2.0432625400   12.0432625400    0.0000000000   -0.0000000000   -0.0000000000
 V    2.0432625400    2.0432625400   10.0000000000   -0.0000000000   -0.0000000000    0.0000000000
 V    0.0754447516    0.0762818649   14.1715645593   -0.0001362775   -0.0000665316    0.0002191498
 V    1.9824206034   -0.0093893947   16.0212468159   -0.0000743423    0.0010864615    0.0000541416
 V   -0.0057911539    1.9928120325   16.0147547590    0.0013235269   -0.0000960797    0.0000168063
 V    1.9975700764    1.9812154593   14.1874721185    0.0000119028   -0.0003142893   -0.0004943001
 V    0.0000000000    4.0865250700   10.0000000000    0.0000000000   -0.0000000000    0.0000000000
 V    2.0432625400    4.0865250700   12.0432625400   -0.0000000000    0.0000000000   -0.0000000000
 V    0.0000000000    6.1297876100   12.0432625400    0.0000000000   -0.0000000000   -0.0000000000
 V    2.0432625400    6.1297876100   10.0000000000   -0.0000000000   -0.0000000000    0.0000000000
 V    0.0418106655    4.1452604893   14.1445067196   -0.0002698100    0.0002306387    0.0000170544
 V    1.9268141400    4.1588698450   15.9626199162   -0.0018308152   -0.0011644979    0.0006256497
 V   -0.0010135305    6.1213851373   15.9959606902   -0.0000059259    0.0002174743   -0.0000307554
 V    2.0521719380    6.0674935168   14.1604368790    0.0000905924   -0.0001835271    0.0000838991
 V    0.0000000000    8.1730501500   10.0000000000    0.0000000000    0.0000000000    0.0000000000
 V    2.0432625400    8.1730501500   12.0432625400   -0.0000000000    0.0000000000   -0.0000000000
 V    0.0000000000   10.2163126900   12.0432625400    0.0000000000   -0.0000000000   -0.0000000000
 V    2.0432625400   10.2163126900   10.0000000000   -0.0000000000    0.0000000000    0.0000000000
 V    0.0824387477    8.2646858593   14.1388139021    0.0000063690    0.0000847402   -0.0000860989
 V    2.0946970166    8.2090786166   16.0154202553    0.0002504319   -0.0000435384    0.0000529359
 V   -0.0279151073   10.2738870383   16.0065727066    0.0000455773   -0.0000174567    0.0000492418
 V    1.9593488034   10.1275690099   14.1501926257   -0.0001178171   -0.0001314977   -0.0001019822
 V    4.0865250700    0.0000000000   10.0000000000    0.0000000000    0.0000000000    0.0000000000
 V    6.1297876100    0.0000000000   12.0432625400   -0.0000000000    0.0000000000   -0.0000000000
 V    4.0865250700    2.0432625400   12.0432625400    0.0000000000   -0.0000000000   -0.0000000000
 V    6.1297876100    2.0432625400   10.0000000000   -0.0000000000   -0.0000000000    0.0000000000
 V    4.1332474870    0.0385215801   14.1531967644    0.0001431000   -0.0002179716   -0.0000330965
 V    6.1297856553   -0.0107312732   16.0017023347    0.0000632660   -0.0002367729   -0.0000626923
 V    4.1916445655    1.9836374614   15.9804029550   -0.0007756354   -0.0009155264    0.0002814700
 V    6.0745025080    1.9745782071   14.1470706842   -0.0001087099   -0.0002683469   -0.0000791854
 V    4.0865250700    4.0865250700   10.0000000000    0.0000000000   -0.0000000000    0.0000000000
 V    6.1297876100    4.0865250700   12.0432625400   -0.0000000000    0.0000000000   -0.0000000000
 V    4.0865250700    6.1297876100   12.0432625400    0.0000000000   -0.0000000000   -0.0000000000
 V    6.1297876100    6.1297876100   10.0000000000   -0.0000000000   -0.0000000000    0.0000000000
 V    4.1313429309    4.1804722196   14.1649708227    0.0001436385   -0.0000035156    0.0000619301
 V    6.1600510218    3.9962116101   15.9980165700    0.0011550415   -0.0000401620    0.0000214323
 V    3.9242591146    5.9794863138   16.2625972592   -0.0001785652   -0.0013151320   -0.0024982637
 V    6.0144579687    6.0747730497   14.2219277415   -0.0002888466   -0.0001631298    0.0005208676
 V    4.0865250700    8.1730501500   10.0000000000    0.0000000000    0.0000000000    0.0000000000
 V    6.1297876100    8.1730501500   12.0432625400   -0.0000000000    0.0000000000   -0.0000000000
 V    4.0865250700   10.2163126900   12.0432625400    0.0000000000   -0.0000000000   -0.0000000000
 V    6.1297876100   10.2163126900   10.0000000000   -0.0000000000   -0.0000000000    0.0000000000
 V    4.1566070314    8.1795343241   14.1835060266   -0.0000801534    0.0001647529    0.0005311042
 V    6.1158344528    8.2920614899   16.0091161084   -0.0002734861   -0.0000710306    0.0002461733
 V    4.1132853828   10.2587329448   16.0084605023   -0.0003339199   -0.0002722236   -0.0000024638
 V    6.0582503721   10.1583610980   14.1609513098    0.0000286624   -0.0001677773   -0.0000372500
 V    8.1730501500    0.0000000000   10.0000000000    0.0000000000    0.0000000000    0.0000000000
 V   10.2163126900    0.0000000000   12.0432625400   -0.0000000000    0.0000000000   -0.0000000000
 V    8.1730501500    2.0432625400   12.0432625400    0.0000000000   -0.0000000000   -0.0000000000
 V   10.2163126900    2.0432625400   10.0000000000   -0.0000000000   -0.0000000000    0.0000000000
 V    8.2527398440    0.0706208374   14.1363696576    0.0000567889   -0.0000818405    0.0000378674
 V   10.2666866492   -0.0102479786   16.0052956082   -0.0000577729   -0.0000689240    0.0000686829
 V    8.1358965122    2.0943350163   16.0045471475   -0.0003849913   -0.0001407270   -0.0000960091
 V   10.1449951306    1.9685001603   14.1427523254   -0.0000660403   -0.0000685671   -0.0001319961
 V    8.1730501500    4.0865250700   10.0000000000    0.0000000000    0.0000000000    0.0000000000
 V   10.2163126900    4.0865250700   12.0432625400   -0.0000000000    0.0000000000   -0.0000000000
 V    8.1730501500    6.1297876100   12.0432625400   -0.0000000000   -0.0000000000   -0.0000000000
 V   10.2163126900    6.1297876100   10.0000000000   -0.0000000000   -0.0000000000    0.0000000000
 V    8.2299489399    4.1611201316   14.1609756365   -0.0002113930   -0.0000536391    0.0000853871
 V   10.2158909557    4.1082891955   16.0054347167   -0.0002018251   -0.0002137697   -0.0000206526
 V    8.2746953431    6.1286047182   16.0091469373   -0.0004480022   -0.0002654649    0.0001038353
 V   10.1510614115    6.0666627519   14.1608130072   -0.0000767871    0.0000604454    0.0000748207
 V    8.1730501500    8.1730501500   10.0000000000    0.0000000000    0.0000000000    0.0000000000
 V   10.2163126900    8.1730501500   12.0432625400   -0.0000000000    0.0000000000   -0.0000000000
 V    8.1730501500   10.2163126900   12.0432625400    0.0000000000   -0.0000000000   -0.0000000000
 V   10.2163126900   10.2163126900   10.0000000000   -0.0000000000   -0.0000000000    0.0000000000
 V    8.2356517905    8.2214994044   14.1720696053   -0.0000822406   -0.0001240994    0.0000049042
 V   10.1602089169    8.1827803774   16.0032517818   -0.0002820973    0.0002180315    0.0000156309
 V    8.1795953282   10.1594315362   16.0041518078    0.0002588626    0.0000030108    0.0000161410
 V   10.1525396451   10.1491223846   14.1509303783   -0.0000479666   -0.0000676883    0.0001354316
 N    0.0000000000    2.0432625400   10.0000000000   -0.0000000000    0.0000000000   -0.0000000000
 N    2.0432625400    0.0000000000   10.0000000000    0.0000000000   -0.0000000000   -0.0000000000
 N    0.0000000000    0.0000000000   12.0432625400    0.0000000000    0.0000000000   -0.0000000000
 N    2.0432625400    2.0432625400   12.0432625400   -0.0000000000   -0.0000000000   -0.0000000000
 N   -0.0422035871    2.0889165331   14.1122862688    0.0000333203    0.0000630261    0.0000435431
 N    2.0880281498   -0.0559659455   14.1167504091    0.0000103370   -0.0000939261    0.0001290613
 N   -0.0003734035    0.0088652998   16.3355767872    0.0000071954    0.0000181323    0.0001023324
 N    2.0654911565    2.0747445781   16.3550563072    0.0001767329    0.0003838195    0.0003168122
 N    0.0000000000    6.1297876100   10.0000000000    0.0000000000    0.0000000000   -0.0000000000
 N    2.0432625400    4.0865250700   10.0000000000    0.0000000000   -0.0000000000   -0.0000000000
 N    0.0000000000    4.0865250700   12.0432625400   -0.0000000000   -0.0000000000   -0.0000000000
 N    2.0432625400    6.1297876100   12.0432625400   -0.0000000000    0.0000000000   -0.0000000000
 N   -0.0272928494    6.1820508166   14.1028300409    0.0000074231    0.0001308026    0.0000162665
 N    2.0744987370    4.0296344052   14.0819846063   -0.0000119970   -0.0002509575   -0.0004828334
 N   -0.0339966970    4.0608100767   16.2774852309   -0.0007942449    0.0000800788   -0.0000682847
 N    1.9680546933    6.1604745794   16.2389240151   -0.0000856291   -0.0007411244   -0.0003912098
 N    0.0000000000   10.2163126900   10.0000000000   -0.0000000000    0.0000000000   -0.0000000000
 N    2.0432625400    8.1730501500   10.0000000000    0.0000000000   -0.0000000000   -0.0000000000
 N    0.0000000000    8.1730501500   12.0432625400    0.0000000000    0.0000000000   -0.0000000000
 N    2.0432625400   10.2163126900   12.0432625400   -0.0000000000   -0.0000000000   -0.0000000000
 N   -0.0588790642   10.2849599271   14.1063062491   -0.0000328875    0.0000487495    0.0000211594
 N    2.1031815338    8.1152306742   14.1103416199   -0.0000292848   -0.0001972621    0.0000938353
 N   -0.0033410113    8.2052421863   16.2071714628    0.0000207149   -0.0000435419   -0.0002107630
 N    2.0428382546   10.2159215465   16.2547599034   -0.0001027960    0.0001451311   -0.0003014557
 N    4.0865250700    2.0432625400   10.0000000000   -0.0000000000    0.0000000000   -0.0000000000
 N    6.1297876100    0.0000000000   10.0000000000    0.0000000000   -0.0000000000   -0.0000000000
 N    4.0865250700    0.0000000000   12.0432625400   -0.0000000000    0.0000000000   -0.0000000000
 N    6.1297876100    2.0432625400   12.0432625400   -0.0000000000   -0.0000000000   -0.0000000000
 N    4.0472007770    2.0789102042   14.0945921292    0.0000112851   -0.0000477042   -0.0002432412
 N    6.1791695657   -0.0507046407   14.1027422362    0.0001419027   -0.0002461358   -0.0000651434
 N    4.0648293955    0.0036780342   16.2846915713    0.0000081711   -0.0003927055   -0.0002396827
 N    6.1580205912    2.0013933458   16.3122325296   -0.0005146529   -0.0001471127   -0.0000670149
 N    4.0865250700    6.1297876100   10.0000000000   -0.0000000000    0.0000000000   -0.0000000000
 N    6.1297876100    4.0865250700   10.0000000000   -0.0000000000    0.0000000000   -0.0000000000
 N    4.0865250700    4.0865250700   12.0432625400   -0.0000000000    0.0000000000   -0.0000000000
 N    6.1297876100    6.1297876100   12.0432625400   -0.0000000000    0.0000000000   -0.0000000000
 N    4.0454738490    6.1698651004   14.1375055977   -0.0001767661    0.0000334956   -0.0003864827
 N    6.1680450490    4.0461129976   14.1026345497   -0.0000092916   -0.0001837692    0.0000808837
 N    4.0578996726    3.9921892379   16.2001425025   -0.0000936708   -0.0006584746   -0.0006954588
 N    6.1294433653    6.1045876647   16.2429125985   -0.0004227132   -0.0002951565    0.0006871948
 N    4.0865250700   10.2163126900   10.0000000000   -0.0000000000    0.0000000000   -0.0000000000
 N    6.1297876100    8.1730501500   10.0000000000    0.0000000000   -0.0000000000   -0.0000000000
 N    4.0865250700    8.1730501500   12.0432625400    0.0000000000   -0.0000000000   -0.0000000000
 N    6.1297876100   10.2163126900   12.0432625400   -0.0000000000   -0.0000000000   -0.0000000000
 N    4.0321447278   10.2403631356   14.1107922993   -0.0000275907   -0.0000814776    0.0000259664
 N    6.1819639121    8.1268444905   14.1122900156   -0.0001407725   -0.0001662848    0.0001856806
 N    4.1069129892    8.1809181842   16.2506170820   -0.0001217459   -0.0002398012    0.0006956957
 N    6.1455636240   10.2606437484   16.3052640052   -0.0000137767   -0.0001987216   -0.0000316261
 N    8.1730501500    2.0432625400   10.0000000000   -0.0000000000    0.0000000000   -0.0000000000
 N   10.2163126900    0.0000000000   10.0000000000    0.0000000000   -0.0000000000   -0.0000000000
 N    8.1730501500    0.0000000000   12.0432625400    0.0000000000    0.0000000000   -0.0000000000
 N   10.2163126900    2.0432625400   12.0432625400   -0.0000000000   -0.0000000000   -0.0000000000
 N    8.1213925550    2.1004506907   14.1069314189   -0.0000811257   -0.0000825260   -0.0000452799
 N   10.2773829865   -0.0545346756   14.1069028584    0.0000254852   -0.0000384583    0.0000195434
 N    8.2010492368    0.0035979666   16.2120142185   -0.0000012149   -0.0000300550    0.0000235362
 N   10.1968193765    2.0420298190   16.2414979624    0.0001407730   -0.0001878265   -0.0005714783
 N    8.1730501500    6.1297876100   10.0000000000   -0.0000000000    0.0000000000   -0.0000000000
 N   10.2163126900    4.0865250700   10.0000000000    0.0000000000   -0.0000000000   -0.0000000000
 N    8.1730501500    4.0865250700   12.0432625400    0.0000000000    0.0000000000   -0.0000000000
 N   10.2163126900    6.1297876100   12.0432625400   -0.0000000000   -0.0000000000   -0.0000000000
 N    8.1139089712    6.1755595624   14.1110843709   -0.0002283049   -0.0000919458    0.0000689423
 N   10.2559475868    4.0368721342   14.1063093288   -0.0000841417    0.0000604387    0.0000281058
 N    8.1815361813    4.1113283578   16.2985127674    0.0002504075   -0.0002820542    0.0001323860
 N   10.2560825303    6.1495536063   16.2975963094   -0.0003296704    0.0001171512   -0.0001950960
 N    8.1730501500   10.2163126900   10.0000000000   -0.0000000000   -0.0000000000   -0.0000000000
 N   10.2163126900    8.1730501500   10.0000000000   -0.0000000000   -0.0000000000   -0.0000000000
 N    8.1730501500    8.1730501500   12.0432625400    0.0000000000    0.0000000000   -0.0000000000
 N   10.2163126900   10.2163126900   12.0432625400   -0.0000000000   -0.0000000000   -0.0000000000
 N    8.1240394668   10.2585824243   14.1063597956    0.0000065806   -0.0001037878   -0.0000078105
 N   10.2700652106    8.1219170786   14.1047533087   -0.0000651029    0.0000087016   -0.0000031584
 N    8.1413101502    8.1441077929   16.3180858517   -0.0002144098   -0.0001044970   -0.0000964713
 N   10.2013674085   10.2079542978   16.2777624652   -0.0000021171   -0.0000846734    0.0001153910
 S    3.8131249572    5.6338593006   18.6148443183   -0.0019437438   -0.0064372942    0.0005014162
Li    5.9571930758    6.1026884291   18.1782450732   -0.0030686635   -0.0007363994    0.0007647548
Li    3.0345361569    3.2445822416   18.1551216977    0.0140536874    0.0168830241    0.0011444545
 PRIMCOORD   4
  147  1
 V    0.0000000000    0.0000000000   10.0000000000    0.0000000000    0.0000000000    0.0000000000
 V    2.0432625400    0.0000000000   12.0432625400   -0.0000000000    0.0000000000   -0.0000000000
 V    0.0000000000    2.0432625400   12.0432625400    0.0000000000   -0.0000000000   -0.0000000000
 V    2.0432625400    2.0432625400   10.0000000000   -0.0000000000   -0.0000000000    0.0000000000
 V    0.0772620573    0.0780167732   14.1693851830   -0.0000889113   -0.0000567829    0.0002136247
 V    1.9881075560   -0.0506492721   16.0196379429   -0.0002567479    0.0005070406    0.0001241854
 V   -0.0482218758    2.0002734586   16.0128836834    0.0006822498   -0.0002765416    0.0000915220
 V    1.9950263243    1.9826289435   14.1978918857    0.0000900535   -0.0001452055   -0.0000203657
 V    0.0000000000    4.0865250700   10.0000000000    0.0000000000   -0.0000000000    0.0000000000
 V    2.0432625400    4.0865250700   12.0432625400   -0.0000000000    0.0000000000   -0.0000000000
 V    0.0000000000    6.1297876100   12.0432625400    0.0000000000   -0.0000000000   -0.0000000000
 V    2.0432625400    6.1297876100   10.0000000000   -0.0000000000   -0.0000000000    0.0000000000
 V    0.0500810510    4.1407075820   14.1457262047   -0.0001250291    0.0001500070   -0.0000064092
 V    1.9796542856    4.1849587319   15.9716096664   -0.0005919675   -0.0000259621    0.0002414498
 V   -0.0003959942    6.1113687638   15.9963195970   -0.0000674356    0.0002019332   -0.0000228269
 V    2.0516082911    6.0711629282   14.1594370333    0.0000003655   -0.0000658229   -0.0000415470
 V    0.0000000000    8.1730501500   10.0000000000    0.0000000000    0.0000000000    0.0000000000
 V    2.0432625400    8.1730501500   12.0432625400   -0.0000000000    0.0000000000   -0.0000000000
 V    0.0000000000   10.2163126900   12.0432625400    0.0000000000   -0.0000000000   -0.0000000000
 V    2.0432625400   10.2163126900   10.0000000000   -0.0000000000    0.0000000000    0.0000000000
 V    0.0821141604    8.2617074564   14.1393545811   -0.0000067356    0.0001200533   -0.0000627000
 V    2.0853001424    8.2226828458   16.0120984312    0.0004123859   -0.0000218621    0.0000400901
 V   -0.0291350109   10.2761070783   16.0046239975   -0.0000786518    0.0000979924    0.0000419282
 V    1.9609342847   10.1326822127   14.1507234957   -0.0000232877    0.0000299957    0.0000560290
 V    4.0865250700    0.0000000000   10.0000000000    0.0000000000    0.0000000000    0.0000000000
 V    6.1297876100    0.0000000000   12.0432625400   -0.0000000000    0.0000000000   -0.0000000000
 V    4.0865250700    2.0432625400   12.0432625400    0.0000000000   -0.0000000000   -0.0000000000
 V    6.1297876100    2.0432625400   10.0000000000   -0.0000000000   -0.0000000000    0.0000000000
 V    4.1308137050    0.0445267488   14.1581868839    0.0000825713   -0.0001139599   -0.0000485831
 V    6.1290680296   -0.0080549649   16.0033716491    0.0001610278   -0.0002180309   -0.0000607902
 V    4.2144827111    2.0083615365   15.9833371864   -0.0000434962   -0.0003213498    0.0001390694
 V    6.0783992308    1.9785235421   14.1475120971    0.0000122189   -0.0001233826   -0.0000823854
 V    4.0865250700    4.0865250700   10.0000000000    0.0000000000   -0.0000000000    0.0000000000
 V    6.1297876100    4.0865250700   12.0432625400   -0.0000000000    0.0000000000   -0.0000000000
 V    4.0865250700    6.1297876100   12.0432625400    0.0000000000   -0.0000000000   -0.0000000000
 V    6.1297876100    6.1297876100   10.0000000000   -0.0000000000   -0.0000000000    0.0000000000
 V    4.1273902064    4.1793260328   14.1535910925    0.0000268025   -0.0000092552    0.0000659463
 V    6.1403674384    3.9974568250   15.9927885562    0.0004073287    0.0000126159   -0.0000247252
 V    3.9280519202    6.0088896668   16.3366472279    0.0000109307   -0.0008472873   -0.0011662703
 V    6.0175901319    6.0802760045   14.2113282067   -0.0001229600    0.0000082591    0.0001561213
 V    4.0865250700    8.1730501500   10.0000000000    0.0000000000    0.0000000000    0.0000000000
 V    6.1297876100    8.1730501500   12.0432625400   -0.0000000000    0.0000000000   -0.0000000000
 V    4.0865250700   10.2163126900   12.0432625400    0.0000000000   -0.0000000000   -0.0000000000
 V    6.1297876100   10.2163126900   10.0000000000   -0.0000000000   -0.0000000000    0.0000000000
 V    4.1598214854    8.1806685722   14.1668858355   -0.0000912516   -0.0000213829    0.0002677046
 V    6.1189243331    8.2907177097   16.0025282428   -0.0002306451    0.0000495002    0.0001114091
 V    4.1197128766   10.2647355607   16.0067692303   -0.0000644390   -0.0000429322   -0.0000028411
 V    6.0578094756   10.1608724945   14.1595407809    0.0000481045   -0.0000520480   -0.0000099893
 V    8.1730501500    0.0000000000   10.0000000000    0.0000000000    0.0000000000    0.0000000000
 V   10.2163126900    0.0000000000   12.0432625400   -0.0000000000    0.0000000000   -0.0000000000
 V    8.1730501500    2.0432625400   12.0432625400    0.0000000000   -0.0000000000   -0.0000000000
 V   10.2163126900    2.0432625400   10.0000000000   -0.0000000000   -0.0000000000    0.0000000000
 V    8.2507818570    0.0705589237   14.1356871576    0.0000655512   -0.0000455739    0.0000396318
 V   10.2671042138   -0.0098050628   16.0034017123    0.0001289498   -0.0000058123    0.0000575190
 V    8.1473915639    2.0967171698   16.0048784483   -0.0002310135    0.0000643374   -0.0000451341
 V   10.1479655188    1.9698504123   14.1440885224    0.0000452426   -0.0000140260   -0.0000042471
 V    8.1730501500    4.0865250700   10.0000000000    0.0000000000    0.0000000000    0.0000000000
 V   10.2163126900    4.0865250700   12.0432625400   -0.0000000000    0.0000000000   -0.0000000000
 V    8.1730501500    6.1297876100   12.0432625400   -0.0000000000   -0.0000000000   -0.0000000000
 V   10.2163126900    6.1297876100   10.0000000000   -0.0000000000   -0.0000000000    0.0000000000
 V    8.2354697264    4.1639600922   14.1586167522   -0.0000273482   -0.0000404911    0.0000058305
 V   10.2206840942    4.1120240039   16.0045252135    0.0000725146    0.0000509706   -0.0000016690
 V    8.2849008206    6.1349327038   16.0065033361   -0.0002067907   -0.0001409025    0.0000508221
 V   10.1510275923    6.0665929931   14.1600634943    0.0000167603    0.0000340458    0.0000778458
 V    8.1730501500    8.1730501500   10.0000000000    0.0000000000    0.0000000000    0.0000000000
 V   10.2163126900    8.1730501500   12.0432625400   -0.0000000000    0.0000000000   -0.0000000000
 V    8.1730501500   10.2163126900   12.0432625400    0.0000000000   -0.0000000000   -0.0000000000
 V   10.2163126900   10.2163126900   10.0000000000   -0.0000000000   -0.0000000000    0.0000000000
 V    8.2379864789    8.2222818519   14.1716761486   -0.0000185810   -0.0000224222    0.0000235159
 V   10.1683045142    8.1806348815   16.0028045253   -0.0002261901   -0.0000435093   -0.0000163199
 V    8.1775664888   10.1595255361   16.0035950816    0.0001214858   -0.0000063979   -0.0000028630
 V   10.1519496178   10.1488674010   14.1481440842   -0.0000196501   -0.0000627228    0.0000552828
 N    0.0000000000    2.0432625400   10.0000000000   -0.0000000000    0.0000000000   -0.0000000000
 N    2.0432625400    0.0000000000   10.0000000000    0.0000000000   -0.0000000000   -0.0000000000
 N    0.0000000000    0.0000000000   12.0432625400    0.0000000000    0.0000000000   -0.0000000000
 N    2.0432625400    2.0432625400   12.0432625400    0.0000000000   -0.0000000000   -0.0000000000
 N   -0.0430777939    2.0888152773   14.1126829139    0.0001052923    0.0000290450    0.0001299069
 N    2.0877463427   -0.0545057724   14.1171129807   -0.0000122887    0.0000075567    0.0001740963
 N    0.0007031377    0.0111336563   16.3342066416   -0.0000820433   -0.0001041124    0.0002278963
 N    2.0529196646    2.0557351060   16.3284453719    0.0000021377    0.0000604261    0.0005158819
 N    0.0000000000    6.1297876100   10.0000000000    0.0000000000    0.0000000000   -0.0000000000
 N    2.0432625400    4.0865250700   10.0000000000    0.0000000000   -0.0000000000   -0.0000000000
 N    0.0000000000    4.0865250700   12.0432625400   -0.0000000000   -0.0000000000   -0.0000000000
 N    2.0432625400    6.1297876100   12.0432625400   -0.0000000000    0.0000000000   -0.0000000000
 N   -0.0278949249    6.1783956434   14.1032509105   -0.0000106822    0.0001335594   -0.0000171409
 N    2.0769966901    4.0308825662   14.0876643922   -0.0000289255   -0.0001344105   -0.0002533902
 N   -0.0110240278    4.0595408407   16.2812341991   -0.0001542907    0.0000924229   -0.0000168413
 N    1.9729281580    6.1755131861   16.2417503612   -0.0000681428   -0.0001324303   -0.0003121743
 N    0.0000000000   10.2163126900   10.0000000000   -0.0000000000    0.0000000000   -0.0000000000
 N    2.0432625400    8.1730501500   10.0000000000    0.0000000000   -0.0000000000   -0.0000000000
 N    0.0000000000    8.1730501500   12.0432625400    0.0000000000    0.0000000000   -0.0000000000
 N    2.0432625400   10.2163126900   12.0432625400   -0.0000000000   -0.0000000000   -0.0000000000
 N   -0.0593115762   10.2835726700   14.1056015973   -0.0000146669    0.0000555778    0.0000215974
 N    2.1031364319    8.1197921040   14.1077998629   -0.0000482502   -0.0000435839    0.0000506164
 N   -0.0045843850    8.2048275375   16.2101660280    0.0000107615    0.0000514610   -0.0002587139
 N    2.0458538424   10.2127072458   16.2686445697   -0.0000139801    0.0001099327   -0.0001344186
 N    4.0865250700    2.0432625400   10.0000000000   -0.0000000000    0.0000000000   -0.0000000000
 N    6.1297876100    0.0000000000   10.0000000000    0.0000000000   -0.0000000000   -0.0000000000
 N    4.0865250700    0.0000000000   12.0432625400   -0.0000000000    0.0000000000   -0.0000000000
 N    6.1297876100    2.0432625400   12.0432625400   -0.0000000000   -0.0000000000   -0.0000000000
 N    4.0470611712    2.0793767002   14.0965510566    0.0000569506   -0.0000169782   -0.0001102522
 N    6.1768053201   -0.0472464954   14.1042194192    0.0001276664   -0.0001214160   -0.0000658626
 N    4.0652608058    0.0165438236   16.2914743634    0.0000674136   -0.0001423127   -0.0001629305
 N    6.1695542394    2.0051348618   16.3154251453   -0.0001442896   -0.0000897561    0.0000064026
 N    4.0865250700    6.1297876100   10.0000000000   -0.0000000000    0.0000000000   -0.0000000000
 N    6.1297876100    4.0865250700   10.0000000000   -0.0000000000   -0.0000000000   -0.0000000000
 N    4.0865250700    4.0865250700   12.0432625400   -0.0000000000    0.0000000000   -0.0000000000
 N    6.1297876100    6.1297876100   12.0432625400   -0.0000000000    0.0000000000   -0.0000000000
 N    4.0480801845    6.1695764291   14.1518476962   -0.0001018979   -0.0000005293   -0.0001887231
 N    6.1682272493    4.0506898129   14.1008504300    0.0000192165   -0.0000397406    0.0000386375
 N    4.0649744986    4.0137494124   16.2090836757   -0.0001612627   -0.0004133304   -0.0004146925
 N    6.1369968179    6.1106999819   16.2293542205   -0.0001501655   -0.0001371631    0.0003344507
 N    4.0865250700   10.2163126900   10.0000000000   -0.0000000000    0.0000000000   -0.0000000000
 N    6.1297876100    8.1730501500   10.0000000000    0.0000000000   -0.0000000000   -0.0000000000
 N    4.0865250700    8.1730501500   12.0432625400    0.0000000000   -0.0000000000   -0.0000000000
 N    6.1297876100   10.2163126900   12.0432625400   -0.0000000000   -0.0000000000   -0.0000000000
 N    4.0322900112   10.2446858737   14.1100593989    0.0000154029   -0.0000637434    0.0000317147
 N    6.1856057769    8.1301298937   14.1074940297   -0.0000733955   -0.0000282614    0.0000792716
 N    4.1090044997    8.1900550676   16.2275482220   -0.0000435501   -0.0000827886    0.0004801330
 N    6.1448388382   10.2619564083   16.3043785150    0.0000405683   -0.0000743571    0.0000630714
 N    8.1730501500    2.0432625400   10.0000000000   -0.0000000000    0.0000000000   -0.0000000000
 N   10.2163126900    0.0000000000   10.0000000000    0.0000000000   -0.0000000000   -0.0000000000
 N    8.1730501500    0.0000000000   12.0432625400    0.0000000000    0.0000000000   -0.0000000000
 N   10.2163126900    2.0432625400   12.0432625400   -0.0000000000   -0.0000000000   -0.0000000000
 N    8.1245601110    2.1016279074   14.1067123677    0.0000194962   -0.0000491355   -0.0000242275
 N   10.2760032012   -0.0547608344   14.1060904162    0.0000264803   -0.0000190261    0.0000266954
 N    8.1998817809    0.0019995022   16.2116641986    0.0000836379   -0.0000071128   -0.0000421301
 N   10.1900159237    2.0470374352   16.2566728815    0.0001416751    0.0000153505   -0.0002930867
 N    8.1730501500    6.1297876100   10.0000000000   -0.0000000000    0.0000000000   -0.0000000000
 N   10.2163126900    4.0865250700   10.0000000000    0.0000000000   -0.0000000000   -0.0000000000
 N    8.1730501500    4.0865250700   12.0432625400    0.0000000000    0.0000000000   -0.0000000000
 N   10.2163126900    6.1297876100   12.0432625400   -0.0000000000   -0.0000000000   -0.0000000000
 N    8.1171303644    6.1775116556   14.1089312923   -0.0000678544   -0.0000451369    0.0000335214
 N   10.2603410862    4.0369342569   14.1059247136    0.0000097556    0.0000337069    0.0000324214
 N    8.1787392615    4.1186009419   16.2939039695    0.0001405299   -0.0001207523   -0.0000400323
 N   10.2628177984    6.1466713203   16.3004278191   -0.0001444061    0.0000844141    0.0000014207
 N    8.1730501500   10.2163126900   10.0000000000   -0.0000000000   -0.0000000000   -0.0000000000
 N   10.2163126900    8.1730501500   10.0000000000   -0.0000000000   -0.0000000000   -0.0000000000
 N    8.1730501500    8.1730501500   12.0432625400    0.0000000000    0.0000000000   -0.0000000000
 N   10.2163126900   10.2163126900   12.0432625400   -0.0000000000   -0.0000000000   -0.0000000000
 N    8.1234968329   10.2592330648   14.1063002383    0.0000308189   -0.0000408744   -0.0000187108
 N   10.2719074701    8.1216522114   14.1047180668   -0.0000529327   -0.0000172992   -0.0000213708
 N    8.1463911146    8.1455554407   16.3190688136   -0.0001788885   -0.0000694000   -0.0000795546
 N   10.2021584558   10.2089795441   16.2741902688   -0.0000638083   -0.0001104573    0.0000366974
 S    3.8580400384    5.8096328146   18.6049959463   -0.0013548602   -0.0040362826   -0.0002268834
Li    6.0284558125    6.1203143807   18.1613777934   -0.0015893195   -0.0003696173    0.0003979209
Li    2.5750671970    2.6893873834   18.1220837922    0.0046517888    0.0057964575    0.0005754071
 PRIMCOORD   5
  147  1
 V    0.0000000000    0.0000000000   10.0000000000    0.0000000000    0.0000000000    0.0000000000
 V    2.0432625400    0.0000000000   12.0432625400   -0.0000000000    0.0000000000   -0.0000000000
 V    0.0000000000    2.0432625400   12.0432625400    0.0000000000   -0.0000000000   -0.0000000000
 V    2.0432625400    2.0432625400   10.0000000000   -0.0000000000   -0.0000000000    0.0000000000
 V    0.0766176700    0.0773104500   14.1593930600    0.0000502618    0.0001366622    0.0005113907
 V    2.0193691400   -0.1015429100   16.0100473100   -0.0000067062    0.0001794318    0.0004136865
 V   -0.1121679200    2.0296359100   16.0049678200    0.0006147374    0.0003051855    0.0004693153
 V    1.9835474300    1.9823314900   14.1935443500    0.0001158520   -0.0000911173   -0.0004861022
 V    0.0000000000    4.0865250700   10.0000000000    0.0000000000   -0.0000000000    0.0000000000
 V    2.0432625400    4.0865250700   12.0432625400   -0.0000000000    0.0000000000   -0.0000000000
 V    0.0000000000    6.1297876100   12.0432625400    0.0000000000   -0.0000000000   -0.0000000000
 V    2.0432625400    6.1297876100   10.0000000000   -0.0000000000   -0.0000000000    0.0000000000
 V    0.0630852100    4.1333695900   14.1525790200    0.0000082855   -0.0001750621    0.0001422770
 V    2.0364870900    4.1718432800   15.9887376200   -0.0010535418    0.0002082121    0.0001415709
 V    0.0069203400    6.0858200200   16.0019016300    0.0004166269   -0.0002863814   -0.0000371275
 V    2.0479068700    6.0719981400   14.1687238600   -0.0001859427   -0.0001284252   -0.0002422900
 V    0.0000000000    8.1730501500   10.0000000000    0.0000000000    0.0000000000    0.0000000000
 V    2.0432625400    8.1730501500   12.0432625400   -0.0000000000    0.0000000000   -0.0000000000
 V    0.0000000000   10.2163126900   12.0432625400    0.0000000000   -0.0000000000   -0.0000000000
 V    2.0432625400   10.2163126900   10.0000000000   -0.0000000000   -0.0000000000    0.0000000000
 V    0.0810451800    8.2516182900   14.1433131500    0.0000328487    0.0001683236   -0.0003934836
 V    2.0455857400    8.2405127500   16.0093979000    0.0001803062   -0.0002528301   -0.0000259640
 V   -0.0234084400   10.2710251900   16.0003379800   -0.0002400595   -0.0003844064   -0.0000179209
 V    1.9618998800   10.1344011300   14.1495206000   -0.0001101284   -0.0001788809   -0.0002888489
 V    4.0865250700    0.0000000000   10.0000000000    0.0000000000    0.0000000000    0.0000000000
 V    6.1297876100    0.0000000000   12.0432625400   -0.0000000000    0.0000000000   -0.0000000000
 V    4.0865250700    2.0432625400   12.0432625400    0.0000000000   -0.0000000000   -0.0000000000
 V    6.1297876100    2.0432625400   10.0000000000   -0.0000000000   -0.0000000000    0.0000000000
 V    4.1295866300    0.0505203200   14.1684373000    0.0000766170   -0.0001649552    0.0000351630
 V    6.1103613800    0.0047199200   16.0086449200    0.0000527866   -0.0002820878   -0.0001160723
 V    4.2025920900    2.0345894200   15.9907803400   -0.0008106576   -0.0003635022    0.0002182936
 V    6.0759801600    1.9820234500   14.1530576900   -0.0000280776    0.0001394770   -0.0001846638
 V    4.0865250700    4.0865250700   10.0000000000    0.0000000000   -0.0000000000    0.0000000000
 V    6.1297876100    4.0865250700   12.0432625400   -0.0000000000    0.0000000000   -0.0000000000
 V    4.0865250700    6.1297876100   12.0432625400    0.0000000000   -0.0000000000   -0.0000000000
 V    6.1297876100    6.1297876100   10.0000000000   -0.0000000000   -0.0000000000    0.0000000000
 V    4.1321705000    4.1823827500   14.1417812200    0.0000381310    0.0004979145   -0.0009713196
 V    6.1285501700    3.9898785600   15.9903592500    0.0004484218    0.0006495471   -0.0001073759
 V    3.9203324800    6.0570583400   16.3994244700    0.0001349739    0.0001521975    0.0002066684
 V    6.0207363600    6.0825370200   14.2056257000   -0.0000480449   -0.0000421000    0.0000820159
 V    4.0865250700    8.1730501500   10.0000000000    0.0000000000    0.0000000000    0.0000000000
 V    6.1297876100    8.1730501500   12.0432625400   -0.0000000000    0.0000000000   -0.0000000000
 V    4.0865250700   10.2163126900   12.0432625400    0.0000000000   -0.0000000000   -0.0000000000
 V    6.1297876100   10.2163126900   10.0000000000   -0.0000000000   -0.0000000000    0.0000000000
 V    4.1667518700    8.1839129300   14.1512274200    0.0000892775    0.0004440947    0.0000427199
 V    6.1375482000    8.2825485200   15.9943727500   -0.0006520017   -0.0001198410    0.0001407002
 V    4.1180346600   10.2630790600   16.0055998600   -0.0001238376   -0.0003567475   -0.0001142338
 V    6.0563209100   10.1606585300   14.1585728500   -0.0000396410   -0.0000934490   -0.0000932439
 V    8.1730501500    0.0000000000   10.0000000000    0.0000000000    0.0000000000    0.0000000000
 V   10.2163126900    0.0000000000   12.0432625400   -0.0000000000    0.0000000000   -0.0000000000
 V    8.1730501500    2.0432625400   12.0432625400    0.0000000000   -0.0000000000   -0.0000000000
 V   10.2163126900    2.0432625400   10.0000000000   -0.0000000000   -0.0000000000    0.0000000000
 V    8.2447458800    0.0700912400   14.1350824800    0.0002397191   -0.0000650533   -0.0001394773
 V   10.2568348600   -0.0100643600   15.9992185600    0.0001707501   -0.0002268580    0.0001940317
 V    8.1716237900    2.0882847600   16.0050909300   -0.0003088878   -0.0000790999   -0.0000210126
 V   10.1449485000    1.9694123300   14.1437202700   -0.0000574577   -0.0000935118   -0.0000584404
 V    8.1730501500    4.0865250700   10.0000000000    0.0000000000    0.0000000000    0.0000000000
 V   10.2163126900    4.0865250700   12.0432625400   -0.0000000000    0.0000000000   -0.0000000000
 V    8.1730501500    6.1297876100   12.0432625400   -0.0000000000   -0.0000000000   -0.0000000000
 V   10.2163126900    6.1297876100   10.0000000000   -0.0000000000   -0.0000000000    0.0000000000
 V    8.2365977500    4.1696070300   14.1573338300    0.0002904100   -0.0000770837   -0.0004850543
 V   10.2092968600    4.0997746000   16.0032176700    0.0007953085    0.0002049635   -0.0002013078
 V    8.2930543200    6.1459259800   16.0016634600   -0.0002629935   -0.0002197611    0.0001171507
 V   10.1472452400    6.0660360500   14.1574966300   -0.0000012328    0.0001073576    0.0000674034
 V    8.1730501500    8.1730501500   10.0000000000    0.0000000000    0.0000000000    0.0000000000
 V   10.2163126900    8.1730501500   12.0432625400   -0.0000000000    0.0000000000   -0.0000000000
 V    8.1730501500   10.2163126900   12.0432625400    0.0000000000   -0.0000000000   -0.0000000000
 V   10.2163126900   10.2163126900   10.0000000000   -0.0000000000   -0.0000000000    0.0000000000
 V    8.2388145500    8.2207008500   14.1688841300   -0.0000579799   -0.0000143220    0.0002356904
 V   10.1813885700    8.1900314300   16.0041528000   -0.0000561873   -0.0000784105   -0.0001226172
 V    8.1736172400   10.1609971900   16.0036003300    0.0004114379    0.0001279345   -0.0001162629
 V   10.1499464500   10.1491746600   14.1454249200    0.0001603233    0.0000954147   -0.0001493691
 N    0.0000000000    2.0432625400   10.0000000000   -0.0000000000    0.0000000000   -0.0000000000
 N    2.0432625400    0.0000000000   10.0000000000    0.0000000000   -0.0000000000   -0.0000000000
 N    0.0000000000    0.0000000000   12.0432625400    0.0000000000    0.0000000000   -0.0000000000
 N    2.0432625400    2.0432625400   12.0432625400   -0.0000000000   -0.0000000000   -0.0000000000
 N   -0.0509400500    2.0878026800   14.1082710900   -0.0000959541    0.0000620398    0.0006181813
 N    2.0877089700   -0.0547149400   14.1118477200   -0.0000839507   -0.0003314241    0.0005497249
 N    0.0090717900    0.0206421700   16.3132996400    0.0004645976    0.0003879300    0.0003085777
 N    2.0401344800    2.0394267800   16.2532939500    0.0001439219    0.0001008324    0.0008861988
 N    0.0000000000    6.1297876100   10.0000000000    0.0000000000    0.0000000000   -0.0000000000
 N    2.0432625400    4.0865250700   10.0000000000    0.0000000000   -0.0000000000   -0.0000000000
 N    0.0000000000    4.0865250700   12.0432625400    0.0000000000    0.0000000000   -0.0000000000
 N    2.0432625400    6.1297876100   12.0432625400    0.0000000000    0.0000000000   -0.0000000000
 N   -0.0284480600    6.1695903300   14.1075046300   -0.0000626403   -0.0001610282    0.0001325907
 N    2.0853797600    4.0342736200   14.0980729300    0.0001149880   -0.0002973056   -0.0001558050
 N    0.0024150700    4.0545822100   16.2887617800    0.0004487790   -0.0001358056    0.0000721363
 N    1.9780074100    6.1747713600   16.2589780300   -0.0005885107    0.0004365219   -0.0007630739
 N    0.0000000000   10.2163126900   10.0000000000   -0.0000000000    0.0000000000   -0.0000000000
 N    2.0432625400    8.1730501500   10.0000000000    0.0000000000   -0.0000000000   -0.0000000000
 N    0.0000000000    8.1730501500   12.0432625400   -0.0000000000    0.0000000000   -0.0000000000
 N    2.0432625400   10.2163126900   12.0432625400   -0.0000000000   -0.0000000000   -0.0000000000
 N   -0.0600727800   10.2769095100   14.1032473500    0.0000333803    0.0002757772   -0.0000245345
 N    2.1032837700    8.1228663800   14.1062095800   -0.0000326353   -0.0001494540   -0.0001514727
 N   -0.0108676700    8.1981715300   16.2242366300   -0.0001058488   -0.0003527703   -0.0004171974
 N    2.0465027700   10.2048701600   16.2858775700    0.0001531965   -0.0001808413    0.0007885302
 N    4.0865250700    2.0432625400   10.0000000000   -0.0000000000    0.0000000000   -0.0000000000
 N    6.1297876100    0.0000000000   10.0000000000    0.0000000000   -0.0000000000   -0.0000000000
 N    4.0865250700    0.0000000000   12.0432625400    0.0000000000    0.0000000000   -0.0000000000
 N    6.1297876100    2.0432625400   12.0432625400   -0.0000000000   -0.0000000000   -0.0000000000
 N    4.0440062400    2.0809344600   14.0998553900   -0.0001177619    0.0002495993    0.0001933959
 N    6.1712042000   -0.0432233100   14.1083037800    0.0000193559   -0.0001875682   -0.0000242108
 N    4.0617341000    0.0254714600   16.3069418600   -0.0001596759    0.0002124575    0.0003101836
 N    6.1717911300    2.0103210200   16.3158980700   -0.0002130420   -0.0000448487    0.0002522420
 N    4.0865250700    6.1297876100   10.0000000000   -0.0000000000    0.0000000000   -0.0000000000
 N    6.1297876100    4.0865250700   10.0000000000    0.0000000000   -0.0000000000   -0.0000000000
 N    4.0865250700    4.0865250700   12.0432625400   -0.0000000000    0.0000000000   -0.0000000000
 N    6.1297876100    6.1297876100   12.0432625400   -0.0000000000   -0.0000000000   -0.0000000000
 N    4.0495363100    6.1718654500   14.1621010100   -0.0001714722   -0.0001721007    0.0000879713
 N    6.1707257500    4.0527561000   14.1003344400   -0.0001811886   -0.0001422187   -0.0001886171
 N    4.0837407200    4.0522237500   16.2108046200    0.0004922656   -0.0006409981    0.0011999804
 N    6.1464232700    6.1191132700   16.2117594600   -0.0000531561    0.0000693896    0.0000911016
 N    4.0865250700   10.2163126900   10.0000000000   -0.0000000000    0.0000000000   -0.0000000000
 N    6.1297876100    8.1730501500   10.0000000000    0.0000000000   -0.0000000000   -0.0000000000
 N    4.0865250700    8.1730501500   12.0432625400    0.0000000000   -0.0000000000   -0.0000000000
 N    6.1297876100   10.2163126900   12.0432625400   -0.0000000000    0.0000000000   -0.0000000000
 N    4.0315049700   10.2480948700   14.1088605400   -0.0000917934    0.0000823328   -0.0001777800
 N    6.1909018000    8.1311578900   14.1005654200    0.0000890014    0.0000310016    0.0001453219
 N    4.1086619300    8.1931172700   16.1941063800    0.0004535357    0.0001172804   -0.0002991198
 N    6.1399506900   10.2611513200   16.2988660700   -0.0002011786   -0.0003230273    0.0000262737
 N    8.1730501500    2.0432625400   10.0000000000   -0.0000000000    0.0000000000   -0.0000000000
 N   10.2163126900    0.0000000000   10.0000000000    0.0000000000   -0.0000000000   -0.0000000000
 N    8.1730501500    0.0000000000   12.0432625400    0.0000000000    0.0000000000   -0.0000000000
 N   10.2163126900    2.0432625400   12.0432625400   -0.0000000000   -0.0000000000   -0.0000000000
 N    8.1244716800    2.1030670400   14.1064263400    0.0000224768   -0.0000461389    0.0000008936
 N   10.2705385900   -0.0560089700   14.1032308200    0.0003066286    0.0000626645    0.0001517602
 N    8.1896608500   -0.0017019800   16.2118913500   -0.0000642741   -0.0001594326   -0.0001521713
 N   10.1770254100    2.0457672700   16.2811533100   -0.0001872844    0.0001028492    0.0004017873
 N    8.1730501500    6.1297876100   10.0000000000   -0.0000000000    0.0000000000   -0.0000000000
 N   10.2163126900    4.0865250700   10.0000000000    0.0000000000   -0.0000000000   -0.0000000000
 N    8.1730501500    4.0865250700   12.0432625400    0.0000000000    0.0000000000   -0.0000000000
 N   10.2163126900    6.1297876100   12.0432625400    0.0000000000   -0.0000000000   -0.0000000000
 N    8.1177936100    6.1804611800   14.1043812000    0.0000021146   -0.0000152092    0.0001680133
 N   10.2623379400    4.0360968100   14.1053500900    0.0003146580    0.0000304450   -0.0003079836
 N    8.1727596600    4.1252116500   16.2934071100   -0.0002001646    0.0003397487   -0.0004484762
 N   10.2680887500    6.1386516200   16.2929095700   -0.0001039585   -0.0000653098    0.0005708836
 N    8.1730501500   10.2163126900   10.0000000000   -0.0000000000   -0.0000000000   -0.0000000000
 N   10.2163126900    8.1730501500   10.0000000000   -0.0000000000   -0.0000000000   -0.0000000000
 N    8.1730501500    8.1730501500   12.0432625400    0.0000000000    0.0000000000   -0.0000000000
 N   10.2163126900   10.2163126900   12.0432625400   -0.0000000000   -0.0000000000   -0.0000000000
 N    8.1218732600   10.2589492200   14.1070255200    0.0000862797    0.0000366660   -0.0000866817
 N   10.2733638500    8.1224759500   14.1061935200    0.0000319830    0.0000387120   -0.0000896011
 N    8.1596026000    8.1488209800   16.3233084000   -0.0003859827   -0.0000921467   -0.0003370692
 N   10.2065612000   10.2177405600   16.2712027700    0.0001559555   -0.0000765506    0.0000255988
 S    3.9234990300    6.0222225900   18.6135269500   -0.0003604081   -0.0012381135    0.0010603487
Li    6.1052295300    6.1289758800   18.1386773400   -0.0004136391   -0.0001390736    0.0000065706
Li    2.1201156300    2.1719800300   18.1082603600    0.0007747348    0.0007156767    0.0003435969
