  147

 V    0.0000000000    0.0000000000   10.0000000000
 V    2.0432625400    0.0000000000   12.0432625400
 V    0.0000000000    2.0432625400   12.0432625400
 V    2.0432625400    2.0432625400   10.0000000000
 V    0.0659269900    0.0227360900   14.1736449000
 V    1.9982684800    0.0397264100   16.0162910400
 V    0.0275026200    2.0137377300   16.0082570500
 V    1.9944944000    2.0299122400   14.1714269100
 V    0.0000000000    4.0865250700   10.0000000000
 V    2.0432625400    4.0865250700   12.0432625400
 V    0.0000000000    6.1297876100   12.0432625400
 V    2.0432625400    6.1297876100   10.0000000000
 V    0.0681143300    4.1152129100   14.1607680100
 V    1.9327533400    4.0237312900   16.0067819800
 V    0.0144022600    6.1336196700   16.0125816500
 V    2.0375059200    6.0831124700   14.1862458700
 V    0.0000000000    8.1730501500   10.0000000000
 V    2.0432625400    8.1730501500   12.0432625400
 V    0.0000000000   10.2163126900   12.0432625400
 V    2.0432625400   10.2163126900   10.0000000000
 V    0.0631080000    8.2187774300   14.1510199100
 V    2.0243392000    8.1856182700   16.0153483700
 V   -0.0103615500   10.2423247900   16.0157731500
 V    1.9802517000   10.1779521900   14.1515832000
 V    4.0865250700    0.0000000000   10.0000000000
 V    6.1297876100    0.0000000000   12.0432625400
 V    4.0865250700    2.0432625400   12.0432625400
 V    6.1297876100    2.0432625400   10.0000000000
 V    4.1544249800    0.0461096300   14.1665289300
 V    6.1368983200    0.0145216900   16.0097321400
 V    4.1028492500    1.9412003400   16.0011727000
 V    6.0563890900    1.9943491700   14.1621362800
 V    4.0865250700    4.0865250700   10.0000000000
 V    6.1297876100    4.0865250700   12.0432625400
 V    4.0865250700    6.1297876100   12.0432625400
 V    6.1297876100    6.1297876100   10.0000000000
 V    4.1606376900    4.1821250100   14.2303520000
 V    6.2233792700    3.9867983100   16.0127939600
 V    3.9126147900    6.2853603900   16.2733366500
 V    6.0197868300    6.0772184800   14.2364323900
 V    4.0865250700    8.1730501500   10.0000000000
 V    6.1297876100    8.1730501500   12.0432625400
 V    4.0865250700   10.2163126900   12.0432625400
 V    6.1297876100   10.2163126900   10.0000000000
 V    4.1517921700    8.1581308700   14.1819753000
 V    6.1898012600    8.2884878200   16.0032668700
 V    4.0979824800   10.2034765200   16.0116360000
 V    6.0722238000   10.1786113400   14.1610124500
 V    8.1730501500    0.0000000000   10.0000000000
 V   10.2163126900    0.0000000000   12.0432625400
 V    8.1730501500    2.0432625400   12.0432625400
 V   10.2163126900    2.0432625400   10.0000000000
 V    8.2520756300    0.0582606600   14.1433328200
 V   10.2488077700   -0.0200790600   16.0140073600
 V    8.1423481800    2.0718046400   16.0067796000
 V   10.1409637600    1.9896056200   14.1450629400
 V    8.1730501500    4.0865250700   10.0000000000
 V   10.2163126900    4.0865250700   12.0432625400
 V    8.1730501500    6.1297876100   12.0432625400
 V   10.2163126900    6.1297876100   10.0000000000
 V    8.2399446900    4.1428626700   14.1635569100
 V   10.1914676800    4.0739404100   16.0108847100
 V    8.2797053800    6.1279694200   16.0047119500
 V   10.1459061700    6.0894988700   14.1671047700
 V    8.1730501500    8.1730501500   10.0000000000
 V   10.2163126900    8.1730501500   12.0432625400
 V    8.1730501500   10.2163126900   12.0432625400
 V   10.2163126900   10.2163126900   10.0000000000
 V    8.2229399800    8.1920765300   14.1712829800
 V   10.1754084200    8.2082671400   16.0140313300
 V    8.1840946800   10.1815708500   16.0059034000
 V   10.1673993200   10.1714623400   14.1663342800
 N    0.0000000000    2.0432625400   10.0000000000
 N    2.0432625400    0.0000000000   10.0000000000
 N    0.0000000000    0.0000000000   12.0432625400
 N    2.0432625400    2.0432625400   12.0432625400
 N   -0.0459573600    2.0570465100   14.1071395900
 N    2.0913316500   -0.0150336900   14.1121536100
 N   -0.0009564300    0.0009641600   16.3137862900
 N    2.0670501200    2.0458832900   16.3274848800
 N    0.0000000000    6.1297876100   10.0000000000
 N    2.0432625400    4.0865250700   10.0000000000
 N    0.0000000000    4.0865250700   12.0432625400
 N    2.0432625400    6.1297876100   12.0432625400
 N   -0.0315966800    6.1524674000   14.1122022600
 N    2.1038192000    4.0608691600   14.1061124700
 N   -0.0388181600    4.0649727000   16.2793628400
 N    1.9778837700    6.1059226800   16.2623063700
 N    0.0000000000   10.2163126900   10.0000000000
 N    2.0432625400    8.1730501500   10.0000000000
 N    0.0000000000    8.1730501500   12.0432625400
 N    2.0432625400   10.2163126900   12.0432625400
 N   -0.0427321800   10.2443290000   14.1092487800
 N    2.0906465500    8.1441539600   14.1115549300
 N   -0.0144658200    8.1925645200   16.2511708400
 N    2.0348626800   10.2285934700   16.2496685600
 N    4.0865250700    2.0432625400   10.0000000000
 N    6.1297876100    0.0000000000   10.0000000000
 N    4.0865250700    0.0000000000   12.0432625400
 N    6.1297876100    2.0432625400   12.0432625400
 N    4.0425524500    2.0870941300   14.1019666900
 N    6.1860707700   -0.0342136800   14.1058544200
 N    4.0729282400   -0.0377695000   16.2816335700
 N    6.1217102500    2.0130598300   16.3207934900
 N    4.0865250700    6.1297876100   10.0000000000
 N    6.1297876100    4.0865250700   10.0000000000
 N    4.0865250700    4.0865250700   12.0432625400
 N    6.1297876100    6.1297876100   12.0432625400
 N    4.0430636700    6.1603274900   14.1546313200
 N    6.1801666100    4.0523775500   14.1141226100
 N    4.0975459800    4.0582649400   16.2275470900
 N    6.1513490600    6.1207724300   16.2230823200
 N    4.0865250700   10.2163126900   10.0000000000
 N    6.1297876100    8.1730501500   10.0000000000
 N    4.0865250700    8.1730501500   12.0432625400
 N    6.1297876100   10.2163126900   12.0432625400
 N    4.0464506500   10.2334845100   14.1101167400
 N    6.1749304400    8.1341716700   14.1057564200
 N    4.1060538800    8.2272466600   16.2599597200
 N    6.1492744500   10.2581309200   16.2900126700
 N    8.1730501500    2.0432625400   10.0000000000
 N   10.2163126900    0.0000000000   10.0000000000
 N    8.1730501500    0.0000000000   12.0432625400
 N   10.2163126900    2.0432625400   12.0432625400
 N    8.1166029400    2.0866771800   14.1069421300
 N   10.2728052500   -0.0365693700   14.1108975700
 N    8.1957498400    0.0019822200   16.2342821600
 N   10.2095732900    2.0276249000   16.2406311600
 N    8.1730501500    6.1297876100   10.0000000000
 N   10.2163126900    4.0865250700   10.0000000000
 N    8.1730501500    4.0865250700   12.0432625400
 N   10.2163126900    6.1297876100   12.0432625400
 N    8.1098734800    6.1570364200   14.1028883000
 N   10.2671045000    4.0525165400   14.1078459200
 N    8.1932599100    4.1013407300   16.3204953500
 N   10.2586955400    6.1420834000   16.2868581300
 N    8.1730501500   10.2163126900   10.0000000000
 N   10.2163126900    8.1730501500   10.0000000000
 N    8.1730501500    8.1730501500   12.0432625400
 N   10.2163126900   10.2163126900   12.0432625400
 N    8.1380910500   10.2437074200   14.1065166400
 N   10.2558988000    8.1407025400   14.1090536700
 N    8.1707935900    8.1483424800   16.3290678900
 N   10.2130195300   10.2189952000   16.2933853900
 S    3.9364038800    6.2491168900   18.6605726700
Li    6.0887924600    6.2387698100   18.1471986600
Li    3.9778765000    4.0963839400   18.1505490900
  147

 V    0.0000000000    0.0000000000   10.0000000000
 V    2.0432625400    0.0000000000   12.0432625400
 V    0.0000000000    2.0432625400   12.0432625400
 V    2.0432625400    2.0432625400   10.0000000000
 V    0.0709634948    0.0663848676   14.1662286304
 V    1.9840526048    0.0145865515   16.0127039572
 V    0.0092537977    1.9924086708   16.0067193992
 V    1.9953880597    1.9840331266   14.1692114125
 V    0.0000000000    4.0865250700   10.0000000000
 V    2.0432625400    4.0865250700   12.0432625400
 V    0.0000000000    6.1297876100   12.0432625400
 V    2.0432625400    6.1297876100   10.0000000000
 V    0.0432170439    4.1425585913   14.1480001905
 V    1.9112325842    4.1022080010   15.9759272166
 V   -0.0012466412    6.1194239593   15.9987103854
 V    2.0421932204    6.0583670436   14.1691536493
 V    0.0000000000    8.1730501500   10.0000000000
 V    2.0432625400    8.1730501500   12.0432625400
 V    0.0000000000   10.2163126900   12.0432625400
 V    2.0432625400   10.2163126900   10.0000000000
 V    0.0781198006    8.2599850142   14.1370553844
 V    2.0712574921    8.1740209322   16.0157183780
 V   -0.0251851850   10.2658275853   16.0066079158
 V    1.9611129423   10.1248101475   14.1466534955
 V    4.0865250700    0.0000000000   10.0000000000
 V    6.1297876100    0.0000000000   12.0432625400
 V    4.0865250700    2.0432625400   12.0432625400
 V    6.1297876100    2.0432625400   10.0000000000
 V    4.1382563757    0.0433136959   14.1542941607
 V    6.1291311991    0.0018480234   16.0021737697
 V    4.1425417740    1.9462599203   15.9857317088
 V    6.0611647894    1.9739006439   14.1511605906
 V    4.0865250700    4.0865250700   10.0000000000
 V    6.1297876100    4.0865250700   12.0432625400
 V    4.0865250700    6.1297876100   12.0432625400
 V    6.1297876100    6.1297876100   10.0000000000
 V    4.1403854754    4.1853664141   14.1876845580
 V    6.1860331876    3.9884701082   16.0015105502
 V    3.9070487344    6.1079690980   16.2561725895
 V    6.0199993220    6.0636939827   14.2221872717
 V    4.0865250700    8.1730501500   10.0000000000
 V    6.1297876100    8.1730501500   12.0432625400
 V    4.0865250700   10.2163126900   12.0432625400
 V    6.1297876100   10.2163126900   10.0000000000
 V    4.1533073465    8.1680573150   14.1904982773
 V    6.1381403752    8.2828483230   16.0078873357
 V    4.1058174842   10.2247195246   16.0103443941
 V    6.0610467934   10.1545233233   14.1621345397
 V    8.1730501500    0.0000000000   10.0000000000
 V   10.2163126900    0.0000000000   12.0432625400
 V    8.1730501500    2.0432625400   12.0432625400
 V   10.2163126900    2.0432625400   10.0000000000
 V    8.2551051793    0.0724694794   14.1346836209
 V   10.2615840876   -0.0189743343   16.0051973443
 V    8.1278188105    2.0808514114   16.0028163137
 V   10.1352077548    1.9613074470   14.1382916383
 V    8.1730501500    4.0865250700   10.0000000000
 V   10.2163126900    4.0865250700   12.0432625400
 V    8.1730501500    6.1297876100   12.0432625400
 V   10.2163126900    6.1297876100   10.0000000000
 V    8.2269190500    4.1588891415   14.1589590486
 V   10.2032252197    4.0978255285   16.0050028432
 V    8.2724163188    6.1249936858   16.0044742737
 V   10.1500726987    6.0636734264   14.1608636916
 V    8.1730501500    8.1730501500   10.0000000000
 V   10.2163126900    8.1730501500   12.0432625400
 V    8.1730501500   10.2163126900   12.0432625400
 V   10.2163126900   10.2163126900   10.0000000000
 V    8.2294690919    8.2206733584   14.1689288688
 V   10.1592405414    8.1878124763   16.0041305699
 V    8.1778152985   10.1622556312   16.0036016511
 V   10.1540604148   10.1471661999   14.1539473756
 N    0.0000000000    2.0432625400   10.0000000000
 N    2.0432625400    0.0000000000   10.0000000000
 N    0.0000000000    0.0000000000   12.0432625400
 N    2.0432625400    2.0432625400   12.0432625400
 N   -0.0482522240    2.0837631996   14.1072994568
 N    2.0882853792   -0.0561787979   14.1112097956
 N   -0.0012807758    0.0041392872   16.3268417155
 N    2.0646244616    2.0612834299   16.3170003432
 N    0.0000000000    6.1297876100   10.0000000000
 N    2.0432625400    4.0865250700   10.0000000000
 N    0.0000000000    4.0865250700   12.0432625400
 N    2.0432625400    6.1297876100   12.0432625400
 N   -0.0300104993    6.1783230824   14.1036571103
 N    2.0804683934    4.0312076761   14.0891682087
 N   -0.0477353993    4.0537412341   16.2787493805
 N    1.9545535000    6.1265086186   16.2548099008
 N    0.0000000000   10.2163126900   10.0000000000
 N    2.0432625400    8.1730501500   10.0000000000
 N    0.0000000000    8.1730501500   12.0432625400
 N    2.0432625400   10.2163126900   12.0432625400
 N   -0.0571922906   10.2790145021   14.1056052406
 N    2.0992544441    8.1096491294   14.1114939276
 N   -0.0076902667    8.2006474387   16.2109781702
 N    2.0350994257   10.2087283441   16.2402017374
 N    4.0865250700    2.0432625400   10.0000000000
 N    6.1297876100    0.0000000000   10.0000000000
 N    4.0865250700    0.0000000000   12.0432625400
 N    6.1297876100    2.0432625400   12.0432625400
 N    4.0429544899    2.0837268467   14.0952362813
 N    6.1803897922   -0.0518923172   14.1032421458
 N    4.0616743806   -0.0277306241   16.2817862332
 N    6.1318193018    2.0035537335   16.3158957662
 N    4.0865250700    6.1297876100   10.0000000000
 N    6.1297876100    4.0865250700   10.0000000000
 N    4.0865250700    4.0865250700   12.0432625400
 N    6.1297876100    6.1297876100   12.0432625400
 N    4.0432061407    6.1663605845   14.1400924421
 N    6.1691072124    4.0383123823   14.1059335755
 N    4.0700528775    4.0252777459   16.2049901052
 N    6.1440881447    6.1027005725   16.2309769611
 N    4.0865250700   10.2163126900   10.0000000000
 N    6.1297876100    8.1730501500   10.0000000000
 N    4.0865250700    8.1730501500   12.0432625400
 N    6.1297876100   10.2163126900   12.0432625400
 N    4.0349703111   10.2354634212   14.1119027700
 N    6.1789453105    8.1210362453   14.1108348487
 N    4.1086653871    8.1782388877   16.2652962062
 N    6.1454833879   10.2557599555   16.2991118740
 N    8.1730501500    2.0432625400   10.0000000000
 N   10.2163126900    0.0000000000   10.0000000000
 N    8.1730501500    0.0000000000   12.0432625400
 N   10.2163126900    2.0432625400   12.0432625400
 N    8.1130616970    2.0993686860   14.1059963429
 N   10.2767795954   -0.0584852046   14.1063043590
 N    8.1971297562    0.0012300353   16.2149360496
 N   10.1970589868    2.0323179207   16.2302209815
 N    8.1730501500    6.1297876100   10.0000000000
 N   10.2163126900    4.0865250700   10.0000000000
 N    8.1730501500    4.0865250700   12.0432625400
 N   10.2163126900    6.1297876100   12.0432625400
 N    8.1139930579    6.1744863975   14.1071179119
 N   10.2536549772    4.0324877281   14.1059574925
 N    8.1849763686    4.1025352064   16.3047623852
 N   10.2539704994    6.1466408558   16.2945259791
 N    8.1730501500   10.2163126900   10.0000000000
 N   10.2163126900    8.1730501500   10.0000000000
 N    8.1730501500    8.1730501500   12.0432625400
 N   10.2163126900   10.2163126900   12.0432625400
 N    8.1261506663   10.2591905919   14.1060394231
 N   10.2650209431    8.1206403786   14.1051797916
 N    8.1472386903    8.1424079191   16.3201219053
 N   10.2019430006   10.2066984677   16.2824166012
 S    3.8586002686    5.8940062153   18.6460091568
Li    6.0015398724    6.1151417276   18.1636745236
Li    3.5395401498    3.7174776814   18.1437756953
  147

 V    0.0000000000    0.0000000000   10.0000000000
 V    2.0432625400    0.0000000000   12.0432625400
 V    0.0000000000    2.0432625400   12.0432625400
 V    2.0432625400    2.0432625400   10.0000000000
 V    0.0754447516    0.0762818649   14.1715645593
 V    1.9824206034   -0.0093893947   16.0212468159
 V   -0.0057911539    1.9928120325   16.0147547590
 V    1.9975700764    1.9812154593   14.1874721185
 V    0.0000000000    4.0865250700   10.0000000000
 V    2.0432625400    4.0865250700   12.0432625400
 V    0.0000000000    6.1297876100   12.0432625400
 V    2.0432625400    6.1297876100   10.0000000000
 V    0.0418106655    4.1452604893   14.1445067196
 V    1.9268141400    4.1588698450   15.9626199162
 V   -0.0010135305    6.1213851373   15.9959606902
 V    2.0521719380    6.0674935168   14.1604368790
 V    0.0000000000    8.1730501500   10.0000000000
 V    2.0432625400    8.1730501500   12.0432625400
 V    0.0000000000   10.2163126900   12.0432625400
 V    2.0432625400   10.2163126900   10.0000000000
 V    0.0824387477    8.2646858593   14.1388139021
 V    2.0946970166    8.2090786166   16.0154202553
 V   -0.0279151073   10.2738870383   16.0065727066
 V    1.9593488034   10.1275690099   14.1501926257
 V    4.0865250700    0.0000000000   10.0000000000
 V    6.1297876100    0.0000000000   12.0432625400
 V    4.0865250700    2.0432625400   12.0432625400
 V    6.1297876100    2.0432625400   10.0000000000
 V    4.1332474870    0.0385215801   14.1531967644
 V    6.1297856553   -0.0107312732   16.0017023347
 V    4.1916445655    1.9836374614   15.9804029550
 V    6.0745025080    1.9745782071   14.1470706842
 V    4.0865250700    4.0865250700   10.0000000000
 V    6.1297876100    4.0865250700   12.0432625400
 V    4.0865250700    6.1297876100   12.0432625400
 V    6.1297876100    6.1297876100   10.0000000000
 V    4.1313429309    4.1804722196   14.1649708227
 V    6.1600510218    3.9962116101   15.9980165700
 V    3.9242591146    5.9794863138   16.2625972592
 V    6.0144579687    6.0747730497   14.2219277415
 V    4.0865250700    8.1730501500   10.0000000000
 V    6.1297876100    8.1730501500   12.0432625400
 V    4.0865250700   10.2163126900   12.0432625400
 V    6.1297876100   10.2163126900   10.0000000000
 V    4.1566070314    8.1795343241   14.1835060266
 V    6.1158344528    8.2920614899   16.0091161084
 V    4.1132853828   10.2587329448   16.0084605023
 V    6.0582503721   10.1583610980   14.1609513098
 V    8.1730501500    0.0000000000   10.0000000000
 V   10.2163126900    0.0000000000   12.0432625400
 V    8.1730501500    2.0432625400   12.0432625400
 V   10.2163126900    2.0432625400   10.0000000000
 V    8.2527398440    0.0706208374   14.1363696576
 V   10.2666866492   -0.0102479786   16.0052956082
 V    8.1358965122    2.0943350163   16.0045471475
 V   10.1449951306    1.9685001603   14.1427523254
 V    8.1730501500    4.0865250700   10.0000000000
 V   10.2163126900    4.0865250700   12.0432625400
 V    8.1730501500    6.1297876100   12.0432625400
 V   10.2163126900    6.1297876100   10.0000000000
 V    8.2299489399    4.1611201316   14.1609756365
 V   10.2158909557    4.1082891955   16.0054347167
 V    8.2746953431    6.1286047182   16.0091469373
 V   10.1510614115    6.0666627519   14.1608130072
 V    8.1730501500    8.1730501500   10.0000000000
 V   10.2163126900    8.1730501500   12.0432625400
 V    8.1730501500   10.2163126900   12.0432625400
 V   10.2163126900   10.2163126900   10.0000000000
 V    8.2356517905    8.2214994044   14.1720696053
 V   10.1602089169    8.1827803774   16.0032517818
 V    8.1795953282   10.1594315362   16.0041518078
 V   10.1525396451   10.1491223846   14.1509303783
 N    0.0000000000    2.0432625400   10.0000000000
 N    2.0432625400    0.0000000000   10.0000000000
 N    0.0000000000    0.0000000000   12.0432625400
 N    2.0432625400    2.0432625400   12.0432625400
 N   -0.0422035871    2.0889165331   14.1122862688
 N    2.0880281498   -0.0559659455   14.1167504091
 N   -0.0003734035    0.0088652998   16.3355767872
 N    2.0654911565    2.0747445781   16.3550563072
 N    0.0000000000    6.1297876100   10.0000000000
 N    2.0432625400    4.0865250700   10.0000000000
 N    0.0000000000    4.0865250700   12.0432625400
 N    2.0432625400    6.1297876100   12.0432625400
 N   -0.0272928494    6.1820508166   14.1028300409
 N    2.0744987370    4.0296344052   14.0819846063
 N   -0.0339966970    4.0608100767   16.2774852309
 N    1.9680546933    6.1604745794   16.2389240151
 N    0.0000000000   10.2163126900   10.0000000000
 N    2.0432625400    8.1730501500   10.0000000000
 N    0.0000000000    8.1730501500   12.0432625400
 N    2.0432625400   10.2163126900   12.0432625400
 N   -0.0588790642   10.2849599271   14.1063062491
 N    2.1031815338    8.1152306742   14.1103416199
 N   -0.0033410113    8.2052421863   16.2071714628
 N    2.0428382546   10.2159215465   16.2547599034
 N    4.0865250700    2.0432625400   10.0000000000
 N    6.1297876100    0.0000000000   10.0000000000
 N    4.0865250700    0.0000000000   12.0432625400
 N    6.1297876100    2.0432625400   12.0432625400
 N    4.0472007770    2.0789102042   14.0945921292
 N    6.1791695657   -0.0507046407   14.1027422362
 N    4.0648293955    0.0036780342   16.2846915713
 N    6.1580205912    2.0013933458   16.3122325296
 N    4.0865250700    6.1297876100   10.0000000000
 N    6.1297876100    4.0865250700   10.0000000000
 N    4.0865250700    4.0865250700   12.0432625400
 N    6.1297876100    6.1297876100   12.0432625400
 N    4.0454738490    6.1698651004   14.1375055977
 N    6.1680450490    4.0461129976   14.1026345497
 N    4.0578996726    3.9921892379   16.2001425025
 N    6.1294433653    6.1045876647   16.2429125985
 N    4.0865250700   10.2163126900   10.0000000000
 N    6.1297876100    8.1730501500   10.0000000000
 N    4.0865250700    8.1730501500   12.0432625400
 N    6.1297876100   10.2163126900   12.0432625400
 N    4.0321447278   10.2403631356   14.1107922993
 N    6.1819639121    8.1268444905   14.1122900156
 N    4.1069129892    8.1809181842   16.2506170820
 N    6.1455636240   10.2606437484   16.3052640052
 N    8.1730501500    2.0432625400   10.0000000000
 N   10.2163126900    0.0000000000   10.0000000000
 N    8.1730501500    0.0000000000   12.0432625400
 N   10.2163126900    2.0432625400   12.0432625400
 N    8.1213925550    2.1004506907   14.1069314189
 N   10.2773829865   -0.0545346756   14.1069028584
 N    8.2010492368    0.0035979666   16.2120142185
 N   10.1968193765    2.0420298190   16.2414979624
 N    8.1730501500    6.1297876100   10.0000000000
 N   10.2163126900    4.0865250700   10.0000000000
 N    8.1730501500    4.0865250700   12.0432625400
 N   10.2163126900    6.1297876100   12.0432625400
 N    8.1139089712    6.1755595624   14.1110843709
 N   10.2559475868    4.0368721342   14.1063093288
 N    8.1815361813    4.1113283578   16.2985127674
 N   10.2560825303    6.1495536063   16.2975963094
 N    8.1730501500   10.2163126900   10.0000000000
 N   10.2163126900    8.1730501500   10.0000000000
 N    8.1730501500    8.1730501500   12.0432625400
 N   10.2163126900   10.2163126900   12.0432625400
 N    8.1240394668   10.2585824243   14.1063597956
 N   10.2700652106    8.1219170786   14.1047533087
 N    8.1413101502    8.1441077929   16.3180858517
 N   10.2013674085   10.2079542978   16.2777624652
 S    3.8131249572    5.6338593006   18.6148443183
Li    5.9571930758    6.1026884291   18.1782450732
Li    3.0345361569    3.2445822416   18.1551216977
  147

 V    0.0000000000    0.0000000000   10.0000000000
 V    2.0432625400    0.0000000000   12.0432625400
 V    0.0000000000    2.0432625400   12.0432625400
 V    2.0432625400    2.0432625400   10.0000000000
 V    0.0772620573    0.0780167732   14.1693851830
 V    1.9881075560   -0.0506492721   16.0196379429
 V   -0.0482218758    2.0002734586   16.0128836834
 V    1.9950263243    1.9826289435   14.1978918857
 V    0.0000000000    4.0865250700   10.0000000000
 V    2.0432625400    4.0865250700   12.0432625400
 V    0.0000000000    6.1297876100   12.0432625400
 V    2.0432625400    6.1297876100   10.0000000000
 V    0.0500810510    4.1407075820   14.1457262047
 V    1.9796542856    4.1849587319   15.9716096664
 V   -0.0003959942    6.1113687638   15.9963195970
 V    2.0516082911    6.0711629282   14.1594370333
 V    0.0000000000    8.1730501500   10.0000000000
 V    2.0432625400    8.1730501500   12.0432625400
 V    0.0000000000   10.2163126900   12.0432625400
 V    2.0432625400   10.2163126900   10.0000000000
 V    0.0821141604    8.2617074564   14.1393545811
 V    2.0853001424    8.2226828458   16.0120984312
 V   -0.0291350109   10.2761070783   16.0046239975
 V    1.9609342847   10.1326822127   14.1507234957
 V    4.0865250700    0.0000000000   10.0000000000
 V    6.1297876100    0.0000000000   12.0432625400
 V    4.0865250700    2.0432625400   12.0432625400
 V    6.1297876100    2.0432625400   10.0000000000
 V    4.1308137050    0.0445267488   14.1581868839
 V    6.1290680296   -0.0080549649   16.0033716491
 V    4.2144827111    2.0083615365   15.9833371864
 V    6.0783992308    1.9785235421   14.1475120971
 V    4.0865250700    4.0865250700   10.0000000000
 V    6.1297876100    4.0865250700   12.0432625400
 V    4.0865250700    6.1297876100   12.0432625400
 V    6.1297876100    6.1297876100   10.0000000000
 V    4.1273902064    4.1793260328   14.1535910925
 V    6.1403674384    3.9974568250   15.9927885562
 V    3.9280519202    6.0088896668   16.3366472279
 V    6.0175901319    6.0802760045   14.2113282067
 V    4.0865250700    8.1730501500   10.0000000000
 V    6.1297876100    8.1730501500   12.0432625400
 V    4.0865250700   10.2163126900   12.0432625400
 V    6.1297876100   10.2163126900   10.0000000000
 V    4.1598214854    8.1806685722   14.1668858355
 V    6.1189243331    8.2907177097   16.0025282428
 V    4.1197128766   10.2647355607   16.0067692303
 V    6.0578094756   10.1608724945   14.1595407809
 V    8.1730501500    0.0000000000   10.0000000000
 V   10.2163126900    0.0000000000   12.0432625400
 V    8.1730501500    2.0432625400   12.0432625400
 V   10.2163126900    2.0432625400   10.0000000000
 V    8.2507818570    0.0705589237   14.1356871576
 V   10.2671042138   -0.0098050628   16.0034017123
 V    8.1473915639    2.0967171698   16.0048784483
 V   10.1479655188    1.9698504123   14.1440885224
 V    8.1730501500    4.0865250700   10.0000000000
 V   10.2163126900    4.0865250700   12.0432625400
 V    8.1730501500    6.1297876100   12.0432625400
 V   10.2163126900    6.1297876100   10.0000000000
 V    8.2354697264    4.1639600922   14.1586167522
 V   10.2206840942    4.1120240039   16.0045252135
 V    8.2849008206    6.1349327038   16.0065033361
 V   10.1510275923    6.0665929931   14.1600634943
 V    8.1730501500    8.1730501500   10.0000000000
 V   10.2163126900    8.1730501500   12.0432625400
 V    8.1730501500   10.2163126900   12.0432625400
 V   10.2163126900   10.2163126900   10.0000000000
 V    8.2379864789    8.2222818519   14.1716761486
 V   10.1683045142    8.1806348815   16.0028045253
 V    8.1775664888   10.1595255361   16.0035950816
 V   10.1519496178   10.1488674010   14.1481440842
 N    0.0000000000    2.0432625400   10.0000000000
 N    2.0432625400    0.0000000000   10.0000000000
 N    0.0000000000    0.0000000000   12.0432625400
 N    2.0432625400    2.0432625400   12.0432625400
 N   -0.0430777939    2.0888152773   14.1126829139
 N    2.0877463427   -0.0545057724   14.1171129807
 N    0.0007031377    0.0111336563   16.3342066416
 N    2.0529196646    2.0557351060   16.3284453719
 N    0.0000000000    6.1297876100   10.0000000000
 N    2.0432625400    4.0865250700   10.0000000000
 N    0.0000000000    4.0865250700   12.0432625400
 N    2.0432625400    6.1297876100   12.0432625400
 N   -0.0278949249    6.1783956434   14.1032509105
 N    2.0769966901    4.0308825662   14.0876643922
 N   -0.0110240278    4.0595408407   16.2812341991
 N    1.9729281580    6.1755131861   16.2417503612
 N    0.0000000000   10.2163126900   10.0000000000
 N    2.0432625400    8.1730501500   10.0000000000
 N    0.0000000000    8.1730501500   12.0432625400
 N    2.0432625400   10.2163126900   12.0432625400
 N   -0.0593115762   10.2835726700   14.1056015973
 N    2.1031364319    8.1197921040   14.1077998629
 N   -0.0045843850    8.2048275375   16.2101660280
 N    2.0458538424   10.2127072458   16.2686445697
 N    4.0865250700    2.0432625400   10.0000000000
 N    6.1297876100    0.0000000000   10.0000000000
 N    4.0865250700    0.0000000000   12.0432625400
 N    6.1297876100    2.0432625400   12.0432625400
 N    4.0470611712    2.0793767002   14.0965510566
 N    6.1768053201   -0.0472464954   14.1042194192
 N    4.0652608058    0.0165438236   16.2914743634
 N    6.1695542394    2.0051348618   16.3154251453
 N    4.0865250700    6.1297876100   10.0000000000
 N    6.1297876100    4.0865250700   10.0000000000
 N    4.0865250700    4.0865250700   12.0432625400
 N    6.1297876100    6.1297876100   12.0432625400
 N    4.0480801845    6.1695764291   14.1518476962
 N    6.1682272493    4.0506898129   14.1008504300
 N    4.0649744986    4.0137494124   16.2090836757
 N    6.1369968179    6.1106999819   16.2293542205
 N    4.0865250700   10.2163126900   10.0000000000
 N    6.1297876100    8.1730501500   10.0000000000
 N    4.0865250700    8.1730501500   12.0432625400
 N    6.1297876100   10.2163126900   12.0432625400
 N    4.0322900112   10.2446858737   14.1100593989
 N    6.1856057769    8.1301298937   14.1074940297
 N    4.1090044997    8.1900550676   16.2275482220
 N    6.1448388382   10.2619564083   16.3043785150
 N    8.1730501500    2.0432625400   10.0000000000
 N   10.2163126900    0.0000000000   10.0000000000
 N    8.1730501500    0.0000000000   12.0432625400
 N   10.2163126900    2.0432625400   12.0432625400
 N    8.1245601110    2.1016279074   14.1067123677
 N   10.2760032012   -0.0547608344   14.1060904162
 N    8.1998817809    0.0019995022   16.2116641986
 N   10.1900159237    2.0470374352   16.2566728815
 N    8.1730501500    6.1297876100   10.0000000000
 N   10.2163126900    4.0865250700   10.0000000000
 N    8.1730501500    4.0865250700   12.0432625400
 N   10.2163126900    6.1297876100   12.0432625400
 N    8.1171303644    6.1775116556   14.1089312923
 N   10.2603410862    4.0369342569   14.1059247136
 N    8.1787392615    4.1186009419   16.2939039695
 N   10.2628177984    6.1466713203   16.3004278191
 N    8.1730501500   10.2163126900   10.0000000000
 N   10.2163126900    8.1730501500   10.0000000000
 N    8.1730501500    8.1730501500   12.0432625400
 N   10.2163126900   10.2163126900   12.0432625400
 N    8.1234968329   10.2592330648   14.1063002383
 N   10.2719074701    8.1216522114   14.1047180668
 N    8.1463911146    8.1455554407   16.3190688136
 N   10.2021584558   10.2089795441   16.2741902688
 S    3.8580400384    5.8096328146   18.6049959463
Li    6.0284558125    6.1203143807   18.1613777934
Li    2.5750671970    2.6893873834   18.1220837922
  147

 V    0.0000000000    0.0000000000   10.0000000000
 V    2.0432625400    0.0000000000   12.0432625400
 V    0.0000000000    2.0432625400   12.0432625400
 V    2.0432625400    2.0432625400   10.0000000000
 V    0.0766176700    0.0773104500   14.1593930600
 V    2.0193691400   -0.1015429100   16.0100473100
 V   -0.1121679200    2.0296359100   16.0049678200
 V    1.9835474300    1.9823314900   14.1935443500
 V    0.0000000000    4.0865250700   10.0000000000
 V    2.0432625400    4.0865250700   12.0432625400
 V    0.0000000000    6.1297876100   12.0432625400
 V    2.0432625400    6.1297876100   10.0000000000
 V    0.0630852100    4.1333695900   14.1525790200
 V    2.0364870900    4.1718432800   15.9887376200
 V    0.0069203400    6.0858200200   16.0019016300
 V    2.0479068700    6.0719981400   14.1687238600
 V    0.0000000000    8.1730501500   10.0000000000
 V    2.0432625400    8.1730501500   12.0432625400
 V    0.0000000000   10.2163126900   12.0432625400
 V    2.0432625400   10.2163126900   10.0000000000
 V    0.0810451800    8.2516182900   14.1433131500
 V    2.0455857400    8.2405127500   16.0093979000
 V   -0.0234084400   10.2710251900   16.0003379800
 V    1.9618998800   10.1344011300   14.1495206000
 V    4.0865250700    0.0000000000   10.0000000000
 V    6.1297876100    0.0000000000   12.0432625400
 V    4.0865250700    2.0432625400   12.0432625400
 V    6.1297876100    2.0432625400   10.0000000000
 V    4.1295866300    0.0505203200   14.1684373000
 V    6.1103613800    0.0047199200   16.0086449200
 V    4.2025920900    2.0345894200   15.9907803400
 V    6.0759801600    1.9820234500   14.1530576900
 V    4.0865250700    4.0865250700   10.0000000000
 V    6.1297876100    4.0865250700   12.0432625400
 V    4.0865250700    6.1297876100   12.0432625400
 V    6.1297876100    6.1297876100   10.0000000000
 V    4.1321705000    4.1823827500   14.1417812200
 V    6.1285501700    3.9898785600   15.9903592500
 V    3.9203324800    6.0570583400   16.3994244700
 V    6.0207363600    6.0825370200   14.2056257000
 V    4.0865250700    8.1730501500   10.0000000000
 V    6.1297876100    8.1730501500   12.0432625400
 V    4.0865250700   10.2163126900   12.0432625400
 V    6.1297876100   10.2163126900   10.0000000000
 V    4.1667518700    8.1839129300   14.1512274200
 V    6.1375482000    8.2825485200   15.9943727500
 V    4.1180346600   10.2630790600   16.0055998600
 V    6.0563209100   10.1606585300   14.1585728500
 V    8.1730501500    0.0000000000   10.0000000000
 V   10.2163126900    0.0000000000   12.0432625400
 V    8.1730501500    2.0432625400   12.0432625400
 V   10.2163126900    2.0432625400   10.0000000000
 V    8.2447458800    0.0700912400   14.1350824800
 V   10.2568348600   -0.0100643600   15.9992185600
 V    8.1716237900    2.0882847600   16.0050909300
 V   10.1449485000    1.9694123300   14.1437202700
 V    8.1730501500    4.0865250700   10.0000000000
 V   10.2163126900    4.0865250700   12.0432625400
 V    8.1730501500    6.1297876100   12.0432625400
 V   10.2163126900    6.1297876100   10.0000000000
 V    8.2365977500    4.1696070300   14.1573338300
 V   10.2092968600    4.0997746000   16.0032176700
 V    8.2930543200    6.1459259800   16.0016634600
 V   10.1472452400    6.0660360500   14.1574966300
 V    8.1730501500    8.1730501500   10.0000000000
 V   10.2163126900    8.1730501500   12.0432625400
 V    8.1730501500   10.2163126900   12.0432625400
 V   10.2163126900   10.2163126900   10.0000000000
 V    8.2388145500    8.2207008500   14.1688841300
 V   10.1813885700    8.1900314300   16.0041528000
 V    8.1736172400   10.1609971900   16.0036003300
 V   10.1499464500   10.1491746600   14.1454249200
 N    0.0000000000    2.0432625400   10.0000000000
 N    2.0432625400    0.0000000000   10.0000000000
 N    0.0000000000    0.0000000000   12.0432625400
 N    2.0432625400    2.0432625400   12.0432625400
 N   -0.0509400500    2.0878026800   14.1082710900
 N    2.0877089700   -0.0547149400   14.1118477200
 N    0.0090717900    0.0206421700   16.3132996400
 N    2.0401344800    2.0394267800   16.2532939500
 N    0.0000000000    6.1297876100   10.0000000000
 N    2.0432625400    4.0865250700   10.0000000000
 N    0.0000000000    4.0865250700   12.0432625400
 N    2.0432625400    6.1297876100   12.0432625400
 N   -0.0284480600    6.1695903300   14.1075046300
 N    2.0853797600    4.0342736200   14.0980729300
 N    0.0024150700    4.0545822100   16.2887617800
 N    1.9780074100    6.1747713600   16.2589780300
 N    0.0000000000   10.2163126900   10.0000000000
 N    2.0432625400    8.1730501500   10.0000000000
 N    0.0000000000    8.1730501500   12.0432625400
 N    2.0432625400   10.2163126900   12.0432625400
 N   -0.0600727800   10.2769095100   14.1032473500
 N    2.1032837700    8.1228663800   14.1062095800
 N   -0.0108676700    8.1981715300   16.2242366300
 N    2.0465027700   10.2048701600   16.2858775700
 N    4.0865250700    2.0432625400   10.0000000000
 N    6.1297876100    0.0000000000   10.0000000000
 N    4.0865250700    0.0000000000   12.0432625400
 N    6.1297876100    2.0432625400   12.0432625400
 N    4.0440062400    2.0809344600   14.0998553900
 N    6.1712042000   -0.0432233100   14.1083037800
 N    4.0617341000    0.0254714600   16.3069418600
 N    6.1717911300    2.0103210200   16.3158980700
 N    4.0865250700    6.1297876100   10.0000000000
 N    6.1297876100    4.0865250700   10.0000000000
 N    4.0865250700    4.0865250700   12.0432625400
 N    6.1297876100    6.1297876100   12.0432625400
 N    4.0495363100    6.1718654500   14.1621010100
 N    6.1707257500    4.0527561000   14.1003344400
 N    4.0837407200    4.0522237500   16.2108046200
 N    6.1464232700    6.1191132700   16.2117594600
 N    4.0865250700   10.2163126900   10.0000000000
 N    6.1297876100    8.1730501500   10.0000000000
 N    4.0865250700    8.1730501500   12.0432625400
 N    6.1297876100   10.2163126900   12.0432625400
 N    4.0315049700   10.2480948700   14.1088605400
 N    6.1909018000    8.1311578900   14.1005654200
 N    4.1086619300    8.1931172700   16.1941063800
 N    6.1399506900   10.2611513200   16.2988660700
 N    8.1730501500    2.0432625400   10.0000000000
 N   10.2163126900    0.0000000000   10.0000000000
 N    8.1730501500    0.0000000000   12.0432625400
 N   10.2163126900    2.0432625400   12.0432625400
 N    8.1244716800    2.1030670400   14.1064263400
 N   10.2705385900   -0.0560089700   14.1032308200
 N    8.1896608500   -0.0017019800   16.2118913500
 N   10.1770254100    2.0457672700   16.2811533100
 N    8.1730501500    6.1297876100   10.0000000000
 N   10.2163126900    4.0865250700   10.0000000000
 N    8.1730501500    4.0865250700   12.0432625400
 N   10.2163126900    6.1297876100   12.0432625400
 N    8.1177936100    6.1804611800   14.1043812000
 N   10.2623379400    4.0360968100   14.1053500900
 N    8.1727596600    4.1252116500   16.2934071100
 N   10.2680887500    6.1386516200   16.2929095700
 N    8.1730501500   10.2163126900   10.0000000000
 N   10.2163126900    8.1730501500   10.0000000000
 N    8.1730501500    8.1730501500   12.0432625400
 N   10.2163126900   10.2163126900   12.0432625400
 N    8.1218732600   10.2589492200   14.1070255200
 N   10.2733638500    8.1224759500   14.1061935200
 N    8.1596026000    8.1488209800   16.3233084000
 N   10.2065612000   10.2177405600   16.2712027700
 S    3.9234990300    6.0222225900   18.6135269500
Li    6.1052295300    6.1289758800   18.1386773400
Li    2.1201156300    2.1719800300   18.1082603600
