147
Lattice="12.528217542377883 0.0 0.0 0.0 12.528217542377883 0.0 0.0 0.0 26.264105142970823" Properties=species:S:1:pos:R:3 bfgs_step=32 force_counter=32 energy_ry=-11945.52700729 energy_ev=-162527.17329190625 energy_eV=-162527.17329190625 source_out=VN_Li2S_combi_u1.out u_value=1 energy=-162527.17329190625 pbc="T T T"
V        0.00000000       0.00000000      10.00000000
V        2.08803719       0.00000000      12.08803719
V        0.00000000       2.08803719      12.08803719
V        2.08803719       2.08803719      10.00000000
N        0.00000000       2.08803719      10.00000000
N        2.08803719       0.00000000      10.00000000
N        0.00000000       0.00000000      12.08803719
N        2.08803719       2.08803719      12.08803719
V        0.00962778       0.00311214      14.22220811
V        2.08529814      -0.00183875      16.36568289
V        0.00851510       2.07509521      16.35407046
V        2.10377021       2.09606622      14.22238611
N        0.00732668       2.08842599      14.29414165
N        2.09389751       0.00301991      14.30167963
N        0.00539758      -0.00155153      16.40190371
N        2.09093929       2.08638559      16.40976980
V        0.00000000       4.17607438      10.00000000
V        2.08803719       4.17607438      12.08803719
V        0.00000000       6.26411156      12.08803719
V        2.08803719       6.26411156      10.00000000
N        0.00000000       6.26411156      10.00000000
N        2.08803719       4.17607438      10.00000000
N        0.00000000       4.17607438      12.08803719
N        2.08803719       6.26411156      12.08803719
V        0.00177424       4.17637131      14.21973684
V        2.03552750       4.17268169      16.35837794
V        0.02238731       6.27621857      16.35297129
V        2.12881439       6.26718162      14.28194067
N        0.01322995       6.26505947      14.29496407
N        2.09712773       4.18051175      14.29850989
N        0.00331359       4.17383274      16.40665056
N        2.08564277       6.26604501      16.37382559
V        0.00000000       8.35214875      10.00000000
V        2.08803719       8.35214875      12.08803719
V        0.00000000      10.44018594      12.08803719
V        2.08803719      10.44018594      10.00000000
N        0.00000000      10.44018594      10.00000000
N        2.08803719       8.35214875      10.00000000
N        0.00000000       8.35214875      12.08803719
N        2.08803719      10.44018594      12.08803719
V        0.00687199       8.35177002      14.22487313
V        2.08567243       8.36676997      16.40216830
V        0.00715469      10.44575062      16.34981088
V        2.09689512      10.44239655      14.22476488
N        0.00555839      10.44219280      14.29209047
N        2.09503508       8.35387094      14.30698848
N        0.00780698       8.36199764      16.40414318
N        2.09075105      10.44549595      16.40277432
V        4.17607438       0.00000000      10.00000000
V        6.26411156       0.00000000      12.08803719
V        4.17607438       2.08803719      12.08803719
V        6.26411156       2.08803719      10.00000000
N        4.17607438       2.08803719      10.00000000
N        6.26411156       0.00000000      10.00000000
N        4.17607438       0.00000000      12.08803719
N        6.26411156       2.08803719      12.08803719
V        4.17870265       0.00379458      14.23963930
V        6.28368330      -0.00275216      16.36732991
V        4.17976810       2.04373658      16.33987884
V        6.26267910       2.09237853      14.22273053
N        4.18268010       2.09807170      14.28400351
N        6.26945343       0.00474049      14.30247647
N        4.18133512      -0.00660639      16.41548557
N        6.27943531       2.07230410      16.40925888
V        4.17607438       4.17607438      10.00000000
V        6.26411156       4.17607438      12.08803719
V        4.17607438       6.26411156      12.08803719
V        6.26411156       6.26411156      10.00000000
N        4.17607438       6.26411156      10.00000000
N        6.26411156       4.17607438      10.00000000
N        4.17607438       4.17607438      12.08803719
N        6.26411156       6.26411156      12.08803719
V        4.18331734       4.20487625      14.32389118
V        6.32271921       4.12867766      16.39629452
V        4.15232989       6.31006107      16.68122251
V        6.24414380       6.26563203      14.31575851
N        4.18587956       6.26319297      14.22099414
N        6.26578540       4.18137844      14.30544072
N        4.17580701       4.14538607      16.44623012
N        6.30859713       6.27493212      16.41481117
V        4.17607438       8.35214875      10.00000000
V        6.26411156       8.35214875      12.08803719
V        4.17607438      10.44018594      12.08803719
V        6.26411156      10.44018594      10.00000000
N        4.17607438      10.44018594      10.00000000
N        6.26411156       8.35214875      10.00000000
N        4.17607438       8.35214875      12.08803719
N        6.26411156      10.44018594      12.08803719
V        4.18055481       8.32167733      14.27817223
V        6.27358933       8.41780221      16.35731372
V        4.17563321      10.43153339      16.35181335
V        6.26938040      10.45277264      14.21736395
N        4.18233792      10.43813203      14.29328870
N        6.26797296       8.35410098      14.29510690
N        4.18438144       8.37005617      16.36617665
N        6.27694932      10.45256081      16.40520764
V        8.35214875       0.00000000      10.00000000
V       10.44018594       0.00000000      12.08803719
V        8.35214875       2.08803719      12.08803719
V       10.44018594       2.08803719      10.00000000
N        8.35214875       2.08803719      10.00000000
N       10.44018594       0.00000000      10.00000000
N        8.35214875       0.00000000      12.08803719
N       10.44018594       2.08803719      12.08803719
V        8.36047237       0.00319606      14.22917678
V       10.45548314      -0.00341672      16.35937189
V        8.37172211       2.08005571      16.35431477
V       10.44454500       2.09020398      14.22929774
N        8.35604979       2.09167241      14.29384036
N       10.44791270       0.00053424      14.29707179
N        8.37125064      -0.00020809      16.39984683
N       10.45082562       2.08030159      16.40089665
V        8.35214875       4.17607438      10.00000000
V       10.44018594       4.17607438      12.08803719
V        8.35214875       6.26411156      12.08803719
V       10.44018594       6.26411156      10.00000000
N        8.35214875       6.26411156      10.00000000
N       10.44018594       4.17607438      10.00000000
N        8.35214875       4.17607438      12.08803719
N       10.44018594       6.26411156      12.08803719
V        8.35430003       4.18507115      14.22430670
V       10.45676540       4.16729213      16.37075122
V        8.41180183       6.27189178      16.32299827
V       10.45116380       6.26547785      14.23673116
N        8.35247321       6.26536343      14.27098054
N       10.44576873       4.17731119      14.30288850
N        8.37806014       4.17541106      16.40661586
N       10.45823766       6.26954707      16.41570633
V        8.35214875       8.35214875      10.00000000
V       10.44018594       8.35214875      12.08803719
V        8.35214875      10.44018594      12.08803719
V       10.44018594      10.44018594      10.00000000
N        8.35214875      10.44018594      10.00000000
N       10.44018594       8.35214875      10.00000000
N        8.35214875       8.35214875      12.08803719
N       10.44018594      10.44018594      12.08803719
V        8.35421512       8.34429974      14.22329570
V       10.45590428       8.36651861      16.36655038
V        8.37519641      10.44373706      16.35218265
V       10.44405030      10.43767929      14.22333701
N        8.35817066      10.44049149      14.29319285
N       10.44681135       8.35213090      14.30193044
N        8.36465746       8.35806239      16.40754916
N       10.45195856      10.44652251      16.39990275
S        4.28550017       6.25968624      19.10104363
Li       6.37289098       6.33269470      18.41323561
Li       2.09093929       2.08638559      18.50104363
