152
Lattice="13.175790690290984 0.0 0.0 0.0 13.175790690290984 0.0 0.0 0.0 26.587889186612337" Properties=species:S:1:pos:R:3:forces:R:3 energy=-138057.94215120067 free_energy=-138057.94215120067 pbc="T T T"
Nb       0.00000000       0.00000000      10.00000000      -0.07076704      -0.11893126       2.30685958
Nb       2.19596509       0.00000000      12.19596509       0.14693392      -0.13466487      -0.57005934
Nb       0.00000000       2.19596509      12.19596509      -0.19917231       0.20108058      -0.36145468
Nb       2.19596509       2.19596509      10.00000000       0.06187026       0.02832430       2.37253172
Nb      -0.09964359      -0.10530954      14.44687183       0.01314862       0.01665432       0.00276574
Nb       2.21112737      -0.03790124      16.45029698      -0.00056796      -0.00731787      -0.00038721
Nb      -0.03538859       2.18581386      16.44125703       0.00493909       0.01033892       0.01928045
Nb       2.31283484       2.32332790      14.45131588      -0.02130545       0.00246080      -0.00812186
Nb       0.00000000       4.39193020      10.00000000      -0.00832729      -0.06999597       2.38130613
Nb       2.19596509       4.39193020      12.19596509       0.13956668      -0.13279748      -0.42761688
Nb       0.00000000       6.58789529      12.19596509      -0.16192962       0.08971479      -0.45638495
Nb       2.19596509       6.58789529      10.00000000       0.10458656       0.07818570       2.37849951
Nb      -0.11670511       4.29166789      14.47914769      -0.00016121      -0.01674431       0.00509438
Nb       2.22818271       4.29148444      16.52743958       0.00043786      -0.00261970       0.00324910
Nb       0.02982163       6.59863511      16.46632728      -0.00464213       0.00178075       0.00926034
Nb       2.31283972       6.67298862      14.47660161       0.00309741      -0.01028030       0.00939533
Nb       0.00000000       8.78386040      10.00000000      -0.05202216      -0.01772827       2.21927778
Nb       2.19596509       8.78386040      12.19596509       0.18314353      -0.23190168      -0.27680574
Nb       0.00000000      10.97982549      12.19596509      -0.11836665       0.16125265      -0.62161458
Nb       2.19596509      10.97982549      10.00000000       0.06789229       0.07222897       2.27273949
Nb      -0.10712172       8.67231924      14.46596169       0.00583666      -0.00125727       0.01566573
Nb       2.19274725       8.79875577      16.45758571       0.00328330       0.00124364       0.00351084
Nb      -0.01521002      10.97733903      16.45458106       0.00496377       0.00184759       0.00376847
Nb       2.29555309      11.07235217      14.46214816      -0.00390242       0.01562639       0.00107446
Nb       4.39193020       0.00000000      10.00000000      -0.08425068      -0.08250721       2.35848579
Nb       6.58789529       0.00000000      12.19596509       0.12696082      -0.19851025      -0.33650881
Nb       4.39193020       2.19596509      12.19596509      -0.08943351       0.17096833      -0.28995205
Nb       6.58789529       2.19596509      10.00000000       0.03394859       0.00631849       2.37089393
Nb       4.29552154      -0.06260273      14.47175742       0.00188565       0.00948146       0.01111128
Nb       6.61259029      -0.00782326      16.46049985       0.00019180       0.00761638      -0.00476554
Nb       4.35303458       2.15665892      16.59955187       0.00240732       0.00449609       0.00404743
Nb       6.68057025       2.30863871      14.49594808      -0.01306198       0.00136268      -0.00912922
Nb       4.39193020       4.39193020      10.00000000      -0.17220401      -0.08988859       2.48077002
Nb       6.58789529       4.39193020      12.19596509       0.16671033      -0.00193476      -0.19012639
Nb       4.39193020       6.58789529      12.19596509      -0.02874133      -0.00492880      -0.43166302
Nb       6.58789529       6.58789529      10.00000000      -0.01995793       0.11218237       2.62991329
Nb       4.27239880       4.30215403      14.46380455       0.00577007       0.00397261      -0.01061634
Nb       6.57836893       4.30974253      16.46712028       0.00304547       0.00117628       0.01233770
Nb       4.30727530       6.67813525      16.60068679      -0.00523451      -0.00302799       0.00464830
Nb       6.67494206       6.69787507      14.46919408       0.00107292       0.00776113      -0.02475432
Nb       4.39193020       8.78386040      10.00000000      -0.09959271       0.00869753       2.40941317
Nb       6.58789529       8.78386040      12.19596509       0.13604992      -0.22832013      -0.04117750
Nb       4.39193020      10.97982549      12.19596509      -0.15410190       0.14642741      -0.66355699
Nb       6.58789529      10.97982549      10.00000000       0.05140869       0.04909419       2.42439781
Nb       4.34580880       8.66365278      14.45614428       0.00192653      -0.00175581      -0.00531936
Nb       6.61899862       8.80611798      17.08977563       0.01994302       0.01304064      -0.02138721
Nb       4.34876241      10.95345002      16.45077615       0.01232047       0.00997382      -0.00342008
Nb       6.68342360      11.05599758      14.44579523      -0.00623210      -0.00772231      -0.00418370
Nb       8.78386040       0.00000000      10.00000000      -0.06752617      -0.15259523       2.30940394
Nb      10.97982549       0.00000000      12.19596509       0.15392269      -0.10401784      -0.53099965
Nb       8.78386040       2.19596509      12.19596509      -0.23298874       0.18163378      -0.19379022
Nb      10.97982549       2.19596509      10.00000000       0.06975994       0.03965284       2.38402481
Nb       8.67898174      -0.06378341      14.49056729      -0.00008125      -0.00851395      -0.00095131
Nb      10.97161341      -0.02945542      16.45673991      -0.00769994      -0.00404974      -0.00646144
Nb       8.77591958       2.18370409      16.60910705       0.00608349       0.01180239      -0.01383511
Nb      11.06459396       2.32406923      14.46869023       0.01927505      -0.00974088       0.00332829
Nb       8.78386040       4.39193020      10.00000000       0.02616972      -0.09146211       2.58588135
Nb      10.97982549       4.39193020      12.19596509       0.22261125      -0.16157147      -0.40096251
Nb       8.78386040       6.58789529      12.19596509      -0.19840817       0.07890510      -0.22104982
Nb      10.97982549       6.58789529      10.00000000       0.03577304       0.05983497       2.38435957
Nb       8.64546018       4.26438836      14.39735628       0.01506358       0.00611794       0.00632003
Nb      10.96460649       4.36624853      16.52938287       0.01403462      -0.00129764       0.01735572
Nb       8.82926456       6.63841456      16.57302584      -0.00234022       0.00201703       0.00471746
Nb      11.01843116       6.66923808      14.47545461       0.00653960       0.00424361      -0.00502239
Nb       8.78386040       8.78386040      10.00000000      -0.02492119       0.06651264       2.41653281
Nb      10.97982549       8.78386040      12.19596509       0.05524581      -0.24907022      -0.39690685
Nb       8.78386040      10.97982549      12.19596509      -0.15352700       0.15916311      -0.61066605
Nb      10.97982549      10.97982549      10.00000000       0.05475138       0.08028861       2.25279082
Nb       8.66971987       8.65746559      14.43823020       0.00381037      -0.00668641      -0.00666430
Nb      11.00086099       8.77380866      16.45832814      -0.01110382      -0.00089114      -0.00188050
Nb       8.79510985      10.98151677      16.44856505       0.00621718      -0.01201759      -0.00037718
Nb      11.07084809      11.07712849      14.45845347      -0.00499874      -0.00256879       0.01621055
N        0.00000000       2.19596509      10.00000000       0.01995510      -0.01929202      -1.41799322
N        2.19596509       0.00000000      10.00000000      -0.01270845      -0.02230715      -1.43320618
N        0.00000000       0.00000000      12.19596509       0.05248187       0.03647495      -0.36430732
N        2.19596509       2.19596509      12.19596509      -0.07077836      -0.06849933      -0.44417993
N        0.09907893       2.09000231      14.38822754      -0.00075256      -0.00061809       0.00344091
N        2.09021889       0.10981543      14.39479316       0.00194812       0.01666023      -0.00836148
N       -0.00505296      -0.01525811      16.73680647      -0.00816274       0.00522680      -0.00959253
N        2.14221587       2.11709691      16.64124783      -0.00325656       0.01634836       0.00985992
N        0.00000000       6.58789529      10.00000000       0.02143297      -0.01593724      -1.41327190
N        2.19596509       4.39193020      10.00000000      -0.03347293       0.04732013      -1.62566276
N        0.00000000       4.39193020      12.19596509       0.00439710       0.05599606      -0.43370268
N        2.19596509       6.58789529      12.19596509      -0.06385875      -0.02130313      -0.40651558
N        0.07414668       6.47964493      14.41022332      -0.00109272      -0.00541500       0.02089536
N        2.07561187       4.50613894      14.35536942      -0.01141236       0.00024837      -0.00026225
N        0.00187034       4.38068618      16.72310414       0.00740992      -0.00373453      -0.01954218
N        2.15581324       6.56696870      16.70611406       0.00967352      -0.00359877       0.00922332
N        0.00000000      10.97982549      10.00000000      -0.00450843      -0.00398495      -1.39349292
N        2.19596509       8.78386040      10.00000000       0.00466398       0.02781959      -1.37297706
N        0.00000000       8.78386040      12.19596509       0.02804071       0.06468278      -0.21797555
N        2.19596509      10.97982549      12.19596509      -0.05473647      -0.03111935      -0.21427137
N        0.09836718      10.86630474      14.40005430       0.01233975      -0.00050934       0.00911019
N        2.10457206       8.87940126      14.40371131       0.00374661      -0.01029855       0.00601124
N        0.00817568       8.78160410      16.76317358      -0.00884485       0.00952131      -0.01933418
N        2.16659314      10.97194328      16.77339125       0.02012377       0.00533761      -0.01317613
N        4.39193020       2.19596509      10.00000000       0.02723415      -0.02717553      -1.64103925
N        6.58789529       0.00000000      10.00000000      -0.00101224      -0.06441128      -1.43139021
N        4.39193020       0.00000000      12.19596509       0.04352569       0.01556032      -0.40652535
N        6.58789529       2.19596509      12.19596509      -0.05391578      -0.10195915      -0.34893547
N        4.49653233       2.11311647      14.37854781       0.00733073      -0.00770842      -0.00719857
N        6.48142185       0.10997404      14.40511526       0.01408193       0.00544817      -0.01146506
N        4.40118838      -0.05166996      16.73628100       0.00328150       0.01029855      -0.01214563
N        6.56677783       2.15209800      16.71811840       0.00099656       0.02744318      -0.00141976
N        4.39193020       6.58789529      10.00000000      -0.01145864       0.00151001      -1.67899953
N        6.58789529       4.39193020      10.00000000      -0.02740076       0.01653451      -1.52164776
N        4.39193020       4.39193020      12.19596509       0.05766470       0.06135243      -0.72079926
N        6.58789529       6.58789529      12.19596509      -0.06744749      -0.00014835      -0.66811041
N        4.48878689       6.47737365      14.38321454      -0.00157506      -0.01713512      -0.02546652
N        6.46402315       4.49434786      14.38654270      -0.03514107       0.02069121      -0.01167409
N        4.40374476       4.39990028      16.60881636       0.00565154       0.00212784       0.00057953
N        6.58529168       6.62777876      16.57913429      -0.00930379      -0.00863505       0.00458813
N        4.39193020      10.97982549      10.00000000       0.02361713      -0.00087366      -1.44704771
N        6.58789529       8.78386040      10.00000000      -0.03285664       0.08391052      -1.69100246
N        4.39193020       8.78386040      12.19596509       0.04697225       0.08478264      -0.54840628
N        6.58789529      10.97982549      12.19596509      -0.08294996      -0.08973921      -0.66609647
N        4.48937275      10.89082767      14.39656873       0.00072814       0.00439787      -0.01093310
N        6.51724610       8.85712870      14.46519732       0.00756547       0.00071631      -0.00264232
N        4.43181539       8.82246493      16.67028938      -0.00141848      -0.01021319       0.01458150
N        6.58553742      10.95247016      16.64229557      -0.00089552       0.00225871      -0.00299251
N        8.78386040       2.19596509      10.00000000       0.02116172      -0.04581423      -1.60808182
N       10.97982549       0.00000000      10.00000000      -0.02659061      -0.00591868      -1.42973288
N        8.78386040       0.00000000      12.19596509       0.04699668       0.01739968      -0.29233134
N       10.97982549       2.19596509      12.19596509      -0.05444157      -0.08510043      -0.43041372
N        8.88040696       2.09578341      14.39272922       0.00604158       0.00113360      -0.00450252
N       10.87623108       0.11141901      14.39917075       0.00327893       0.01050733      -0.00174681
N        8.79041262      -0.02401923      16.77473856       0.00387002       0.00459996      -0.00567365
N       10.98088331       2.16527323      16.68640352       0.00180646      -0.00293466      -0.00053222
N        8.78386040       6.58789529      10.00000000       0.01748633       0.01501601      -1.61738818
N       10.97982549       4.39193020      10.00000000      -0.01119150       0.02886603      -1.57476803
N        8.78386040       4.39193020      12.19596509       0.11286320       0.10640639      -1.12939332
N       10.97982549       6.58789529      12.19596509      -0.01725904      -0.01109971      -0.54007333
N        8.84670981       6.46575905      14.38533306      -0.01162961       0.00372733       0.00554690
N       10.85550549       4.49816851      14.38024999       0.01547238      -0.00334655      -0.02400253
N        8.76108458       4.40020658      16.49448238       0.00654166       0.00378004      -0.02139878
N       11.03736302       6.57865486      16.68935425      -0.00390113       0.01725467      -0.02478081
N        8.78386040      10.97982549      10.00000000       0.02944247      -0.00250965      -1.45298079
N       10.97982549       8.78386040      10.00000000      -0.00021160       0.01319593      -1.37344243
N        8.78386040       8.78386040      12.19596509       0.06130744       0.04791354      -0.53007765
N       10.97982549      10.97982549      12.19596509      -0.03631683      -0.03197450      -0.28762365
N        8.88208411      10.88556229      14.39498460       0.00795602       0.00564151      -0.00235076
N       10.87903682       8.89129072      14.39862265      -0.00203194       0.00404409      -0.00375715
N        8.77398483       8.81967223      16.65581070       0.00438013       0.02119026      -0.00736878
N       10.99043018      10.96338803      16.76760204       0.00063635       0.01108737      -0.00591071
S       10.14507474       4.41423044      19.07329782       0.00084409       0.00279633      -0.00901172
S        8.92119438       6.12584844      19.04910072       0.00307864      -0.00408934      -0.00644087
S        6.67469269       8.86618096      19.25660548      -0.00120868      -0.01239349       0.01842555
S        4.45875581       6.58853220      19.10287845       0.02542410      -0.00886696       0.01885390
S        2.88911974       5.58324307      19.96680088       0.00206100       0.00459405      -0.00268166
S        2.49758519       3.75633628      19.05469142      -0.02793195       0.02706112      -0.01198237
S        4.11599844       2.41190310      19.09562141       0.01075235       0.02857704       0.00775959
S        8.88820010       2.72716906      19.07554478       0.01038186      -0.00496017      -0.00931408
