154
Lattice="13.175790690290984 0.0 0.0 0.0 13.175790690290984 0.0 0.0 0.0 26.587889186612337" Properties=species:S:1:pos:R:3:forces:R:3 energy=-138454.33236381627 free_energy=-138454.33236381627 pbc="T T T"
Nb       0.00000000       0.00000000      10.00000000      -0.08642609       0.05700984       2.26989663
Nb       2.19596509       0.00000000      12.19596509       0.17719195       0.15355219      -0.56355445
Nb       0.00000000       2.19596509      12.19596509      -0.17654248      -0.11643678      -0.58094796
Nb       2.19596509       2.19596509      10.00000000       0.00164885      -0.09366992       2.26218100
Nb      -0.10381912       0.10171417      14.47015776      -0.00456345       0.00202346      -0.02954198
Nb       2.17760701      -0.01001316      16.45615018       0.00080270       0.00631874      -0.00213787
Nb       0.01649123       2.17418922      16.46230738      -0.01485095      -0.00282796      -0.00086646
Nb       2.29897861       2.09771147      14.46343421      -0.01927453       0.00102356      -0.00165065
Nb       0.00000000       4.39193020      10.00000000      -0.03232879       0.01160056       2.29251899
Nb       2.19596509       4.39193020      12.19596509       0.13412031       0.14138548      -0.44676440
Nb       0.00000000       6.58789529      12.19596509      -0.08838013      -0.14069076      -0.29060459
Nb       2.19596509       6.58789529      10.00000000       0.12270976      -0.03120008       2.32489509
Nb      -0.11137732       4.49389184      14.46218731       0.00553147      -0.00150230      -0.00100916
Nb       2.19321970       4.40749631      16.44506700       0.00875229      -0.01124780       0.00071194
Nb       0.01126083       6.56557551      16.43278363       0.00743023      -0.00589451       0.01779126
Nb       2.32240061       6.47858098      14.44444318       0.01366773      -0.00257162       0.00333395
Nb       0.00000000       8.78386040      10.00000000      -0.01305786       0.11214792       2.32010873
Nb       2.19596509       8.78386040      12.19596509       0.07615376       0.11702119      -0.59445551
Nb       0.00000000      10.97982549      12.19596509      -0.13081567      -0.15661746      -0.60078299
Nb       2.19596509      10.97982549      10.00000000       0.01457738      -0.05439991       2.29042611
Nb      -0.10974766       8.88364938      14.45881852       0.01216697      -0.00667793       0.01545901
Nb       2.21235662       8.82934178      16.45232301      -0.00392865      -0.01008669       0.00285624
Nb      -0.01228943      10.97680929      16.45962904      -0.00934005       0.00258293      -0.00334218
Nb       2.30211535      10.87434849      14.46980267       0.00112152       0.01633602       0.00028076
Nb       4.39193020       0.00000000      10.00000000      -0.10418573       0.03920187       2.26712549
Nb       6.58789529       0.00000000      12.19596509       0.11586651       0.14298882      -0.34284761
Nb       4.39193020       2.19596509      12.19596509      -0.08155616      -0.06104545      -0.44853640
Nb       6.58789529       2.19596509      10.00000000       0.06556133      -0.02043384       2.44708626
Nb       4.29673167       0.09371324      14.45667446      -0.02050018      -0.01403308       0.01461672
Nb       6.63539335       0.00681017      16.44382428      -0.01268788      -0.02596454      -0.00034401
Nb       4.32880754       2.16769200      16.44491125       0.01269714      -0.01173889      -0.00920789
Nb       6.71738025       2.10653030      14.42450620      -0.01561662       0.00678257      -0.00301128
Nb       4.39193020       4.39193020      10.00000000      -0.07097325       0.05727004       2.42043652
Nb       6.58789529       4.39193020      12.19596509       0.20093428       0.19843286      -0.32306323
Nb       4.39193020       6.58789529      12.19596509      -0.06669107      -0.12926298      -0.01588402
Nb       6.58789529       6.58789529      10.00000000       0.02855339      -0.05061114       2.38698235
Nb       4.31230979       4.50684007      14.44211190      -0.00237956       0.00135343      -0.02245473
Nb       6.62502576       4.38779041      16.57314919       0.00580992       0.00470743      -0.03053828
Nb       4.34248764       6.51604336      16.85600477      -0.00950177      -0.01190549      -0.00671675
Nb       6.67382189       6.48301499      14.54795122       0.00178486       0.00886079      -0.00218981
Nb       4.39193020       8.78386040      10.00000000      -0.08114402       0.08071001       2.35899178
Nb       6.58789529       8.78386040      12.19596509       0.18230690       0.09605256      -0.44534823
Nb       4.39193020      10.97982549      12.19596509      -0.10342494      -0.17768817      -0.42356431
Nb       6.58789529      10.97982549      10.00000000       0.03397199      -0.11815222       2.35907945
Nb       4.34719668       8.84613463      14.46054458       0.00241658      -0.02538090       0.01462469
Nb       6.50362011       8.85967184      16.57457607       0.01894543       0.00913693      -0.01217417
Nb       4.35849750      11.00090534      16.46039626      -0.01698471      -0.01129177       0.00081504
Nb       6.69052470      10.84093937      14.44450557       0.00515146       0.01204562       0.01362608
Nb       8.78386040       0.00000000      10.00000000       0.01240172       0.07814457       2.30077609
Nb      10.97982549       0.00000000      12.19596509       0.10017429       0.10003520      -0.63904255
Nb       8.78386040       2.19596509      12.19596509      -0.11510340      -0.12823711      -0.24006776
Nb      10.97982549       2.19596509      10.00000000       0.08961631      -0.15610659       2.28721789
Nb       8.68713959       0.12410398      14.47771054      -0.01064385      -0.00552581      -0.00985272
Nb      11.00009008      -0.00057237      16.47184600       0.00821570       0.02334536      -0.00656737
Nb       8.75862820       2.18898741      16.63987587       0.01146815       0.00448889      -0.00668384
Nb      11.03164589       2.13181817      14.49130155       0.01154708      -0.00592408      -0.01919766
Nb       8.78386040       4.39193020      10.00000000      -0.07843073       0.03038144       2.42993726
Nb      10.97982549       4.39193020      12.19596509       0.15094124       0.16068855      -0.39879995
Nb       8.78386040       6.58789529      12.19596509      -0.23819677      -0.18665823      -0.10875458
Nb      10.97982549       6.58789529      10.00000000       0.03079076      -0.04447083       2.47522827
Nb       8.63966928       4.52365307      14.45325926      -0.01758557      -0.00355686      -0.01936812
Nb      11.00802040       4.34918614      16.45817194       0.00141771       0.00607834      -0.01310954
Nb       8.83722702       6.58910308      16.57565426       0.00875152       0.02518961      -0.01307817
Nb      11.06773151       6.50075545      14.40476755       0.00207822      -0.02539736       0.01765037
Nb       8.78386040       8.78386040      10.00000000      -0.05196842       0.09051389       2.43173523
Nb      10.97982549       8.78386040      12.19596509       0.07465121       0.11256187      -0.20416102
Nb       8.78386040      10.97982549      12.19596509      -0.18052204      -0.11927528      -0.31247568
Nb      10.97982549      10.97982549      10.00000000       0.11983115       0.00313906       2.30268025
Nb       8.68127033       8.86376850      14.44772672      -0.01168386       0.01105266      -0.00786012
Nb      10.99523549       8.81203636      16.62704155       0.00228391       0.01210964      -0.00957633
Nb       8.79834899      10.96990169      16.45776402       0.00411351      -0.01064745       0.01689755
Nb      11.06755419      10.87084880      14.47719549       0.01066648       0.00575619       0.00102381
N        0.00000000       2.19596509      10.00000000      -0.00998591       0.00075488      -1.40802094
N        2.19596509       0.00000000      10.00000000      -0.03497240      -0.00963212      -1.40185312
N        0.00000000       0.00000000      12.19596509       0.05107316      -0.04050644      -0.20193676
N        2.19596509       2.19596509      12.19596509      -0.02075960       0.04338120      -0.23734522
N        0.08867545       2.30025018      14.40557268       0.01483886      -0.00014398      -0.01575906
N        2.08952616      -0.10791696      14.40123766       0.02016722      -0.00400244      -0.01655199
N        0.00446883      -0.00643797      16.77532138      -0.00857617       0.00079781      -0.00224792
N        2.17344316       2.18890032      16.76782695       0.01338028       0.00437293      -0.01510395
N        0.00000000       6.58789529      10.00000000       0.01484529       0.00150898      -1.40853336
N        2.19596509       4.39193020      10.00000000       0.01070813      -0.01273647      -1.45041277
N        0.00000000       4.39193020      12.19596509       0.05435569      -0.05189746      -0.26693142
N        2.19596509       6.58789529      12.19596509      -0.07078607       0.06385926      -0.52357636
N        0.10203846       6.69747791      14.37921493      -0.01236752       0.00114568       0.02009111
N        2.09301419       4.28193354      14.38648330      -0.01137096      -0.00468918       0.00791540
N        0.00959815       4.37907319      16.74777687       0.01701402      -0.02390715       0.03177755
N        2.17785701       6.61005596      16.67649092      -0.01243823      -0.00555461       0.00441047
N        0.00000000      10.97982549      10.00000000       0.01858882       0.02773346      -1.42346041
N        2.19596509       8.78386040      10.00000000      -0.01630311      -0.01260586      -1.43367798
N        0.00000000       8.78386040      12.19596509       0.03574013      -0.02971964      -0.39166180
N        2.19596509      10.97982549      12.19596509      -0.02269127       0.03376861      -0.16172187
N        0.10020757      11.08373001      14.40242889      -0.01304732       0.00066643      -0.00831752
N        2.12081409       8.67621012      14.39613560       0.00285984      -0.01354946       0.01440743
N        0.03126010       8.77399098      16.71671336      -0.00848567       0.00113000      -0.01231456
N        2.17461913      10.99780815      16.77445173       0.00847847      -0.00256879      -0.01781826
N        4.39193020       2.19596509      10.00000000      -0.00400192       0.00684993      -1.40112858
N        6.58789529       0.00000000      10.00000000       0.00506173       0.01463626      -1.44560789
N        4.39193020       0.00000000      12.19596509       0.03957828      -0.03871361      -0.33138640
N        6.58789529       2.19596509      12.19596509      -0.10374453       0.02706935      -0.81854617
N        4.50285529       2.29003320      14.38465228      -0.02454529      -0.00365148       0.00403072
N        6.48804292      -0.10925189      14.38942599      -0.00139482       0.01379654      -0.01485635
N        4.39267528      -0.00048715      16.73604599       0.00542451       0.00950305       0.00177638
N        6.54288261       2.17186553      16.57568439      -0.00104438       0.00039441      -0.00012856
N        4.39193020       6.58789529      10.00000000       0.02026158       0.04684087      -1.57668351
N        6.58789529       4.39193020      10.00000000      -0.04526247      -0.00435982      -1.64331596
N        4.39193020       4.39193020      12.19596509       0.02544955      -0.04965212      -0.70972140
N        6.58789529       6.58789529      12.19596509      -0.06644553       0.05091324      -0.32077289
N        4.49102258       6.66986626      14.46476000       0.01050733       0.00130509      -0.00445624
N        6.47510901       4.29431972      14.36868413      -0.00447012      -0.00914901       0.02201250
N        4.38858607       4.34390685      16.62003230       0.01509546       0.00138223      -0.01315711
N        6.58702538       6.62234967      16.75197981       0.01279175       0.00697386      -0.02097506
N        4.39193020      10.97982549      10.00000000       0.00186842      -0.03539124      -1.41053059
N        6.58789529       8.78386040      10.00000000       0.00250863      -0.03495106      -1.59254207
N        4.39193020       8.78386040      12.19596509       0.02122703      -0.06276423      -0.63772923
N        6.58789529      10.97982549      12.19596509      -0.05808199       0.10564380      -0.49919665
N        4.49883327      11.07697947      14.39143483       0.00647918      -0.00175169       0.00558212
N        6.51083147       8.65343484      14.38256661       0.00627555      -0.01746807       0.02755914
N        4.34997878       8.77173594      16.67882430      -0.00231656       0.01604934       0.00776267
N        6.57946109      11.03467738      16.63766199       0.00277551      -0.00116985       0.01046336
N        8.78386040       2.19596509      10.00000000       0.05569395       0.00679183      -1.56754246
N       10.97982549       0.00000000      10.00000000       0.00072557      -0.00611640      -1.40773323
N        8.78386040       0.00000000      12.19596509       0.05834707      -0.04508944      -0.27499182
N       10.97982549       2.19596509      12.19596509      -0.02321963       0.03849121      -0.37546488
N        8.88048943       2.31627885      14.40304271      -0.01604651      -0.00100170       0.00502394
N       10.87458902      -0.08216180      14.41205805      -0.00643830      -0.01210450      -0.01047416
N        8.80216598      -0.02020565      16.74619847      -0.00230705       0.00544071       0.00665787
N       11.00028675       2.18009024      16.76091101      -0.00455754      -0.00678128       0.00996482
N        8.78386040       6.58789529      10.00000000      -0.05279092       0.00523399      -1.61560307
N       10.97982549       4.39193020      10.00000000      -0.02209632      -0.01031758      -1.44859912
N        8.78386040       4.39193020      12.19596509       0.07886808      -0.08115533      -0.61852360
N       10.97982549       6.58789529      12.19596509      -0.03643536       0.08687372      -1.07781004
N        8.87350254       6.69233680      14.37622108       0.00769300      -0.00508101       0.01030755
N       10.85383005       4.31013327      14.39084191       0.00026534       0.00628403      -0.00371884
N        8.82842627       4.38394070      16.60328058       0.00849261       0.00607372       0.00595853
N       11.03326789       6.56834067      16.53595153      -0.00857514       0.01132031       0.01631596
N        8.78386040      10.97982549      10.00000000      -0.00394587      -0.01391970      -1.42628477
N       10.97982549       8.78386040      10.00000000       0.02369966       0.04140710      -1.53138787
N        8.78386040       8.78386040      12.19596509       0.06940153      -0.03917564      -0.85260660
N       10.97982549      10.97982549      12.19596509      -0.02609233       0.02269616      -0.23886165
N        8.88479053      11.08430799      14.39352941      -0.00642313       0.00236130      -0.00694969
N       10.88355384       8.68989811      14.41812745       0.00013267      -0.00922666      -0.00281099
N        8.76382877       8.79506958      16.59590256       0.00305858       0.02183484      -0.00590557
N       10.97933039      11.00636741      16.76771881       0.00019258      -0.00542734      -0.00203760
S        4.25642477       6.32936237      19.12787464      -0.00336172      -0.02989782      -0.00739269
S        6.83426662       3.98053484      19.02790197       0.00556412       0.02315047      -0.00010850
S        8.35337951       2.52175953      19.08115852      -0.01450154       0.00818022       0.00500748
S        9.35357569       6.69052971      18.99689552      -0.00433025       0.00889190       0.00407957
S       10.67708009       8.30567327      19.03641270       0.00185711       0.00807275       0.00208748
S        6.60700189       9.56731252      19.07448132       0.02412209      -0.00086903      -0.00368568
S        5.67079752       8.62563715      20.68245032      -0.00348153      -0.01150569      -0.01287274
S        6.83544729       7.16212233      21.48519852      -0.02005023       0.00514375       0.00714330
Li       5.67441725       5.24584105      20.71574571      -0.00336609       0.01493554      -0.00889627
Li       6.84312298       6.94931799      18.97151284       0.01610770      -0.02035362      -0.02895011
