150
Lattice="13.175790690290984 0.0 0.0 0.0 13.175790690290984 0.0 0.0 0.0 26.587889186612337" Properties=species:S:1:pos:R:3:forces:R:3 energy=-137137.85174244476 free_energy=-137137.85174244476 pbc="T T T"
Nb       0.00000000       0.00000000      10.00000000       0.06484142       0.06311930       2.24291136
Nb       2.19596509       0.00000000      12.19596509      -0.14064089       0.17200629      -0.60665359
Nb       0.00000000       2.19596509      12.19596509       0.19437180      -0.15754100      -0.60272340
Nb       2.19596509       2.19596509      10.00000000      -0.11766911      -0.10776856       2.22514812
Nb       0.10153990       0.09727121      14.44379662      -0.00326093      -0.00056153      -0.01134602
Nb       2.16647626       0.00243320      16.45183215       0.00188873       0.00455934       0.00238984
Nb       0.00301280       2.15982121      16.45214792       0.00739449       0.00224843       0.00002957
Nb       2.09697045       2.09364287      14.44572535       0.00853401       0.00113874      -0.01183273
Nb       0.00000000       4.39193020      10.00000000       0.06935988       0.05018665       2.24170217
Nb       2.19596509       4.39193020      12.19596509      -0.03665236       0.18581620      -0.54512092
Nb       0.00000000       6.58789529      12.19596509       0.21046253      -0.17375824      -0.52573275
Nb       2.19596509       6.58789529      10.00000000      -0.06316198      -0.04701725       2.36445409
Nb       0.09854503       4.48630610      14.45039851       0.01081303       0.00268860      -0.01173709
Nb       2.11078801       4.38142869      16.44798049      -0.00627426      -0.01415649      -0.00532347
Nb      -0.00994234       6.57197200      16.45372015      -0.02871305       0.00351316      -0.00733561
Nb       2.11492585       6.47327947      14.44732297      -0.00769943      -0.00260453      -0.02448564
Nb       0.00000000       8.78386040      10.00000000       0.04368073       0.08022202       2.27130919
Nb       2.19596509       8.78386040      12.19596509      -0.14720183       0.13450829      -0.52812233
Nb       0.00000000      10.97982549      12.19596509       0.19040510      -0.19670508      -0.59932877
Nb       2.19596509      10.97982549      10.00000000      -0.09295489      -0.03632403       2.26889801
Nb       0.10791689       8.88103905      14.44553683       0.01365924      -0.00001903       0.00371859
Nb       2.17533651       8.79583651      16.44745274      -0.00698209       0.00929788       0.00713044
Nb       0.00330471      10.96875444      16.44836664       0.00922743      -0.00048800      -0.00781513
Nb       2.09311553      10.86648037      14.44526916       0.00463981      -0.00885976      -0.00089629
Nb       4.39193020       0.00000000      10.00000000       0.04033290       0.05901736       2.23917451
Nb       6.58789529       0.00000000      12.19596509      -0.17930848       0.20219515      -0.49708706
Nb       4.39193020       2.19596509      12.19596509       0.19866040      -0.06601256      -0.52306960
Nb       6.58789529       2.19596509      10.00000000      -0.02961551      -0.05066333       2.37308734
Nb       4.49144965       0.09486405      14.44867504      -0.00251917       0.01841116      -0.01692609
Nb       6.57870460      -0.02440328      16.44998677      -0.00059341      -0.02048321       0.00523374
Nb       4.39322842       2.10958709      16.44705825       0.00290535       0.00471746      -0.00136294
Nb       6.47348707       2.09702168      14.44126041       0.00095954      -0.02175693      -0.01415701
Nb       4.39193020       4.39193020      10.00000000       0.03490555       0.05870240       2.37955366
Nb       6.58789529       4.39193020      12.19596509      -0.22571638       0.22647845      -0.58963006
Nb       4.39193020       6.58789529      12.19596509       0.22915857      -0.23752931      -0.60178495
Nb       6.58789529       6.58789529      10.00000000      -0.03684879      -0.06299306       2.37915360
Nb       4.50437328       4.50013912      14.50967187      -0.00668358       0.00314215       0.00166865
Nb       6.61360444       4.36690473      16.53268966       0.00198566      -0.00860600       0.00794111
Nb       4.36898429       6.58243880      16.54058185       0.00023911       0.01258349      -0.00545228
Nb       6.47712250       6.46480415      14.51169641       0.00184991       0.01001342      -0.00248369
Nb       4.39193020       8.78386040      10.00000000       0.02957129       0.04841850       2.36822255
Nb       6.58789529       8.78386040      12.19596509      -0.19230026       0.04676091      -0.50944327
Nb       4.39193020      10.97982549      12.19596509       0.17961212      -0.22513325      -0.50358501
Nb       6.58789529      10.97982549      10.00000000      -0.04540131      -0.06816971       2.23958872
Nb       4.50394695       8.86852015      14.44483373       0.00283593       0.02229532      -0.00269143
Nb       6.58054505       8.85065416      16.45179119       0.00727365      -0.00174578      -0.00256802
Nb       4.39764973      10.98523454      16.45196345       0.00612360       0.01475170       0.00037101
Nb       6.48619451      10.87091554      14.44942656       0.00466321      -0.01897037      -0.00332187
Nb       8.78386040       0.00000000      10.00000000       0.09307753       0.02819626       2.26929987
Nb      10.97982549       0.00000000      12.19596509      -0.19481223       0.18362073      -0.59376002
Nb       8.78386040       2.19596509      12.19596509       0.14501639      -0.15097261      -0.53441331
Nb      10.97982549       2.19596509      10.00000000      -0.03964024      -0.08478033       2.27149534
Nb       8.88485396       0.09949138      14.44282255       0.00341134       0.01283058       0.00890759
Nb      10.97537505      -0.00257252      16.44830639      -0.00228083       0.00240372      -0.00567905
Nb       8.81108917       2.16668932      16.44517931       0.00186379      -0.00322982       0.01307200
Nb      10.87040795       2.08703979      14.44620949      -0.00849852       0.00369827       0.00055664
Nb       8.78386040       4.39193020      10.00000000       0.06377467       0.04163567       2.36598801
Nb      10.97982549       4.39193020      12.19596509      -0.21078598       0.15573043      -0.52417234
Nb       8.78386040       6.58789529      12.19596509       0.03191125      -0.19970478      -0.55251927
Nb      10.97982549       6.58789529      10.00000000      -0.06420559      -0.05312259       2.24402310
Nb       8.86566913       4.49509007      14.44257402       0.01294422      -0.00024168      -0.01541428
Nb      10.99167138       4.39166226      16.45142801       0.02138644       0.01517208       0.00566774
Nb       8.87315168       6.58909654      16.44739284       0.01036720       0.01157356      -0.00383223
Nb      10.88189459       6.48108420      14.45018276      -0.00772282       0.00234305      -0.00779841
Nb       8.78386040       8.78386040      10.00000000       0.11388239       0.10374273       2.22271971
Nb      10.97982549       8.78386040      12.19596509      -0.19358581       0.14547327      -0.58964960
Nb       8.78386040      10.97982549      12.19596509       0.13976208      -0.18824820      -0.61356497
Nb      10.97982549      10.97982549      10.00000000      -0.06075851      -0.06989672       2.24670836
Nb       8.88129728       8.87334280      14.44545129      -0.00737470       0.00263795      -0.00381500
Nb      10.97587649       8.80375561      16.45138147      -0.00763592      -0.00104875       0.00208825
Nb       8.81128045      10.95961623      16.45267552       0.00033553      -0.00751945       0.00080038
Nb      10.87661995      10.87136813      14.44386584       0.00306990      -0.00323239      -0.01415058
N        0.00000000       2.19596509      10.00000000      -0.01873383       0.01704384      -1.39872357
N        2.19596509       0.00000000      10.00000000       0.00984115      -0.02218271      -1.39999447
N        0.00000000       0.00000000      12.19596509      -0.05430093      -0.05529492      -0.26045224
N        2.19596509       2.19596509      12.19596509       0.04862393       0.04910421      -0.30184365
N       -0.10972476       2.29478888      14.40125366      -0.01141056      -0.00314472       0.00414462
N        2.29872553      -0.11299687      14.40082988       0.00056281       0.00819102       0.00032165
N       -0.00995279      -0.01629120      16.76669138       0.00214687      -0.00011544      -0.00629843
N        2.19212319       2.18613587      16.77337489       0.01410302       0.01352580      -0.00350364
N        0.00000000       6.58789529      10.00000000      -0.01087731       0.01983812      -1.40782810
N        2.19596509       4.39193020      10.00000000      -0.00164808      -0.03424478      -1.40073726
N        0.00000000       4.39193020      12.19596509      -0.04341539      -0.06151030      -0.22316430
N        2.19596509       6.58789529      12.19596509       0.03572651       0.05040596      -0.48118350
N       -0.09683345       6.68894046      14.40416475       0.02070278      -0.00545280      -0.01544050
N        2.30751064       4.27919052      14.39855311      -0.00340080       0.01763802      -0.01204613
N       -0.02263115       4.36984652      16.77622823      -0.02310393       0.00226360      -0.00286447
N        2.16534557       6.58131048      16.70039562       0.01578503       0.00208799       0.00074536
N        0.00000000      10.97982549      10.00000000      -0.01737012       0.01789231      -1.38872249
N        2.19596509       8.78386040      10.00000000       0.00711013      -0.00421430      -1.39997056
N        0.00000000       8.78386040      12.19596509      -0.05186352      -0.05405899      -0.30054962
N        2.19596509      10.97982549      12.19596509       0.05282280       0.05061217      -0.30243012
N       -0.10730231      11.08191819      14.39885893      -0.00332778      -0.00267549      -0.00811414
N        2.30849734       8.66626215      14.39502875      -0.00333652       0.01763005      -0.00995274
N       -0.00652805       8.77597001      16.75208746       0.00781384       0.00243278      -0.00061064
N        2.19577311      10.98052863      16.75159943      -0.00395770      -0.01407396      -0.00645733
N        4.39193020       2.19596509      10.00000000      -0.03017344       0.00958867      -1.39309568
N        6.58789529       0.00000000      10.00000000       0.01687466      -0.00727442      -1.40348011
N        4.39193020       0.00000000      12.19596509      -0.05971336      -0.04778190      -0.23537447
N        6.58789529       2.19596509      12.19596509       0.05580759       0.04766182      -0.48036717
N        4.28006529       2.30408529      14.39457896       0.01546004      -0.01042608      -0.00833757
N        6.69216805      -0.11134801      14.39955410       0.00761304       0.01963603      -0.00212219
N        4.37799699      -0.02710293      16.77112452      -0.00460433      -0.01838827      -0.00406209
N        6.59405412       2.14694994      16.68505902       0.00400372       0.02086270       0.00226951
N        4.39193020       6.58789529      10.00000000      -0.04121967       0.03448852      -1.57086870
N        6.58789529       4.39193020      10.00000000       0.03805644      -0.03042746      -1.56929878
N        4.39193020       4.39193020      12.19596509      -0.05273281      -0.04118624      -0.10578470
N        6.58789529       6.58789529      12.19596509       0.05114053       0.03843568      -0.10317914
N        4.29629126       6.68417739      14.37475019      -0.00775265       0.00507844       0.00708159
N        6.68571864       4.28134760      14.37317990      -0.00208002       0.00895130      -0.02773038
N        4.35127640       4.34501245      16.73469482       0.00089423       0.00027588       0.00745517
N        6.63120643       6.60812907      16.73760189       0.00821005       0.01254056      -0.00427343
N        4.39193020      10.97982549      10.00000000      -0.01792907       0.00579964      -1.40275429
N        6.58789529       8.78386040      10.00000000       0.02866883      -0.01027927      -1.38624344
N        4.39193020       8.78386040      12.19596509      -0.05721219      -0.05027278      -0.44621675
N        6.58789529      10.97982549      12.19596509       0.05716154       0.04280784      -0.23236422
N        4.28534715      11.07838638      14.40113979      -0.00391733      -0.02982377      -0.00612694
N        6.69729084       8.66219715      14.39887640      -0.01225619       0.01285834      -0.02048629
N        4.38634291       8.80424837      16.69581331      -0.00516869       0.02600054       0.00760147
N        6.59951141      10.98895713      16.77292819       0.00115365       0.00185351      -0.00828692
N        8.78386040       2.19596509      10.00000000      -0.00826481       0.00456319      -1.40256120
N       10.97982549       0.00000000      10.00000000       0.01989520      -0.02133270      -1.38661470
N        8.78386040       0.00000000      12.19596509      -0.05576466      -0.05363218      -0.31736926
N       10.97982549       2.19596509      12.19596509       0.04811742       0.04853137      -0.28729738
N        8.66910959       2.29987742      14.39252382       0.00981827      -0.00917241      -0.00503808
N       11.08567085      -0.11323922      14.39907076       0.00341160       0.00042963      -0.00934030
N        8.78288999      -0.01723388      16.74913482      -0.00017046       0.00787426      -0.00753076
N       10.98743170       2.18918222      16.75572668      -0.00201163       0.00060549      -0.00851241
N        8.78386040       6.58789529      10.00000000      -0.00049108       0.03139960      -1.39991939
N       10.97982549       4.39193020      10.00000000       0.01436912      -0.01900148      -1.41011793
N        8.78386040       4.39193020      12.19596509      -0.03728665      -0.05538208      -0.51884348
N       10.97982549       6.58789529      12.19596509       0.03967315       0.05803211      -0.21605880
N        8.67300082       6.68877928      14.39816105      -0.00118631      -0.02303606      -0.01138639
N       11.07620376       4.27856761      14.40170327      -0.00493549       0.01000699       0.00026457
N        8.81616835       4.38490757      16.69047927      -0.01284060      -0.00892610       0.01489877
N       11.00652630       6.59293133      16.77832893       0.00799150       0.01082203      -0.01484092
N        8.78386040      10.97982549      10.00000000      -0.01182810       0.02431518      -1.39733852
N       10.97982549       8.78386040      10.00000000       0.01950927      -0.01517671      -1.39884159
N        8.78386040       8.78386040      12.19596509      -0.04982078      -0.05136293      -0.29428898
N       10.97982549      10.97982549      12.19596509       0.05127551       0.05304983      -0.26434026
N        8.67851079      11.07859803      14.40166792       0.00383609       0.00323239      -0.00178897
N       11.08820757       8.67306858      14.40051352       0.01296222       0.00651955       0.00531138
N        8.78469678       8.77770370      16.77572948      -0.00839491      -0.00821030      -0.00768374
N       10.98667810      10.98063550      16.76508764       0.01234052       0.00680880      -0.00322005
S        4.36851773       7.21649892      19.10988226       0.00389599      -0.00760070      -0.01995870
S        6.64668015       3.65574133      19.07411948      -0.01945220       0.03060487      -0.01489851
S        6.52876349       5.09689045      20.60759082       0.02552000       0.03388791       0.02252261
S        4.51056061       5.74957552      20.62063682      -0.03467004       0.01645506       0.01274470
Li       4.40848759       4.34994990      18.68005242      -0.00644267       0.02528166       0.00486556
Li       6.61162077       6.55656943      18.68997946      -0.02149082      -0.00825016      -0.00332392
