150
Lattice="13.429296207015998 0.0 0.0 0.0 13.429296207015998 0.0 0.0 0.0 26.714643787988994" Properties=species:S:1:pos:R:3:forces:R:3 energy=-114130.47367368199 free_energy=-114130.47367368199 pbc="T T T"
Sc       0.00000000       0.00000000      10.00000000      -0.00131898       0.00029516       0.44541868
Sc       2.23821609       0.00000000      12.23821609      -0.00403560      -0.01128046      -0.16222967
Sc       0.00000000       2.23821609      12.23821609      -0.00616139      -0.01987360      -0.17327358
Sc       2.23821609       2.23821609      10.00000000      -0.00353835       0.00167353       0.44393259
Sc      -0.00140763      -0.00233725      14.47414863       0.00519903       0.00564434      -0.00300356
Sc       2.23215324      -0.00601551      16.66087609       0.00097291       0.01042814       0.01535386
Sc      -0.00674035       2.23138053      16.65927864       0.00813934       0.00270609       0.01295785
Sc       2.23817757       2.23453446      14.47620717      -0.00234562      -0.00229702      -0.02079637
Sc       0.00000000       4.47643218      10.00000000      -0.00001697      -0.00028899       0.43860732
Sc       2.23821609       4.47643218      12.23821609       0.04742425       0.00052193      -0.15084302
Sc       0.00000000       6.71464827      12.23821609       0.02733880       0.00812469      -0.18453450
Sc       2.23821609       6.71464827      10.00000000      -0.00646350      -0.00111046       0.44278022
Sc      -0.00840320       4.47399551      14.46744735       0.00774211      -0.00501314       0.00135857
Sc       2.19999721       4.47181840      16.63476455       0.00717801       0.00322905       0.01308306
Sc      -0.00132488       6.71482805      16.65625571      -0.00228648       0.00118939       0.00922923
Sc       2.23825157       6.71731838      14.47541566      -0.00114234       0.00087263       0.00206845
Sc       0.00000000       8.95286435      10.00000000       0.00148584       0.00006479       0.44520091
Sc       2.23821609       8.95286435      12.23821609       0.01147432      -0.00048414      -0.15192134
Sc       0.00000000      11.19108044      12.23821609       0.00318251       0.00027691      -0.17577218
Sc       2.23821609      11.19108044      10.00000000      -0.00399627      -0.00059135       0.44676028
Sc       0.00028971       8.95347292      14.47263506       0.00079704       0.00250837       0.00501648
Sc       2.22192402       8.95841883      16.67145064       0.01507129      -0.01110151       0.00951462
Sc      -0.00333068      11.19141767      16.65993458       0.00195558       0.00448015       0.00650129
Sc       2.23806105      11.18795508      14.47536301      -0.00117731       0.00065872       0.00158457
Sc       4.47643218       0.00000000      10.00000000      -0.00221012       0.00081453       0.43879681
Sc       6.71464827       0.00000000      12.23821609       0.00776087       0.02541587      -0.15346375
Sc       4.47643218       2.23821609      12.23821609       0.01259841       0.04524062      -0.13846805
Sc       6.71464827       2.23821609      10.00000000       0.00485270      -0.00118759       0.44728916
Sc       4.47777290      -0.00495658      14.47616528      -0.01508261       0.00203117      -0.00647147
Sc       6.71793749      -0.00531308      16.66620783      -0.00189362       0.00583152       0.00413562
Sc       4.47141958       2.21008463      16.66395879       0.01067625       0.00716952       0.01246137
Sc       6.71553370       2.24176499      14.47991661      -0.00161465      -0.01206696       0.01178645
Sc       4.47643218       4.47643218      10.00000000      -0.00742226      -0.00166093       0.46020407
Sc       6.71464827       4.47643218      12.23821609      -0.02772960      -0.00185711      -0.14986780
Sc       4.47643218       6.71464827      12.23821609       0.01024096      -0.02205029      -0.13627412
Sc       6.71464827       6.71464827      10.00000000       0.00543840      -0.00402995       0.44859014
Sc       4.48404340       4.48529150      14.49765517      -0.00912073      -0.00209879       0.00853992
Sc       6.77193963       4.44459360      16.71292020      -0.01559811       0.00881708       0.01441412
Sc       4.41983422       6.74141545      16.73244922       0.02191274      -0.01396726       0.00687719
Sc       6.70512139       6.70461421      14.49464582      -0.00038001       0.00389522       0.00217901
Sc       4.47643218       8.95286435      10.00000000      -0.00798430       0.00118399       0.44870841
Sc       6.71464827       8.95286435      12.23821609      -0.02001604      -0.03735016      -0.15577414
Sc       4.47643218      11.19108044      12.23821609      -0.01018465      -0.03451937      -0.15164109
Sc       6.71464827      11.19108044      10.00000000       0.00195790       0.00534789       0.43688622
Sc       4.47446635       8.94464522      14.48408215      -0.00294983       0.00606189       0.00578215
Sc       6.71921870       8.97623693      16.66620259      -0.00746263      -0.00500080       0.00072248
Sc       4.47024616      11.19004609      16.66574078       0.00376127       0.00575259       0.01369729
Sc       6.71233537      11.19328853      14.47641616       0.00938890       0.00101481      -0.00486324
Sc       8.95286435       0.00000000      10.00000000       0.00343577       0.00343217       0.44856931
Sc      11.19108044       0.00000000      12.23821609      -0.00740298      -0.00021700      -0.17233976
Sc       8.95286435       2.23821609      12.23821609      -0.00878726      -0.01063871      -0.14895275
Sc      11.19108044       2.23821609      10.00000000      -0.00129095       0.00063301       0.44710687
Sc       8.95136843       0.00085607      14.47625076       0.00783878       0.00173035      -0.00055793
Sc      11.19194059      -0.00468870      16.66195702       0.00229702       0.00351907      -0.00320848
Sc       8.96617375       2.22860606      16.67580570      -0.01770282       0.01160776       0.01608765
Sc      11.18894333       2.23490408      14.47413372      -0.00387902      -0.00462259       0.00002725
Sc       8.95286435       4.47643218      10.00000000       0.00594053      -0.00275571       0.44399712
Sc      11.19108044       4.47643218      12.23821609      -0.02609824      -0.01907861      -0.18540019
Sc       8.95286435       6.71464827      12.23821609      -0.03819425      -0.00985992      -0.15714840
Sc      11.19108044       6.71464827      10.00000000       0.00190724      -0.00264464       0.43654992
Sc       8.95250185       4.47068610      14.47383851       0.01506769       0.00334501      -0.00183834
Sc      11.19100892       4.47369431      16.65529501       0.00478482      -0.00443232       0.01224591
Sc       8.99078409       6.71596039      16.63690643      -0.01114933      -0.00927268       0.01136273
Sc      11.19849434       6.71475124      14.46782991      -0.00639613       0.00577547      -0.00597679
Sc       8.95286435       8.95286435      10.00000000       0.00608914       0.00010284       0.44340988
Sc      11.19108044       8.95286435      12.23821609       0.00104541       0.01165918      -0.17765449
Sc       8.95286435      11.19108044      12.23821609      -0.00034196       0.00931279      -0.16335144
Sc      11.19108044      11.19108044      10.00000000       0.00194633       0.00210959       0.44383103
Sc       8.95158192       8.95342440      14.47631477       0.00854918       0.00140305      -0.01698676
Sc      11.19614521       8.95619523      16.65842324      -0.00266341       0.00105492       0.01410070
Sc       8.95807390      11.19270338      16.65987044      -0.00512087      -0.00408214       0.02378193
Sc      11.19060579      11.19089966      14.47315789      -0.00223377      -0.00022960       0.00072402
N        0.00000000       2.23821609      10.00000000       0.00274697       0.00047977       0.03338449
N        2.23821609       0.00000000      10.00000000       0.00285778       0.00074973       0.03172381
N        0.00000000       0.00000000      12.23821609      -0.00021700      -0.00343139      -0.33792960
N        2.23821609       2.23821609      12.23821609       0.00911122      -0.00739166      -0.31936932
N       -0.00208184       2.23502139      14.48369042       0.00476194       0.00322648       0.00030725
N        2.23784777      -0.00222860      14.48434775       0.00033450       0.00626861       0.00417084
N       -0.00272003      -0.00450314      16.67473845      -0.00129815       0.00166633      -0.00705922
N        2.23170383       2.23000226      16.67592714       0.00425209       0.00751996      -0.00864996
N        0.00000000       6.71464827      10.00000000      -0.00346533      -0.00063301       0.03002817
N        2.23821609       4.47643218      10.00000000      -0.00202937      -0.00210933       0.02769258
N        0.00000000       4.47643218      12.23821609       0.00592974      -0.00853529      -0.35022333
N        2.23821609       6.71464827      12.23821609       0.00911765      -0.00400115      -0.36343880
N       -0.00472297       6.71388247      14.47867182      -0.00325270       0.00466475      -0.00844736
N        2.23790205       4.47285602      14.48380357       0.00507767       0.00036690      -0.00362088
N       -0.00679910       4.47131793      16.66843756      -0.00047925       0.00224612      -0.00051448
N        2.20811672       6.71393808      16.64556265       0.00629483       0.00134057      -0.00605778
N        0.00000000      11.19108044      10.00000000      -0.00056333      -0.00045894       0.03180917
N        2.23821609       8.95286435      10.00000000       0.00190210       0.00061089       0.02922959
N        0.00000000       8.95286435      12.23821609      -0.00481645       0.00294443      -0.34704005
N        2.23821609      11.19108044      12.23821609       0.00386797       0.00022291      -0.34005770
N       -0.00166458      11.19033628      14.48305431       0.00492161       0.00049777       0.00515969
N        2.23580408       8.95312175      14.48528414       0.00775728       0.00142850      -0.00949766
N       -0.00320083       8.95421236      16.67181042      -0.00014090       0.00747985       0.00897804
N        2.23412613      11.18832627      16.67234488      -0.00217027       0.00535484       0.01153474
N        4.47643218       2.23821609      10.00000000      -0.00168999      -0.00348539       0.04700234
N        6.71464827       0.00000000      10.00000000      -0.00308995      -0.00816197       0.03694624
N        4.47643218       0.00000000      12.23821609       0.00087649       0.01211632      -0.31163956
N        6.71464827       2.23821609      12.23821609      -0.01274393      -0.00333189      -0.35251573
N        4.47570260       2.24262027      14.49693922      -0.00307915      -0.00017484      -0.00247957
N        6.71335599      -0.00582173      14.48613336       0.00377541      -0.00200212      -0.00734281
N        4.47296655      -0.00324624      16.67572010       0.00211576      -0.00319357      -0.00477171
N        6.71838772       2.21237690      16.64930402       0.00133672       0.00330027      -0.00622027
N        4.47643218       6.71464827      10.00000000       0.00751662       0.00000540       0.04515834
N        6.71464827       4.47643218      10.00000000      -0.00293311       0.00588500       0.04059643
N        4.47643218       4.47643218      12.23821609      -0.01892435      -0.00711270      -0.22263465
N        6.71464827       6.71464827      12.23821609       0.01394875       0.01118970      -0.17675074
N        4.48622767       6.70798085      14.49590510       0.01143472      -0.00991752       0.00082404
N        6.70596721       4.48119378      14.49059912      -0.00874072       0.01075544       0.00018255
N        4.42488551       4.47636623      16.76267135      -0.00899758       0.00139380      -0.02132704
N        6.76127131       6.70393528      16.79439446      -0.00619584      -0.00365122      -0.01642395
N        4.47643218      11.19108044      10.00000000       0.00409937       0.00220189       0.03820659
N        6.71464827       8.95286435      10.00000000       0.00205740      -0.00132180       0.05792721
N        4.47643218       8.95286435      12.23821609       0.01589687      -0.01025356      -0.32182910
N        6.71464827      11.19108044      12.23821609      -0.00454494      -0.03666882      -0.30386994
N        4.47693826      11.19010858      14.48738996      -0.00482905       0.00436908      -0.00438450
N        6.71344950       8.94242636      14.50098820       0.00091223      -0.00454520      -0.00177535
N        4.46832504       8.96026674      16.66783187       0.00401606      -0.00206022      -0.01061660
N        6.71471065      11.18409017      16.67807239      -0.00256802       0.00734924      -0.00924672
N        8.95286435       2.23821609      10.00000000      -0.00093537      -0.00049288       0.02768101
N       11.19108044       0.00000000      10.00000000       0.00024837      -0.00234407       0.03268129
N        8.95286435       0.00000000      12.23821609      -0.00476323      -0.00884845      -0.34054287
N       11.19108044       2.23821609      12.23821609       0.00258242      -0.00848438      -0.34356057
N        8.95479840       2.23482014      14.48531982      -0.00343191      -0.00121613      -0.01169569
N       11.19091723      -0.00223520      14.48429039      -0.00238058       0.00332238       0.00015401
N        8.95447204      -0.00377700      16.67365386       0.00102664       0.00098010       0.00497020
N       11.18954136       2.23239636      16.67493487       0.00553199      -0.00369930      -0.00476400
N        8.95286435       6.71464827      10.00000000      -0.00162288       0.00506225       0.03327907
N       11.19108044       4.47643218      10.00000000       0.00214816       0.00325373       0.02754757
N        8.95286435       4.47643218      12.23821609      -0.00616962       0.00713224      -0.37707773
N       11.19108044       6.71464827      12.23821609      -0.01518545       0.00562532      -0.34164022
N        8.94972020       6.71665426      14.48541087      -0.00763386       0.00100993      -0.00748037
N       11.19420440       4.47568277      14.47816194       0.00687076      -0.00906905      -0.00583126
N        8.97980107       4.47590833      16.64080739       0.00938993       0.00229651      -0.00179746
N       11.19425194       6.71545638      16.67089890       0.00520057      -0.00049005      -0.00822393
N        8.95286435      11.19108044      10.00000000      -0.00368336      -0.00459893       0.03153124
N       11.19108044       8.95286435      10.00000000      -0.00420427      -0.00116677       0.03435457
N        8.95286435       8.95286435      12.23821609      -0.02081385      -0.00086389      -0.31740911
N       11.19108044      11.19108044      12.23821609      -0.00534969      -0.00348873      -0.33894519
N        8.95137065      11.18941133      14.48415689       0.00229702       0.00059187       0.00426263
N       11.19099378       8.95269252      14.48284616      -0.00051088       0.00095491       0.00283130
N        8.95619929       8.95513143      16.67584390      -0.00241015      -0.00172521      -0.00531858
N       11.19004991      11.18946174      16.67307521       0.00668641       0.00531627       0.00306141
S        4.51888732       7.29303475      19.41359388       0.00796348       0.00558546      -0.03169862
S        6.64190352       3.57936437      19.24040166       0.00069883       0.03472660       0.01470877
S        6.62525640       5.04435517      20.78109602      -0.00300511      -0.00563303       0.00328176
S        4.66795118       5.77281613      20.87365158      -0.00059315       0.03505673       0.00932771
Li       4.55633356       4.57019986      18.74189027      -0.02279026       0.00733613       0.01357414
Li       6.65206703       6.57059984      18.78782375       0.02263239      -0.01059372      -0.00200932
