154
Lattice="13.429296207015998 0.0 0.0 0.0 13.429296207015998 0.0 0.0 0.0 26.714643787988994" Properties=species:S:1:pos:R:3:forces:R:3 energy=-115444.00135703773 free_energy=-115444.00135703773 pbc="T T T"
Sc       0.00000000       0.00000000      10.00000000       0.01422771       0.00129944       0.41146624
Sc       2.23821609       0.00000000      12.23821609       0.01261692      -0.00572045      -0.15323543
Sc       0.00000000       2.23821609      12.23821609       0.05489537       0.02084753      -0.21430119
Sc       2.23821609       2.23821609      10.00000000       0.00272023       0.01097424       0.44513226
Sc       0.00465410      -0.00139451      14.46437412       0.00718932       0.00135163       0.00664604
Sc       2.22398338       0.00324751      16.65534387      -0.00735798       0.00632234      -0.00116214
Sc      -0.00156752       2.22528354      16.65974351       0.00086569      -0.01125295       0.01187695
Sc       2.24181853       2.24759726      14.47791738      -0.00498074      -0.00996945      -0.00695123
Sc       0.00000000       4.47643218      10.00000000       0.01578169       0.00822162       0.43136118
Sc       2.23821609       4.47643218      12.23821609       0.04730778       0.03116846      -0.10450429
Sc       0.00000000       6.71464827      12.23821609       0.08109054      -0.03304433      -0.18031275
Sc       2.23821609       6.71464827      10.00000000      -0.00427832      -0.00396156       0.46900110
Sc       0.01225491       4.47345089      14.47286378       0.00281407       0.01273313       0.00526228
Sc       2.19824704       4.44899603      16.74566913      -0.00056744      -0.00928554      -0.00145962
Sc      -0.00228255       6.70631154      16.66038430       0.00890399       0.00346430       0.00576776
Sc       2.24447784       6.70701053      14.48294937      -0.00185865       0.00054816       0.02251695
Sc       0.00000000       8.95286435      10.00000000       0.01828363      -0.00909913       0.41500896
Sc       2.23821609       8.95286435      12.23821609       0.05494473      -0.04635185      -0.08776718
Sc       0.00000000      11.19108044      12.23821609       0.05993781      -0.00712427      -0.19915148
Sc       2.23821609      11.19108044      10.00000000      -0.00275982      -0.00362063       0.45392209
Sc       0.00337317       8.95012652      14.46561993       0.00767011       0.00269015       0.00988332
Sc       2.15974604       8.95553133      16.70137442      -0.01158282       0.00200417      -0.00245052
Sc      -0.00180405      11.20429487      16.65568148       0.00071117       0.01382225      -0.00530984
Sc       2.24547723      11.18135139      14.47976996       0.00155192       0.00679877       0.00553019
Sc       4.47643218       0.00000000      10.00000000      -0.01597375       0.00594028       0.42093921
Sc       6.71464827       0.00000000      12.23821609      -0.00040752      -0.04066097      -0.21964600
Sc       4.47643218       2.23821609      12.23821609      -0.04706019       0.05990465      -0.17353969
Sc       6.71464827       2.23821609      10.00000000      -0.00820645       0.01540065       0.40575273
Sc       4.47506191      -0.00195212      14.47057211      -0.00699366       0.00010284       0.00853298
Sc       6.73263017       0.00203094      16.66304674      -0.00769068       0.00617939       0.00584849
Sc       4.47150004       2.22346006      16.66638845      -0.00481928       0.01167898       0.00908139
Sc       6.71628481       2.22992279      14.46387419       0.00157454       0.00409860       0.00303622
Sc       4.47643218       4.47643218      10.00000000      -0.01240660       0.00170464       0.46008246
Sc       6.71464827       4.47643218      12.23821609      -0.04226071       0.05281792      -0.12369397
Sc       4.47643218       6.71464827      12.23821609      -0.02605505      -0.02715059      -0.04927493
Sc       6.71464827       6.71464827      10.00000000      -0.00500902      -0.01782289       0.46014159
Sc       4.46714637       4.48152921      14.48534029      -0.00522088       0.00717518       0.02341838
Sc       6.75663975       4.39298720      16.65464854      -0.00586957       0.02442805       0.00070088
Sc       4.36377497       6.62809179      16.77712791      -0.01783549      -0.01432927       0.00225537
Sc       6.71064398       6.70684171      14.49417698      -0.00979307       0.01073616      -0.00972031
Sc       4.47643218       8.95286435      10.00000000      -0.02518190      -0.00692964       0.46227175
Sc       6.71464827       8.95286435      12.23821609      -0.03620370      -0.05199413      -0.10933925
Sc       4.47643218      11.19108044      12.23821609      -0.03007856      -0.06667050      -0.11917012
Sc       6.71464827      11.19108044      10.00000000      -0.00331724       0.00180980       0.42217540
Sc       4.47053563       8.94212467      14.49161363      -0.00592922      -0.00277756       0.02658778
Sc       6.79488406       9.02389712      16.71434211       0.00011133       0.00735515       0.00764723
Sc       4.46122693      11.25837108      16.70648309      -0.01127712       0.00440224       0.00112589
Sc       6.71001521      11.18614346      14.47965443      -0.00527436       0.01595909       0.00344065
Sc       8.95286435       0.00000000      10.00000000       0.00129712       0.00305190       0.42165038
Sc      11.19108044       0.00000000      12.23821609       0.00956425      -0.00815065      -0.22871377
Sc       8.95286435       2.23821609      12.23821609       0.01994688       0.01630388      -0.19714628
Sc      11.19108044       2.23821609      10.00000000       0.00429940       0.01036360       0.41294642
Sc       8.95750332      -0.00180145      14.46774222      -0.00554767       0.00129686       0.00616576
Sc      11.19981268       0.00011845      16.65644123      -0.00357640      -0.00469843       0.00403972
Sc       8.97848964       2.22792639      16.65743707       0.00067363      -0.00557364       0.01748684
Sc      11.19671577       2.23594775      14.46439716       0.00006788      -0.00295548       0.01531580
Sc       8.95286435       4.47643218      10.00000000      -0.00095722       0.00115494       0.43611052
Sc      11.19108044       4.47643218      12.23821609       0.03035470      -0.00142491      -0.19425610
Sc       8.95286435       6.71464827      12.23821609      -0.04829175      -0.01793576      -0.11736726
Sc      11.19108044       6.71464827      10.00000000       0.00984604      -0.00735027       0.42414152
Sc       8.95957870       4.47710097      14.47004003      -0.00347227       0.00618505       0.01514817
Sc      11.20434421       4.45269350      16.65650608      -0.00640847       0.00664939       0.01990471
Sc       9.03907933       6.68835863      16.70208746      -0.00315860       0.01888784       0.00588988
Sc      11.19805566       6.71008906      14.46820194      -0.00151078      -0.00339051       0.01173657
Sc       8.95286435       8.95286435      10.00000000       0.00590968      -0.00365817       0.42736105
Sc      11.19108044       8.95286435      12.23821609      -0.00579912      -0.01592387      -0.21593281
Sc       8.95286435      11.19108044      12.23821609      -0.01315556      -0.03014978      -0.16144805
Sc      11.19108044      11.19108044      10.00000000       0.00605469      -0.00243869       0.41894352
Sc       8.95533683       8.94192915      14.47918482      -0.00161157       0.00186302       0.00485501
Sc      11.20272937       8.96269501      16.66016651      -0.00547542      -0.00237904       0.01261075
Sc       8.97866366      11.20838673      16.65605492       0.00713327       0.00719498       0.00130792
Sc      11.19480923      11.18913540      14.46687819      -0.00171210       0.00592331       0.00587831
N        0.00000000       2.23821609      10.00000000      -0.01502296      -0.01106449       0.05995941
N        2.23821609       0.00000000      10.00000000      -0.00006119      -0.00054893       0.03188836
N        0.00000000       0.00000000      12.23821609      -0.00867413      -0.00106007      -0.32181136
N        2.23821609       2.23821609      12.23821609       0.00476837      -0.01955761      -0.36144928
N        0.00069384       2.23510176      14.48611433       0.00560423       0.00360134      -0.00913333
N        2.24154151       0.00081391      14.48199598      -0.02067990       0.00346122       0.00529082
N        0.00174030      -0.00145304      16.67008782      -0.00956553      -0.00126395       0.00672781
N        2.23940561       2.22991380      16.67090723      -0.01071456       0.00250631      -0.00718135
N        0.00000000       6.71464827      10.00000000      -0.02499601       0.00662419       0.04214449
N        2.23821609       4.47643218      10.00000000      -0.00480591      -0.01074618       0.01362042
N        0.00000000       4.47643218      12.23821609      -0.00476811      -0.01321676      -0.32961980
N        2.23821609       6.71464827      12.23821609      -0.02178084       0.02125634      -0.46226866
N       -0.00852536       6.71144767      14.48460718      -0.00611177      -0.00266263      -0.01377340
N        2.24205142       4.47117393      14.48344170      -0.01259455      -0.01399503      -0.00866513
N        0.00878580       4.47037783      16.68344874      -0.00647661       0.00477660      -0.01844458
N        2.20215152       6.74234795      16.62482529      -0.01026899       0.01040345      -0.01800852
N        0.00000000      11.19108044      10.00000000      -0.01701582       0.00317326       0.05057797
N        2.23821609       8.95286435      10.00000000      -0.00224149       0.01462186       0.01898091
N        0.00000000       8.95286435      12.23821609      -0.02814072       0.00394561      -0.30993414
N        2.23821609      11.19108044      12.23821609       0.00411274       0.02269307      -0.38902693
N       -0.00316067      11.19069981      14.48240115      -0.00212887      -0.00814808       0.00284878
N        2.24037427       8.95797094      14.48244763      -0.00486093       0.00586777       0.00122410
N       -0.00329095       8.95441578      16.67782040      -0.00281741       0.01198571      -0.01218549
N        2.22786230      11.20646419      16.65901218      -0.00963727       0.00859134      -0.00688721
N        4.47643218       2.23821609      10.00000000       0.01651805      -0.02113421       0.05442254
N        6.71464827       0.00000000      10.00000000       0.00604286      -0.00343294       0.07214618
N        4.47643218       0.00000000      12.23821609       0.02837984      -0.01992296      -0.30068023
N        6.71464827       2.23821609      12.23821609       0.00818356      -0.03351819      -0.29191251
N        4.47929595       2.22764418      14.49100007       0.00239473       0.01154708      -0.00806889
N        6.71695718      -0.00288332      14.49069908       0.00439890       0.00100247      -0.01066854
N        4.48325418      -0.01184740      16.68284093      -0.00229548       0.00247134      -0.01113211
N        6.72497937       2.22878479      16.67659610       0.00870884       0.01008669       0.00700471
N        4.47643218       6.71464827      10.00000000       0.01701916       0.00917112       0.05038282
N        6.71464827       4.47643218      10.00000000       0.01620463      -0.00716798       0.03503822
N        4.47643218       4.47643218      12.23821609       0.04375940      -0.02923473      -0.38455013
N        6.71464827       6.71464827      12.23821609       0.00282050       0.02258534      -0.20181643
N        4.47354522       6.70630521      14.50493977       0.00485681       0.00091814      -0.02574060
N        6.72510359       4.47305013      14.48129693       0.00288478       0.00180029      -0.01481727
N        4.53066965       4.44502929      16.64610125      -0.00107421       0.00022291       0.00317043
N        6.68993042       6.71364129      16.63730981      -0.01024276       0.00497328      -0.00577675
N        4.47643218      11.19108044      10.00000000       0.01672837       0.00464084       0.05654756
N        6.71464827       8.95286435      10.00000000       0.00951385       0.00902971       0.08679144
N        4.47643218       8.95286435      12.23821609       0.04538049      -0.00716824      -0.21681290
N        6.71464827      11.19108044      12.23821609       0.00626141      -0.02030015      -0.27636299
N        4.47855051      11.18514408      14.49711923       0.01519548       0.00922846      -0.00120739
N        6.71629412       8.94806224      14.51506411       0.00030545      -0.00489975       0.00285881
N        4.49664380       8.91842674      16.62797838      -0.00914361       0.01297173      -0.00460716
N        6.72798212      11.18451590      16.68018339      -0.00692809       0.00110506      -0.01107374
N        8.95286435       2.23821609      10.00000000      -0.00104181      -0.01295450       0.05028512
N       11.19108044       0.00000000      10.00000000      -0.00504476      -0.00278708       0.06250635
N        8.95286435       0.00000000      12.23821609      -0.00244666      -0.01467534      -0.33423698
N       11.19108044       2.23821609      12.23821609       0.00439144      -0.01558423      -0.32703867
N        8.95877716       2.22719815      14.48213489      -0.00897958       0.01016717      -0.02411566
N       11.19465469      -0.00270481      14.48323604       0.00394741       0.00460227      -0.00585363
N        8.95959279      -0.00642058      16.67186031       0.00020646       0.00511315       0.00561889
N       11.20041072       2.22996727      16.67152351      -0.00556747       0.00197846      -0.01101872
N        8.95286435       6.71464827      10.00000000       0.00053453       0.00832652       0.04843933
N       11.19108044       4.47643218      10.00000000      -0.00328973      -0.00424412       0.04559312
N        8.95286435       4.47643218      12.23821609       0.03766023      -0.01616890      -0.39922264
N       11.19108044       6.71464827      12.23821609      -0.01986717       0.00503653      -0.32430635
N        8.95297579       6.71139140      14.49265422       0.00774185       0.01213432      -0.01431127
N       11.20223640       4.47157108      14.48304003      -0.00402198      -0.00297837      -0.01903799
N        8.98602159       4.45206772      16.64007457      -0.00778016       0.00599607       0.00056590
N       11.18867113       6.71086425      16.67808601       0.00202577      -0.00130843      -0.00832215
N        8.95286435      11.19108044      10.00000000      -0.00033836       0.00198335       0.04415227
N       11.19108044       8.95286435      10.00000000      -0.00836200       0.00549393       0.06477097
N        8.95286435       8.95286435      12.23821609      -0.01407936      -0.00076567      -0.29331171
N       11.19108044      11.19108044      12.23821609      -0.00580092      -0.00824938      -0.32712865
N        8.95807741      11.19092243      14.48437231      -0.00569962      -0.00890939       0.00261790
N       11.19384219       8.94902198      14.48782951      -0.00342291       0.02541304       0.00329410
N        8.95592252       8.95541381      16.67812288      -0.00199955       0.00889756      -0.01174223
N       11.19421999      11.18817401      16.67371699      -0.00212656       0.00643393      -0.00870370
S        4.27750011       9.07174410      18.36961639       0.01005250      -0.00239524       0.00533015
S        6.92767437       6.48758110      18.36761753       0.01496305       0.02100308      -0.00590582
S        7.13843657       4.05506922      21.30648901      -0.03351921       0.00183088       0.01205307
S        6.69215533       6.01712478      21.65361133       0.01306712       0.01139641       0.00209159
S        4.95584609       6.26633335      22.85577158      -0.00465190       0.00143185      -0.00849827
S        3.45970477       7.08247537      21.63854615      -0.01009107       0.01646997      -0.00589091
S        2.35755878       5.63017378      20.67982991       0.00646221       0.03313586      -0.01425754
S        3.54055230       5.01852553      19.01192989       0.00598938      -0.01667926       0.00610277
Li       5.73307363       4.53524975      19.61804643      -0.00382452      -0.02499729       0.02034565
Li       5.12161075       7.25759819      19.79226150       0.00650026      -0.00738704      -0.00092483
