152
Lattice="12.641749285038259 0.0 0.0 0.0 12.641749285038259 0.0 0.0 0.0 26.320880516406753" Properties=species:S:1:pos:R:3:forces:R:3 energy=-139448.23978924332 free_energy=-139448.23978924332 pbc="T T T"
Ti       0.00000000       0.00000000      10.00000000       0.00352138       0.00811646       1.89293871
Ti       2.10695823       0.00000000      12.10695823       0.02268561       0.00397698       0.29912188
Ti       0.00000000       2.10695823      12.10695823       0.02906555       0.01739454       0.24085297
Ti       2.10695823       2.10695823      10.00000000       0.02448230       0.00643958       1.95357689
Ti       0.00423883       0.00059123      14.21137301      -0.00494295      -0.00017946       0.00877466
Ti       2.11486586       0.00422273      16.22747806       0.00161517      -0.00057490      -0.00511367
Ti       0.00442609       2.11106938      16.22349690       0.01258889       0.00379341      -0.00469072
Ti       2.13391134       2.12473362      14.21366528       0.00202243      -0.00969254       0.00647969
Ti       0.00000000       4.21391647      10.00000000      -0.01125937       0.00051319       1.91813732
Ti       2.10695823       4.21391647      12.10695823       0.02547783       0.00868750       0.28256809
Ti       0.00000000       6.32087470      12.10695823       0.02118229      -0.01421126       0.28019985
Ti       2.10695823       6.32087470      10.00000000       0.02820809      -0.01455913       1.92914344
Ti       0.00701222       4.21455894      14.22114462      -0.01488309       0.00300973       0.00680905
Ti       2.12992275       4.21467337      16.31236800      -0.00871013      -0.00128427      -0.00338460
Ti       0.01121687       6.31650325      16.22608006      -0.00452128       0.00306193       0.00403200
Ti       2.12370486       6.30602392      14.21679178      -0.02008006       0.00885771      -0.00840596
Ti       0.00000000       8.42783294      10.00000000       0.01561791      -0.00383351       1.92533923
Ti       2.10695823       8.42783294      12.10695823      -0.03145462      -0.00185916       0.27060475
Ti       0.00000000      10.53479117      12.10695823      -0.02215982       0.00080141       0.28490163
Ti       2.10695823      10.53479117      10.00000000       0.00091840       0.00015427       1.91365640
Ti      -0.00146969       8.42797430      14.20893018       0.00374610      -0.00135266      -0.00385897
Ti       2.09933809       8.43781516      16.21497324       0.00327044      -0.00832677       0.01575598
Ti      -0.00043050      10.53711381      16.22117430       0.00317326      -0.00647070       0.00403663
Ti       2.10684075      10.53630252      14.20754345       0.00111175      -0.00197564       0.00809100
Ti       4.21391647       0.00000000      10.00000000      -0.00480591       0.02188497       1.92974199
Ti       6.32087470       0.00000000      12.10695823       0.01300695       0.01490726       0.32489205
Ti       4.21391647       2.10695823      12.10695823      -0.00180286       0.01367133       0.12514768
Ti       6.32087470       2.10695823      10.00000000       0.01206824       0.03045806       1.99473434
Ti       4.21733803       0.03039808      14.21123058      -0.00006453      -0.00208851       0.00836071
Ti       6.32704035       0.00224356      16.22572979       0.00164833      -0.00735875      -0.00317326
Ti       4.23117829       2.10320316      16.36167938      -0.00720500       0.00355609      -0.01280512
Ti       6.32833221       2.10417932      14.20915923      -0.00588731      -0.00491929      -0.01058857
Ti       4.21391647       4.21391647      10.00000000       0.02510554      -0.00076979       1.96666252
Ti       6.32087470       4.21391647      12.10695823       0.00702837      -0.03539612       0.24436356
Ti       4.21391647       6.32087470      12.10695823      -0.00696666       0.01828311       0.20874041
Ti       6.32087470       6.32087470      10.00000000       0.03697709       0.02134967       1.97369063
Ti       4.20035301       4.20700599      14.21168155       0.00849313      -0.01279869      -0.01878859
Ti       6.32418038       4.21339825      16.23809650      -0.01059552      -0.01354354      -0.00378646
Ti       4.20074421       6.32898147      16.28021612      -0.00981416       0.01001805       0.00688413
Ti       6.33493438       6.34303577      14.21550223      -0.00026457      -0.00448349      -0.02740667
Ti       4.21391647       8.42783294      10.00000000       0.03362154      -0.03781219       1.98618671
Ti       6.32087470       8.42783294      12.10695823       0.02681918       0.00247520       0.08558405
Ti       4.21391647      10.53479117      12.10695823       0.03602887       0.00696383       0.26099217
Ti       6.32087470      10.53479117      10.00000000      -0.01040371      -0.04692726       1.94052108
Ti       4.23861806       8.41697420      14.19637440      -0.00946423       0.00017895      -0.00032165
Ti       6.32940499       8.40451294      16.39241460      -0.01125912       0.00746391       0.03966595
Ti       4.22262054      10.54108519      16.21607854       0.00381706      -0.00033990      -0.00117757
Ti       6.32575153      10.50866064      14.21191177       0.00851267       0.00548905       0.00834272
Ti       8.42783294       0.00000000      10.00000000       0.00543814       0.05496556       1.95370416
Ti      10.53479117       0.00000000      12.10695823      -0.00892199      -0.02573983       0.31238415
Ti       8.42783294       2.10695823      12.10695823       0.02358087      -0.01267040       0.01746036
Ti      10.53479117       2.10695823      10.00000000      -0.03564449       0.01814196       1.98494589
Ti       8.42945544       0.02473388      14.20856565       0.01031295      -0.01630491       0.00836277
Ti      10.53782775       0.00244288      16.22324639      -0.00856923       0.00337046       0.00928065
Ti       8.43179348       2.10848531      16.39545120       0.00225563      -0.00612694       0.01110048
Ti      10.51637110       2.12028280      14.20291129      -0.00283207       0.00538620       0.01151340
Ti       8.42783294       4.21391647      10.00000000      -0.00875538       0.01602054       2.02871095
Ti      10.53479117       4.21391647      12.10695823      -0.02056471       0.00815168       0.25631816
Ti       8.42783294       6.32087470      12.10695823       0.02356750       0.00687410       0.03832641
Ti      10.53479117       6.32087470      10.00000000      -0.05356276      -0.03461682       1.95811103
Ti       8.44579100       4.20915528      14.19741755       0.00577213       0.00026714      -0.00743100
Ti      10.54232004       4.21546364      16.30492098      -0.01315094      -0.00322725       0.03237507
Ti       8.42991677       6.30480354      16.40774990      -0.00084718      -0.00012753       0.01306660
Ti      10.51343029       6.30623446      14.21084492       0.00989309      -0.00244640      -0.00619122
Ti       8.42783294       8.42783294      10.00000000      -0.05489948      -0.07131006       1.98372873
Ti      10.53479117       8.42783294      12.10695823       0.00692450       0.00168716       0.35742011
Ti       8.42783294      10.53479117      12.10695823      -0.00675377      -0.01732769       0.36212857
Ti      10.53479117      10.53479117      10.00000000       0.01502604       0.01487589       1.91540064
Ti       8.40882906       8.40401630      14.21702328       0.00691472       0.01330520      -0.01484761
Ti      10.53487303       8.41912773      16.22432841       0.01373380       0.00712890       0.00181983
Ti       8.42852318      10.53403430      16.22328305      -0.00117037      -0.00044994       0.00791463
Ti      10.53416775      10.53211732      14.21017482      -0.00290380       0.00522037      -0.00396670
N        0.00000000       2.10695823      10.00000000       0.00321028       0.00589965      -1.25445897
N        2.10695823       0.00000000      10.00000000      -0.00060395      -0.00447063      -1.23889197
N        0.00000000       0.00000000      12.10695823       0.00583846       0.01665895      -0.90237391
N        2.10695823       2.10695823      12.10695823      -0.00040521       0.00685893      -0.87520789
N        0.00461300       2.10839414      14.23672389       0.00173344       0.00594876      -0.00406646
N        2.11056986       0.00650264      14.23164079       0.00415079      -0.00091943      -0.00924980
N        0.00412681       0.00254339      16.38232857      -0.00194298      -0.00041678       0.01470080
N        2.09779565       2.09755138      16.33024907      -0.00310795      -0.00188950      -0.01438301
N        0.00000000       6.32087470      10.00000000       0.01713563      -0.01083514      -1.22917603
N        2.10695823       4.21391647      10.00000000      -0.01987103       0.01005173      -1.26459503
N        0.00000000       4.21391647      12.10695823       0.01746628       0.00026637      -0.89037328
N        2.10695823       6.32087470      12.10695823      -0.01489929      -0.00707336      -0.91999188
N       -0.00010015       6.32007826      14.23605071      -0.00139662       0.00292232      -0.00204223
N        2.10724791       4.21535174      14.24195217       0.00165888       0.00046357      -0.00590480
N        0.00676478       4.21309869      16.38872537      -0.00184297      -0.00054045      -0.00904823
N        2.10268064       6.33150669      16.35909871       0.00256853      -0.00939173       0.01957869
N        0.00000000      10.53479117      10.00000000       0.00373067      -0.00022780      -1.26175294
N        2.10695823       8.42783294      10.00000000      -0.01754624       0.00350621      -1.28001034
N        0.00000000       8.42783294      12.10695823      -0.00670235      -0.01670497      -0.90700755
N        2.10695823      10.53479117      12.10695823       0.01379423       0.01363533      -0.91335509
N       -0.00005267      10.53539261      14.22738099      -0.00116600      -0.00668718       0.00476580
N        2.11267030       8.42593480      14.22488078      -0.00191804      -0.00901737       0.01008541
N       -0.00000577       8.42787389      16.38083143      -0.00095851       0.00794137       0.00199286
N        2.11030410      10.53675532      16.38131066       0.00186739      -0.00413511      -0.00316246
N        4.21391647       2.10695823      10.00000000      -0.00378055      -0.00259476      -1.38191293
N        6.32087470       0.00000000      10.00000000      -0.00154215       0.00984707      -1.21914256
N        4.21391647       0.00000000      12.10695823       0.01122826       0.00182600      -0.89261940
N        6.32087470       2.10695823      12.10695823       0.00340363       0.00554073      -0.95637093
N        4.22470547       2.11349865      14.23174130       0.01181602       0.00661931       0.03598696
N        6.32366344      -0.00624443      14.23579801       0.00832009      -0.00163882      -0.00072402
N        4.22129663      -0.01038805      16.36703619      -0.00056847      -0.00570322      -0.02399893
N        6.33408399       2.10282695      16.32402443      -0.00404152      -0.00363271       0.00159563
N        4.21391647       6.32087470      10.00000000      -0.01077241      -0.01042068      -1.34875470
N        6.32087470       4.21391647      10.00000000      -0.01412230      -0.00495246      -1.24259796
N        4.21391647       4.21391647      12.10695823       0.02109359       0.00912253      -0.95515197
N        6.32087470       6.32087470      12.10695823       0.01003064      -0.01574158      -0.95565642
N        4.22172427       6.31712944      14.22333120       0.00319691      -0.01545876       0.01003836
N        6.32144306       4.21840212      14.23995553       0.00288452       0.00275828       0.01738888
N        4.23940474       4.23140276      16.29735147       0.00812391      -0.00174449       0.02196571
N        6.31794205       6.29836426      16.29092837      -0.00527976      -0.00891890       0.03977522
N        4.21391647      10.53479117      10.00000000       0.00155757       0.00778427      -1.26087722
N        6.32087470       8.42783294      10.00000000       0.00712221       0.00714330      -1.33290462
N        4.21391647       8.42783294      12.10695823       0.01898374       0.01093362      -0.99509688
N        6.32087470      10.53479117      12.10695823       0.00806015      -0.00250143      -0.90023449
N        4.21611452      10.54173938      14.22733081       0.00651106      -0.00001903       0.00396207
N        6.32481812       8.42536889      14.24796063      -0.00062401      -0.00352293      -0.00245772
N        4.19834813       8.46301126      16.26085730       0.00282359       0.00449069       0.02288076
N        6.32536190      10.54322644      16.36556887      -0.00877440       0.00461307       0.00409345
N        8.42783294       2.10695823      10.00000000      -0.00141051      -0.01965171      -1.39895626
N       10.53479117       0.00000000      10.00000000       0.00187973      -0.00662599      -1.23908120
N        8.42783294       0.00000000      12.10695823      -0.00526768      -0.00632954      -0.90361009
N       10.53479117       2.10695823      12.10695823       0.01181756       0.00509721      -0.95160590
N        8.42813920       2.10912842      14.23843831      -0.01826383       0.00091300       0.00466270
N       10.53691459       0.00325243      14.22930627      -0.00427652       0.00277139       0.00629766
N        8.43341565      -0.00815698      16.37031139      -0.00365071      -0.00259013       0.01278095
N       10.56480393       2.09670310      16.30962660      -0.00620407       0.00171235       0.00364377
N        8.42783294       6.32087470      10.00000000      -0.00629046       0.01416215      -1.37223761
N       10.53479117       4.21391647      10.00000000       0.02849271       0.00695920      -1.32240680
N        8.42783294       4.21391647      12.10695823      -0.00932616       0.01855745      -1.04088000
N       10.53479117       6.32087470      12.10695823      -0.00607243      -0.00543865      -0.91209499
N        8.42784000       6.31473706      14.24742493      -0.00573305      -0.00245463      -0.01562819
N       10.54270742       4.21351023      14.23009932      -0.00231836       0.00552659       0.00364068
N        8.41714848       4.20425899      16.22159940       0.00749117       0.00192730       0.03462556
N       10.55529697       6.32746284      16.33044538      -0.00133029       0.00025145       0.00490027
N        8.42783294      10.53479117      10.00000000      -0.01166072       0.00285958      -1.25539048
N       10.53479117       8.42783294      10.00000000       0.00259167       0.00225280      -1.24802736
N        8.42783294       8.42783294      12.10695823      -0.00302413      -0.01364819      -0.84367691
N       10.53479117      10.53479117      12.10695823      -0.00891633      -0.00240012      -0.89819458
N        8.42890630      10.53327674      14.23588975       0.00606857      -0.00043632       0.00124776
N       10.52941664       8.42167036      14.23127260      -0.00396001      -0.00010824       0.00245617
N        8.43800814       8.42488987      16.37084470      -0.00444364      -0.00001337       0.01146506
N       10.53484018      10.53393057      16.38108674       0.01219140      -0.00180054      -0.00400964
S        9.80161924       4.19477252      18.81515620      -0.02473761      -0.00858646       0.01243848
S        8.47485669       5.82259122      18.82265544      -0.01591924      -0.01760563      -0.01140439
S        6.04241005       8.05253393      18.85918424      -0.02771752      -0.00207205       0.03767000
S        4.16606937       7.14774878      18.71886188      -0.00891633       0.01626197      -0.00196612
S        3.57560779       5.47966163      19.96575635      -0.03852155       0.01638538       0.02232695
S        2.81916339       3.82141889      18.96595509      -0.03353696       0.01942494       0.01695771
S        4.17385171       2.29169600      18.82839187       0.00160000      -0.00349156      -0.01163501
S        8.63659166       2.46363738      18.81845287      -0.01719117       0.02672199       0.02276712
