150
Lattice="12.259575388456497 0.0 0.0 0.0 12.259575388456497 0.0 0.0 0.0 26.129789272297636" Properties=species:S:1:pos:R:3:forces:R:3 energy=-163729.98593476467 free_energy=-163729.98593476467 pbc="T T T"
V        0.00000000       0.00000000      10.00000000      -0.02660783      -0.00941589       2.38833526
V        2.04326254       0.00000000      12.04326254       0.09606644       0.02754500      -0.53603824
V        0.00000000       2.04326254      12.04326254      -0.06537647      -0.02583933      -0.54166664
V        2.04326254       2.04326254      10.00000000      -0.00824141      -0.03381438       2.38383532
V       -0.07059089       0.02817357      14.16563569       0.00453080       0.01645095       0.00885899
V        2.01972936       0.02485267      16.00760973       0.00450046       0.00850984      -0.00480925
V        0.01825387       1.98336055      16.00735681      -0.00165065       0.01612904      -0.00603284
V        2.11946412       2.00912602      14.16980773       0.00398032      -0.00122307      -0.00149870
V        0.00000000       4.08652507      10.00000000      -0.04280810      -0.00555461       2.41886994
V        2.04326254       4.08652507      12.04326254       0.18923525       0.06089144      -0.48053841
V        0.00000000       6.12978761      12.04326254      -0.04561137      -0.06836743      -0.50502097
V        2.04326254       6.12978761      10.00000000       0.02568969      -0.02955972       2.43000539
V       -0.07370383       4.13210182      14.14474017       0.00395127      -0.00625421       0.01982835
V        1.91773230       4.04639791      16.00850099      -0.02065676      -0.00273540      -0.00470615
V        0.01388762       6.19202156      16.01159333       0.01622186      -0.01344867      -0.00626269
V        2.16540857       6.07222169      14.19381050      -0.01403822       0.00223840      -0.00289712
V        0.00000000       8.17305015      10.00000000      -0.05251735       0.04496088       2.38682397
V        2.04326254       8.17305015      12.04326254       0.11625140       0.05021133      -0.34425991
V        0.00000000      10.21631269      12.04326254      -0.06094492      -0.04507735      -0.67462919
V        2.04326254      10.21631269      10.00000000      -0.00360057       0.00627503       2.43115647
V       -0.06499328       8.20391139      14.15637877       0.00758038       0.00367796       0.00836071
V        2.01479848       8.15746861      16.00883330       0.00438964       0.00937219      -0.00416467
V       -0.01502897      10.21182585      16.01195489       0.00359080      -0.00264644      -0.00427600
V        2.11330965      10.16841585      14.14421123      -0.00707465      -0.00949817       0.00911765
V        4.08652507       0.00000000      10.00000000      -0.04349098       0.00455702       2.40643712
V        6.12978761       0.00000000      12.04326254       0.05207204       0.06649978      -0.52331900
V        4.08652507       2.04326254      12.04326254      -0.01373200       0.07455325      -0.50501840
V        6.12978761       2.04326254      10.00000000       0.01933598       0.00024965       2.47908261
V        4.02455193       0.04023091      14.16357456       0.00154035       0.00268526       0.01002499
V        6.15449575      -0.04020527      16.01384353      -0.00313366       0.01005250      -0.00439864
V        4.01275461       1.92478534      16.01300350       0.00946063      -0.01652551      -0.00020183
V        6.18513206       2.05635067      14.17321838      -0.01872534      -0.00748911       0.00906777
V        4.08652507       4.08652507      10.00000000      -0.01696028       0.02561256       2.47629219
V        6.12978761       4.08652507      12.04326254      -0.01890969       0.07037984      -0.60888454
V        4.08652507       6.12978761      12.04326254       0.02130390      -0.07631677      -0.60271055
V        6.12978761       6.12978761      10.00000000       0.01776915      -0.02648802       2.47925256
V        4.02313096       4.17500922      14.27109748       0.00676046       0.00969383      -0.00311463
V        6.28710199       3.98817565      16.12502542       0.00081195       0.01408373      -0.02617846
V        3.93928728       6.20398925      16.12820314      -0.01547058      -0.00819231      -0.00648792
V        6.19439807       6.03095350      14.27256223      -0.00956245      -0.00396078      -0.00210728
V        4.08652507       8.17305015      10.00000000      -0.01788974      -0.00152955       2.47310865
V        6.12978761       8.17305015      12.04326254       0.01457995      -0.08744759      -0.51104429
V        4.08652507      10.21631269      12.04326254      -0.05363013      -0.08235372      -0.51888384
V        6.12978761      10.21631269      10.00000000       0.04347838      -0.00816094       2.40435658
V        4.03530992       8.15509874      14.17904905       0.00438347       0.00395898       0.00561092
V        6.18886533       8.28055454      16.01599396      -0.00513398       0.01341756      -0.00102767
V        4.06893903      10.24695533      16.01559439       0.00330721      -0.00969306      -0.00823447
V        6.18969557      10.16988551      14.16703687       0.00100144      -0.00281099       0.01088374
V        8.17305015       0.00000000      10.00000000       0.00590145      -0.01345175       2.43121561
V       10.21631269       0.00000000      12.04326254       0.06383792       0.03734887      -0.67670150
V        8.17305015       2.04326254      12.04326254      -0.11758837      -0.05850700      -0.32633007
V       10.21631269       2.04326254      10.00000000       0.05800949      -0.04553501       2.38468018
V        8.10260148       0.03650484      14.14438115       0.01133445       0.01293805       0.00967480
V       10.22979882      -0.00159408      16.01236508      -0.00713224       0.01263594      -0.00605289
V        8.21110524       2.04437315      16.00666138      -0.00873764      -0.00605315      -0.00628866
V       10.28302839       2.00709845      14.15829715      -0.00639922       0.00003085       0.00278785
V        8.17305015       4.08652507      10.00000000      -0.02582930       0.02629493       2.43252327
V       10.21631269       4.08652507      12.04326254       0.05314959       0.05850082      -0.51191307
V        8.17305015       6.12978761      12.04326254      -0.18969676      -0.07304324      -0.48456810
V       10.21631269       6.12978761      10.00000000       0.04209282       0.00272768       2.41445433
V        8.05184434       4.13594161      14.18974066       0.02139338       0.00397904       0.00151387
V       10.20102260       4.01794163      16.01160084      -0.00999054       0.00548313      -0.00775702
V        8.30484411       6.17840430      16.00820857       0.00791283      -0.00654346      -0.00397904
V       10.29112088       6.07809890      14.14640241       0.00042500       0.00322134       0.00894770
V        8.17305015       8.17305015      10.00000000       0.00400218       0.03224189       2.38162880
V       10.21631269       8.17305015      12.04326254       0.06445781       0.02162272      -0.52462717
V        8.17305015      10.21631269      12.04326254      -0.09518301      -0.02875470      -0.55727684
V       10.21631269      10.21631269      10.00000000       0.02321603       0.00589271       2.39107889
V        8.09606580       8.19948902      14.16928512       0.01091150       0.00184271       0.00479794
V       10.20159025       8.21758732      16.00543702       0.00408780      -0.00611048      -0.00405926
V        8.19246955      10.17358765      16.00958330       0.00514195       0.01108454      -0.00377566
V       10.28685225      10.18220493      14.16444615      -0.00234176      -0.01271976       0.00898678
N        0.00000000       2.04326254      10.00000000       0.01131260      -0.00011750      -1.38025148
N        2.04326254       0.00000000      10.00000000      -0.01879476      -0.00196047      -1.37871628
N        0.00000000       0.00000000      12.04326254      -0.02991890      -0.01043791      -0.47096774
N        2.04326254       2.04326254      12.04326254       0.00738035      -0.03187962      -0.41148501
N        0.05245452       2.06461049      14.10557599       0.00115725       0.00811106      -0.00413073
N        1.99206332      -0.02847924      14.10692014       0.00577804      -0.00727596      -0.00238855
N       -0.00037325      -0.02558553      16.29511998       0.00781795       0.00356638      -0.00904231
N        2.02437872       2.04573946      16.31989535      -0.00215510      -0.00493703       0.01916269
N        0.00000000       6.12978761      10.00000000       0.01430613       0.01464398      -1.38105881
N        2.04326254       4.08652507      10.00000000       0.00075976      -0.00356021      -1.36651485
N        0.00000000       4.08652507      12.04326254      -0.05223787       0.00764183      -0.58804652
N        2.04326254       6.12978761      12.04326254      -0.00190596      -0.01732332      -0.40674569
N        0.06759872       6.16014808      14.11011981      -0.00153032      -0.01058266      -0.00346559
N        1.99521489       4.05448595      14.10875128      -0.00337432      -0.00537618       0.00135343
N       -0.04730721       4.07511504      16.26000903       0.02346646      -0.00445238       0.00048465
N        1.98105800       6.10615243      16.28166940       0.00411299      -0.00776627      -0.00758424
N        0.00000000      10.21631269      10.00000000       0.00442153       0.00900555      -1.37024655
N        2.04326254       8.17305015      10.00000000      -0.00236387      -0.01242100      -1.37167171
N        0.00000000       8.17305015      12.04326254      -0.03626310       0.01887807      -0.51645698
N        2.04326254      10.21631269      12.04326254       0.00651543      -0.00247623      -0.61407019
N        0.05179641      10.23710452      14.10790278      -0.00088395       0.00845533      -0.00368053
N        1.99803062       8.12788917      14.10752090      -0.00545614       0.01115705      -0.00190287
N       -0.01700017       8.19745441      16.28597921      -0.00431534       0.00742535      -0.00745157
N        2.03917095      10.21261262      16.24459914      -0.00805398       0.00644344       0.00782335
N        4.08652507       2.04326254      10.00000000       0.01821087       0.02361327      -1.37412120
N        6.12978761       0.00000000      10.00000000      -0.01569504      -0.01088322      -1.38300282
N        4.08652507       0.00000000      12.04326254      -0.01143832      -0.02039296      -0.44911207
N        6.12978761       2.04326254      12.04326254       0.01175251      -0.06421896      -0.64766629
N        4.12790894       2.08465977      14.10990294      -0.00546385      -0.00064586      -0.00088009
N        6.08113276      -0.01849932      14.11072013       0.00557107      -0.00364042       0.00019977
N        4.07441734      -0.02913715      16.29282263      -0.02050506       0.02705778      -0.00680597
N        6.12160650       1.98382507      16.21532729      -0.00579681       0.01108274       0.01129357
N        4.08652507       6.12978761      10.00000000       0.02443756      -0.01524330      -1.45664333
N        6.12978761       4.08652507      10.00000000      -0.02498547       0.01629822      -1.46274790
N        4.08652507       4.08652507      12.04326254      -0.02525132      -0.01462341      -0.53556027
N        6.12978761       6.12978761      12.04326254       0.02615198       0.00812726      -0.53428501
N        4.16527441       6.15260751      14.11249542      -0.00432511       0.00477531       0.01139821
N        6.05198330       4.05701657      14.10890772      -0.00005528      -0.00707696       0.02214080
N        4.05782064       4.06986842      16.24071724       0.01037183      -0.00025428       0.01296942
N        6.16187855       6.13058596      16.24073830       0.00798148       0.00038592       0.00162391
N        4.08652507      10.21631269      10.00000000       0.01614627       0.00732456      -1.37985039
N        6.12978761       8.17305015      10.00000000      -0.01986589      -0.02227989      -1.37074303
N        4.08652507       8.17305015      12.04326254      -0.01466120       0.05692165      -0.61302838
N        6.12978761      10.21631269      12.04326254       0.01223845       0.01416061      -0.43231403
N        4.13456192      10.22868236      14.11234705      -0.00390473       0.00563792      -0.00723406
N        6.08874761       8.12428094      14.11169995       0.00652983       0.00170490       0.00344091
N        4.09636604       8.21639958      16.23002870       0.00106521      -0.00623133      -0.00102818
N        6.14135409      10.23577674      16.29816572       0.02035388      -0.00795499      -0.01193660
N        8.17305015       2.04326254      10.00000000       0.00508538       0.01022168      -1.37436803
N       10.21631269       0.00000000      10.00000000      -0.00410605      -0.00963932      -1.37044735
N        8.17305015       0.00000000      12.04326254      -0.00598733      -0.00810335      -0.61086172
N       10.21631269       2.04326254      12.04326254       0.03986418      -0.02278846      -0.51013129
N        8.22177294       2.07816275      14.10575265       0.00315114      -0.00064740      -0.00310486
N       10.16425362      -0.02657495      14.10832279       0.00418807       0.00011724      -0.00502265
N        8.17992004      -0.00873879      16.24638995       0.00379855      -0.00155655       0.00295883
N       10.23737250       2.01370094      16.28814598       0.00462130      -0.01355203      -0.00725951
N        8.17305015       6.12978761      10.00000000      -0.00098910       0.00425106      -1.36832182
N       10.21631269       4.08652507      10.00000000      -0.01397035      -0.01443829      -1.38118762
N        8.17305015       4.08652507      12.04326254       0.00558289       0.01254981      -0.42969279
N       10.21631269       6.12978761      12.04326254       0.05234997      -0.01633396      -0.57079827
N        8.22182183       6.15543282      14.10929026       0.00276291       0.00673963      -0.00235127
N       10.14947950       4.05093371      14.11050079       0.00433077       0.00739372      -0.00886516
N        8.23773099       4.10440493      16.27282334      -0.00913616      -0.00003600      -0.00409345
N       10.26526914       6.13238649      16.26503898      -0.01085263       0.01074798      -0.00588551
N        8.17305015      10.21631269      10.00000000       0.01746139      -0.00008433      -1.37782924
N       10.21631269       8.17305015      10.00000000      -0.01205642      -0.00158380      -1.38173655
N        8.17305015       8.17305015      12.04326254      -0.00858594       0.02831402      -0.40646570
N       10.21631269      10.21631269      12.04326254       0.02758691       0.00737495      -0.48032475
N        8.22294216      10.23563102      14.10817476      -0.00908808       0.00545357      -0.00359183
N       10.16436229       8.14577619      14.10415645       0.00746083      -0.00960358      -0.00425620
N        8.18855881       8.16275638      16.32357450       0.00032499       0.01571972       0.00950177
N       10.21402393      10.23081182      16.29087573       0.00158483      -0.00029748      -0.00572173
S        4.03716651       6.82566623      18.62104189      -0.01401174       0.00899963       0.00107935
S        6.22955093       3.30904333      18.58496063      -0.03277180       0.00429169      -0.00718598
S        6.16527759       4.71773959      20.13774552      -0.00658717       0.03244192       0.00650438
S        4.15609895       5.40175817      20.16273546      -0.02009780       0.02351711       0.00026380
Li       4.02206292       4.07838917      18.17283251      -0.00067569       0.01140079       0.01303395
Li       6.23218942       6.10240440      18.17630278       0.02112393      -0.01200474      -0.00275082
