154
Lattice="12.259575388456497 0.0 0.0 0.0 12.259575388456497 0.0 0.0 0.0 26.129789272297636" Properties=species:S:1:pos:R:3:forces:R:3 energy=-165042.24060835756 free_energy=-165042.24060835756 pbc="T T T"
V        0.00000000       0.00000000      10.00000000      -0.01713820       0.01611927       2.40010140
V        2.04326254       0.00000000      12.04326254       0.05053863       0.01596964      -0.54695772
V        0.00000000       2.04326254      12.04326254      -0.04308835      -0.02563955      -0.54121490
V        2.04326254       2.04326254      10.00000000       0.01407036      -0.02426350       2.38511393
V       -0.04829575       0.05091147      14.15601776      -0.00723791      -0.01237960       0.00417624
V        2.03851591       0.01206588      16.01310891       0.00415413      -0.00277165       0.01556032
V        0.01044329       2.03639781      16.01397290       0.00114466      -0.00465293       0.01664995
V        2.09980264       2.01310243      14.17940095       0.00491389       0.01071944      -0.01337102
V        0.00000000       4.08652507      10.00000000      -0.01736986       0.01244851       2.38764518
V        2.04326254       4.08652507      12.04326254       0.13687499       0.05742225      -0.52184524
V        0.00000000       6.12978761      12.04326254      -0.04550775      -0.04242963      -0.55312888
V        2.04326254       6.12978761      10.00000000       0.02518704      -0.01082332       2.42158940
V       -0.04031442       4.12926005      14.17576073      -0.00651826      -0.00288066      -0.00738189
V        1.92021528       4.04790700      16.03054714      -0.01684715      -0.00024811       0.02128154
V        0.00783158       6.13593692      16.01658423       0.00539726      -0.00086286       0.01387444
V        2.15037474       6.08970058      14.20068934       0.00659719      -0.00451254      -0.00653137
V        0.00000000       8.17305015      10.00000000      -0.03991355       0.01117144       2.39435602
V        2.04326254       8.17305015      12.04326254       0.06892511       0.01894774      -0.43647716
V        0.00000000      10.21631269      12.04326254      -0.03610986      -0.03127156      -0.60366468
V        2.04326254      10.21631269      10.00000000      -0.00249808      -0.00265672       2.38549831
V       -0.05609789       8.20904532      14.16364793      -0.01603648      -0.00569165       0.00095799
V        2.01006406       8.20208895      16.01466934      -0.00640513      -0.00309946       0.01608636
V        0.00944795      10.21296702      16.01311214       0.00585697      -0.00577701       0.02461189
V        2.09566234      10.17391373      14.17173695      -0.01122801       0.00951360      -0.01255110
V        4.08652507       0.00000000      10.00000000      -0.00553944       0.00983704       2.40594269
V        6.12978761       0.00000000      12.04326254       0.02152373       0.05876385      -0.51512489
V        4.08652507       2.04326254      12.04326254       0.00726877       0.09244787      -0.55518319
V        6.12978761       2.04326254      10.00000000       0.01306583       0.01304269       2.42387922
V        4.04857475       0.04412102      14.17609456      -0.00009307      -0.00306758      -0.00210239
V        6.16666574      -0.02441312      16.02151701       0.01626480       0.00238573       0.02158904
V        4.07260651       1.91114389      16.02169252      -0.00996457      -0.00756136       0.02592546
V        6.16161428       2.04615477      14.21026377      -0.00138043       0.01266911       0.00571890
V        4.08652507       4.08652507      10.00000000      -0.01514534       0.02795663       2.45185488
V        6.12978761       4.08652507      12.04326254      -0.03714987       0.01135193      -0.62381956
V        4.08652507       6.12978761      12.04326254       0.00974140      -0.05423845      -0.62917183
V        6.12978761       6.12978761      10.00000000      -0.00516303      -0.04266437       2.43747213
V        4.05531318       4.16431540      14.29745174      -0.00900709      -0.00292746       0.00509156
V        6.30242322       4.15787286      16.11033940       0.02142989       0.00296474       0.00048440
V        3.94812308       6.23774556      16.13328180      -0.01135168       0.01049833       0.00444441
V        6.16909642       6.02009837      14.22456189       0.00285367      -0.00237956       0.01156894
V        4.08652507       8.17305015      10.00000000      -0.01478539      -0.00852886       2.46426868
V        6.12978761       8.17305015      12.04326254      -0.01756218       0.01329106      -0.48173037
V        4.08652507      10.21631269      12.04326254      -0.00980336      -0.05123412      -0.58382502
V        6.12978761      10.21631269      10.00000000       0.02018856      -0.01446991       2.42430140
V        4.04739820       8.15740418      14.18165233       0.01185664       0.01496202       0.01491446
V        6.22165816       8.17966745      16.01650954       0.02553388      -0.00675609       0.02808879
V        4.02898510      10.24613764      16.02221617      -0.00463544       0.00390808       0.01382636
V        6.17612361      10.17151725      14.15887625       0.00295394      -0.00768426       0.01633730
V        8.17305015       0.00000000      10.00000000      -0.01851451      -0.00527899       2.37095666
V       10.21631269       0.00000000      12.04326254       0.03143611       0.03260699      -0.57943615
V        8.17305015       2.04326254      12.04326254      -0.05017534      -0.00923669      -0.49555597
V       10.21631269       2.04326254      10.00000000       0.01647306      -0.02446456       2.40631936
V        8.12347553       0.05372904      14.18808884      -0.00853889      -0.00443232      -0.02509062
V       10.20033242      -0.00599088      16.01438891      -0.00738189       0.00740941       0.01937455
V        8.18521960       1.95803351      16.02538969       0.00218158      -0.01095316       0.01449717
V       10.26744385       2.00561210      14.16157580       0.01117401       0.00270660      -0.00098113
V        8.17305015       4.08652507      10.00000000      -0.02155150       0.00593642       2.47116258
V       10.21631269       4.08652507      12.04326254       0.04948654       0.03494463      -0.59094415
V        8.17305015       6.12978761      12.04326254      -0.08777541      -0.06400144      -0.34357960
V       10.21631269       6.12978761      10.00000000       0.04104561      -0.00046717       2.39829598
V        8.06970689       4.13582462      14.15912500       0.00703042      -0.00672189       0.01022913
V       10.23973621       4.07773141      16.01088398       0.00574024       0.00674683       0.01803809
V        8.22034121       6.17781351      16.00909543       0.00135677       0.01586268       0.02462860
V       10.27151670       6.09076346      14.16111494       0.00503525       0.00080604       0.00218647
V        8.17305015       8.17305015      10.00000000       0.00178306       0.05689003       2.36690641
V       10.21631269       8.17305015      12.04326254       0.05910323       0.02224596      -0.63340181
V        8.17305015      10.21631269      12.04326254      -0.05417546      -0.03911959      -0.59887343
V       10.21631269      10.21631269      10.00000000       0.02817903      -0.01643809       2.37552809
V        8.12181647       8.22763119      14.17781611      -0.01200911       0.00487147      -0.01494325
V       10.19942527       8.19352285      16.01671970      -0.01484324      -0.00044891       0.01539525
V        8.20413889      10.23124431      16.01638919       0.01188004       0.00271534       0.01509315
V       10.26503624      10.16496708      14.16858445       0.01130283      -0.00810232       0.00401015
N        0.00000000       2.04326254      10.00000000       0.01187438       0.00673629      -1.38502782
N        2.04326254       0.00000000      10.00000000      -0.00784675       0.00108706      -1.39162218
N        0.00000000       0.00000000      12.04326254      -0.01828389       0.00713353      -0.52969585
N        2.04326254       2.04326254      12.04326254      -0.00564126      -0.02547655      -0.41287906
N        0.04110825       2.07840709      14.10669948      -0.00706076       0.00578704      -0.01005918
N        2.01258434      -0.02703082      14.10760020       0.00048260       0.00224097      -0.01195383
N       -0.00708533       0.00157250      16.26286133       0.00029311       0.00716335      -0.00188616
N        2.04917021       2.03592697      16.30841344       0.00442281       0.00755930       0.00285624
N        0.00000000       6.12978761      10.00000000       0.01859576       0.00892096      -1.39017517
N        2.04326254       4.08652507      10.00000000       0.01183247      -0.00808201      -1.38557752
N        0.00000000       4.08652507      12.04326254      -0.03968601       0.01191244      -0.37880680
N        2.04326254       6.12978761      12.04326254      -0.00740272      -0.01042557      -0.41759112
N        0.05423663       6.15774264      14.11034130       0.01247885      -0.00284441      -0.01302264
N        2.02221146       4.06345173      14.11929206      -0.00383686       0.00940124      -0.00960513
N       -0.03525166       4.08007625      16.30930766      -0.01062046       0.00220009       0.00886491
N        1.98723881       6.12543548      16.26046840      -0.00215047      -0.01038983       0.00413279
N        0.00000000      10.21631269      10.00000000       0.00758990       0.00590505      -1.38544845
N        2.04326254       8.17305015      10.00000000      -0.00371704      -0.00973985      -1.40211203
N        0.00000000       8.17305015      12.04326254      -0.03885014       0.01584160      -0.50051640
N        2.04326254      10.21631269      12.04326254       0.01139667      -0.00306887      -0.41942483
N        0.03734722      10.24817433      14.10769893      -0.00353192      -0.00904463      -0.00856486
N        2.00470877       8.14220188      14.10562328      -0.00314420      -0.00413433      -0.01318770
N       -0.01871791       8.17765977      16.27484796      -0.00600275      -0.00870036       0.00109786
N        2.02226771      10.22804485      16.29253178       0.00090914      -0.00796528      -0.01035280
N        4.08652507       2.04326254      10.00000000       0.01820418       0.02234237      -1.38869164
N        6.12978761       0.00000000      10.00000000      -0.00033707       0.00274722      -1.38787069
N        4.08652507       0.00000000      12.04326254      -0.00608400      -0.01931207      -0.35232212
N        6.12978761       2.04326254      12.04326254       0.01659030      -0.06291567      -0.54868267
N        4.11400009       2.08459107      14.11388856       0.01938637       0.01118661       0.00142645
N        6.09983461      -0.01806010      14.11268764       0.00037718       0.00764106      -0.00226591
N        4.09974922      -0.03516019      16.30624620       0.00940844      -0.00011750       0.00160977
N        6.12530214       2.04323151      16.26093654      -0.00109298       0.00486273      -0.00103050
N        4.08652507       6.12978761      10.00000000       0.01741974      -0.01824686      -1.47653749
N        6.12978761       4.08652507      10.00000000      -0.03778725      -0.00328947      -1.50348548
N        4.08652507       4.08652507      12.04326254      -0.03726865      -0.01744673      -0.50665799
N        6.12978761       6.12978761      12.04326254       0.01332834       0.03182332      -0.53401093
N        4.14597410       6.14808773      14.11039672       0.03169142      -0.00727725      -0.00217078
N        6.06561772       4.04398876      14.08980144      -0.00468481      -0.00811414      -0.00039235
N        4.05558997       4.07516010      16.25404784      -0.00520957       0.01009029      -0.01955787
N        6.13582161       6.16775925      16.23046516       0.00508641      -0.01018465      -0.00760301
N        4.08652507      10.21631269      10.00000000      -0.00219469       0.00629329      -1.39258095
N        6.12978761       8.17305015      10.00000000      -0.00508924      -0.01935372      -1.39514434
N        4.08652507       8.17305015      12.04326254       0.00533118       0.06622828      -0.55181453
N        6.12978761      10.21631269      12.04326254       0.00064766      -0.00846484      -0.54207031
N        4.11944046      10.22962347      14.11512001       0.00953211      -0.00385691      -0.00924620
N        6.10556353       8.12253356      14.11069261      -0.02948361      -0.00643804      -0.00166659
N        4.09718683       8.23455210      16.22728482      -0.00290560      -0.00406774      -0.00095825
N        6.13221304      10.20418194      16.25523168       0.01304938       0.00100144       0.01564928
N        8.17305015       2.04326254      10.00000000      -0.00827381      -0.00375355      -1.40333639
N       10.21631269       0.00000000      10.00000000      -0.01319387      -0.00578344      -1.38736135
N        8.17305015       0.00000000      12.04326254      -0.01537597       0.00935624      -0.33296403
N       10.21631269       2.04326254      12.04326254       0.02758177      -0.01162833      -0.51536297
N        8.20265183       2.07838988      14.11090125       0.00104155       0.00636939      -0.01188030
N       10.17963080      -0.03254303      14.10883299      -0.00383917       0.00309946      -0.00697283
N        8.17628953      -0.02666509      16.31995210       0.00266289       0.00143082      -0.00587651
N       10.22467428       2.02796446      16.26642911       0.00240347      -0.00351753       0.00286832
N        8.17305015       6.12978761      10.00000000      -0.00433102       0.01657462      -1.41036450
N       10.21631269       4.08652507      10.00000000      -0.00097959      -0.00907137      -1.40198270
N        8.17305015       4.08652507      12.04326254       0.04758983      -0.00741352      -0.58319947
N       10.21631269       6.12978761      12.04326254       0.04341848      -0.00016609      -0.52219131
N        8.20807288       6.16955300      14.10292406      -0.00252251      -0.01202016      -0.00588500
N       10.17450256       4.06173842      14.10607845      -0.01225131      -0.00402223      -0.00685122
N        8.25377451       4.07937521      16.19143162      -0.00620227       0.00558572       0.01080352
N       10.23526822       6.13686301      16.26939047       0.00116754       0.00403843       0.00131409
N        8.17305015      10.21631269      10.00000000       0.01471648       0.00837331      -1.38716801
N       10.21631269       8.17305015      10.00000000      -0.00941101      -0.00301076      -1.38490569
N        8.17305015       8.17305015      12.04326254       0.00288606       0.03955411      -0.38645815
N       10.21631269      10.21631269      12.04326254       0.02465225      -0.00940252      -0.46897487
N        8.20995065      10.25769439      14.10927069      -0.00405334       0.01053381      -0.01078192
N       10.17427365       8.13928789      14.10825674      -0.00723200      -0.00831109      -0.01373689
N        8.20111517       8.19474077      16.31414946      -0.00337689       0.01221197       0.00631052
N       10.23750614      10.22128608      16.28635931       0.00516663       0.00314086       0.00821930
S        3.82086979       6.72214051      18.64169165       0.00181880       0.00129969       0.00360906
S        6.48719999       4.40393965      18.51363263       0.01289177      -0.01034098       0.00401761
S        7.40271028       2.68518879      19.30506775      -0.03155875      -0.02009780       0.01487743
S        7.98387381       3.43540981      21.13255776      -0.01215103      -0.01673917       0.00355301
S        6.36643620       3.41737234      22.39931246      -0.03118902      -0.01804554      -0.00237287
S        5.24561300       5.26650973      22.13234300      -0.00552504      -0.00596445       0.00065692
S        3.18446096       5.22745450      21.60975541      -0.01938792       0.00313212       0.00144676
S        2.73076162       5.18167773      19.57341732      -0.01741151       0.01716674      -0.00217875
Li       4.23833635       4.04529551      18.17539679       0.00151284      -0.00309638       0.01378985
Li       5.76876035       6.09326652      19.89595470      -0.00836380      -0.00562480       0.00702708
