152
Lattice="12.259575388456497 0.0 0.0 0.0 12.259575388456497 0.0 0.0 0.0 26.129789272297636" Properties=species:S:1:pos:R:3:forces:R:3 energy=-164647.36622207094 free_energy=-164647.36622207094 pbc="T T T"
V        0.00000000       0.00000000      10.00000000      -0.00114260      -0.01386879       2.41242470
V        2.04326254       0.00000000      12.04326254       0.02378399      -0.02917714      -0.65083903
V        0.00000000       2.04326254      12.04326254      -0.02663997       0.05744179      -0.50840274
V        2.04326254       2.04326254      10.00000000      -0.01040885       0.00144702       2.40679270
V       -0.03514968      -0.03792447      14.15879759      -0.00957685      -0.00357666      -0.00322005
V        2.04172821      -0.00634251      16.01607787       0.01012269       0.00095439      -0.00064046
V        0.01398803       2.02917656      16.02317866       0.01268197       0.00447115      -0.00531550
V        2.08752813       2.08840446      14.18044381       0.00260196       0.00337946       0.00484164
V        0.00000000       4.08652507      10.00000000      -0.00746700      -0.00416673       2.43680030
V        2.04326254       4.08652507      12.04326254       0.01549295       0.00300279      -0.54681785
V        0.00000000       6.12978761      12.04326254      -0.06674301       0.00548082      -0.51400466
V        2.04326254       6.12978761      10.00000000       0.02635664       0.00852372       2.42379515
V       -0.07500802       4.08333260      14.20361472       0.00763643      -0.00062761      -0.00287809
V        2.00882274       4.03036082      16.03048669      -0.00448606       0.00418678      -0.00520108
V        0.06214891       6.17895845      16.02475599      -0.00761792       0.00070320      -0.00820465
V        2.14181714       6.17563772      14.19737868      -0.00019232      -0.00888830      -0.00733690
V        0.00000000       8.17305015      10.00000000      -0.04263172      -0.00543737       2.37830539
V        2.04326254       8.17305015      12.04326254       0.08777695      -0.06642651      -0.39810679
V        0.00000000      10.21631269      12.04326254      -0.05418934       0.00159871      -0.62399080
V        2.04326254      10.21631269      10.00000000      -0.00795576       0.03469318       2.39227985
V       -0.04179207       8.13240076      14.17114496       0.00388905      -0.01185124      -0.00439864
V        1.97017485       8.21550144      16.00540147       0.00129969       0.01498953      -0.00825581
V        0.01895185      10.20639573      16.01465171      -0.00067234      -0.00707413      -0.00515172
V        2.08164925      10.27687913      14.16410775      -0.00844736       0.00737907       0.00201703
V        4.08652507       0.00000000      10.00000000      -0.01511166      -0.02168983       2.40862255
V        6.12978761       0.00000000      12.04326254       0.04343313      -0.03896790      -0.47354681
V        4.08652507       2.04326254      12.04326254       0.03752551       0.09556302      -0.49967487
V        6.12978761       2.04326254      10.00000000       0.01398886       0.01301338       2.47950555
V        4.05488530      -0.03209420      14.17833916       0.00849467       0.00480513       0.00867053
V        6.11570233      -0.01543440      16.02457146      -0.00300125       0.00494269      -0.00631591
V        4.02073246       1.96887881      16.03738557       0.01127069      -0.00009950      -0.00544380
V        6.16134611       2.15594315      14.22051338       0.00635242       0.00114388       0.00601767
V        4.08652507       4.08652507      10.00000000      -0.01665535      -0.01996642       2.45842585
V        6.12978761       4.08652507      12.04326254       0.06330056       0.06239527      -0.62847840
V        4.08652507       6.12978761      12.04326254       0.05357973      -0.04025628      -0.51282504
V        6.12978761       6.12978761      10.00000000       0.00624367       0.03079487       2.51703518
V        4.14034573       4.05885337      14.22985164       0.00474728       0.00682808      -0.00448040
V        6.01009911       3.96651990      16.10930536       0.01019957       0.00438013      -0.01132931
V        4.02772821       6.26001442      16.11182902      -0.01253670      -0.00154138      -0.01293496
V        6.20207972       6.21027206      14.28783888       0.00899140      -0.00874072      -0.00002520
V        4.08652507       8.17305015      10.00000000       0.00967172      -0.00923257       2.49977048
V        6.12978761       8.17305015      12.04326254       0.00263744      -0.06005608      -0.48723716
V        4.08652507      10.21631269      12.04326254       0.03745917       0.05652159      -0.55076218
V        6.12978761      10.21631269      10.00000000       0.01612673       0.00175709       2.45301239
V        4.03995600       8.06344096      14.17264492       0.01012938      -0.00223737       0.00682396
V        6.23556234       8.21123630      16.17308056      -0.01867367       0.00143853      -0.01341113
V        4.04243624      10.24380916      16.01322117      -0.00543943      -0.00368259       0.00092174
V        6.16502780      10.18917374      14.18853835      -0.00731710      -0.00329873      -0.00423281
V        8.17305015       0.00000000      10.00000000      -0.00339026      -0.01508749       2.42567102
V       10.21631269       0.00000000      12.04326254      -0.00205045       0.03065089      -0.56837732
V        8.17305015       2.04326254      12.04326254      -0.04852392       0.07794505      -0.57424509
V       10.21631269       2.04326254      10.00000000      -0.00620073       0.01181730       2.43509952
V        8.16018617      -0.00724921      14.20342565      -0.00502059       0.00955808       0.00477634
V       10.23371609      -0.03078792      16.02192707       0.00137991      -0.01751410       0.00395924
V        8.26050657       1.97186502      16.12228902      -0.00670878      -0.00578807      -0.00911559
V       10.17697204       2.12576486      14.23607547       0.01347721      -0.00194992      -0.00796116
V        8.17305015       4.08652507      10.00000000      -0.00162699      -0.01338928       2.57839532
V       10.21631269       4.08652507      12.04326254      -0.01878679      -0.01102952      -0.62087719
V        8.17305015       6.12978761      12.04326254      -0.04827915      -0.04491923      -0.36951946
V       10.21631269       6.12978761      10.00000000       0.01672168      -0.00712813       2.51456589
V        8.09968941       4.04832881      14.23391393      -0.00838874      -0.00400115      -0.00118348
V       10.31970013       4.10204701      16.12048408      -0.01609228      -0.00529442       0.00427806
V        8.21004695       6.16878672      16.15118799      -0.01674945       0.00646478       0.01058472
V       10.22685644       6.09990517      14.18285717      -0.00321645       0.00178666       0.00238958
V        8.17305015       8.17305015      10.00000000      -0.01150954      -0.00335169       2.44653244
V       10.21631269       8.17305015      12.04326254      -0.00133517      -0.03770831      -0.50123553
V        8.17305015      10.21631269      12.04326254      -0.04035758       0.00409268      -0.52435978
V       10.21631269      10.21631269      10.00000000       0.02321269       0.02818520       2.40399534
V        8.08767017       8.09096342      14.24880043       0.00254385      -0.01068679       0.00487841
V       10.19953187       8.21932060      16.02959197       0.00272974      -0.00166325      -0.00353964
V        8.20360287      10.23443339      16.03466773       0.00708879       0.00741583      -0.00515249
V       10.23820796      10.26006748      14.17458753       0.00596085       0.00304753      -0.00167199
N        0.00000000       2.04326254      10.00000000      -0.00967558      -0.00231219      -1.40021815
N        2.04326254       0.00000000      10.00000000      -0.00420941       0.00970463      -1.38585134
N        0.00000000       0.00000000      12.04326254       0.00213941      -0.02094292      -0.50639574
N        2.04326254       2.04326254      12.04326254      -0.00501442       0.00404460      -0.35229564
N       -0.00219066       2.03786820      14.11910200       0.00735901       0.00053170       0.00110737
N        2.01626299       0.04256473      14.10688599       0.00945035       0.00602178      -0.00127321
N        0.00614217      -0.00992394      16.26982517      -0.00032473      -0.00530084       0.00567005
N        2.02476787       2.02032703      16.30792233      -0.00902509      -0.00723920      -0.00628352
N        0.00000000       6.12978761      10.00000000       0.01386776      -0.00540960      -1.39622035
N        2.04326254       4.08652507      10.00000000       0.00544380       0.01051170      -1.40036831
N        0.00000000       4.08652507      12.04326254       0.01141930       0.00163419      -0.33802525
N        2.04326254       6.12978761      12.04326254      -0.03167496      -0.00400886      -0.40132529
N        0.04270882       6.11224669      14.11682579      -0.00463210       0.01022399      -0.00949380
N        2.03688892       4.11595503      14.12414154       0.00237801      -0.00785061       0.00008947
N        0.04298973       4.10142915      16.30022854      -0.00717415       0.00558007      -0.00845790
N        2.03637368       6.15389639      16.27898886      -0.00300022      -0.01585856       0.00043683
N        0.00000000      10.21631269      10.00000000       0.00944649      -0.00424309      -1.39051378
N        2.04326254       8.17305015      10.00000000      -0.01785374       0.00554741      -1.41012513
N        0.00000000       8.17305015      12.04326254      -0.03145385      -0.00382914      -0.42794444
N        2.04326254      10.21631269      12.04326254      -0.01043765       0.03864445      -0.44467615
N        0.02029991      10.18622677      14.10734681      -0.00522268      -0.00441484      -0.00296268
N        2.01030762       8.21159411      14.10238754       0.01334994       0.00512884       0.00251557
N       -0.02923523       8.18652867      16.29810097       0.01039034       0.00628018      -0.00007919
N        2.02830619      10.23052050      16.29055846      -0.00128607      -0.00659488       0.00272357
N        4.08652507       2.04326254      10.00000000      -0.00169924       0.00091968      -1.39473116
N        6.12978761       0.00000000      10.00000000       0.00228160       0.01032915      -1.40623196
N        4.08652507       0.00000000      12.04326254      -0.02477515      -0.03208917      -0.39453372
N        6.12978761       2.04326254      12.04326254      -0.02717682      -0.06074797      -0.42053375
N        4.11448485       2.01461832      14.11351066      -0.00511264       0.01629051       0.00734744
N        6.11437902       0.02493661      14.12162621       0.01520473       0.00182754      -0.00762563
N        4.07869690      -0.01742853      16.30301678      -0.00417084      -0.00801953       0.00048877
N        6.13236318       1.97819284      16.22793055      -0.01370681       0.00822085       0.00216641
N        4.08652507       6.12978761      10.00000000       0.02785739      -0.02701767      -1.48687384
N        6.12978761       4.08652507      10.00000000      -0.00680057       0.02545932      -1.50159572
N        4.08652507       4.08652507      12.04326254      -0.10254896      -0.04702676      -0.53968201
N        6.12978761       6.12978761      12.04326254       0.00938813       0.02974741      -0.70420587
N        4.14647604       6.07468650      14.09786345       0.00892713      -0.01300875      -0.00496017
N        6.12261963       4.16158004      14.09469989      -0.00310486      -0.01040114       0.00316760
N        4.00723633       4.08444073      16.23219589       0.00168999      -0.00533632       0.02171759
N        6.12013936       6.11052124      16.20666950      -0.00000386      -0.00082661       0.00161414
N        4.08652507      10.21631269      10.00000000       0.00812314      -0.00688567      -1.40328959
N        6.12978761       8.17305015      10.00000000       0.01613727      -0.00965526      -1.50108125
N        4.08652507       8.17305015      12.04326254      -0.01935218       0.04321382      -0.64157791
N        6.12978761      10.21631269      12.04326254       0.01238398       0.05135239      -0.50936356
N        4.10841511      10.17573194      14.10514143      -0.00580247       0.01065259       0.00381912
N        6.08852446       8.18930582      14.11835500       0.00021803      -0.00244820      -0.01233075
N        4.06094975       8.24189832      16.16440506      -0.01274444      -0.00407648       0.01367518
N        6.12709976      10.24281704      16.25770313      -0.00650926      -0.02559739      -0.00434336
N        8.17305015       2.04326254      10.00000000       0.01448688      -0.01251793      -1.51119931
N       10.21631269       0.00000000      10.00000000      -0.01574929       0.01758017      -1.38079141
N        8.17305015       0.00000000      12.04326254      -0.00815734      -0.07127072      -0.42170180
N       10.21631269       2.04326254      12.04326254       0.04688587      -0.03731622      -0.39471036
N        8.16593999       2.02308891      14.10384287       0.00386925      -0.00431534       0.00372836
N       10.19885163       0.04671256      14.11091807       0.00749477      -0.01917092       0.00183217
N        8.17725633      -0.03946372      16.29379470       0.00056821      -0.01070736      -0.00191341
N       10.27149576       2.02624350      16.27711000       0.00764646       0.00074871       0.02071641
N        8.17305015       6.12978761      10.00000000      -0.02945199      -0.00393636      -1.53759065
N       10.21631269       4.08652507      10.00000000       0.00062555      -0.01279587      -1.49981266
N        8.17305015       4.08652507      12.04326254       0.02455738      -0.01966174      -0.85364276
N       10.21631269       6.12978761      12.04326254       0.08327315       0.06876827      -0.70995666
N        8.19608172       6.09687554      14.10721195      -0.01101024       0.01095110      -0.01184893
N       10.16595392       4.10032381      14.09645226       0.00045123       0.02297949       0.01260586
N        8.16615031       4.07200068      16.12351884       0.00534198       0.01036180       0.01671911
N       10.26519423       6.15770573      16.17832636      -0.00341005      -0.00281613       0.00319768
N        8.17305015      10.21631269      10.00000000      -0.00142079      -0.00707310      -1.38343656
N       10.21631269       8.17305015      10.00000000      -0.02265142       0.00179900      -1.38947326
N        8.17305015       8.17305015      12.04326254       0.00393996       0.04234581      -0.25384964
N       10.21631269      10.21631269      12.04326254       0.01485661       0.01643192      -0.40600881
N        8.19287985      10.18286801      14.12292211       0.00258319       0.00430480       0.00483547
N       10.17221250       8.18261397      14.12222734      -0.00307504      -0.00480822       0.00908114
N        8.21816753       8.21143909      16.32764896       0.00017484      -0.00837357       0.00305910
N       10.23915895      10.23109623      16.29816281       0.02292653      -0.00144933      -0.00446601
S        9.87567401       4.33793745      18.52912625      -0.00698929       0.01447711      -0.01490546
S        8.49156265       5.80389618      18.58014326      -0.00390036      -0.01300053       0.00098293
S        5.92035083       8.04008378      18.59634639      -0.00342445       0.00951642       0.00544508
S        4.32099735       6.75900538      18.56199137       0.00103024       0.01296967      -0.01479104
S        4.55453357       4.96544940      19.60596366       0.00204865       0.01406111       0.00817534
S        5.41580660       3.41504845      18.47644309       0.00162905      -0.00759581       0.00595905
S        7.04589235       2.68988890      19.71070791       0.01570276      -0.03862440      -0.00672703
S        8.63471204       2.24819663      18.56618739      -0.00758295      -0.00501237       0.00893227
