144
Lattice="13.094844279 0.0 0.0 0.0 13.094844279 0.0 0.0 0.0 26.547422134698557" Properties=species:S:1:pos:R:3:move_mask:L:1:tags:I:1:forces:R:3 energy_ry=-552.07495149 energy_ev=-7511.362307931507 charge=0 spin=0 energy=-1430.4532982006174 free_energy=-1430.4532982006174 stress="-0.00040835747495293617 2.138438981447166e-09 -6.071712466138024e-09 2.138438981447166e-09 -0.00040833503589965403 -3.3206644101113625e-09 -6.071712466138024e-09 -3.3206644101113625e-09 0.0029908851720392704" pbc="T T T"
Nb       0.00000000       0.00000000      10.00000000  F        2       0.00000311       0.00000493       2.17905807
Nb       2.18247404       0.00000000      12.18247404  F        2       0.00000014       0.00000576      -1.24268126
Nb       0.00000000       2.18247404      12.18247404  F        2       0.00000553       0.00000011      -1.24268353
Nb       2.18247404       2.18247404      10.00000000  F        2      -0.00000023      -0.00000005       2.17906165
N        0.00000000       2.18247404      10.00000000  F        2       0.00000818       0.00000126      -1.82806301
N        2.18247404       0.00000000      10.00000000  F        2       0.00000082       0.00000772      -1.82806242
N        0.00000000       0.00000000      12.18247404  F        2       0.00000940       0.00000867       0.88953769
N        2.18247404       2.18247404      12.18247404  F        2       0.00000202       0.00000080       0.88953769
Nb       0.00000035       0.00000051      14.63588741  T        1       0.00000403      -0.00000077      -0.00049419
Nb       2.18247427       0.00000019      16.60884698  T        1      -0.00000292      -0.00000118       0.00155152
Nb       0.00000029       2.18247420      16.60884650  T        1       0.00000030      -0.00000227       0.00155695
Nb       2.18247404       2.18247421      14.63588767  T        1       0.00000164      -0.00000139      -0.00051013
N        0.00000033       2.18247432      14.44413892  T        1      -0.00000215       0.00000130       0.00048935
N        2.18247420      -0.00000064      14.44413858  T        1       0.00000445      -0.00000012       0.00048981
N        0.00000031       0.00000009      16.94391479  T        1      -0.00000022       0.00000161       0.00060656
N        2.18247423       2.18247415      16.94391499  T        1       0.00000015       0.00000014       0.00061012
Nb       0.00000000       4.36494809      10.00000000  F        2       0.00000415      -0.00000253       2.17905879
Nb       2.18247404       4.36494809      12.18247404  F        2      -0.00000033      -0.00000177      -1.24268234
Nb       0.00000000       6.54742213      12.18247404  F        2       0.00000623       0.00000550      -1.24268103
Nb       2.18247404       6.54742213      10.00000000  F        2       0.00000033       0.00000463       2.17906022
N        0.00000000       6.54742213      10.00000000  F        2       0.00000791       0.00000717      -1.82806206
N        2.18247404       4.36494809      10.00000000  F        2       0.00000113      -0.00000365      -1.82806170
N        0.00000000       4.36494809      12.18247404  F        2       0.00000871      -0.00000373       0.88953847
N        2.18247404       6.54742213      12.18247404  F        2       0.00000092       0.00000837       0.88953543
Nb       0.00000036       4.36494831      14.63588778  T        1      -0.00000128      -0.00000105      -0.00050919
Nb       2.18247426       4.36494805      16.60884692  T        1       0.00000200       0.00000125       0.00155423
Nb       0.00000011       6.54742219      16.60884696  T        1       0.00000033       0.00000077       0.00155008
Nb       2.18247427       6.54742207      14.63588757  T        1      -0.00000119      -0.00000221      -0.00049627
N       -0.00000024       6.54742217      14.44413867  T        1       0.00000131       0.00000414       0.00049005
N        2.18247413       4.36494803      14.44413864  T        1       0.00000006      -0.00000022       0.00048975
N        0.00000018       4.36494812      16.94391470  T        1       0.00000047      -0.00000034       0.00060936
N        2.18247403       6.54742221      16.94391459  T        1      -0.00000153      -0.00000095       0.00060704
Nb       0.00000000       8.72989619      10.00000000  F        2       0.00000367      -0.00000174       2.17905879
Nb       2.18247404       8.72989619      12.18247404  F        2       0.00000014      -0.00000304      -1.24268115
Nb       0.00000000      10.91237023      12.18247404  F        2       0.00000580      -0.00000618      -1.24268115
Nb       2.18247404      10.91237023      10.00000000  F        2       0.00000033      -0.00000555       2.17905831
N        0.00000000      10.91237023      10.00000000  F        2       0.00000794      -0.00000835      -1.82806444
N        2.18247404       8.72989619      10.00000000  F        2       0.00000061      -0.00000525      -1.82805967
N        0.00000000       8.72989619      12.18247404  F        2       0.00000846      -0.00000536       0.88953668
N        2.18247404      10.91237023      12.18247404  F        2       0.00000067      -0.00000921       0.88953751
Nb       0.00000046       8.72989623      14.63588757  T        1      -0.00000271      -0.00000223      -0.00050045
Nb       2.18247421       8.72989607      16.60884686  T        1      -0.00000013      -0.00000478       0.00155028
Nb       0.00000028      10.91237005      16.60884695  T        1       0.00000097       0.00000435       0.00155183
Nb       2.18247420      10.91236995      14.63588747  T        1      -0.00000192      -0.00000120      -0.00049879
N       -0.00000000      10.91237027      14.44413882  T        1      -0.00000102      -0.00000056       0.00048905
N        2.18247411       8.72989606      14.44413872  T        1      -0.00000026       0.00000334       0.00048884
N        0.00000031       8.72989613      16.94391473  T        1      -0.00000044      -0.00000447       0.00060856
N        2.18247421      10.91237003      16.94391460  T        1       0.00000017       0.00000445       0.00060894
Nb       4.36494809       0.00000000      10.00000000  F        2      -0.00000189       0.00000556       2.17905879
Nb       6.54742213       0.00000000      12.18247404  F        2       0.00000525       0.00000553      -1.24268246
Nb       4.36494809       2.18247404      12.18247404  F        2      -0.00000305      -0.00000010      -1.24268210
Nb       6.54742213       2.18247404      10.00000000  F        2       0.00000377      -0.00000054       2.17905998
N        4.36494809       2.18247404      10.00000000  F        2      -0.00000264       0.00000111      -1.82806313
N        6.54742213       0.00000000      10.00000000  F        2       0.00000800       0.00000781      -1.82806253
N        4.36494809       0.00000000      12.18247404  F        2      -0.00000384       0.00000838       0.88953751
N        6.54742213       2.18247404      12.18247404  F        2       0.00000847       0.00000115       0.88953608
Nb       4.36494811       0.00000042      14.63588741  T        1      -0.00000092       0.00000515      -0.00049853
Nb       6.54742212       0.00000024      16.60884677  T        1       0.00000060      -0.00000036       0.00155319
Nb       4.36494820       2.18247427      16.60884666  T        1      -0.00000003       0.00000007       0.00155092
Nb       6.54742217       2.18247395      14.63588747  T        1      -0.00000558      -0.00000270      -0.00049613
N        4.36494807       2.18247445      14.44413877  T        1      -0.00000207       0.00000252       0.00048845
N        6.54742223      -0.00000011      14.44413861  T        1      -0.00000516       0.00000692       0.00048848
N        4.36494813      -0.00000006      16.94391469  T        1      -0.00000194      -0.00000070       0.00060750
N        6.54742208       2.18247423      16.94391463  T        1       0.00000312       0.00000013       0.00060628
Nb       4.36494809       4.36494809      10.00000000  F        2      -0.00000251      -0.00000218       2.17905927
Nb       6.54742213       4.36494809      12.18247404  F        2       0.00000465      -0.00000235      -1.24268103
Nb       4.36494809       6.54742213      12.18247404  F        2      -0.00000326       0.00000523      -1.24268353
Nb       6.54742213       6.54742213      10.00000000  F        2       0.00000410       0.00000501       2.17906022
N        4.36494809       6.54742213      10.00000000  F        2      -0.00000313       0.00000843      -1.82806206
N        6.54742213       4.36494809      10.00000000  F        2       0.00000774      -0.00000266      -1.82806158
N        4.36494809       4.36494809      12.18247404  F        2      -0.00000307      -0.00000398       0.88953674
N        6.54742213       6.54742213      12.18247404  F        2       0.00000918       0.00000859       0.88953495
Nb       4.36494813       4.36494841      14.63588751  T        1      -0.00000066      -0.00000211      -0.00049811
Nb       6.54742213       4.36494805      16.60884746  T        1       0.00000428      -0.00000170       0.00154920
Nb       4.36494802       6.54742218      16.60884632  T        1       0.00000262      -0.00000387       0.00155124
Nb       6.54742214       6.54742171      14.63588732  T        1       0.00000520       0.00000316      -0.00049815
N        4.36494814       6.54742215      14.44413861  T        1      -0.00000045       0.00000201       0.00048877
N        6.54742225       4.36494787      14.44413833  T        1      -0.00000154       0.00000091       0.00049007
N        4.36494841       4.36494831      16.94391463  T        1      -0.00000160      -0.00000057       0.00060696
N        6.54742207       6.54742213      16.94391456  T        1      -0.00000076       0.00000404       0.00060688
Nb       4.36494809       8.72989619      10.00000000  F        2      -0.00000238      -0.00000144       2.17905927
Nb       6.54742213       8.72989619      12.18247404  F        2       0.00000399      -0.00000292      -1.24268103
Nb       4.36494809      10.91237023      12.18247404  F        2      -0.00000194      -0.00000655      -1.24268126
Nb       6.54742213      10.91237023      10.00000000  F        2       0.00000425      -0.00000472       2.17905784
N        4.36494809      10.91237023      10.00000000  F        2      -0.00000299      -0.00000867      -1.82806385
N        6.54742213       8.72989619      10.00000000  F        2       0.00000788      -0.00000500      -1.82806027
N        4.36494809       8.72989619      12.18247404  F        2      -0.00000311      -0.00000407       0.88953531
N        6.54742213      10.91237023      12.18247404  F        2       0.00000847      -0.00000966       0.88953698
Nb       4.36494802       8.72989607      14.63588757  T        1       0.00000498       0.00000885      -0.00049965
Nb       6.54742220       8.72989613      16.60884745  T        1      -0.00000043      -0.00000610       0.00154804
Nb       4.36494792      10.91237011      16.60884702  T        1       0.00000524      -0.00000035       0.00154864
Nb       6.54742200      10.91237024      14.63588733  T        1      -0.00000205      -0.00000606      -0.00049775
N        4.36494799      10.91237043      14.44413864  T        1       0.00000226      -0.00001311       0.00048901
N        6.54742198       8.72989610      14.44413856  T        1      -0.00000350      -0.00000388       0.00049025
N        4.36494805       8.72989605      16.94391442  T        1      -0.00000045       0.00000524       0.00060706
N        6.54742225      10.91236999      16.94391465  T        1      -0.00000663       0.00000419       0.00060810
Nb       8.72989619       0.00000000      10.00000000  F        2      -0.00000233       0.00000453       2.17906022
Nb      10.91237023       0.00000000      12.18247404  F        2      -0.00000606       0.00000523      -1.24268198
Nb       8.72989619       2.18247404      12.18247404  F        2      -0.00000231       0.00000062      -1.24268079
Nb      10.91237023       2.18247404      10.00000000  F        2      -0.00000447       0.00000030       2.17905927
N        8.72989619       2.18247404      10.00000000  F        2      -0.00000522       0.00000137      -1.82806015
N       10.91237023       0.00000000      10.00000000  F        2      -0.00000866       0.00000777      -1.82806444
N        8.72989619       0.00000000      12.18247404  F        2      -0.00000462       0.00000809       0.88953626
N       10.91237023       2.18247404      12.18247404  F        2      -0.00001005       0.00000012       0.88953900
Nb       8.72989595       0.00000052      14.63588733  T        1       0.00001141      -0.00000745      -0.00049925
Nb      10.91237008       0.00000027      16.60884710  T        1       0.00000110      -0.00000080       0.00155363
Nb       8.72989609       2.18247421      16.60884685  T        1      -0.00000942       0.00000006       0.00155231
Nb      10.91237012       2.18247413      14.63588773  T        1      -0.00000035      -0.00000012      -0.00051209
N        8.72989596       2.18247439      14.44413866  T        1       0.00000694       0.00000044       0.00048892
N       10.91237021      -0.00000001      14.44413870  T        1      -0.00001263      -0.00000078       0.00048974
N        8.72989605       0.00000028      16.94391480  T        1       0.00000259       0.00000024       0.00060836
N       10.91237005       2.18247427      16.94391473  T        1       0.00000397      -0.00000345       0.00061166
Nb       8.72989619       4.36494809      10.00000000  F        2      -0.00000060      -0.00000173       2.17905879
Nb      10.91237023       4.36494809      12.18247404  F        2      -0.00000528      -0.00000145      -1.24268305
Nb       8.72989619       6.54742213      12.18247404  F        2      -0.00000318       0.00000424      -1.24268270
Nb      10.91237023       6.54742213      10.00000000  F        2      -0.00000577       0.00000452       2.17905879
N        8.72989619       6.54742213      10.00000000  F        2      -0.00000488       0.00000755      -1.82806015
N       10.91237023       4.36494809      10.00000000  F        2      -0.00000832      -0.00000246      -1.82806396
N        8.72989619       4.36494809      12.18247404  F        2      -0.00000615      -0.00000386       0.88953483
N       10.91237023       6.54742213      12.18247404  F        2      -0.00000958       0.00000801       0.88953578
Nb       8.72989618       4.36494847      14.63588728  T        1      -0.00000508       0.00000310      -0.00049493
Nb      10.91237016       4.36494797      16.60884695  T        1       0.00000174       0.00000806       0.00155483
Nb       8.72989605       6.54742229      16.60884626  T        1       0.00000415      -0.00000160       0.00155108
Nb      10.91237017       6.54742183      14.63588751  T        1       0.00000461      -0.00000149      -0.00049539
N        8.72989620       6.54742229      14.44413876  T        1      -0.00000971      -0.00000674       0.00048837
N       10.91236998       4.36494801      14.44413833  T        1       0.00000669       0.00000014       0.00048795
N        8.72989607       4.36494806      16.94391472  T        1      -0.00000656      -0.00000026       0.00060658
N       10.91237017       6.54742223      16.94391469  T        1       0.00000064      -0.00000309       0.00060424
Nb       8.72989619       8.72989619      10.00000000  F        2      -0.00000220      -0.00000290       2.17905974
Nb      10.91237023       8.72989619      12.18247404  F        2      -0.00000566      -0.00000326      -1.24268150
Nb       8.72989619      10.91237023      12.18247404  F        2      -0.00000276      -0.00000484      -1.24268067
Nb      10.91237023      10.91237023      10.00000000  F        2      -0.00000494      -0.00000547       2.17905760
N        8.72989619      10.91237023      10.00000000  F        2      -0.00000496      -0.00000888      -1.82806289
N       10.91237023       8.72989619      10.00000000  F        2      -0.00000814      -0.00000455      -1.82806265
N        8.72989619       8.72989619      12.18247404  F        2      -0.00000548      -0.00000486       0.88953531
N       10.91237023      10.91237023      12.18247404  F        2      -0.00000954      -0.00000943       0.88953936
Nb       8.72989593       8.72989607      14.63588727  T        1       0.00000346       0.00000571      -0.00049821
Nb      10.91237003       8.72989608      16.60884704  T        1       0.00000397      -0.00000502       0.00154952
Nb       8.72989606      10.91237002      16.60884713  T        1       0.00000262       0.00000428       0.00154780
Nb      10.91237011      10.91236987      14.63588763  T        1       0.00000022       0.00000002      -0.00051073
N        8.72989597      10.91237018      14.44413832  T        1       0.00000349       0.00000748       0.00049076
N       10.91237001       8.72989601      14.44413837  T        1      -0.00000016       0.00000291       0.00048965
N        8.72989618       8.72989611      16.94391460  T        1      -0.00000622      -0.00000589       0.00061030
N       10.91237015      10.91236998      16.94391454  T        1       0.00000136       0.00000604       0.00061062
