144
Lattice="13.556398652999999 0.0 0.0 0.0 13.556398652999999 0.0 0.0 0.0 26.7781993293" Properties=species:S:1:pos:R:3:move_mask:L:1:tags:I:1:forces:R:3 energy_ry=-458.45022267 energy_ev=-6237.532989555712 charge=0 spin=0 energy=-1297.8559312154784 free_energy=-1297.8559312154784 stress="0.014690873213112354 -3.3113287667418945e-09 -5.460442764615436e-09 -3.3113287667418945e-09 0.01469087041914463 -2.102257923297657e-09 -5.460442764615436e-09 -2.102257923297657e-09 0.0046296739019453526" pbc="T T T"
Sc       0.00000000       0.00000000      10.00000000  F        2       0.00000224       0.00000215       0.42359409
Sc       2.25939978       0.00000000      12.25939978  F        2      -0.00000231       0.00000255      -0.21374127
Sc       0.00000000       2.25939978      12.25939978  F        2       0.00000280      -0.00000200      -0.21374089
Sc       2.25939978       2.25939978      10.00000000  F        2      -0.00000054       0.00000030       0.42359519
N        0.00000000       2.25939978      10.00000000  F        2       0.00000231       0.00000028       0.13512006
N        2.25939978       0.00000000      10.00000000  F        2       0.00000043       0.00000265       0.13512035
N        0.00000000       0.00000000      12.25939978  F        2       0.00000260       0.00000367      -0.34475991
N        2.25939978       2.25939978      12.25939978  F        2       0.00000036      -0.00000009      -0.34476179
Sc       0.00000038       0.00000035      14.51737849  T        1      -0.00000000      -0.00000226       0.00037027
Sc       2.25940000       0.00000039      16.71295827  T        1       0.00000539      -0.00000103      -0.00050669
Sc       0.00000038       2.25940002      16.71295818  T        1      -0.00000157      -0.00000024      -0.00050756
Sc       2.25940015       2.25940012      14.51737791  T        1       0.00000151       0.00000314       0.00038291
N        0.00000034       2.25940000      14.52645750  T        1       0.00000039       0.00000153       0.00073027
N        2.25940000       0.00000034      14.52645735  T        1       0.00000283       0.00000105       0.00073111
N        0.00000032       0.00000045      16.72035647  T        1       0.00000073      -0.00000321      -0.00080973
N        2.25940002       2.25940007      16.72035622  T        1      -0.00000079      -0.00000069      -0.00080829
Sc       0.00000000       4.51879955      10.00000000  F        2       0.00000286      -0.00000130       0.42359307
Sc       2.25939978       4.51879955      12.25939978  F        2       0.00000055      -0.00000080      -0.21373996
Sc       0.00000000       6.77819933      12.25939978  F        2       0.00000321       0.00000430      -0.21374355
Sc       2.25939978       6.77819933      10.00000000  F        2       0.00000064       0.00000324       0.42359570
N        0.00000000       6.77819933      10.00000000  F        2       0.00000189       0.00000239       0.13511968
N        2.25939978       4.51879955      10.00000000  F        2      -0.00000006      -0.00000206       0.13511968
N        0.00000000       4.51879955      12.25939978  F        2       0.00000240      -0.00000154      -0.34476119
N        2.25939978       6.77819933      12.25939978  F        2      -0.00000198       0.00000221      -0.34476426
Sc       0.00000028       4.51879989      14.51737802  T        1       0.00000197      -0.00000309       0.00038397
Sc       2.25939998       4.51879971      16.71295878  T        1       0.00000156      -0.00000124      -0.00052961
Sc       0.00000038       6.77819918      16.71295793  T        1      -0.00000290       0.00000271      -0.00050614
Sc       2.25940000       6.77819914      14.51737803  T        1       0.00001077       0.00000251       0.00038233
N        0.00000033       6.77819942      14.52645764  T        1      -0.00000130       0.00000160       0.00072968
N        2.25939989       4.51879980      14.52645757  T        1       0.00000042      -0.00000389       0.00073257
N        0.00000033       4.51879986      16.72035630  T        1       0.00000192      -0.00000094      -0.00080877
N        2.25940001       6.77819929      16.72035621  T        1       0.00000059      -0.00000125      -0.00080509
Sc       0.00000000       9.03759910      10.00000000  F        2       0.00000258      -0.00000406       0.42359459
Sc       2.25939978       9.03759910      12.25939978  F        2       0.00000132      -0.00000577      -0.21373960
Sc       0.00000000      11.29699888      12.25939978  F        2       0.00000089       0.00000099      -0.21373537
Sc       2.25939978      11.29699888      10.00000000  F        2       0.00000013      -0.00000105       0.42359319
N        0.00000000      11.29699888      10.00000000  F        2       0.00000239      -0.00000046       0.13511842
N        2.25939978       9.03759910      10.00000000  F        2      -0.00000087      -0.00000225       0.13512011
N        0.00000000       9.03759910      12.25939978  F        2       0.00000139      -0.00000557      -0.34476167
N        2.25939978      11.29699888      12.25939978  F        2       0.00000199       0.00000018      -0.34476051
Sc       0.00000029       9.03759899      14.51737789  T        1       0.00000868       0.00001187       0.00038415
Sc       2.25940008       9.03759899      16.71295906  T        1      -0.00000202       0.00000304      -0.00053111
Sc       0.00000035      11.29699858      16.71295875  T        1       0.00000614      -0.00000392      -0.00052789
Sc       2.25940001      11.29699867      14.51737784  T        1      -0.00000790      -0.00000912       0.00038549
N        0.00000029      11.29699862      14.52645772  T        1       0.00000236      -0.00000112       0.00073802
N        2.25940009       9.03759901      14.52645739  T        1      -0.00000331       0.00000615       0.00073288
N        0.00000037       9.03759901      16.72035636  T        1      -0.00000262       0.00000466      -0.00080869
N        2.25940005      11.29699844      16.72035628  T        1      -0.00000186       0.00000461      -0.00080845
Sc       4.51879955       0.00000000      10.00000000  F        2      -0.00000178       0.00000225       0.42359254
Sc       6.77819933       0.00000000      12.25939978  F        2       0.00000479       0.00000304      -0.21374212
Sc       4.51879955       2.25939978      12.25939978  F        2      -0.00000175       0.00000129      -0.21374024
Sc       6.77819933       2.25939978      10.00000000  F        2       0.00000320       0.00000007       0.42359519
N        4.51879955       2.25939978      10.00000000  F        2      -0.00000146      -0.00000063       0.13511968
N        6.77819933       0.00000000      10.00000000  F        2       0.00000225       0.00000215       0.13512015
N        4.51879955       0.00000000      12.25939978  F        2      -0.00000176       0.00000222      -0.34476066
N        6.77819933       2.25939978      12.25939978  F        2       0.00000275      -0.00000025      -0.34476227
Sc       4.51879990       0.00000044      14.51737778  T        1      -0.00000121       0.00000484       0.00038445
Sc       6.77819931       0.00000042      16.71295811  T        1      -0.00000313      -0.00000313      -0.00050803
Sc       4.51879965       2.25940011      16.71295870  T        1      -0.00000233      -0.00000267      -0.00052882
Sc       6.77819924       2.25940003      14.51737801  T        1       0.00000154       0.00000147       0.00038295
N        4.51879983       2.25939998      14.52645752  T        1      -0.00000252       0.00000144       0.00073224
N        6.77819920       0.00000032      14.52645759  T        1       0.00000223      -0.00000041       0.00073041
N        4.51879984       0.00000039      16.72035630  T        1       0.00000019      -0.00000072      -0.00081093
N        6.77819908       2.25940005      16.72035630  T        1       0.00000194      -0.00000003      -0.00080469
Sc       4.51879955       4.51879955      10.00000000  F        2      -0.00000177      -0.00000054       0.42359337
Sc       6.77819933       4.51879955      12.25939978  F        2       0.00000368      -0.00000036      -0.21374176
Sc       4.51879955       6.77819933      12.25939978  F        2      -0.00000107       0.00000484      -0.21373768
Sc       6.77819933       6.77819933      10.00000000  F        2       0.00000255       0.00000303       0.42359671
N        4.51879955       6.77819933      10.00000000  F        2      -0.00000148       0.00000233       0.13511823
N        6.77819933       4.51879955      10.00000000  F        2       0.00000249      -0.00000171       0.13511963
N        4.51879955       4.51879955      12.25939978  F        2      -0.00000134      -0.00000378      -0.34476253
N        6.77819933       6.77819933      12.25939978  F        2       0.00000418       0.00000085      -0.34476581
Sc       4.51879985       4.51879967      14.51737787  T        1      -0.00000254       0.00000263       0.00038587
Sc       6.77819923       4.51879960      16.71295871  T        1       0.00000061      -0.00000053      -0.00052943
Sc       4.51879981       6.77819917      16.71295883  T        1       0.00000032       0.00000258      -0.00053572
Sc       6.77819947       6.77819928      14.51737779  T        1      -0.00000796       0.00000580       0.00038177
N        4.51879987       6.77819934      14.52645730  T        1      -0.00000209       0.00000060       0.00074446
N        6.77819922       4.51879982      14.52645733  T        1       0.00000264      -0.00000378       0.00073424
N        4.51879996       4.51879968      16.72035593  T        1       0.00000054      -0.00000048      -0.00080197
N        6.77819938       6.77819931      16.72035640  T        1       0.00000293      -0.00000205      -0.00080157
Sc       4.51879955       9.03759910      10.00000000  F        2      -0.00000146      -0.00000426       0.42359516
Sc       6.77819933       9.03759910      12.25939978  F        2       0.00000363      -0.00000645      -0.21373923
Sc       4.51879955      11.29699888      12.25939978  F        2      -0.00000243      -0.00000190      -0.21374218
Sc       6.77819933      11.29699888      10.00000000  F        2       0.00000355      -0.00000040       0.42359307
N        4.51879955      11.29699888      10.00000000  F        2      -0.00000123       0.00000033       0.13511944
N        6.77819933       9.03759910      10.00000000  F        2       0.00000268      -0.00000227       0.13511863
N        4.51879955       9.03759910      12.25939978  F        2      -0.00000227      -0.00000127      -0.34476379
N        6.77819933      11.29699888      12.25939978  F        2       0.00000294       0.00000161      -0.34476033
Sc       4.51879983       9.03759918      14.51737805  T        1      -0.00000099      -0.00001617       0.00038155
Sc       6.77819908       9.03759909      16.71295861  T        1       0.00000335      -0.00000588      -0.00053317
Sc       4.51879997      11.29699850      16.71295810  T        1      -0.00000287       0.00000794      -0.00050615
Sc       6.77819923      11.29699860      14.51737794  T        1       0.00000603      -0.00000766       0.00038089
N        4.51879990      11.29699859      14.52645759  T        1      -0.00000091      -0.00000235       0.00073006
N        6.77819942       9.03759902      14.52645730  T        1       0.00000321       0.00000873       0.00074340
N        4.51880000       9.03759908      16.72035625  T        1       0.00000050       0.00000257      -0.00080549
N        6.77819907      11.29699850      16.72035641  T        1       0.00000194       0.00000448      -0.00081221
Sc       9.03759910       0.00000000      10.00000000  F        2      -0.00000400       0.00000212       0.42359436
Sc      11.29699888       0.00000000      12.25939978  F        2       0.00000218       0.00000092      -0.21373977
Sc       9.03759910       2.25939978      12.25939978  F        2      -0.00000531       0.00000093      -0.21374148
Sc      11.29699888       2.25939978      10.00000000  F        2      -0.00000026       0.00000003       0.42359373
N        9.03759910       2.25939978      10.00000000  F        2      -0.00000250      -0.00000034       0.13512011
N       11.29699888       0.00000000      10.00000000  F        2      -0.00000072       0.00000260       0.13511907
N        9.03759910       0.00000000      12.25939978  F        2      -0.00000349       0.00000219      -0.34476042
N       11.29699888       2.25939978      12.25939978  F        2      -0.00000061       0.00000018      -0.34476066
Sc       9.03759916       0.00000044      14.51737796  T        1      -0.00000739       0.00000314       0.00037843
Sc      11.29699849       0.00000037      16.71295804  T        1       0.00000914       0.00000669      -0.00050503
Sc       9.03759899       2.25939992      16.71295866  T        1       0.00000415       0.00000485      -0.00052995
Sc      11.29699902       2.25940003      14.51737787  T        1      -0.00000509       0.00000401       0.00038499
N        9.03759901       2.25939998      14.52645750  T        1       0.00000515       0.00000135       0.00073298
N       11.29699863       0.00000021      14.52645775  T        1      -0.00000385       0.00000302       0.00073479
N        9.03759904       0.00000042      16.72035621  T        1       0.00000467      -0.00000133      -0.00081037
N       11.29699858       2.25940017      16.72035618  T        1      -0.00000369      -0.00000247      -0.00080917
Sc       9.03759910       4.51879955      10.00000000  F        2      -0.00000395      -0.00000120       0.42359477
Sc      11.29699888       4.51879955      12.25939978  F        2      -0.00000153      -0.00000236      -0.21373796
Sc       9.03759910       6.77819933      12.25939978  F        2      -0.00000635       0.00000368      -0.21374242
Sc      11.29699888       6.77819933      10.00000000  F        2      -0.00000072       0.00000382       0.42359349
N        9.03759910       6.77819933      10.00000000  F        2      -0.00000192       0.00000212       0.13511895
N       11.29699888       4.51879955      10.00000000  F        2      -0.00000034      -0.00000141       0.13511899
N        9.03759910       4.51879955      12.25939978  F        2      -0.00000420      -0.00000300      -0.34476253
N       11.29699888       6.77819933      12.25939978  F        2       0.00000049       0.00000424      -0.34476089
Sc       9.03759900       4.51879974      14.51737792  T        1       0.00000664      -0.00000214       0.00038647
Sc      11.29699860       4.51879986      16.71295868  T        1      -0.00000350       0.00000012      -0.00052887
Sc       9.03759898       6.77819904      16.71295850  T        1       0.00000589       0.00000279      -0.00053042
Sc      11.29699859       6.77819913      14.51737822  T        1      -0.00000698      -0.00000484       0.00038489
N        9.03759905       6.77819931      14.52645731  T        1       0.00000693       0.00000130       0.00074370
N       11.29699876       4.51879972      14.52645761  T        1      -0.00000213      -0.00000154       0.00073359
N        9.03759917       4.51879999      16.72035645  T        1      -0.00000689      -0.00000055      -0.00080277
N       11.29699851       6.77819908      16.72035638  T        1      -0.00000405       0.00000185      -0.00081117
Sc       9.03759910       9.03759910      10.00000000  F        2      -0.00000385      -0.00000387       0.42359596
Sc      11.29699888       9.03759910      12.25939978  F        2      -0.00000062      -0.00000224      -0.21374176
Sc       9.03759910      11.29699888      12.25939978  F        2      -0.00000262      -0.00000144      -0.21374011
Sc      11.29699888      11.29699888      10.00000000  F        2      -0.00000032      -0.00000033       0.42359278
N        9.03759910      11.29699888      10.00000000  F        2      -0.00000336      -0.00000004       0.13511927
N       11.29699888       9.03759910      10.00000000  F        2      -0.00000014      -0.00000356       0.13511956
N        9.03759910       9.03759910      12.25939978  F        2      -0.00000123      -0.00000274      -0.34476256
N       11.29699888      11.29699888      12.25939978  F        2      -0.00000099      -0.00000065      -0.34476027
Sc       9.03759911       9.03759902      14.51737768  T        1      -0.00001155       0.00000239       0.00038117
Sc      11.29699857       9.03759911      16.71295803  T        1      -0.00000054      -0.00001138      -0.00050641
Sc       9.03759917      11.29699864      16.71295831  T        1      -0.00001058      -0.00000473      -0.00050824
Sc      11.29699856      11.29699853      14.51737842  T        1       0.00000489      -0.00000223       0.00036593
N        9.03759926      11.29699861      14.52645732  T        1      -0.00000445      -0.00000059       0.00073300
N       11.29699865       9.03759918      14.52645751  T        1      -0.00000086      -0.00000633       0.00073252
N        9.03759893       9.03759897      16.72035637  T        1       0.00000649       0.00000336      -0.00080909
N       11.29699851      11.29699860      16.72035661  T        1      -0.00000313      -0.00000200      -0.00080901
