144
Lattice="12.807166221 0.0 0.0 0.0 12.807166221 0.0 0.0 0.0 26.4035831061" Properties=species:S:1:pos:R:3:move_mask:L:1:tags:I:1:forces:R:3 energy_ry=-557.42740964 energy_ev=-7584.186210363926 charge=0 spin=0 energy=-1381.6311089289773 free_energy=-1381.6311089289773 stress="0.026650095358490944 -1.302676966297156e-09 -3.2311366915394046e-09 -1.302676966297156e-09 0.026650089770555496 -7.538898394443549e-10 -3.2311366915394046e-09 -7.538898394443549e-10 0.008268256671726704" pbc="T T T"
Ti       0.00000000       0.00000000      10.00000000  F        2       0.00000127       0.00000133       1.81394470
Ti       2.13452770       0.00000000      12.13452770  F        2       0.00000018       0.00000238       0.04387103
Ti       0.00000000       2.13452770      12.13452770  F        2       0.00000104      -0.00000016       0.04387173
Ti       2.13452770       2.13452770      10.00000000  F        2       0.00000031       0.00000032       1.81394660
N        0.00000000       2.13452770      10.00000000  F        2       0.00000114       0.00000066      -0.88144583
N        2.13452770       0.00000000      10.00000000  F        2       0.00000080       0.00000159      -0.88144594
N        0.00000000       0.00000000      12.13452770  F        2       0.00000170       0.00000215      -0.97649461
N        2.13452770       2.13452770      12.13452770  F        2       0.00000087       0.00000080      -0.97649974
Ti       0.00000033       0.00000033      14.24025252  T        1      -0.00000223      -0.00000321       0.00014988
Ti       2.13452779       0.00000024      16.26760526  T        1       0.00000273      -0.00000177      -0.00035051
Ti       0.00000024       2.13452779      16.26760531  T        1      -0.00000014       0.00000100      -0.00034963
Ti       2.13452775       2.13452780      14.24025188  T        1       0.00000274       0.00000249       0.00015884
N        0.00000027       2.13452779      14.27168290  T        1      -0.00000488       0.00000207      -0.00039585
N        2.13452782       0.00000031      14.27168304  T        1      -0.00000407      -0.00000484      -0.00039549
N        0.00000023       0.00000021      16.41433005  T        1      -0.00000141      -0.00000162       0.00072088
N        2.13452781       2.13452778      16.41432988  T        1      -0.00000355       0.00000100       0.00071869
Ti       0.00000000       4.26905541      10.00000000  F        2       0.00000064      -0.00000007       1.81394517
Ti       2.13452770       4.26905541      12.13452770  F        2      -0.00000152       0.00000043       0.04387026
Ti       0.00000000       6.40358311      12.13452770  F        2       0.00000204      -0.00000206       0.04387071
Ti       2.13452770       6.40358311      10.00000000  F        2       0.00000044       0.00000049       1.81394708
N        0.00000000       6.40358311      10.00000000  F        2       0.00000138       0.00000101      -0.88144559
N        2.13452770       4.26905541      10.00000000  F        2       0.00000067       0.00000021      -0.88144630
N        0.00000000       4.26905541      12.13452770  F        2       0.00000217      -0.00000042      -0.97649556
N        2.13452770       6.40358311      12.13452770  F        2       0.00000070       0.00000033      -0.97649980
Ti       0.00000029       4.26905543      14.24025207  T        1       0.00000029      -0.00000076       0.00014947
Ti       2.13452780       4.26905544      16.26760567  T        1       0.00000206       0.00000066      -0.00035235
Ti       0.00000022       6.40358309      16.26760570  T        1      -0.00000219       0.00000178      -0.00035275
Ti       2.13452775       6.40358306      14.24025192  T        1       0.00000328       0.00000042       0.00016010
N        0.00000031       6.40358322      14.27168300  T        1      -0.00000514      -0.00000065      -0.00039619
N        2.13452778       4.26905546      14.27168291  T        1       0.00000340       0.00000117      -0.00039735
N        0.00000017       4.26905550      16.41432999  T        1      -0.00000117       0.00000102       0.00072094
N        2.13452778       6.40358315      16.41432980  T        1       0.00000169      -0.00000073       0.00071869
Ti       0.00000000       8.53811081      10.00000000  F        2       0.00000146       0.00000090       1.81394625
Ti       2.13452770       8.53811081      12.13452770  F        2       0.00000068       0.00000165       0.04386717
Ti       0.00000000      10.67263851      12.13452770  F        2       0.00000228      -0.00000474       0.04386929
Ti       2.13452770      10.67263851      10.00000000  F        2       0.00000064      -0.00000349       1.81394696
N        0.00000000      10.67263851      10.00000000  F        2       0.00000191      -0.00000414      -0.88144612
N        2.13452770       8.53811081      10.00000000  F        2       0.00000043       0.00000159      -0.88144559
N        0.00000000       8.53811081      12.13452770  F        2       0.00000207       0.00000222      -0.97649926
N        2.13452770      10.67263851      12.13452770  F        2       0.00000107      -0.00000615      -0.97649902
Ti       0.00000037       8.53811098      14.24025197  T        1      -0.00000419      -0.00000378       0.00016098
Ti       2.13452781       8.53811082      16.26760534  T        1      -0.00000167      -0.00000175      -0.00035131
Ti       0.00000030      10.67263838      16.26760518  T        1      -0.00000158       0.00000019      -0.00034931
Ti       2.13452774      10.67263838      14.24025194  T        1       0.00000208       0.00000762       0.00015958
N        0.00000030      10.67263837      14.27168311  T        1      -0.00000024       0.00000785      -0.00039639
N        2.13452781       8.53811095      14.27168282  T        1      -0.00000148      -0.00000321      -0.00039837
N        0.00000023       8.53811051      16.41432996  T        1      -0.00000016      -0.00000167       0.00071871
N        2.13452786      10.67263833      16.41433007  T        1      -0.00000330       0.00000292       0.00071928
Ti       4.26905541       0.00000000      10.00000000  F        2       0.00000040       0.00000141       1.81394517
Ti       6.40358311       0.00000000      12.13452770  F        2      -0.00000156       0.00000225       0.04387102
Ti       4.26905541       2.13452770      12.13452770  F        2       0.00000024      -0.00000015       0.04386877
Ti       6.40358311       2.13452770      10.00000000  F        2      -0.00000013       0.00000003       1.81394732
N        4.26905541       2.13452770      10.00000000  F        2      -0.00000002      -0.00000013      -0.88144583
N        6.40358311       0.00000000      10.00000000  F        2       0.00000088       0.00000110      -0.88144636
N        4.26905541       0.00000000      12.13452770  F        2       0.00000048       0.00000165      -0.97649556
N        6.40358311       2.13452770      12.13452770  F        2       0.00000064       0.00000078      -0.97649980
Ti       4.26905547       0.00000030      14.24025244  T        1       0.00000183       0.00000202       0.00014940
Ti       6.40358305       0.00000028      16.26760569  T        1       0.00000172      -0.00000084      -0.00035243
Ti       4.26905539       2.13452783      16.26760546  T        1       0.00000089      -0.00000024      -0.00035179
Ti       6.40358311       2.13452776      14.24025184  T        1       0.00000148       0.00000381       0.00016044
N        4.26905541       2.13452782      14.27168296  T        1       0.00000086      -0.00000292      -0.00039667
N        6.40358312       0.00000029      14.27168298  T        1       0.00000013      -0.00000486      -0.00039607
N        4.26905553       0.00000017      16.41432987  T        1       0.00000084       0.00000054       0.00071972
N        6.40358296       2.13452783      16.41432977  T        1      -0.00000084      -0.00000224       0.00071819
Ti       4.26905541       4.26905541      10.00000000  F        2       0.00000055       0.00000055       1.81394732
Ti       6.40358311       4.26905541      12.13452770  F        2      -0.00000045       0.00000107       0.04386926
Ti       4.26905541       6.40358311      12.13452770  F        2       0.00000139      -0.00000072       0.04386986
Ti       6.40358311       6.40358311      10.00000000  F        2      -0.00000022      -0.00000013       1.81394553
N        4.26905541       6.40358311      10.00000000  F        2      -0.00000017       0.00000075      -0.88144612
N        6.40358311       4.26905541      10.00000000  F        2       0.00000088       0.00000005      -0.88144535
N        4.26905541       4.26905541      12.13452770  F        2       0.00000032       0.00000027      -0.97649950
N        6.40358311       6.40358311      12.13452770  F        2       0.00000037       0.00000093      -0.97649622
Ti       4.26905546       4.26905540      14.24025194  T        1      -0.00000070       0.00000179       0.00016089
Ti       6.40358306       4.26905550      16.26760547  T        1       0.00000000       0.00000008      -0.00035307
Ti       4.26905537       6.40358308      16.26760543  T        1      -0.00000051      -0.00000075      -0.00035251
Ti       6.40358319       6.40358306      14.24025205  T        1       0.00000087       0.00000138       0.00014863
N        4.26905547       6.40358324      14.27168286  T        1       0.00000124       0.00000062      -0.00039759
N        6.40358323       4.26905541      14.27168293  T        1       0.00000004       0.00000131      -0.00039747
N        4.26905557       4.26905549      16.41432963  T        1       0.00000068       0.00000136       0.00071847
N        6.40358303       6.40358303      16.41432976  T        1      -0.00000130       0.00000064       0.00072080
Ti       4.26905541       8.53811081      10.00000000  F        2       0.00000016       0.00000119       1.81394732
Ti       6.40358311       8.53811081      12.13452770  F        2      -0.00000051       0.00000059       0.04386891
Ti       4.26905541      10.67263851      12.13452770  F        2       0.00000115      -0.00000367       0.04386938
Ti       6.40358311      10.67263851      10.00000000  F        2      -0.00000004      -0.00000318       1.81394684
N        4.26905541      10.67263851      10.00000000  F        2      -0.00000056      -0.00000424      -0.88144583
N        6.40358311       8.53811081      10.00000000  F        2       0.00000137       0.00000225      -0.88144499
N        4.26905541       8.53811081      12.13452770  F        2       0.00000014       0.00000200      -0.97649926
N        6.40358311      10.67263851      12.13452770  F        2       0.00000065      -0.00000610      -0.97649866
Ti       4.26905551       8.53811092      14.24025196  T        1       0.00000272       0.00000078       0.00015878
Ti       6.40358304       8.53811074      16.26760515  T        1      -0.00000018       0.00000069      -0.00035171
Ti       4.26905542      10.67263830      16.26760566  T        1       0.00000067       0.00000513      -0.00035243
Ti       6.40358323      10.67263840      14.24025188  T        1      -0.00000042       0.00000791       0.00016095
N        4.26905549      10.67263852      14.27168282  T        1       0.00000078      -0.00000956      -0.00039673
N        6.40358316       8.53811095      14.27168294  T        1      -0.00000027      -0.00000244      -0.00039777
N        4.26905549       8.53811059      16.41432975  T        1       0.00000216      -0.00000128       0.00071908
N        6.40358297      10.67263850      16.41433000  T        1       0.00000020      -0.00000692       0.00071797
Ti       8.53811081       0.00000000      10.00000000  F        2       0.00000094       0.00000119       1.81394660
Ti      10.67263851       0.00000000      12.13452770  F        2      -0.00000419       0.00000323       0.04387175
Ti       8.53811081       2.13452770      12.13452770  F        2       0.00000272      -0.00000014       0.04386760
Ti      10.67263851       2.13452770      10.00000000  F        2      -0.00000325       0.00000049       1.81394565
N        8.53811081       2.13452770      10.00000000  F        2       0.00000214       0.00000085      -0.88144499
N       10.67263851       0.00000000      10.00000000  F        2      -0.00000438       0.00000154      -0.88144565
N        8.53811081       0.00000000      12.13452770  F        2       0.00000240       0.00000224      -0.97649831
N       10.67263851       2.13452770      12.13452770  F        2      -0.00000640       0.00000093      -0.97649556
Ti       8.53811111       0.00000030      14.24025196  T        1      -0.00000354      -0.00000453       0.00016129
Ti      10.67263834       0.00000029      16.26760530  T        1       0.00000175      -0.00000203      -0.00035139
Ti       8.53811083       2.13452783      16.26760528  T        1      -0.00000269      -0.00000142      -0.00035115
Ti      10.67263840       2.13452774      14.24025211  T        1       0.00000754       0.00000256       0.00014655
N        8.53811096       2.13452780      14.27168281  T        1      -0.00000290       0.00000254      -0.00039781
N       10.67263839       0.00000030      14.27168303  T        1       0.00000807      -0.00000453      -0.00039481
N        8.53811059       0.00000018      16.41433002  T        1      -0.00000104      -0.00000063       0.00071821
N       10.67263835       2.13452783      16.41433007  T        1       0.00000297      -0.00000302       0.00072068
Ti       8.53811081       4.26905541      10.00000000  F        2       0.00000104      -0.00000001       1.81394744
Ti      10.67263851       4.26905541      12.13452770  F        2      -0.00000346      -0.00000080       0.04387027
Ti       8.53811081       6.40358311      12.13452770  F        2       0.00000067      -0.00000080       0.04386906
Ti      10.67263851       6.40358311      10.00000000  F        2      -0.00000290       0.00000029       1.81394660
N        8.53811081       6.40358311      10.00000000  F        2       0.00000169       0.00000109      -0.88144523
N       10.67263851       4.26905541      10.00000000  F        2      -0.00000403      -0.00000008      -0.88144499
N        8.53811081       4.26905541      12.13452770  F        2       0.00000221      -0.00000001      -0.97649890
N       10.67263851       6.40358311      12.13452770  F        2      -0.00000653       0.00000055      -0.97649890
Ti       8.53811097       4.26905542      14.24025188  T        1       0.00000167       0.00000033       0.00015902
Ti      10.67263829       4.26905534      16.26760554  T        1       0.00000373       0.00000258      -0.00035155
Ti       8.53811057       6.40358298      16.26760522  T        1      -0.00000065       0.00000034      -0.00035275
Ti      10.67263833       6.40358314      14.24025186  T        1       0.00000710       0.00000015       0.00016116
N        8.53811096       6.40358325      14.27168296  T        1      -0.00000272      -0.00000167      -0.00039795
N       10.67263851       4.26905548      14.27168281  T        1      -0.00000993       0.00000063      -0.00039703
N        8.53811069       4.26905552      16.41432971  T        1      -0.00000172       0.00000110       0.00071897
N       10.67263831       6.40358306      16.41433001  T        1       0.00000327      -0.00000042       0.00071908
Ti       8.53811081       8.53811081      10.00000000  F        2       0.00000133       0.00000095       1.81394756
Ti      10.67263851       8.53811081      12.13452770  F        2      -0.00000546       0.00000121       0.04386738
Ti       8.53811081      10.67263851      12.13452770  F        2       0.00000160      -0.00000611       0.04386865
Ti      10.67263851      10.67263851      10.00000000  F        2      -0.00000331      -0.00000326       1.81394660
N        8.53811081      10.67263851      10.00000000  F        2       0.00000172      -0.00000416      -0.88144511
N       10.67263851       8.53811081      10.00000000  F        2      -0.00000465       0.00000151      -0.88144535
N        8.53811081       8.53811081      12.13452770  F        2       0.00000162       0.00000204      -0.97649950
N       10.67263851      10.67263851      12.13452770  F        2      -0.00000579      -0.00000644      -0.97649813
Ti       8.53811106       8.53811095      14.24025185  T        1      -0.00000377      -0.00000278       0.00015698
Ti      10.67263837       8.53811069      16.26760537  T        1       0.00000294      -0.00000135      -0.00035251
Ti       8.53811083      10.67263837      16.26760532  T        1      -0.00000227       0.00000455      -0.00035395
Ti      10.67263843      10.67263839      14.24025197  T        1      -0.00000752       0.00000675       0.00015999
N        8.53811076      10.67263835      14.27168292  T        1       0.00000152       0.00000812      -0.00039703
N       10.67263839       8.53811088      14.27168285  T        1       0.00000765      -0.00000277      -0.00039753
N        8.53811076       8.53811061      16.41432982  T        1      -0.00000275      -0.00000112       0.00071918
N       10.67263833      10.67263839      16.41433001  T        1       0.00000405       0.00000297       0.00071908
