144
Lattice="12.867694737 0.0 0.0 0.0 12.867694737 0.0 0.0 0.0 26.4338473663" Properties=species:S:1:pos:R:3:move_mask:L:1:tags:I:1:forces:R:3 energy_ry=-660.15618159 energy_ev=-8981.882344707197 charge=0 spin=0 energy=-1346.785794615647 free_energy=-1346.785794615647 stress="0.06540632992982864 9.08272845823177e-10 -2.054627579184398e-09 9.08272845823177e-10 0.06540630757808685 4.091078587009633e-09 -2.054627579184398e-09 4.091078587009633e-09 0.017942538484930992" pbc="T T T"
V        0.00000000       0.00000000      10.00000000  F        2       0.00000032       0.00000041       2.33083010
V        2.14461579       0.00000000      12.14461579  F        2      -0.00000067       0.00000020      -0.84454799
V        0.00000000       2.14461579      12.14461579  F        2       0.00000030       0.00000006      -0.84454757
V        2.14461579       2.14461579      10.00000000  F        2      -0.00000049      -0.00000081       2.33082867
N        0.00000000       2.14461579      10.00000000  F        2       0.00000056      -0.00000005      -0.29673836
N        2.14461579       0.00000000      10.00000000  F        2      -0.00000108       0.00000078      -0.29673836
N        0.00000000       0.00000000      12.14461579  F        2       0.00000052       0.00000058      -1.18797505
N        2.14461579       2.14461579      12.14461579  F        2      -0.00000071      -0.00000131      -1.18797505
V       -0.00000021       0.00000003      14.22823369  T        1       0.00000268       0.00000008      -0.00358193
V        2.14461578      -0.00000027      16.07802138  T        1      -0.00000114       0.00000036       0.00084805
V       -0.00000020       2.14461608      16.07802197  T        1       0.00000003      -0.00000018       0.00084993
V        2.14461566       2.14461590      14.22823347  T        1       0.00000118      -0.00000255      -0.00358155
N       -0.00000003       2.14461588      14.18189586  T        1      -0.00000422       0.00000021       0.00059450
N        2.14461579      -0.00000016      14.18189586  T        1       0.00000182       0.00000044       0.00059533
N       -0.00000010      -0.00000006      16.29368931  T        1       0.00000084       0.00000127       0.00056924
N        2.14461586       2.14461577      16.29368908  T        1      -0.00000072       0.00000017       0.00056988
V        0.00000000       4.28923158      10.00000000  F        2       0.00000015      -0.00000040       2.33082891
V        2.14461579       4.28923158      12.14461579  F        2      -0.00000039      -0.00000088      -0.84454834
V        0.00000000       6.43384737      12.14461579  F        2       0.00000002       0.00000087      -0.84454894
V        2.14461579       6.43384737      10.00000000  F        2      -0.00000027      -0.00000010       2.33082938
N        0.00000000       6.43384737      10.00000000  F        2      -0.00000024       0.00000120      -0.29673836
N        2.14461579       4.28923158      10.00000000  F        2      -0.00000085       0.00000032      -0.29673842
N        0.00000000       4.28923158      12.14461579  F        2       0.00000085      -0.00000058      -1.18797493
N        2.14461579       6.43384737      12.14461579  F        2      -0.00000180       0.00000065      -1.18797350
V        0.00000011       4.28923154      14.22823358  T        1      -0.00000122      -0.00000028      -0.00358405
V        2.14461606       4.28923192      16.07802165  T        1       0.00000011       0.00000049       0.00085157
V        0.00000007       6.43384668      16.07802163  T        1      -0.00000013      -0.00000143       0.00084985
V        2.14461607       6.43384715      14.22823376  T        1      -0.00000274       0.00000152      -0.00358285
N       -0.00000029       6.43384748      14.18189599  T        1      -0.00000118       0.00000091       0.00059494
N        2.14461585       4.28923152      14.18189602  T        1      -0.00000068       0.00000216       0.00059432
N       -0.00000026       4.28923169      16.29368908  T        1      -0.00000016      -0.00000010       0.00057212
N        2.14461578       6.43384739      16.29368902  T        1      -0.00000127       0.00000242       0.00057040
V        0.00000000       8.57846316      10.00000000  F        2      -0.00000021      -0.00000020       2.33082867
V        2.14461579       8.57846316      12.14461579  F        2      -0.00000105      -0.00000072      -0.84454823
V        0.00000000      10.72307895      12.14461579  F        2      -0.00000037      -0.00000021      -0.84454745
V        2.14461579      10.72307895      10.00000000  F        2       0.00000065       0.00000073       2.33082771
N        0.00000000      10.72307895      10.00000000  F        2       0.00000026       0.00000150      -0.29673877
N        2.14461579       8.57846316      10.00000000  F        2      -0.00000022      -0.00000205      -0.29673919
N        0.00000000       8.57846316      12.14461579  F        2      -0.00000031      -0.00000328      -1.18797207
N        2.14461579      10.72307895      12.14461579  F        2      -0.00000136       0.00000319      -1.18797374
V       -0.00000003       8.57846339      14.22823383  T        1      -0.00000267      -0.00000052      -0.00359139
V        2.14461567       8.57846353      16.07802195  T        1       0.00000007       0.00000246       0.00085301
V        0.00000016      10.72307868      16.07802165  T        1       0.00000084       0.00000125       0.00085109
V        2.14461592      10.72307906      14.22823361  T        1      -0.00000024       0.00000381      -0.00358335
N        0.00000002      10.72307900      14.18189640  T        1       0.00000059       0.00000316       0.00059403
N        2.14461568       8.57846335      14.18189584  T        1       0.00000383      -0.00000650       0.00059465
N       -0.00000036       8.57846319      16.29368885  T        1       0.00000733      -0.00000293       0.00057304
N        2.14461583      10.72307922      16.29368927  T        1      -0.00000083      -0.00000408       0.00057144
V        4.28923158       0.00000000      10.00000000  F        2      -0.00000032       0.00000004       2.33082914
V        6.43384737       0.00000000      12.14461579  F        2       0.00000047       0.00000012      -0.84455442
V        4.28923158       2.14461579      12.14461579  F        2      -0.00000012      -0.00000034      -0.84454685
V        6.43384737       2.14461579      10.00000000  F        2       0.00000004      -0.00000039       2.33082914
N        4.28923158       2.14461579      10.00000000  F        2       0.00000022      -0.00000061      -0.29673898
N        6.43384737       0.00000000      10.00000000  F        2      -0.00000059      -0.00000029      -0.29673979
N        4.28923158       0.00000000      12.14461579  F        2      -0.00000075       0.00000092      -1.18797588
N        6.43384737       2.14461579      12.14461579  F        2      -0.00000006      -0.00000031      -1.18797457
V        4.28923160      -0.00000019      14.22823352  T        1      -0.00000098       0.00000218      -0.00358421
V        6.43384678       0.00000060      16.07802221  T        1      -0.00000068       0.00000193       0.00084097
V        4.28923226       2.14461574      16.07802233  T        1       0.00000005      -0.00000100       0.00084845
V        6.43384732       2.14461571      14.22823345  T        1       0.00000127      -0.00000026      -0.00358445
N        4.28923143       2.14461584      14.18189581  T        1       0.00000268       0.00000032       0.00059530
N        6.43384743       0.00000018      14.18189560  T        1       0.00000021      -0.00000209       0.00061349
N        4.28923159      -0.00000030      16.29368933  T        1      -0.00000012      -0.00000046       0.00057220
N        6.43384757       2.14461587      16.29368889  T        1       0.00000050      -0.00000141       0.00057220
V        4.28923158       4.28923158      10.00000000  F        2       0.00000008      -0.00000001       2.33082867
V        6.43384737       4.28923158      12.14461579  F        2       0.00000016       0.00000074      -0.84454918
V        4.28923158       6.43384737      12.14461579  F        2      -0.00000006       0.00000056      -0.84454852
V        6.43384737       6.43384737      10.00000000  F        2      -0.00000068      -0.00000056       2.33082986
N        4.28923158       6.43384737      10.00000000  F        2       0.00000125       0.00000105      -0.29673865
N        6.43384737       4.28923158      10.00000000  F        2      -0.00000011      -0.00000007      -0.29673895
N        4.28923158       4.28923158      12.14461579  F        2      -0.00000029      -0.00000014      -1.18797493
N        6.43384737       6.43384737      12.14461579  F        2       0.00000114       0.00000077      -1.18797374
V        4.28923146       4.28923183      14.22823346  T        1       0.00000063      -0.00000069      -0.00358351
V        6.43384675       4.28923165      16.07802168  T        1      -0.00000062       0.00000016       0.00085013
V        4.28923186       6.43384721      16.07802145  T        1       0.00000098      -0.00000007       0.00085005
V        6.43384752       6.43384728      14.22823350  T        1      -0.00000013      -0.00000055      -0.00358299
N        4.28923149       6.43384742      14.18189605  T        1       0.00000320       0.00000268       0.00059375
N        6.43384748       4.28923136      14.18189616  T        1       0.00000035       0.00000169       0.00059456
N        4.28923156       4.28923157      16.29368956  T        1      -0.00000036       0.00000020       0.00057236
N        6.43384733       6.43384750      16.29368921  T        1       0.00000038       0.00000026       0.00057096
V        4.28923158       8.57846316      10.00000000  F        2      -0.00000064       0.00000030       2.33082867
V        6.43384737       8.57846316      12.14461579  F        2       0.00000033      -0.00000071      -0.84454811
V        4.28923158      10.72307895      12.14461579  F        2      -0.00000006       0.00000111      -0.84455246
V        6.43384737      10.72307895      10.00000000  F        2      -0.00000040       0.00000031       2.33082867
N        4.28923158      10.72307895      10.00000000  F        2       0.00000032       0.00000210      -0.29674080
N        6.43384737       8.57846316      10.00000000  F        2       0.00000048      -0.00000207      -0.29673892
N        4.28923158       8.57846316      12.14461579  F        2       0.00000051      -0.00000351      -1.18797386
N        6.43384737      10.72307895      12.14461579  F        2       0.00000101       0.00000302      -1.18797529
V        4.28923155       8.57846309      14.22823364  T        1      -0.00000108       0.00000149      -0.00358365
V        6.43384706       8.57846342      16.07802143  T        1       0.00000030       0.00000044       0.00084933
V        4.28923175      10.72307859      16.07802200  T        1       0.00000078      -0.00000077       0.00084101
V        6.43384728      10.72307906      14.22823369  T        1      -0.00000032       0.00000293      -0.00358131
N        4.28923160      10.72307928      14.18189543  T        1      -0.00000057      -0.00000506       0.00061254
N        6.43384727       8.57846321      14.18189624  T        1       0.00000003      -0.00000442       0.00059291
N        4.28923191       8.57846317      16.29368958  T        1      -0.00000178      -0.00000177       0.00057204
N        6.43384745      10.72307911      16.29368924  T        1       0.00000008       0.00000346       0.00056956
V        8.57846316       0.00000000      10.00000000  F        2      -0.00000036       0.00000024       2.33082938
V       10.72307895       0.00000000      12.14461579  F        2       0.00000156       0.00000052      -0.84454745
V        8.57846316       2.14461579      12.14461579  F        2      -0.00000096       0.00000003      -0.84455293
V       10.72307895       2.14461579      10.00000000  F        2       0.00000006      -0.00000067       2.33082819
N        8.57846316       2.14461579      10.00000000  F        2      -0.00000171      -0.00000012      -0.29674047
N       10.72307895       0.00000000      10.00000000  F        2       0.00000239       0.00000016      -0.29673937
N        8.57846316       0.00000000      12.14461579  F        2      -0.00000237      -0.00000078      -1.18797457
N       10.72307895       2.14461579      12.14461579  F        2       0.00000421      -0.00000140      -1.18797493
V        8.57846307       0.00000019      14.22823359  T        1       0.00000301       0.00000038      -0.00358455
V       10.72307853       0.00000042      16.07802168  T        1       0.00000082       0.00000084       0.00084901
V        8.57846369       2.14461546      16.07802184  T        1       0.00000163      -0.00000142       0.00083993
V       10.72307905       2.14461575      14.22823348  T        1       0.00000272       0.00000296      -0.00358237
N        8.57846340       2.14461597      14.18189560  T        1      -0.00000436      -0.00000034       0.00061296
N       10.72307931      -0.00000018      14.18189628  T        1      -0.00000556      -0.00000290       0.00059457
N        8.57846314      -0.00000028      16.29368921  T        1      -0.00000466      -0.00000015       0.00057128
N       10.72307899       2.14461580      16.29368949  T        1       0.00000185       0.00000133       0.00057120
V        8.57846316       4.28923158      10.00000000  F        2       0.00000069      -0.00000029       2.33082867
V       10.72307895       4.28923158      12.14461579  F        2       0.00000107      -0.00000060      -0.84455156
V        8.57846316       6.43384737      12.14461579  F        2      -0.00000126      -0.00000028      -0.84454829
V       10.72307895       6.43384737      10.00000000  F        2       0.00000046      -0.00000089       2.33082819
N        8.57846316       6.43384737      10.00000000  F        2      -0.00000215       0.00000098      -0.29673919
N       10.72307895       4.28923158      10.00000000  F        2       0.00000179       0.00000105      -0.29674059
N        8.57846316       4.28923158      12.14461579  F        2      -0.00000409       0.00000062      -1.18797600
N       10.72307895       6.43384737      12.14461579  F        2       0.00000383       0.00000136      -1.18797421
V        8.57846334       4.28923171      14.22823362  T        1      -0.00000073      -0.00000121      -0.00358133
V       10.72307861       4.28923184      16.07802200  T        1      -0.00000051      -0.00000029       0.00083913
V        8.57846373       6.43384722      16.07802164  T        1       0.00000159      -0.00000015       0.00085009
V       10.72307903       6.43384736      14.22823370  T        1       0.00000225       0.00000046      -0.00358233
N        8.57846321       6.43384751      14.18189613  T        1      -0.00000472       0.00000117       0.00059302
N       10.72307910       4.28923155      14.18189546  T        1       0.00000450      -0.00000025       0.00061230
N        8.57846313       4.28923156      16.29368909  T        1      -0.00000333      -0.00000009       0.00056976
N       10.72307915       6.43384719      16.29368933  T        1       0.00000215       0.00000012       0.00057124
V        8.57846316       8.57846316      10.00000000  F        2       0.00000078       0.00000021       2.33082914
V       10.72307895       8.57846316      12.14461579  F        2       0.00000137      -0.00000009      -0.84454811
V        8.57846316      10.72307895      12.14461579  F        2      -0.00000038       0.00000040      -0.84454900
V       10.72307895      10.72307895      10.00000000  F        2       0.00000021      -0.00000047       2.33082724
N        8.57846316      10.72307895      10.00000000  F        2      -0.00000237       0.00000281      -0.29673907
N       10.72307895       8.57846316      10.00000000  F        2       0.00000209      -0.00000213      -0.29673943
N        8.57846316       8.57846316      12.14461579  F        2      -0.00000439      -0.00000317      -1.18797457
N       10.72307895      10.72307895      12.14461579  F        2       0.00000337       0.00000334      -1.18797421
V        8.57846326       8.57846333      14.22823371  T        1      -0.00000090      -0.00000081      -0.00358177
V       10.72307840       8.57846371      16.07802151  T        1      -0.00000254       0.00000160       0.00085157
V        8.57846368      10.72307830      16.07802185  T        1       0.00000218      -0.00000149       0.00085141
V       10.72307919      10.72307901      14.22823368  T        1       0.00000267       0.00000236      -0.00358235
N        8.57846315      10.72307906      14.18189599  T        1      -0.00000344       0.00000337       0.00059298
N       10.72307910       8.57846316      14.18189599  T        1       0.00000241      -0.00000478       0.00059347
N        8.57846316       8.57846316      16.29368944  T        1      -0.00000364      -0.00000191       0.00057232
N       10.72307918      10.72307923      16.29368937  T        1       0.00000168      -0.00000318       0.00057192
