144
Lattice="13.768489679999998 0.0 0.0 0.0 13.768489679999998 0.0 0.0 0.0 26.8842448411" Properties=species:S:1:pos:R:3:move_mask:L:1:tags:I:1:forces:R:3 energy_ry=-477.61532343 energy_ev=-6498.287466982824 charge=0 spin=0 energy=-1433.6073307788613 free_energy=-1433.6073307788613 stress="0.0159335695207119 -5.632979083181056e-10 1.9498727077404965e-09 -5.632979083181056e-10 0.01593354530632496 2.153254685666184e-09 1.9498727077404965e-09 2.153254685666184e-09 0.006735191680490971" pbc="T T T"
Zr       0.00000000       0.00000000      10.00000000  F        2      -0.00000032      -0.00000017       1.46791196
Zr       2.29474828       0.00000000      12.29474828  F        2       0.00000005      -0.00000005       0.19185397
Zr       0.00000000       2.29474828      12.29474828  F        2       0.00000006      -0.00000016       0.19185342
Zr       2.29474828       2.29474828      10.00000000  F        2       0.00000038       0.00000001       1.46791196
N        0.00000000       2.29474828      10.00000000  F        2       0.00000008       0.00000005      -0.64272523
N        2.29474828       0.00000000      10.00000000  F        2      -0.00000008       0.00000009      -0.64272523
N        0.00000000       0.00000000      12.29474828  F        2       0.00000007       0.00000025      -1.01464617
N        2.29474828       2.29474828      12.29474828  F        2      -0.00000019       0.00000008      -1.01464570
Zr       0.00000004      -0.00000006      14.57909483  T        1      -0.00000028      -0.00000039      -0.00429176
Zr       2.29474829      -0.00000012      16.79555442  T        1      -0.00000032       0.00000035       0.00246679
Zr      -0.00000002       2.29474836      16.79555454  T        1       0.00000011      -0.00000055       0.00246679
Zr       2.29474835       2.29474820      14.57909504  T        1       0.00000019      -0.00000001      -0.00429601
N        0.00000003       2.29474831      14.63101160  T        1       0.00000031       0.00000074       0.00526924
N        2.29474830       0.00000005      14.63101170  T        1       0.00000001       0.00000006       0.00526938
N       -0.00000005      -0.00000003      16.92059234  T        1      -0.00000007       0.00000010      -0.00584210
N        2.29474828       2.29474832      16.92059218  T        1       0.00000057       0.00000093      -0.00583081
Zr       0.00000000       4.58949656      10.00000000  F        2      -0.00000022      -0.00000003       1.46791220
Zr       2.29474828       4.58949656      12.29474828  F        2       0.00000020      -0.00000038       0.19185334
Zr       0.00000000       6.88424484      12.29474828  F        2      -0.00000020      -0.00000004       0.19185604
Zr       2.29474828       6.88424484      10.00000000  F        2       0.00000037      -0.00000027       1.46791232
N        0.00000000       6.88424484      10.00000000  F        2       0.00000013      -0.00000004      -0.64272517
N        2.29474828       4.58949656      10.00000000  F        2       0.00000015      -0.00000010      -0.64272565
N        0.00000000       4.58949656      12.29474828  F        2       0.00000003      -0.00000030      -1.01464653
N        2.29474828       6.88424484      12.29474828  F        2       0.00000019       0.00000011      -1.01464653
Zr       0.00000000       4.58949655      14.57909483  T        1       0.00000033      -0.00000344      -0.00429358
Zr       2.29474827       4.58949656      16.79555450  T        1      -0.00000302       0.00000043       0.00246391
Zr      -0.00000004       6.88424490      16.79555356  T        1      -0.00000259       0.00000006       0.00250039
Zr       2.29474820       6.88424476      14.57909487  T        1       0.00000317      -0.00000059      -0.00429767
N        0.00000009       6.88424486      14.63101210  T        1       0.00000047       0.00000020       0.00525617
N        2.29474831       4.58949675      14.63101165  T        1       0.00000033      -0.00000021       0.00526926
N       -0.00000004       4.58949657      16.92059238  T        1      -0.00000010      -0.00000111      -0.00584471
N        2.29474831       6.88424485      16.92059230  T        1       0.00000146      -0.00000009      -0.00583307
Zr       0.00000000       9.17899312      10.00000000  F        2      -0.00000021       0.00000009       1.46791196
Zr       2.29474828       9.17899312      12.29474828  F        2       0.00000019      -0.00000010       0.19185331
Zr       0.00000000      11.47374140      12.29474828  F        2       0.00000005      -0.00000034       0.19185361
Zr       2.29474828      11.47374140      10.00000000  F        2       0.00000004       0.00000006       1.46791196
N        0.00000000      11.47374140      10.00000000  F        2      -0.00000008       0.00000005      -0.64272559
N        2.29474828       9.17899312      10.00000000  F        2      -0.00000014       0.00000037      -0.64272565
N        0.00000000       9.17899312      12.29474828  F        2      -0.00000042       0.00000058      -1.01464641
N        2.29474828      11.47374140      12.29474828  F        2      -0.00000018       0.00000003      -1.01464570
Zr       0.00000001       9.17899294      14.57909510  T        1      -0.00000009       0.00000320      -0.00429383
Zr       2.29474831       9.17899315      16.79555446  T        1      -0.00000334      -0.00000090       0.00246415
Zr       0.00000011      11.47374138      16.79555453  T        1      -0.00000045       0.00000043       0.00246679
Zr       2.29474830      11.47374127      14.57909501  T        1       0.00000012      -0.00000002      -0.00429592
N       -0.00000000      11.47374149      14.63101171  T        1       0.00000015      -0.00000037       0.00526878
N        2.29474826       9.17899315      14.63101164  T        1       0.00000025       0.00000021       0.00526904
N       -0.00000003       9.17899308      16.92059233  T        1       0.00000090       0.00000133      -0.00584466
N        2.29474832      11.47374148      16.92059220  T        1       0.00000049      -0.00000029      -0.00583100
Zr       4.58949656       0.00000000      10.00000000  F        2      -0.00000004       0.00000026       1.46791196
Zr       6.88424484       0.00000000      12.29474828  F        2      -0.00000013      -0.00000018       0.19185625
Zr       4.58949656       2.29474828      12.29474828  F        2      -0.00000001       0.00000006       0.19185390
Zr       6.88424484       2.29474828      10.00000000  F        2      -0.00000009      -0.00000013       1.46791196
N        4.58949656       2.29474828      10.00000000  F        2      -0.00000002       0.00000003      -0.64272565
N        6.88424484       0.00000000      10.00000000  F        2       0.00000016      -0.00000028      -0.64272541
N        4.58949656       0.00000000      12.29474828  F        2      -0.00000045       0.00000001      -1.01464617
N        6.88424484       2.29474828      12.29474828  F        2       0.00000010       0.00000030      -1.01464617
Zr       4.58949666      -0.00000015      14.57909484  T        1      -0.00000290      -0.00000027      -0.00429337
Zr       6.88424482       0.00000003      16.79555369  T        1       0.00000030      -0.00000035       0.00250271
Zr       4.58949658       2.29474830      16.79555454  T        1       0.00000291      -0.00000322       0.00246671
Zr       6.88424480       2.29474821      14.57909485  T        1      -0.00000001       0.00000303      -0.00429396
N        4.58949655       2.29474831      14.63101168  T        1      -0.00000078       0.00000061       0.00526838
N        6.88424483       0.00000007      14.63101198  T        1       0.00000011       0.00000029       0.00525619
N        4.58949658       0.00000004      16.92059233  T        1      -0.00000202       0.00000017      -0.00584565
N        6.88424475       2.29474824      16.92059232  T        1       0.00000061       0.00000177      -0.00584523
Zr       4.58949656       4.58949656      10.00000000  F        2      -0.00000010      -0.00000008       1.46791196
Zr       6.88424484       4.58949656      12.29474828  F        2      -0.00000034      -0.00000054       0.19185327
Zr       4.58949656       6.88424484      12.29474828  F        2      -0.00000008       0.00000021       0.19185334
Zr       6.88424484       6.88424484      10.00000000  F        2      -0.00000018      -0.00000015       1.46791136
N        4.58949656       6.88424484      10.00000000  F        2      -0.00000045       0.00000018      -0.64272541
N        6.88424484       4.58949656      10.00000000  F        2      -0.00000049       0.00000045      -0.64272487
N        4.58949656       4.58949656      12.29474828  F        2      -0.00000037       0.00000008      -1.01464617
N        6.88424484       6.88424484      12.29474828  F        2      -0.00000021       0.00000044      -1.01464629
Zr       4.58949659       4.58949649      14.57909510  T        1      -0.00000052      -0.00000048      -0.00429551
Zr       6.88424480       4.58949649      16.79555450  T        1       0.00000092       0.00000043       0.00246719
Zr       4.58949657       6.88424486      16.79555451  T        1       0.00000281      -0.00000009       0.00246447
Zr       6.88424498       6.88424473      14.57909485  T        1      -0.00000277      -0.00000025      -0.00429372
N        4.58949649       6.88424489      14.63101167  T        1      -0.00000060       0.00000030       0.00526936
N        6.88424482       4.58949665      14.63101172  T        1      -0.00000013      -0.00000018       0.00526882
N        4.58949663       4.58949656      16.92059216  T        1      -0.00000089      -0.00000055      -0.00583040
N        6.88424487       6.88424493      16.92059231  T        1      -0.00000178      -0.00000027      -0.00584487
Zr       4.58949656       9.17899312      10.00000000  F        2      -0.00000021      -0.00000006       1.46791196
Zr       6.88424484       9.17899312      12.29474828  F        2      -0.00000015       0.00000008       0.19185425
Zr       4.58949656      11.47374140      12.29474828  F        2       0.00000021      -0.00000038       0.19185376
Zr       6.88424484      11.47374140      10.00000000  F        2      -0.00000064       0.00000022       1.46791148
N        4.58949656      11.47374140      10.00000000  F        2       0.00000059       0.00000004      -0.64272577
N        6.88424484       9.17899312      10.00000000  F        2       0.00000048      -0.00000002      -0.64272535
N        4.58949656       9.17899312      12.29474828  F        2       0.00000021       0.00000040      -1.01464617
N        6.88424484      11.47374140      12.29474828  F        2       0.00000021      -0.00000038      -1.01464593
Zr       4.58949661       9.17899307      14.57909504  T        1       0.00000002       0.00000032      -0.00429568
Zr       6.88424479       9.17899310      16.79555442  T        1       0.00000348      -0.00000085       0.00246895
Zr       4.58949650      11.47374132      16.79555447  T        1       0.00000327       0.00000322       0.00246623
Zr       6.88424478      11.47374142      14.57909488  T        1      -0.00000047      -0.00000347      -0.00429368
N        4.58949657      11.47374149      14.63101165  T        1      -0.00000050      -0.00000018       0.00526878
N        6.88424481       9.17899317      14.63101171  T        1      -0.00000006       0.00000033       0.00526882
N        4.58949645       9.17899309      16.92059225  T        1      -0.00000167       0.00000080      -0.00583042
N        6.88424477      11.47374139      16.92059235  T        1      -0.00000064      -0.00000118      -0.00584575
Zr       9.17899312       0.00000000      10.00000000  F        2       0.00000019       0.00000012       1.46791172
Zr      11.47374140       0.00000000      12.29474828  F        2      -0.00000014       0.00000005       0.19185138
Zr       9.17899312       2.29474828      12.29474828  F        2       0.00000012      -0.00000020       0.19185346
Zr      11.47374140       2.29474828      10.00000000  F        2      -0.00000004      -0.00000026       1.46791196
N        9.17899312       2.29474828      10.00000000  F        2      -0.00000032       0.00000003      -0.64272517
N       11.47374140       0.00000000      10.00000000  F        2       0.00000008       0.00000072      -0.64272624
N        9.17899312       0.00000000      12.29474828  F        2       0.00000054       0.00000022      -1.01464605
N       11.47374140       2.29474828      12.29474828  F        2      -0.00000000       0.00000033      -1.01464570
Zr       9.17899297      -0.00000010      14.57909488  T        1       0.00000337      -0.00000045      -0.00429324
Zr      11.47374145       0.00000011      16.79555462  T        1       0.00000028      -0.00000052       0.00246048
Zr       9.17899317       2.29474828      16.79555459  T        1      -0.00000321      -0.00000379       0.00246623
Zr      11.47374137       2.29474824      14.57909510  T        1      -0.00000019      -0.00000082      -0.00429583
N        9.17899310       2.29474836      14.63101157  T        1       0.00000037       0.00000072       0.00526844
N       11.47374138       0.00000006      14.63101138  T        1      -0.00000026       0.00000035       0.00527938
N        9.17899310       0.00000006      16.92059233  T        1       0.00000213       0.00000009      -0.00584517
N       11.47374142       2.29474828      16.92059215  T        1      -0.00000105       0.00000073      -0.00583032
Zr       9.17899312       4.58949656      10.00000000  F        2       0.00000049      -0.00000025       1.46791184
Zr      11.47374140       4.58949656      12.29474828  F        2       0.00000022      -0.00000008       0.19185352
Zr       9.17899312       6.88424484      12.29474828  F        2       0.00000009      -0.00000027       0.19185622
Zr      11.47374140       6.88424484      10.00000000  F        2      -0.00000021      -0.00000005       1.46791232
N        9.17899312       6.88424484      10.00000000  F        2       0.00000027       0.00000028      -0.64272559
N       11.47374140       4.58949656      10.00000000  F        2       0.00000028       0.00000039      -0.64272588
N        9.17899312       4.58949656      12.29474828  F        2       0.00000038      -0.00000019      -1.01464677
N       11.47374140       6.88424484      12.29474828  F        2       0.00000002       0.00000018      -1.01464653
Zr       9.17899313       4.58949657      14.57909488  T        1       0.00000026      -0.00000340      -0.00429741
Zr      11.47374152       4.58949656      16.79555458  T        1       0.00000278       0.00000372       0.00246615
Zr       9.17899316       6.88424486      16.79555364  T        1       0.00000008       0.00000240       0.00249967
Zr      11.47374130       6.88424471      14.57909510  T        1      -0.00000056      -0.00000023      -0.00429541
N        9.17899306       6.88424491      14.63101203  T        1       0.00000028       0.00000004       0.00525671
N       11.47374141       4.58949657      14.63101166  T        1      -0.00000045      -0.00000009       0.00526884
N        9.17899306       4.58949666      16.92059230  T        1       0.00000044      -0.00000040      -0.00583368
N       11.47374135       6.88424484      16.92059233  T        1      -0.00000028      -0.00000056      -0.00584792
Zr       9.17899312       9.17899312      10.00000000  F        2       0.00000036       0.00000007       1.46791172
Zr      11.47374140       9.17899312      12.29474828  F        2       0.00000033      -0.00000028       0.19185385
Zr       9.17899312      11.47374140      12.29474828  F        2      -0.00000023      -0.00000026       0.19185394
Zr      11.47374140      11.47374140      10.00000000  F        2       0.00000050      -0.00000009       1.46791196
N        9.17899312      11.47374140      10.00000000  F        2      -0.00000025       0.00000001      -0.64272541
N       11.47374140       9.17899312      10.00000000  F        2      -0.00000029      -0.00000050      -0.64272517
N        9.17899312       9.17899312      12.29474828  F        2       0.00000031       0.00000015      -1.01464593
N       11.47374140      11.47374140      12.29474828  F        2       0.00000003      -0.00000016      -1.01464546
Zr       9.17899307       9.17899282      14.57909486  T        1      -0.00000034       0.00000301      -0.00429388
Zr      11.47374149       9.17899302      16.79555452  T        1       0.00000005      -0.00000384       0.00246871
Zr       9.17899310      11.47374134      16.79555456  T        1      -0.00000298       0.00000079       0.00246895
Zr      11.47374134      11.47374127      14.57909481  T        1       0.00000022       0.00000035      -0.00429572
N        9.17899312      11.47374150      14.63101170  T        1       0.00000007      -0.00000002       0.00526858
N       11.47374144       9.17899323      14.63101170  T        1      -0.00000023       0.00000031       0.00526860
N        9.17899316       9.17899310      16.92059234  T        1       0.00000075       0.00000106      -0.00584547
N       11.47374136      11.47374142      16.92059228  T        1       0.00000023       0.00000034      -0.00583144
